* Signature: 0x30effe895b1fc564
NAME knapsack_20_1000_4
ROWS
 N  OBJ
 L  primal_upper
 L  primal_lower0
 L  primal_lower1
 L  primal_lower2
 L  primal_lower3
 L  primal_lower4
 L  primal_lower5
 L  primal_lower6
 L  primal_lower7
 L  primal_lower8
 L  primal_lower9
 L  primal_lower10
 L  primal_lower11
 L  primal_lower12
 L  primal_lower13
 L  primal_lower14
 L  primal_lower15
 L  primal_lower16
 L  primal_lower17
 L  primal_lower18
 L  primal_lower19
 L  primal_lower20
 L  primal_lower21
 L  primal_lower22
 L  primal_lower23
 L  primal_lower24
 L  primal_lower25
 L  primal_lower26
 L  primal_lower27
 L  primal_lower28
 L  primal_lower29
 L  primal_lower30
 L  primal_lower31
 L  primal_lower32
 L  primal_lower33
 L  primal_lower34
 L  primal_lower35
 L  primal_lower36
 L  primal_lower37
 L  primal_lower38
 L  primal_lower39
 L  primal_lower40
 L  primal_lower41
 L  primal_lower42
 L  primal_lower43
 L  primal_lower44
 L  primal_lower45
 L  primal_lower46
 L  primal_lower47
 L  primal_lower48
 L  primal_lower49
 L  primal_lower50
 L  primal_lower51
 L  primal_lower52
 L  primal_lower53
 L  primal_lower54
 L  primal_lower55
 L  primal_lower56
 L  primal_lower57
 L  primal_lower58
 L  primal_lower59
 L  primal_lower60
 L  primal_lower61
 L  primal_lower62
 L  primal_lower63
 L  primal_lower64
 L  primal_lower65
 L  primal_lower66
 L  primal_lower67
 L  primal_lower68
 L  primal_lower69
 L  primal_lower70
 L  primal_lower71
 L  primal_lower72
 L  primal_lower73
 L  primal_lower74
 L  primal_lower75
 L  primal_lower76
 L  primal_lower77
 L  primal_lower78
 L  primal_lower79
 L  primal_lower80
 L  primal_lower81
 L  primal_lower82
 L  primal_lower83
 L  primal_lower84
 L  primal_lower85
 L  primal_lower86
 L  primal_lower87
 L  primal_lower88
 L  primal_lower89
 L  primal_lower90
 L  primal_lower91
 L  primal_lower92
 L  primal_lower93
 L  primal_lower94
 L  primal_lower95
 L  primal_lower96
 L  primal_lower97
 L  primal_lower98
 L  primal_lower99
 L  primal_lower100
 L  primal_lower101
 L  primal_lower102
 L  primal_lower103
 L  primal_lower104
 L  primal_lower105
 L  primal_lower106
 L  primal_lower107
 L  primal_lower108
 L  primal_lower109
 L  primal_lower110
 L  primal_lower111
 L  primal_lower112
 L  primal_lower113
 L  primal_lower114
 L  primal_lower115
 L  primal_lower116
 L  primal_lower117
 L  primal_lower118
 L  primal_lower119
 L  primal_lower120
 L  primal_lower121
 L  primal_lower122
 L  primal_lower123
 L  primal_lower124
 L  primal_lower125
 L  primal_lower126
 L  primal_lower127
 L  primal_lower128
 L  primal_lower129
 L  primal_lower130
 L  primal_lower131
 L  primal_lower132
 L  primal_lower133
 L  primal_lower134
 L  primal_lower135
 L  primal_lower136
 L  primal_lower137
 L  primal_lower138
 L  primal_lower139
 L  primal_lower140
 L  primal_lower141
 L  primal_lower142
 L  primal_lower143
 L  primal_lower144
 L  primal_lower145
 L  primal_lower146
 L  primal_lower147
 L  primal_lower148
 L  primal_lower149
 L  primal_lower150
 L  primal_lower151
 L  primal_lower152
 L  primal_lower153
 L  primal_lower154
 L  primal_lower155
 L  primal_lower156
 L  primal_lower157
 L  primal_lower158
 L  primal_lower159
 L  primal_lower160
 L  primal_lower161
 L  primal_lower162
 L  primal_lower163
 L  primal_lower164
 L  primal_lower165
 L  primal_lower166
 L  primal_lower167
 L  primal_lower168
 L  primal_lower169
 L  primal_lower170
 L  primal_lower171
 L  primal_lower172
 L  primal_lower173
 L  primal_lower174
 L  primal_lower175
 L  primal_lower176
 L  primal_lower177
 L  primal_lower178
 L  primal_lower179
 L  primal_lower180
 L  primal_lower181
 L  primal_lower182
 L  primal_lower183
 L  primal_lower184
 L  primal_lower185
 L  primal_lower186
 L  primal_lower187
 L  primal_lower188
 L  primal_lower189
 L  primal_lower190
 L  primal_lower191
 L  primal_lower192
 L  primal_lower193
 L  primal_lower194
 L  primal_lower195
 L  primal_lower196
 L  primal_lower197
 L  primal_lower198
 L  primal_lower199
 L  primal_lower200
 L  primal_lower201
 L  primal_lower202
 L  primal_lower203
 L  primal_lower204
 L  primal_lower205
 L  primal_lower206
 L  primal_lower207
 L  primal_lower208
 L  primal_lower209
 L  primal_lower210
 L  primal_lower211
 L  primal_lower212
 L  primal_lower213
 L  primal_lower214
 L  primal_lower215
 L  primal_lower216
 L  primal_lower217
 L  primal_lower218
 L  primal_lower219
 L  primal_lower220
 L  primal_lower221
 L  primal_lower222
 L  primal_lower223
 L  primal_lower224
 L  primal_lower225
 L  primal_lower226
 L  primal_lower227
 L  primal_lower228
 L  primal_lower229
 L  primal_lower230
 L  primal_lower231
 L  primal_lower232
 L  primal_lower233
 L  primal_lower234
 L  primal_lower235
 L  primal_lower236
 L  primal_lower237
 L  primal_lower238
 L  primal_lower239
 L  primal_lower240
 L  primal_lower241
 L  primal_lower242
 L  primal_lower243
 L  primal_lower244
 L  primal_lower245
 L  primal_lower246
 L  primal_lower247
 L  primal_lower248
 L  primal_lower249
 L  primal_lower250
 L  primal_lower251
 L  primal_lower252
 L  primal_lower253
 L  primal_lower254
 L  primal_lower255
 L  primal_lower256
 L  primal_lower257
 L  primal_lower258
 L  primal_lower259
 L  primal_lower260
 L  primal_lower261
 L  primal_lower262
 L  primal_lower263
 L  primal_lower264
 L  primal_lower265
 L  primal_lower266
 L  primal_lower267
 L  primal_lower268
 L  primal_lower269
 L  primal_lower270
 L  primal_lower271
 L  primal_lower272
 L  primal_lower273
 L  primal_lower274
 L  primal_lower275
 L  primal_lower276
 L  primal_lower277
 L  primal_lower278
 L  primal_lower279
 L  primal_lower280
 L  primal_lower281
 L  primal_lower282
 L  primal_lower283
 L  primal_lower284
 L  primal_lower285
 L  primal_lower286
 L  primal_lower287
 L  primal_lower288
 L  primal_lower289
 L  primal_lower290
 L  primal_lower291
 L  primal_lower292
 L  primal_lower293
 L  primal_lower294
 L  primal_lower295
 L  primal_lower296
 L  primal_lower297
 L  primal_lower298
 L  primal_lower299
 L  primal_lower300
 L  primal_lower301
 L  primal_lower302
 L  primal_lower303
 L  primal_lower304
 L  primal_lower305
 L  primal_lower306
 L  primal_lower307
 L  primal_lower308
 L  primal_lower309
 L  primal_lower310
 L  primal_lower311
 L  primal_lower312
 L  primal_lower313
 L  primal_lower314
 L  primal_lower315
 L  primal_lower316
 L  primal_lower317
 L  primal_lower318
 L  primal_lower319
 L  primal_lower320
 L  primal_lower321
 L  primal_lower322
 L  primal_lower323
 L  primal_lower324
 L  primal_lower325
 L  primal_lower326
 L  primal_lower327
 L  primal_lower328
 L  primal_lower329
 L  primal_lower330
 L  primal_lower331
 L  primal_lower332
 L  primal_lower333
 L  primal_lower334
 L  primal_lower335
 L  primal_lower336
 L  primal_lower337
 L  primal_lower338
 L  primal_lower339
 L  primal_lower340
 L  primal_lower341
 L  primal_lower342
 L  primal_lower343
 L  primal_lower344
 L  primal_lower345
 L  primal_lower346
 L  primal_lower347
 L  primal_lower348
 L  primal_lower349
 L  primal_lower350
 L  primal_lower351
 L  primal_lower352
 L  primal_lower353
 L  primal_lower354
 L  primal_lower355
 L  primal_lower356
 L  primal_lower357
 L  primal_lower358
 L  primal_lower359
 L  primal_lower360
 L  primal_lower361
 L  primal_lower362
 L  primal_lower363
 L  primal_lower364
 L  primal_lower365
 L  primal_lower366
 L  primal_lower367
 L  primal_lower368
 L  primal_lower369
 L  primal_lower370
 L  primal_lower371
 L  primal_lower372
 L  primal_lower373
 L  primal_lower374
 L  primal_lower375
 L  primal_lower376
 L  primal_lower377
 L  primal_lower378
 L  primal_lower379
 L  primal_lower380
 L  primal_lower381
 L  primal_lower382
 L  primal_lower383
 L  primal_lower384
 L  primal_lower385
 L  primal_lower386
 L  primal_lower387
 L  primal_lower388
 L  primal_lower389
 L  primal_lower390
 L  primal_lower391
 L  primal_lower392
 L  primal_lower393
 L  primal_lower394
 L  primal_lower395
 L  primal_lower396
 L  primal_lower397
 L  primal_lower398
 L  primal_lower399
 L  primal_lower400
 L  primal_lower401
 L  primal_lower402
 L  primal_lower403
 L  primal_lower404
 L  primal_lower405
 L  primal_lower406
 L  primal_lower407
 L  primal_lower408
 L  primal_lower409
 L  primal_lower410
 L  primal_lower411
 L  primal_lower412
 L  primal_lower413
 L  primal_lower414
 L  primal_lower415
 L  primal_lower416
 L  primal_lower417
 L  primal_lower418
 L  primal_lower419
 L  primal_lower420
 L  primal_lower421
 L  primal_lower422
 L  primal_lower423
 L  primal_lower424
 L  primal_lower425
 L  primal_lower426
 L  primal_lower427
 L  primal_lower428
 L  primal_lower429
 L  primal_lower430
 L  primal_lower431
 L  primal_lower432
 L  primal_lower433
 L  primal_lower434
 L  primal_lower435
 L  primal_lower436
 L  primal_lower437
 L  primal_lower438
 L  primal_lower439
 L  primal_lower440
 L  primal_lower441
 L  primal_lower442
 L  primal_lower443
 L  primal_lower444
 L  primal_lower445
 L  primal_lower446
 L  primal_lower447
 L  primal_lower448
 L  primal_lower449
 L  primal_lower450
 L  primal_lower451
 L  primal_lower452
 L  primal_lower453
 L  primal_lower454
 L  primal_lower455
 L  primal_lower456
 L  primal_lower457
 L  primal_lower458
 L  primal_lower459
 L  primal_lower460
 L  primal_lower461
 L  primal_lower462
 L  primal_lower463
 L  primal_lower464
 L  primal_lower465
 L  primal_lower466
 L  primal_lower467
 L  primal_lower468
 L  primal_lower469
 L  primal_lower470
 L  primal_lower471
 L  primal_lower472
 L  primal_lower473
 L  primal_lower474
 L  primal_lower475
 L  primal_lower476
 L  primal_lower477
 L  primal_lower478
 L  primal_lower479
 L  primal_lower480
 L  primal_lower481
 L  primal_lower482
 L  primal_lower483
 L  primal_lower484
 L  primal_lower485
 L  primal_lower486
 L  primal_lower487
 L  primal_lower488
 L  primal_lower489
 L  primal_lower490
 L  primal_lower491
 L  primal_lower492
 L  primal_lower493
 L  primal_lower494
 L  primal_lower495
 L  primal_lower496
 L  primal_lower497
 L  primal_lower498
 L  primal_lower499
 L  primal_lower500
 L  primal_lower501
 L  primal_lower502
 L  primal_lower503
 L  primal_lower504
 L  primal_lower505
 L  primal_lower506
 L  primal_lower507
 L  primal_lower508
 L  primal_lower509
 L  primal_lower510
 L  primal_lower511
 L  primal_lower512
 L  primal_lower513
 L  primal_lower514
 L  primal_lower515
 L  primal_lower516
 L  primal_lower517
 L  primal_lower518
 L  primal_lower519
 L  primal_lower520
 L  primal_lower521
 L  primal_lower522
 L  primal_lower523
 L  primal_lower524
 L  primal_lower525
 L  primal_lower526
 L  primal_lower527
 L  primal_lower528
 L  primal_lower529
 L  primal_lower530
 L  primal_lower531
 L  primal_lower532
 L  primal_lower533
 L  primal_lower534
 L  primal_lower535
 L  primal_lower536
 L  primal_lower537
 L  primal_lower538
 L  primal_lower539
 L  primal_lower540
 L  primal_lower541
 L  primal_lower542
 L  primal_lower543
 L  primal_lower544
 L  primal_lower545
 L  primal_lower546
 L  primal_lower547
 L  primal_lower548
 L  primal_lower549
 L  primal_lower550
 L  primal_lower551
 L  primal_lower552
 L  primal_lower553
 L  primal_lower554
 L  primal_lower555
 L  primal_lower556
 L  primal_lower557
 L  primal_lower558
 L  primal_lower559
 L  primal_lower560
 L  primal_lower561
 L  primal_lower562
 L  primal_lower563
 L  primal_lower564
 L  primal_lower565
 L  primal_lower566
 L  primal_lower567
 L  primal_lower568
 L  primal_lower569
 L  primal_lower570
 L  primal_lower571
 L  primal_lower572
 L  primal_lower573
 L  primal_lower574
 L  primal_lower575
 L  primal_lower576
 L  primal_lower577
 L  primal_lower578
 L  primal_lower579
 L  primal_lower580
 L  primal_lower581
 L  primal_lower582
 L  primal_lower583
 L  primal_lower584
 L  primal_lower585
 L  primal_lower586
 L  primal_lower587
 L  primal_lower588
 L  primal_lower589
 L  primal_lower590
 L  primal_lower591
 L  primal_lower592
 L  primal_lower593
 L  primal_lower594
 L  primal_lower595
 L  primal_lower596
 L  primal_lower597
 L  primal_lower598
 L  primal_lower599
 L  primal_lower600
 L  primal_lower601
 L  primal_lower602
 L  primal_lower603
 L  primal_lower604
 L  primal_lower605
 L  primal_lower606
 L  primal_lower607
 L  primal_lower608
 L  primal_lower609
 L  primal_lower610
 L  primal_lower611
 L  primal_lower612
 L  primal_lower613
 L  primal_lower614
 L  primal_lower615
 L  primal_lower616
 L  primal_lower617
 L  primal_lower618
 L  primal_lower619
 L  primal_lower620
 L  primal_lower621
 L  primal_lower622
 L  primal_lower623
 L  primal_lower624
 L  primal_lower625
 L  primal_lower626
 L  primal_lower627
 L  primal_lower628
 L  primal_lower629
 L  primal_lower630
 L  primal_lower631
 L  primal_lower632
 L  primal_lower633
 L  primal_lower634
 L  primal_lower635
 L  primal_lower636
 L  primal_lower637
 L  primal_lower638
 L  primal_lower639
 L  primal_lower640
 L  primal_lower641
 L  primal_lower642
 L  primal_lower643
 L  primal_lower644
 L  primal_lower645
 L  primal_lower646
 L  primal_lower647
 L  primal_lower648
 L  primal_lower649
 L  primal_lower650
 L  primal_lower651
 L  primal_lower652
 L  primal_lower653
 L  primal_lower654
 L  primal_lower655
 L  primal_lower656
 L  primal_lower657
 L  primal_lower658
 L  primal_lower659
 L  primal_lower660
 L  primal_lower661
 L  primal_lower662
 L  primal_lower663
 L  primal_lower664
 L  primal_lower665
 L  primal_lower666
 L  primal_lower667
 L  primal_lower668
 L  primal_lower669
 L  primal_lower670
 L  primal_lower671
 L  primal_lower672
 L  primal_lower673
 L  primal_lower674
 L  primal_lower675
 L  primal_lower676
 L  primal_lower677
 L  primal_lower678
 L  primal_lower679
 L  primal_lower680
 L  primal_lower681
 L  primal_lower682
 L  primal_lower683
 L  primal_lower684
 L  primal_lower685
 L  primal_lower686
 L  primal_lower687
 L  primal_lower688
 L  primal_lower689
 L  primal_lower690
 L  primal_lower691
 L  primal_lower692
 L  primal_lower693
 L  primal_lower694
 L  primal_lower695
 L  primal_lower696
 L  primal_lower697
 L  primal_lower698
 L  primal_lower699
 L  primal_lower700
 L  primal_lower701
 L  primal_lower702
 L  primal_lower703
 L  primal_lower704
 L  primal_lower705
 L  primal_lower706
 L  primal_lower707
 L  primal_lower708
 L  primal_lower709
 L  primal_lower710
 L  primal_lower711
 L  primal_lower712
 L  primal_lower713
 L  primal_lower714
 L  primal_lower715
 L  primal_lower716
 L  primal_lower717
 L  primal_lower718
 L  primal_lower719
 L  primal_lower720
 L  primal_lower721
 L  primal_lower722
 L  primal_lower723
 L  primal_lower724
 L  primal_lower725
 L  primal_lower726
 L  primal_lower727
 L  primal_lower728
 L  primal_lower729
 L  primal_lower730
 L  primal_lower731
 L  primal_lower732
 L  primal_lower733
 L  primal_lower734
 L  primal_lower735
 L  primal_lower736
 L  primal_lower737
 L  primal_lower738
 L  primal_lower739
 L  primal_lower740
 L  primal_lower741
 L  primal_lower742
 L  primal_lower743
 L  primal_lower744
 L  primal_lower745
 L  primal_lower746
 L  primal_lower747
 L  primal_lower748
 L  primal_lower749
 L  primal_lower750
 L  primal_lower751
 L  primal_lower752
 L  primal_lower753
 L  primal_lower754
 L  primal_lower755
 L  primal_lower756
 L  primal_lower757
 L  primal_lower758
 L  primal_lower759
 L  primal_lower760
 L  primal_lower761
 L  primal_lower762
 L  primal_lower763
 L  primal_lower764
 L  primal_lower765
 L  primal_lower766
 L  primal_lower767
 L  primal_lower768
 L  primal_lower769
 L  primal_lower770
 L  primal_lower771
 L  primal_lower772
 L  primal_lower773
 L  primal_lower774
 L  primal_lower775
 L  primal_lower776
 L  primal_lower777
 L  primal_lower778
 L  primal_lower779
 L  primal_lower780
 L  primal_lower781
 L  primal_lower782
 L  primal_lower783
 L  primal_lower784
 L  primal_lower785
 L  primal_lower786
 L  primal_lower787
 L  primal_lower788
 L  primal_lower789
 L  primal_lower790
 L  primal_lower791
 L  primal_lower792
 L  primal_lower793
 L  primal_lower794
 L  primal_lower795
 L  primal_lower796
 L  primal_lower797
 L  primal_lower798
 L  primal_lower799
 L  primal_lower800
 L  primal_lower801
 L  primal_lower802
 L  primal_lower803
 L  primal_lower804
 L  primal_lower805
 L  primal_lower806
 L  primal_lower807
 L  primal_lower808
 L  primal_lower809
 L  primal_lower810
 L  primal_lower811
 L  primal_lower812
 L  primal_lower813
 L  primal_lower814
 L  primal_lower815
 L  primal_lower816
 L  primal_lower817
 L  primal_lower818
 L  primal_lower819
 L  primal_lower820
 L  primal_lower821
 L  primal_lower822
 L  primal_lower823
 L  primal_lower824
 L  primal_lower825
 L  primal_lower826
 L  primal_lower827
 L  primal_lower828
 L  primal_lower829
 L  primal_lower830
 L  primal_lower831
 L  primal_lower832
 L  primal_lower833
 L  primal_lower834
 L  primal_lower835
 L  primal_lower836
 L  primal_lower837
 L  primal_lower838
 L  primal_lower839
 L  primal_lower840
 L  primal_lower841
 L  primal_lower842
 L  primal_lower843
 L  primal_lower844
 L  primal_lower845
 L  primal_lower846
 L  primal_lower847
 L  primal_lower848
 L  primal_lower849
 L  primal_lower850
 L  primal_lower851
 L  primal_lower852
 L  primal_lower853
 L  primal_lower854
 L  primal_lower855
 L  primal_lower856
 L  primal_lower857
 L  primal_lower858
 L  primal_lower859
 L  primal_lower860
 L  primal_lower861
 L  primal_lower862
 L  primal_lower863
 L  primal_lower864
 L  primal_lower865
 L  primal_lower866
 L  primal_lower867
 L  primal_lower868
 L  primal_lower869
 L  primal_lower870
 L  primal_lower871
 L  primal_lower872
 L  primal_lower873
 L  primal_lower874
 L  primal_lower875
 L  primal_lower876
 L  primal_lower877
 L  primal_lower878
 L  primal_lower879
 L  primal_lower880
 L  primal_lower881
 L  primal_lower882
 L  primal_lower883
 L  primal_lower884
 L  primal_lower885
 L  primal_lower886
 L  primal_lower887
 L  primal_lower888
 L  primal_lower889
 L  primal_lower890
 L  primal_lower891
 L  primal_lower892
 L  primal_lower893
 L  primal_lower894
 L  primal_lower895
 L  primal_lower896
 L  primal_lower897
 L  primal_lower898
 L  primal_lower899
 L  primal_lower900
 L  primal_lower901
 L  primal_lower902
 L  primal_lower903
 L  primal_lower904
 L  primal_lower905
 L  primal_lower906
 L  primal_lower907
 L  primal_lower908
 L  primal_lower909
 L  primal_lower910
 L  primal_lower911
 L  primal_lower912
 L  primal_lower913
 L  primal_lower914
 L  primal_lower915
 L  primal_lower916
 L  primal_lower917
 L  primal_lower918
 L  primal_lower919
 L  primal_lower920
 L  primal_lower921
 L  primal_lower922
 L  primal_lower923
 L  primal_lower924
 L  primal_lower925
 L  primal_lower926
 L  primal_lower927
 L  primal_lower928
 L  primal_lower929
 L  primal_lower930
 L  primal_lower931
 L  primal_lower932
 L  primal_lower933
 L  primal_lower934
 L  primal_lower935
 L  primal_lower936
 L  primal_lower937
 L  primal_lower938
 L  primal_lower939
 L  primal_lower940
 L  primal_lower941
 L  primal_lower942
 L  primal_lower943
 L  primal_lower944
 L  primal_lower945
 L  primal_lower946
 L  primal_lower947
 L  primal_lower948
 L  primal_lower949
 L  primal_lower950
 L  primal_lower951
 L  primal_lower952
 L  primal_lower953
 L  primal_lower954
 L  primal_lower955
 L  primal_lower956
 L  primal_lower957
 L  primal_lower958
 L  primal_lower959
 L  primal_lower960
 L  primal_lower961
 L  primal_lower962
 L  primal_lower963
 L  primal_lower964
 L  primal_lower965
 L  primal_lower966
 L  primal_lower967
 L  primal_lower968
 L  primal_lower969
 L  primal_lower970
 L  primal_lower971
 L  primal_lower972
 L  primal_lower973
 L  primal_lower974
 L  primal_lower975
 L  primal_lower976
 L  primal_lower977
 L  primal_lower978
 L  primal_lower979
 L  primal_lower980
 L  primal_lower981
 L  primal_lower982
 L  primal_lower983
 L  primal_lower984
 L  primal_lower985
 L  primal_lower986
 L  primal_lower987
 L  primal_lower988
 L  primal_lower989
 L  primal_lower990
 L  primal_lower991
 L  primal_lower992
 L  primal_lower993
 L  primal_lower994
 L  primal_lower995
 L  primal_lower996
 L  primal_lower997
 L  primal_lower998
 L  primal_lower999
 L  interdiction[0]
 L  interdiction[1]
 L  interdiction[2]
 L  interdiction[3]
 L  interdiction[4]
 L  interdiction[5]
 L  interdiction[6]
 L  interdiction[7]
 L  interdiction[8]
 L  interdiction[9]
 L  interdiction[10]
 L  interdiction[11]
 L  interdiction[12]
 L  interdiction[13]
 L  interdiction[14]
 L  interdiction[15]
 L  interdiction[16]
 L  interdiction[17]
 L  interdiction[18]
 L  interdiction[19]
 L  mccormick1[0]
 L  mccormick1[1]
 L  mccormick1[2]
 L  mccormick1[3]
 L  mccormick1[4]
 L  mccormick1[5]
 L  mccormick1[6]
 L  mccormick1[7]
 L  mccormick1[8]
 L  mccormick1[9]
 L  mccormick1[10]
 L  mccormick1[11]
 L  mccormick1[12]
 L  mccormick1[13]
 L  mccormick1[14]
 L  mccormick1[15]
 L  mccormick1[16]
 L  mccormick1[17]
 L  mccormick1[18]
 L  mccormick1[19]
 L  mccormick2[0]
 L  mccormick2[1]
 L  mccormick2[2]
 L  mccormick2[3]
 L  mccormick2[4]
 L  mccormick2[5]
 L  mccormick2[6]
 L  mccormick2[7]
 L  mccormick2[8]
 L  mccormick2[9]
 L  mccormick2[10]
 L  mccormick2[11]
 L  mccormick2[12]
 L  mccormick2[13]
 L  mccormick2[14]
 L  mccormick2[15]
 L  mccormick2[16]
 L  mccormick2[17]
 L  mccormick2[18]
 L  mccormick2[19]
 L  mccormick3[0]
 L  mccormick3[1]
 L  mccormick3[2]
 L  mccormick3[3]
 L  mccormick3[4]
 L  mccormick3[5]
 L  mccormick3[6]
 L  mccormick3[7]
 L  mccormick3[8]
 L  mccormick3[9]
 L  mccormick3[10]
 L  mccormick3[11]
 L  mccormick3[12]
 L  mccormick3[13]
 L  mccormick3[14]
 L  mccormick3[15]
 L  mccormick3[16]
 L  mccormick3[17]
 L  mccormick3[18]
 L  mccormick3[19]
COLUMNS
    MARKER    'MARKER'                 'INTORG'
    x[0]      OBJ       10
    x[0]      interdiction[0]  1
    x[1]      OBJ       10
    x[1]      interdiction[1]  1
    x[2]      OBJ       10
    x[2]      interdiction[2]  1
    x[3]      OBJ       10
    x[3]      interdiction[3]  1
    x[4]      OBJ       10
    x[4]      interdiction[4]  1
    x[5]      OBJ       10
    x[5]      interdiction[5]  1
    x[6]      OBJ       10
    x[6]      interdiction[6]  1
    x[7]      OBJ       10
    x[7]      interdiction[7]  1
    x[8]      OBJ       10
    x[8]      interdiction[8]  1
    x[9]      OBJ       10
    x[9]      interdiction[9]  1
    x[10]     OBJ       10
    x[10]     interdiction[10]  1
    x[11]     OBJ       10
    x[11]     interdiction[11]  1
    x[12]     OBJ       10
    x[12]     interdiction[12]  1
    x[13]     OBJ       10
    x[13]     interdiction[13]  1
    x[14]     OBJ       10
    x[14]     interdiction[14]  1
    x[15]     OBJ       10
    x[15]     interdiction[15]  1
    x[16]     OBJ       10
    x[16]     interdiction[16]  1
    x[17]     OBJ       10
    x[17]     interdiction[17]  1
    x[18]     OBJ       10
    x[18]     interdiction[18]  1
    x[19]     OBJ       10
    x[19]     interdiction[19]  1
    y[0]      OBJ       -682
    y[0]      primal_upper  180
    y[0]      mccormick2[0]  -1
    y[0]      mccormick3[0]  1
    y[1]      OBJ       -531
    y[1]      primal_upper  272
    y[1]      mccormick2[1]  -1
    y[1]      mccormick3[1]  1
    y[2]      OBJ       -796
    y[2]      primal_upper  518
    y[2]      mccormick2[2]  -1
    y[2]      mccormick3[2]  1
    y[3]      OBJ       -312
    y[3]      primal_upper  775
    y[3]      mccormick2[3]  -1
    y[3]      mccormick3[3]  1
    y[4]      OBJ       -646
    y[4]      primal_upper  696
    y[4]      mccormick2[4]  -1
    y[4]      mccormick3[4]  1
    y[5]      OBJ       -901
    y[5]      primal_upper  366
    y[5]      mccormick2[5]  -1
    y[5]      mccormick3[5]  1
    y[6]      OBJ       -782
    y[6]      primal_upper  65
    y[6]      mccormick2[6]  -1
    y[6]      mccormick3[6]  1
    y[7]      OBJ       -592
    y[7]      primal_upper  232
    y[7]      mccormick2[7]  -1
    y[7]      mccormick3[7]  1
    y[8]      OBJ       -499
    y[8]      primal_upper  169
    y[8]      mccormick2[8]  -1
    y[8]      mccormick3[8]  1
    y[9]      OBJ       -135
    y[9]      primal_upper  542
    y[9]      mccormick2[9]  -1
    y[9]      mccormick3[9]  1
    y[10]     OBJ       -779
    y[10]     primal_upper  512
    y[10]     mccormick2[10]  -1
    y[10]     mccormick3[10]  1
    y[11]     OBJ       -687
    y[11]     primal_upper  39
    y[11]     mccormick2[11]  -1
    y[11]     mccormick3[11]  1
    y[12]     OBJ       -479
    y[12]     primal_upper  584
    y[12]     mccormick2[12]  -1
    y[12]     mccormick3[12]  1
    y[13]     OBJ       -630
    y[13]     primal_upper  672
    y[13]     mccormick2[13]  -1
    y[13]     mccormick3[13]  1
    y[14]     OBJ       -579
    y[14]     primal_upper  457
    y[14]     mccormick2[14]  -1
    y[14]     mccormick3[14]  1
    y[15]     OBJ       -256
    y[15]     primal_upper  137
    y[15]     mccormick2[15]  -1
    y[15]     mccormick3[15]  1
    y[16]     OBJ       -10
    y[16]     primal_upper  409
    y[16]     mccormick2[16]  -1
    y[16]     mccormick3[16]  1
    y[17]     OBJ       -606
    y[17]     primal_upper  380
    y[17]     mccormick2[17]  -1
    y[17]     mccormick3[17]  1
    y[18]     OBJ       -911
    y[18]     primal_upper  461
    y[18]     mccormick2[18]  -1
    y[18]     mccormick3[18]  1
    y[19]     OBJ       -774
    y[19]     primal_upper  370
    y[19]     mccormick2[19]  -1
    y[19]     mccormick3[19]  1
    u[0]      primal_lower0  87
    u[0]      primal_lower1  771
    u[0]      primal_lower2  636
    u[0]      primal_lower3  158
    u[0]      primal_lower4  720
    u[0]      primal_lower5  880
    u[0]      primal_lower6  218
    u[0]      primal_lower7  244
    u[0]      primal_lower8  307
    u[0]      primal_lower9  328
    u[0]      primal_lower10  71
    u[0]      primal_lower11  801
    u[0]      primal_lower12  440
    u[0]      primal_lower13  778
    u[0]      primal_lower14  873
    u[0]      primal_lower15  534
    u[0]      primal_lower16  149
    u[0]      primal_lower17  783
    u[0]      primal_lower18  159
    u[0]      primal_lower19  991
    u[0]      primal_lower20  284
    u[0]      primal_lower21  295
    u[0]      primal_lower22  154
    u[0]      primal_lower23  819
    u[0]      primal_lower24  870
    u[0]      primal_lower25  111
    u[0]      primal_lower26  332
    u[0]      primal_lower27  292
    u[0]      primal_lower28  235
    u[0]      primal_lower29  320
    u[0]      primal_lower30  658
    u[0]      primal_lower31  661
    u[0]      primal_lower32  362
    u[0]      primal_lower33  692
    u[0]      primal_lower34  82
    u[0]      primal_lower35  824
    u[0]      primal_lower36  229
    u[0]      primal_lower37  61
    u[0]      primal_lower38  301
    u[0]      primal_lower39  874
    u[0]      primal_lower40  328
    u[0]      primal_lower41  658
    u[0]      primal_lower42  679
    u[0]      primal_lower43  629
    u[0]      primal_lower44  794
    u[0]      primal_lower45  277
    u[0]      primal_lower46  920
    u[0]      primal_lower47  807
    u[0]      primal_lower48  672
    u[0]      primal_lower49  369
    u[0]      primal_lower50  863
    u[0]      primal_lower51  104
    u[0]      primal_lower52  25
    u[0]      primal_lower53  538
    u[0]      primal_lower54  428
    u[0]      primal_lower55  104
    u[0]      primal_lower56  73
    u[0]      primal_lower57  176
    u[0]      primal_lower58  521
    u[0]      primal_lower59  565
    u[0]      primal_lower60  348
    u[0]      primal_lower61  520
    u[0]      primal_lower62  459
    u[0]      primal_lower63  412
    u[0]      primal_lower64  416
    u[0]      primal_lower65  845
    u[0]      primal_lower66  850
    u[0]      primal_lower67  968
    u[0]      primal_lower68  892
    u[0]      primal_lower69  578
    u[0]      primal_lower70  176
    u[0]      primal_lower71  930
    u[0]      primal_lower72  985
    u[0]      primal_lower73  271
    u[0]      primal_lower74  873
    u[0]      primal_lower75  715
    u[0]      primal_lower76  704
    u[0]      primal_lower77  461
    u[0]      primal_lower78  785
    u[0]      primal_lower79  939
    u[0]      primal_lower80  787
    u[0]      primal_lower81  92
    u[0]      primal_lower82  10
    u[0]      primal_lower83  357
    u[0]      primal_lower84  473
    u[0]      primal_lower85  397
    u[0]      primal_lower86  378
    u[0]      primal_lower87  924
    u[0]      primal_lower88  26
    u[0]      primal_lower89  766
    u[0]      primal_lower90  423
    u[0]      primal_lower91  795
    u[0]      primal_lower92  381
    u[0]      primal_lower93  904
    u[0]      primal_lower94  374
    u[0]      primal_lower95  562
    u[0]      primal_lower96  297
    u[0]      primal_lower97  166
    u[0]      primal_lower98  292
    u[0]      primal_lower99  586
    u[0]      primal_lower100  761
    u[0]      primal_lower101  342
    u[0]      primal_lower102  77
    u[0]      primal_lower103  743
    u[0]      primal_lower104  881
    u[0]      primal_lower105  54
    u[0]      primal_lower106  433
    u[0]      primal_lower107  549
    u[0]      primal_lower108  343
    u[0]      primal_lower109  821
    u[0]      primal_lower110  8
    u[0]      primal_lower111  444
    u[0]      primal_lower112  879
    u[0]      primal_lower113  27
    u[0]      primal_lower114  67
    u[0]      primal_lower115  279
    u[0]      primal_lower116  798
    u[0]      primal_lower117  780
    u[0]      primal_lower118  322
    u[0]      primal_lower119  751
    u[0]      primal_lower120  550
    u[0]      primal_lower121  990
    u[0]      primal_lower122  78
    u[0]      primal_lower123  114
    u[0]      primal_lower124  496
    u[0]      primal_lower125  514
    u[0]      primal_lower126  833
    u[0]      primal_lower127  742
    u[0]      primal_lower128  604
    u[0]      primal_lower129  230
    u[0]      primal_lower130  973
    u[0]      primal_lower131  690
    u[0]      primal_lower132  49
    u[0]      primal_lower133  531
    u[0]      primal_lower134  676
    u[0]      primal_lower135  109
    u[0]      primal_lower136  328
    u[0]      primal_lower137  251
    u[0]      primal_lower138  671
    u[0]      primal_lower139  833
    u[0]      primal_lower140  477
    u[0]      primal_lower141  721
    u[0]      primal_lower142  879
    u[0]      primal_lower143  844
    u[0]      primal_lower144  787
    u[0]      primal_lower145  985
    u[0]      primal_lower146  781
    u[0]      primal_lower147  592
    u[0]      primal_lower148  272
    u[0]      primal_lower149  269
    u[0]      primal_lower150  796
    u[0]      primal_lower151  409
    u[0]      primal_lower152  90
    u[0]      primal_lower153  15
    u[0]      primal_lower154  629
    u[0]      primal_lower155  509
    u[0]      primal_lower156  652
    u[0]      primal_lower157  782
    u[0]      primal_lower158  82
    u[0]      primal_lower159  439
    u[0]      primal_lower160  283
    u[0]      primal_lower161  509
    u[0]      primal_lower162  644
    u[0]      primal_lower163  55
    u[0]      primal_lower164  960
    u[0]      primal_lower165  213
    u[0]      primal_lower166  947
    u[0]      primal_lower167  264
    u[0]      primal_lower168  726
    u[0]      primal_lower169  398
    u[0]      primal_lower170  438
    u[0]      primal_lower171  255
    u[0]      primal_lower172  225
    u[0]      primal_lower173  125
    u[0]      primal_lower174  275
    u[0]      primal_lower175  426
    u[0]      primal_lower176  597
    u[0]      primal_lower177  307
    u[0]      primal_lower178  183
    u[0]      primal_lower179  846
    u[0]      primal_lower180  965
    u[0]      primal_lower181  96
    u[0]      primal_lower182  514
    u[0]      primal_lower183  526
    u[0]      primal_lower184  902
    u[0]      primal_lower185  908
    u[0]      primal_lower186  217
    u[0]      primal_lower187  996
    u[0]      primal_lower188  702
    u[0]      primal_lower189  501
    u[0]      primal_lower190  468
    u[0]      primal_lower191  776
    u[0]      primal_lower192  515
    u[0]      primal_lower193  802
    u[0]      primal_lower194  788
    u[0]      primal_lower195  944
    u[0]      primal_lower196  502
    u[0]      primal_lower197  443
    u[0]      primal_lower198  514
    u[0]      primal_lower199  362
    u[0]      primal_lower200  665
    u[0]      primal_lower201  118
    u[0]      primal_lower202  328
    u[0]      primal_lower203  103
    u[0]      primal_lower204  241
    u[0]      primal_lower205  15
    u[0]      primal_lower206  822
    u[0]      primal_lower207  268
    u[0]      primal_lower208  236
    u[0]      primal_lower209  33
    u[0]      primal_lower210  975
    u[0]      primal_lower211  54
    u[0]      primal_lower212  690
    u[0]      primal_lower213  492
    u[0]      primal_lower214  395
    u[0]      primal_lower215  504
    u[0]      primal_lower216  82
    u[0]      primal_lower217  839
    u[0]      primal_lower218  843
    u[0]      primal_lower219  96
    u[0]      primal_lower220  483
    u[0]      primal_lower221  114
    u[0]      primal_lower222  568
    u[0]      primal_lower223  849
    u[0]      primal_lower224  456
    u[0]      primal_lower225  323
    u[0]      primal_lower226  508
    u[0]      primal_lower227  865
    u[0]      primal_lower228  16
    u[0]      primal_lower229  559
    u[0]      primal_lower230  732
    u[0]      primal_lower231  393
    u[0]      primal_lower232  961
    u[0]      primal_lower233  343
    u[0]      primal_lower234  664
    u[0]      primal_lower235  976
    u[0]      primal_lower236  428
    u[0]      primal_lower237  372
    u[0]      primal_lower238  845
    u[0]      primal_lower239  94
    u[0]      primal_lower240  708
    u[0]      primal_lower241  487
    u[0]      primal_lower242  206
    u[0]      primal_lower243  573
    u[0]      primal_lower244  893
    u[0]      primal_lower245  674
    u[0]      primal_lower246  578
    u[0]      primal_lower247  721
    u[0]      primal_lower248  621
    u[0]      primal_lower249  606
    u[0]      primal_lower250  695
    u[0]      primal_lower251  711
    u[0]      primal_lower252  812
    u[0]      primal_lower253  810
    u[0]      primal_lower254  504
    u[0]      primal_lower255  548
    u[0]      primal_lower256  371
    u[0]      primal_lower257  149
    u[0]      primal_lower258  869
    u[0]      primal_lower259  541
    u[0]      primal_lower260  77
    u[0]      primal_lower261  961
    u[0]      primal_lower262  453
    u[0]      primal_lower263  355
    u[0]      primal_lower264  542
    u[0]      primal_lower265  532
    u[0]      primal_lower266  168
    u[0]      primal_lower267  345
    u[0]      primal_lower268  267
    u[0]      primal_lower269  535
    u[0]      primal_lower270  917
    u[0]      primal_lower271  601
    u[0]      primal_lower272  895
    u[0]      primal_lower273  123
    u[0]      primal_lower274  796
    u[0]      primal_lower275  669
    u[0]      primal_lower276  361
    u[0]      primal_lower277  366
    u[0]      primal_lower278  982
    u[0]      primal_lower279  157
    u[0]      primal_lower280  636
    u[0]      primal_lower281  756
    u[0]      primal_lower282  435
    u[0]      primal_lower283  605
    u[0]      primal_lower284  545
    u[0]      primal_lower285  749
    u[0]      primal_lower286  223
    u[0]      primal_lower287  136
    u[0]      primal_lower288  503
    u[0]      primal_lower289  854
    u[0]      primal_lower290  831
    u[0]      primal_lower291  425
    u[0]      primal_lower292  718
    u[0]      primal_lower293  13
    u[0]      primal_lower294  603
    u[0]      primal_lower295  383
    u[0]      primal_lower296  27
    u[0]      primal_lower297  608
    u[0]      primal_lower298  998
    u[0]      primal_lower299  136
    u[0]      primal_lower300  827
    u[0]      primal_lower301  490
    u[0]      primal_lower302  842
    u[0]      primal_lower303  472
    u[0]      primal_lower304  332
    u[0]      primal_lower305  568
    u[0]      primal_lower306  762
    u[0]      primal_lower307  445
    u[0]      primal_lower308  790
    u[0]      primal_lower309  767
    u[0]      primal_lower310  542
    u[0]      primal_lower311  360
    u[0]      primal_lower312  216
    u[0]      primal_lower313  668
    u[0]      primal_lower314  576
    u[0]      primal_lower315  376
    u[0]      primal_lower316  192
    u[0]      primal_lower317  684
    u[0]      primal_lower318  449
    u[0]      primal_lower319  33
    u[0]      primal_lower320  607
    u[0]      primal_lower321  131
    u[0]      primal_lower322  272
    u[0]      primal_lower323  35
    u[0]      primal_lower324  919
    u[0]      primal_lower325  518
    u[0]      primal_lower326  617
    u[0]      primal_lower327  260
    u[0]      primal_lower328  817
    u[0]      primal_lower329  744
    u[0]      primal_lower330  24
    u[0]      primal_lower331  448
    u[0]      primal_lower332  166
    u[0]      primal_lower333  45
    u[0]      primal_lower334  717
    u[0]      primal_lower335  196
    u[0]      primal_lower336  915
    u[0]      primal_lower337  339
    u[0]      primal_lower338  966
    u[0]      primal_lower339  289
    u[0]      primal_lower340  613
    u[0]      primal_lower341  517
    u[0]      primal_lower342  730
    u[0]      primal_lower343  953
    u[0]      primal_lower344  537
    u[0]      primal_lower345  463
    u[0]      primal_lower346  348
    u[0]      primal_lower347  595
    u[0]      primal_lower348  826
    u[0]      primal_lower349  617
    u[0]      primal_lower350  742
    u[0]      primal_lower351  868
    u[0]      primal_lower352  104
    u[0]      primal_lower353  772
    u[0]      primal_lower354  42
    u[0]      primal_lower355  528
    u[0]      primal_lower356  723
    u[0]      primal_lower357  517
    u[0]      primal_lower358  920
    u[0]      primal_lower359  850
    u[0]      primal_lower360  855
    u[0]      primal_lower361  464
    u[0]      primal_lower362  578
    u[0]      primal_lower363  994
    u[0]      primal_lower364  718
    u[0]      primal_lower365  656
    u[0]      primal_lower366  910
    u[0]      primal_lower367  832
    u[0]      primal_lower368  310
    u[0]      primal_lower369  474
    u[0]      primal_lower370  867
    u[0]      primal_lower371  666
    u[0]      primal_lower372  178
    u[0]      primal_lower373  895
    u[0]      primal_lower374  775
    u[0]      primal_lower375  435
    u[0]      primal_lower376  171
    u[0]      primal_lower377  283
    u[0]      primal_lower378  715
    u[0]      primal_lower379  788
    u[0]      primal_lower380  561
    u[0]      primal_lower381  388
    u[0]      primal_lower382  669
    u[0]      primal_lower383  225
    u[0]      primal_lower384  388
    u[0]      primal_lower385  494
    u[0]      primal_lower386  745
    u[0]      primal_lower387  822
    u[0]      primal_lower388  536
    u[0]      primal_lower389  759
    u[0]      primal_lower390  846
    u[0]      primal_lower391  236
    u[0]      primal_lower392  399
    u[0]      primal_lower393  801
    u[0]      primal_lower394  950
    u[0]      primal_lower395  146
    u[0]      primal_lower396  618
    u[0]      primal_lower397  874
    u[0]      primal_lower398  662
    u[0]      primal_lower399  581
    u[0]      primal_lower400  175
    u[0]      primal_lower401  217
    u[0]      primal_lower402  878
    u[0]      primal_lower403  439
    u[0]      primal_lower404  41
    u[0]      primal_lower405  957
    u[0]      primal_lower406  710
    u[0]      primal_lower407  213
    u[0]      primal_lower408  532
    u[0]      primal_lower409  56
    u[0]      primal_lower410  495
    u[0]      primal_lower411  533
    u[0]      primal_lower412  733
    u[0]      primal_lower413  789
    u[0]      primal_lower414  325
    u[0]      primal_lower415  855
    u[0]      primal_lower416  726
    u[0]      primal_lower417  227
    u[0]      primal_lower418  426
    u[0]      primal_lower419  577
    u[0]      primal_lower420  24
    u[0]      primal_lower421  371
    u[0]      primal_lower422  299
    u[0]      primal_lower423  643
    u[0]      primal_lower424  138
    u[0]      primal_lower425  406
    u[0]      primal_lower426  114
    u[0]      primal_lower427  51
    u[0]      primal_lower428  272
    u[0]      primal_lower429  518
    u[0]      primal_lower430  880
    u[0]      primal_lower431  17
    u[0]      primal_lower432  19
    u[0]      primal_lower433  547
    u[0]      primal_lower434  458
    u[0]      primal_lower435  448
    u[0]      primal_lower436  922
    u[0]      primal_lower437  59
    u[0]      primal_lower438  512
    u[0]      primal_lower439  615
    u[0]      primal_lower440  294
    u[0]      primal_lower441  621
    u[0]      primal_lower442  92
    u[0]      primal_lower443  927
    u[0]      primal_lower444  935
    u[0]      primal_lower445  148
    u[0]      primal_lower446  125
    u[0]      primal_lower447  172
    u[0]      primal_lower448  264
    u[0]      primal_lower449  101
    u[0]      primal_lower450  296
    u[0]      primal_lower451  205
    u[0]      primal_lower452  35
    u[0]      primal_lower453  210
    u[0]      primal_lower454  562
    u[0]      primal_lower455  752
    u[0]      primal_lower456  764
    u[0]      primal_lower457  146
    u[0]      primal_lower458  405
    u[0]      primal_lower459  40
    u[0]      primal_lower460  737
    u[0]      primal_lower461  759
    u[0]      primal_lower462  783
    u[0]      primal_lower463  647
    u[0]      primal_lower464  175
    u[0]      primal_lower465  306
    u[0]      primal_lower466  526
    u[0]      primal_lower467  276
    u[0]      primal_lower468  148
    u[0]      primal_lower469  710
    u[0]      primal_lower470  210
    u[0]      primal_lower471  945
    u[0]      primal_lower472  521
    u[0]      primal_lower473  990
    u[0]      primal_lower474  40
    u[0]      primal_lower475  827
    u[0]      primal_lower476  417
    u[0]      primal_lower477  27
    u[0]      primal_lower478  330
    u[0]      primal_lower479  94
    u[0]      primal_lower480  30
    u[0]      primal_lower481  528
    u[0]      primal_lower482  794
    u[0]      primal_lower483  436
    u[0]      primal_lower484  835
    u[0]      primal_lower485  375
    u[0]      primal_lower486  736
    u[0]      primal_lower487  850
    u[0]      primal_lower488  192
    u[0]      primal_lower489  391
    u[0]      primal_lower490  261
    u[0]      primal_lower491  200
    u[0]      primal_lower492  889
    u[0]      primal_lower493  633
    u[0]      primal_lower494  549
    u[0]      primal_lower495  399
    u[0]      primal_lower496  351
    u[0]      primal_lower497  857
    u[0]      primal_lower498  660
    u[0]      primal_lower499  278
    u[0]      primal_lower500  12
    u[0]      primal_lower501  634
    u[0]      primal_lower502  72
    u[0]      primal_lower503  402
    u[0]      primal_lower504  51
    u[0]      primal_lower505  44
    u[0]      primal_lower506  13
    u[0]      primal_lower507  653
    u[0]      primal_lower508  169
    u[0]      primal_lower509  738
    u[0]      primal_lower510  434
    u[0]      primal_lower511  857
    u[0]      primal_lower512  768
    u[0]      primal_lower513  101
    u[0]      primal_lower514  917
    u[0]      primal_lower515  365
    u[0]      primal_lower516  682
    u[0]      primal_lower517  592
    u[0]      primal_lower518  32
    u[0]      primal_lower519  579
    u[0]      primal_lower520  589
    u[0]      primal_lower521  632
    u[0]      primal_lower522  90
    u[0]      primal_lower523  569
    u[0]      primal_lower524  832
    u[0]      primal_lower525  618
    u[0]      primal_lower526  384
    u[0]      primal_lower527  806
    u[0]      primal_lower528  744
    u[0]      primal_lower529  201
    u[0]      primal_lower530  6
    u[0]      primal_lower531  534
    u[0]      primal_lower532  935
    u[0]      primal_lower533  352
    u[0]      primal_lower534  279
    u[0]      primal_lower535  390
    u[0]      primal_lower536  911
    u[0]      primal_lower537  186
    u[0]      primal_lower538  966
    u[0]      primal_lower539  939
    u[0]      primal_lower540  870
    u[0]      primal_lower541  752
    u[0]      primal_lower542  384
    u[0]      primal_lower543  472
    u[0]      primal_lower544  378
    u[0]      primal_lower545  756
    u[0]      primal_lower546  230
    u[0]      primal_lower547  398
    u[0]      primal_lower548  257
    u[0]      primal_lower549  346
    u[0]      primal_lower550  5
    u[0]      primal_lower551  757
    u[0]      primal_lower552  770
    u[0]      primal_lower553  966
    u[0]      primal_lower554  417
    u[0]      primal_lower555  89
    u[0]      primal_lower556  127
    u[0]      primal_lower557  569
    u[0]      primal_lower558  979
    u[0]      primal_lower559  495
    u[0]      primal_lower560  421
    u[0]      primal_lower561  714
    u[0]      primal_lower562  476
    u[0]      primal_lower563  469
    u[0]      primal_lower564  757
    u[0]      primal_lower565  705
    u[0]      primal_lower566  275
    u[0]      primal_lower567  413
    u[0]      primal_lower568  807
    u[0]      primal_lower569  471
    u[0]      primal_lower570  710
    u[0]      primal_lower571  141
    u[0]      primal_lower572  341
    u[0]      primal_lower573  446
    u[0]      primal_lower574  82
    u[0]      primal_lower575  242
    u[0]      primal_lower576  638
    u[0]      primal_lower577  893
    u[0]      primal_lower578  20
    u[0]      primal_lower579  594
    u[0]      primal_lower580  663
    u[0]      primal_lower581  745
    u[0]      primal_lower582  984
    u[0]      primal_lower583  775
    u[0]      primal_lower584  572
    u[0]      primal_lower585  986
    u[0]      primal_lower586  560
    u[0]      primal_lower587  540
    u[0]      primal_lower588  5
    u[0]      primal_lower589  246
    u[0]      primal_lower590  168
    u[0]      primal_lower591  772
    u[0]      primal_lower592  192
    u[0]      primal_lower593  657
    u[0]      primal_lower594  104
    u[0]      primal_lower595  709
    u[0]      primal_lower596  148
    u[0]      primal_lower597  817
    u[0]      primal_lower598  430
    u[0]      primal_lower599  17
    u[0]      primal_lower600  575
    u[0]      primal_lower601  696
    u[0]      primal_lower602  406
    u[0]      primal_lower603  69
    u[0]      primal_lower604  552
    u[0]      primal_lower605  947
    u[0]      primal_lower606  369
    u[0]      primal_lower607  354
    u[0]      primal_lower608  22
    u[0]      primal_lower609  568
    u[0]      primal_lower610  656
    u[0]      primal_lower611  3
    u[0]      primal_lower612  327
    u[0]      primal_lower613  521
    u[0]      primal_lower614  81
    u[0]      primal_lower615  261
    u[0]      primal_lower616  847
    u[0]      primal_lower617  238
    u[0]      primal_lower618  837
    u[0]      primal_lower619  921
    u[0]      primal_lower620  483
    u[0]      primal_lower621  799
    u[0]      primal_lower622  561
    u[0]      primal_lower623  747
    u[0]      primal_lower624  335
    u[0]      primal_lower625  490
    u[0]      primal_lower626  911
    u[0]      primal_lower627  328
    u[0]      primal_lower628  462
    u[0]      primal_lower629  969
    u[0]      primal_lower630  730
    u[0]      primal_lower631  570
    u[0]      primal_lower632  285
    u[0]      primal_lower633  31
    u[0]      primal_lower634  301
    u[0]      primal_lower635  996
    u[0]      primal_lower636  330
    u[0]      primal_lower637  333
    u[0]      primal_lower638  710
    u[0]      primal_lower639  661
    u[0]      primal_lower640  20
    u[0]      primal_lower641  111
    u[0]      primal_lower642  729
    u[0]      primal_lower643  518
    u[0]      primal_lower644  327
    u[0]      primal_lower645  775
    u[0]      primal_lower646  647
    u[0]      primal_lower647  34
    u[0]      primal_lower648  962
    u[0]      primal_lower649  230
    u[0]      primal_lower650  579
    u[0]      primal_lower651  437
    u[0]      primal_lower652  230
    u[0]      primal_lower653  817
    u[0]      primal_lower654  282
    u[0]      primal_lower655  813
    u[0]      primal_lower656  505
    u[0]      primal_lower657  571
    u[0]      primal_lower658  226
    u[0]      primal_lower659  727
    u[0]      primal_lower660  550
    u[0]      primal_lower661  44
    u[0]      primal_lower662  480
    u[0]      primal_lower663  607
    u[0]      primal_lower664  835
    u[0]      primal_lower665  169
    u[0]      primal_lower666  307
    u[0]      primal_lower667  851
    u[0]      primal_lower668  531
    u[0]      primal_lower669  257
    u[0]      primal_lower670  662
    u[0]      primal_lower671  391
    u[0]      primal_lower672  308
    u[0]      primal_lower673  289
    u[0]      primal_lower674  721
    u[0]      primal_lower675  286
    u[0]      primal_lower676  689
    u[0]      primal_lower677  512
    u[0]      primal_lower678  351
    u[0]      primal_lower679  71
    u[0]      primal_lower680  201
    u[0]      primal_lower681  169
    u[0]      primal_lower682  111
    u[0]      primal_lower683  428
    u[0]      primal_lower684  875
    u[0]      primal_lower685  154
    u[0]      primal_lower686  434
    u[0]      primal_lower687  318
    u[0]      primal_lower688  778
    u[0]      primal_lower689  475
    u[0]      primal_lower690  115
    u[0]      primal_lower691  243
    u[0]      primal_lower692  81
    u[0]      primal_lower693  268
    u[0]      primal_lower694  150
    u[0]      primal_lower695  559
    u[0]      primal_lower696  458
    u[0]      primal_lower697  472
    u[0]      primal_lower698  356
    u[0]      primal_lower699  536
    u[0]      primal_lower700  776
    u[0]      primal_lower701  578
    u[0]      primal_lower702  533
    u[0]      primal_lower703  55
    u[0]      primal_lower704  410
    u[0]      primal_lower705  2
    u[0]      primal_lower706  981
    u[0]      primal_lower707  421
    u[0]      primal_lower708  532
    u[0]      primal_lower709  848
    u[0]      primal_lower710  118
    u[0]      primal_lower711  920
    u[0]      primal_lower712  575
    u[0]      primal_lower713  500
    u[0]      primal_lower714  89
    u[0]      primal_lower715  659
    u[0]      primal_lower716  4
    u[0]      primal_lower717  990
    u[0]      primal_lower718  985
    u[0]      primal_lower719  207
    u[0]      primal_lower720  535
    u[0]      primal_lower721  132
    u[0]      primal_lower722  177
    u[0]      primal_lower723  331
    u[0]      primal_lower724  818
    u[0]      primal_lower725  971
    u[0]      primal_lower726  271
    u[0]      primal_lower727  153
    u[0]      primal_lower728  265
    u[0]      primal_lower729  78
    u[0]      primal_lower730  341
    u[0]      primal_lower731  504
    u[0]      primal_lower732  517
    u[0]      primal_lower733  298
    u[0]      primal_lower734  868
    u[0]      primal_lower735  590
    u[0]      primal_lower736  615
    u[0]      primal_lower737  275
    u[0]      primal_lower738  374
    u[0]      primal_lower739  5
    u[0]      primal_lower740  349
    u[0]      primal_lower741  86
    u[0]      primal_lower742  130
    u[0]      primal_lower743  760
    u[0]      primal_lower744  890
    u[0]      primal_lower745  166
    u[0]      primal_lower746  824
    u[0]      primal_lower747  780
    u[0]      primal_lower748  421
    u[0]      primal_lower749  42
    u[0]      primal_lower750  280
    u[0]      primal_lower751  946
    u[0]      primal_lower752  761
    u[0]      primal_lower753  247
    u[0]      primal_lower754  656
    u[0]      primal_lower755  776
    u[0]      primal_lower756  769
    u[0]      primal_lower757  487
    u[0]      primal_lower758  72
    u[0]      primal_lower759  143
    u[0]      primal_lower760  198
    u[0]      primal_lower761  918
    u[0]      primal_lower762  796
    u[0]      primal_lower763  746
    u[0]      primal_lower764  479
    u[0]      primal_lower765  806
    u[0]      primal_lower766  548
    u[0]      primal_lower767  408
    u[0]      primal_lower768  32
    u[0]      primal_lower769  328
    u[0]      primal_lower770  475
    u[0]      primal_lower771  571
    u[0]      primal_lower772  302
    u[0]      primal_lower773  861
    u[0]      primal_lower774  221
    u[0]      primal_lower775  667
    u[0]      primal_lower776  35
    u[0]      primal_lower777  785
    u[0]      primal_lower778  330
    u[0]      primal_lower779  591
    u[0]      primal_lower780  721
    u[0]      primal_lower781  529
    u[0]      primal_lower782  951
    u[0]      primal_lower783  952
    u[0]      primal_lower784  825
    u[0]      primal_lower785  226
    u[0]      primal_lower786  994
    u[0]      primal_lower787  267
    u[0]      primal_lower788  186
    u[0]      primal_lower789  939
    u[0]      primal_lower790  921
    u[0]      primal_lower791  490
    u[0]      primal_lower792  449
    u[0]      primal_lower793  55
    u[0]      primal_lower794  964
    u[0]      primal_lower795  295
    u[0]      primal_lower796  255
    u[0]      primal_lower797  592
    u[0]      primal_lower798  786
    u[0]      primal_lower799  365
    u[0]      primal_lower800  110
    u[0]      primal_lower801  809
    u[0]      primal_lower802  104
    u[0]      primal_lower803  736
    u[0]      primal_lower804  106
    u[0]      primal_lower805  863
    u[0]      primal_lower806  773
    u[0]      primal_lower807  809
    u[0]      primal_lower808  872
    u[0]      primal_lower809  80
    u[0]      primal_lower810  703
    u[0]      primal_lower811  743
    u[0]      primal_lower812  524
    u[0]      primal_lower813  321
    u[0]      primal_lower814  894
    u[0]      primal_lower815  998
    u[0]      primal_lower816  927
    u[0]      primal_lower817  387
    u[0]      primal_lower818  306
    u[0]      primal_lower819  693
    u[0]      primal_lower820  833
    u[0]      primal_lower821  995
    u[0]      primal_lower822  845
    u[0]      primal_lower823  403
    u[0]      primal_lower824  551
    u[0]      primal_lower825  236
    u[0]      primal_lower826  537
    u[0]      primal_lower827  202
    u[0]      primal_lower828  633
    u[0]      primal_lower829  949
    u[0]      primal_lower830  111
    u[0]      primal_lower831  657
    u[0]      primal_lower832  332
    u[0]      primal_lower833  17
    u[0]      primal_lower834  560
    u[0]      primal_lower835  983
    u[0]      primal_lower836  273
    u[0]      primal_lower837  628
    u[0]      primal_lower838  411
    u[0]      primal_lower839  874
    u[0]      primal_lower840  377
    u[0]      primal_lower841  247
    u[0]      primal_lower842  784
    u[0]      primal_lower843  689
    u[0]      primal_lower844  713
    u[0]      primal_lower845  590
    u[0]      primal_lower846  889
    u[0]      primal_lower847  758
    u[0]      primal_lower848  452
    u[0]      primal_lower849  448
    u[0]      primal_lower850  490
    u[0]      primal_lower851  919
    u[0]      primal_lower852  883
    u[0]      primal_lower853  629
    u[0]      primal_lower854  609
    u[0]      primal_lower855  792
    u[0]      primal_lower856  232
    u[0]      primal_lower857  858
    u[0]      primal_lower858  665
    u[0]      primal_lower859  343
    u[0]      primal_lower860  872
    u[0]      primal_lower861  594
    u[0]      primal_lower862  789
    u[0]      primal_lower863  399
    u[0]      primal_lower864  544
    u[0]      primal_lower865  340
    u[0]      primal_lower866  740
    u[0]      primal_lower867  949
    u[0]      primal_lower868  190
    u[0]      primal_lower869  799
    u[0]      primal_lower870  840
    u[0]      primal_lower871  555
    u[0]      primal_lower872  96
    u[0]      primal_lower873  260
    u[0]      primal_lower874  303
    u[0]      primal_lower875  314
    u[0]      primal_lower876  282
    u[0]      primal_lower877  386
    u[0]      primal_lower878  339
    u[0]      primal_lower879  309
    u[0]      primal_lower880  412
    u[0]      primal_lower881  220
    u[0]      primal_lower882  637
    u[0]      primal_lower883  422
    u[0]      primal_lower884  295
    u[0]      primal_lower885  162
    u[0]      primal_lower886  482
    u[0]      primal_lower887  137
    u[0]      primal_lower888  31
    u[0]      primal_lower889  607
    u[0]      primal_lower890  333
    u[0]      primal_lower891  752
    u[0]      primal_lower892  966
    u[0]      primal_lower893  51
    u[0]      primal_lower894  985
    u[0]      primal_lower895  672
    u[0]      primal_lower896  112
    u[0]      primal_lower897  25
    u[0]      primal_lower898  754
    u[0]      primal_lower899  825
    u[0]      primal_lower900  953
    u[0]      primal_lower901  569
    u[0]      primal_lower902  95
    u[0]      primal_lower903  17
    u[0]      primal_lower904  656
    u[0]      primal_lower905  681
    u[0]      primal_lower906  870
    u[0]      primal_lower907  423
    u[0]      primal_lower908  499
    u[0]      primal_lower909  306
    u[0]      primal_lower910  31
    u[0]      primal_lower911  838
    u[0]      primal_lower912  754
    u[0]      primal_lower913  333
    u[0]      primal_lower914  652
    u[0]      primal_lower915  650
    u[0]      primal_lower916  752
    u[0]      primal_lower917  617
    u[0]      primal_lower918  237
    u[0]      primal_lower919  728
    u[0]      primal_lower920  450
    u[0]      primal_lower921  307
    u[0]      primal_lower922  755
    u[0]      primal_lower923  175
    u[0]      primal_lower924  436
    u[0]      primal_lower925  631
    u[0]      primal_lower926  597
    u[0]      primal_lower927  414
    u[0]      primal_lower928  479
    u[0]      primal_lower929  746
    u[0]      primal_lower930  649
    u[0]      primal_lower931  636
    u[0]      primal_lower932  866
    u[0]      primal_lower933  957
    u[0]      primal_lower934  575
    u[0]      primal_lower935  603
    u[0]      primal_lower936  966
    u[0]      primal_lower937  390
    u[0]      primal_lower938  828
    u[0]      primal_lower939  404
    u[0]      primal_lower940  654
    u[0]      primal_lower941  560
    u[0]      primal_lower942  736
    u[0]      primal_lower943  152
    u[0]      primal_lower944  26
    u[0]      primal_lower945  628
    u[0]      primal_lower946  541
    u[0]      primal_lower947  830
    u[0]      primal_lower948  15
    u[0]      primal_lower949  804
    u[0]      primal_lower950  235
    u[0]      primal_lower951  256
    u[0]      primal_lower952  230
    u[0]      primal_lower953  454
    u[0]      primal_lower954  621
    u[0]      primal_lower955  987
    u[0]      primal_lower956  464
    u[0]      primal_lower957  173
    u[0]      primal_lower958  921
    u[0]      primal_lower959  648
    u[0]      primal_lower960  754
    u[0]      primal_lower961  976
    u[0]      primal_lower962  417
    u[0]      primal_lower963  271
    u[0]      primal_lower964  440
    u[0]      primal_lower965  592
    u[0]      primal_lower966  739
    u[0]      primal_lower967  594
    u[0]      primal_lower968  493
    u[0]      primal_lower969  329
    u[0]      primal_lower970  730
    u[0]      primal_lower971  82
    u[0]      primal_lower972  301
    u[0]      primal_lower973  776
    u[0]      primal_lower974  675
    u[0]      primal_lower975  293
    u[0]      primal_lower976  20
    u[0]      primal_lower977  80
    u[0]      primal_lower978  700
    u[0]      primal_lower979  329
    u[0]      primal_lower980  840
    u[0]      primal_lower981  836
    u[0]      primal_lower982  98
    u[0]      primal_lower983  639
    u[0]      primal_lower984  628
    u[0]      primal_lower985  275
    u[0]      primal_lower986  437
    u[0]      primal_lower987  352
    u[0]      primal_lower988  809
    u[0]      primal_lower989  68
    u[0]      primal_lower990  218
    u[0]      primal_lower991  380
    u[0]      primal_lower992  865
    u[0]      primal_lower993  291
    u[0]      primal_lower994  17
    u[0]      primal_lower995  547
    u[0]      primal_lower996  75
    u[0]      primal_lower997  446
    u[0]      primal_lower998  355
    u[0]      primal_lower999  451
    u[0]      interdiction[0]  1
    u[0]      mccormick1[0]  -1
    u[0]      mccormick3[0]  1
    u[1]      primal_lower0  912
    u[1]      primal_lower1  916
    u[1]      primal_lower2  312
    u[1]      primal_lower3  730
    u[1]      primal_lower4  785
    u[1]      primal_lower5  953
    u[1]      primal_lower6  342
    u[1]      primal_lower7  125
    u[1]      primal_lower8  855
    u[1]      primal_lower9  809
    u[1]      primal_lower10  232
    u[1]      primal_lower11  653
    u[1]      primal_lower12  532
    u[1]      primal_lower13  614
    u[1]      primal_lower14  362
    u[1]      primal_lower15  927
    u[1]      primal_lower16  929
    u[1]      primal_lower17  907
    u[1]      primal_lower18  432
    u[1]      primal_lower19  107
    u[1]      primal_lower20  237
    u[1]      primal_lower21  128
    u[1]      primal_lower22  203
    u[1]      primal_lower23  47
    u[1]      primal_lower24  999
    u[1]      primal_lower25  808
    u[1]      primal_lower26  445
    u[1]      primal_lower27  133
    u[1]      primal_lower28  244
    u[1]      primal_lower29  25
    u[1]      primal_lower30  907
    u[1]      primal_lower31  465
    u[1]      primal_lower32  278
    u[1]      primal_lower33  213
    u[1]      primal_lower34  262
    u[1]      primal_lower35  145
    u[1]      primal_lower36  849
    u[1]      primal_lower37  406
    u[1]      primal_lower38  513
    u[1]      primal_lower39  758
    u[1]      primal_lower40  9
    u[1]      primal_lower41  195
    u[1]      primal_lower42  640
    u[1]      primal_lower43  41
    u[1]      primal_lower44  582
    u[1]      primal_lower45  385
    u[1]      primal_lower46  52
    u[1]      primal_lower47  171
    u[1]      primal_lower48  593
    u[1]      primal_lower49  714
    u[1]      primal_lower50  928
    u[1]      primal_lower51  732
    u[1]      primal_lower52  397
    u[1]      primal_lower53  163
    u[1]      primal_lower54  296
    u[1]      primal_lower55  316
    u[1]      primal_lower56  714
    u[1]      primal_lower57  108
    u[1]      primal_lower58  658
    u[1]      primal_lower59  417
    u[1]      primal_lower60  573
    u[1]      primal_lower61  969
    u[1]      primal_lower62  516
    u[1]      primal_lower63  221
    u[1]      primal_lower64  953
    u[1]      primal_lower65  825
    u[1]      primal_lower66  334
    u[1]      primal_lower67  25
    u[1]      primal_lower68  480
    u[1]      primal_lower69  510
    u[1]      primal_lower70  113
    u[1]      primal_lower71  22
    u[1]      primal_lower72  650
    u[1]      primal_lower73  483
    u[1]      primal_lower74  338
    u[1]      primal_lower75  884
    u[1]      primal_lower76  273
    u[1]      primal_lower77  638
    u[1]      primal_lower78  490
    u[1]      primal_lower79  508
    u[1]      primal_lower80  367
    u[1]      primal_lower81  840
    u[1]      primal_lower82  587
    u[1]      primal_lower83  89
    u[1]      primal_lower84  330
    u[1]      primal_lower85  318
    u[1]      primal_lower86  83
    u[1]      primal_lower87  848
    u[1]      primal_lower88  382
    u[1]      primal_lower89  434
    u[1]      primal_lower90  51
    u[1]      primal_lower91  407
    u[1]      primal_lower92  241
    u[1]      primal_lower93  81
    u[1]      primal_lower94  31
    u[1]      primal_lower95  747
    u[1]      primal_lower96  354
    u[1]      primal_lower97  282
    u[1]      primal_lower98  288
    u[1]      primal_lower99  603
    u[1]      primal_lower100  789
    u[1]      primal_lower101  874
    u[1]      primal_lower102  497
    u[1]      primal_lower103  195
    u[1]      primal_lower104  778
    u[1]      primal_lower105  263
    u[1]      primal_lower106  589
    u[1]      primal_lower107  537
    u[1]      primal_lower108  624
    u[1]      primal_lower109  406
    u[1]      primal_lower110  905
    u[1]      primal_lower111  856
    u[1]      primal_lower112  184
    u[1]      primal_lower113  895
    u[1]      primal_lower114  71
    u[1]      primal_lower115  560
    u[1]      primal_lower116  127
    u[1]      primal_lower117  229
    u[1]      primal_lower118  54
    u[1]      primal_lower119  51
    u[1]      primal_lower120  799
    u[1]      primal_lower121  778
    u[1]      primal_lower122  466
    u[1]      primal_lower123  635
    u[1]      primal_lower124  380
    u[1]      primal_lower125  123
    u[1]      primal_lower126  21
    u[1]      primal_lower127  538
    u[1]      primal_lower128  920
    u[1]      primal_lower129  279
    u[1]      primal_lower130  513
    u[1]      primal_lower131  910
    u[1]      primal_lower132  914
    u[1]      primal_lower133  255
    u[1]      primal_lower134  208
    u[1]      primal_lower135  737
    u[1]      primal_lower136  788
    u[1]      primal_lower137  279
    u[1]      primal_lower138  131
    u[1]      primal_lower139  549
    u[1]      primal_lower140  366
    u[1]      primal_lower141  26
    u[1]      primal_lower142  256
    u[1]      primal_lower143  400
    u[1]      primal_lower144  239
    u[1]      primal_lower145  850
    u[1]      primal_lower146  921
    u[1]      primal_lower147  524
    u[1]      primal_lower148  89
    u[1]      primal_lower149  78
    u[1]      primal_lower150  517
    u[1]      primal_lower151  717
    u[1]      primal_lower152  358
    u[1]      primal_lower153  131
    u[1]      primal_lower154  990
    u[1]      primal_lower155  734
    u[1]      primal_lower156  208
    u[1]      primal_lower157  711
    u[1]      primal_lower158  627
    u[1]      primal_lower159  696
    u[1]      primal_lower160  868
    u[1]      primal_lower161  790
    u[1]      primal_lower162  208
    u[1]      primal_lower163  11
    u[1]      primal_lower164  857
    u[1]      primal_lower165  14
    u[1]      primal_lower166  303
    u[1]      primal_lower167  601
    u[1]      primal_lower168  786
    u[1]      primal_lower169  498
    u[1]      primal_lower170  874
    u[1]      primal_lower171  392
    u[1]      primal_lower172  394
    u[1]      primal_lower173  294
    u[1]      primal_lower174  15
    u[1]      primal_lower175  254
    u[1]      primal_lower176  350
    u[1]      primal_lower177  727
    u[1]      primal_lower178  179
    u[1]      primal_lower179  666
    u[1]      primal_lower180  62
    u[1]      primal_lower181  204
    u[1]      primal_lower182  51
    u[1]      primal_lower183  15
    u[1]      primal_lower184  743
    u[1]      primal_lower185  381
    u[1]      primal_lower186  117
    u[1]      primal_lower187  152
    u[1]      primal_lower188  930
    u[1]      primal_lower189  697
    u[1]      primal_lower190  373
    u[1]      primal_lower191  169
    u[1]      primal_lower192  631
    u[1]      primal_lower193  371
    u[1]      primal_lower194  485
    u[1]      primal_lower195  292
    u[1]      primal_lower196  114
    u[1]      primal_lower197  516
    u[1]      primal_lower198  827
    u[1]      primal_lower199  787
    u[1]      primal_lower200  197
    u[1]      primal_lower201  639
    u[1]      primal_lower202  204
    u[1]      primal_lower203  168
    u[1]      primal_lower204  541
    u[1]      primal_lower205  131
    u[1]      primal_lower206  914
    u[1]      primal_lower207  581
    u[1]      primal_lower208  829
    u[1]      primal_lower209  2
    u[1]      primal_lower210  112
    u[1]      primal_lower211  914
    u[1]      primal_lower212  859
    u[1]      primal_lower213  749
    u[1]      primal_lower214  340
    u[1]      primal_lower215  545
    u[1]      primal_lower216  542
    u[1]      primal_lower217  955
    u[1]      primal_lower218  36
    u[1]      primal_lower219  76
    u[1]      primal_lower220  84
    u[1]      primal_lower221  886
    u[1]      primal_lower222  828
    u[1]      primal_lower223  261
    u[1]      primal_lower224  756
    u[1]      primal_lower225  204
    u[1]      primal_lower226  328
    u[1]      primal_lower227  805
    u[1]      primal_lower228  28
    u[1]      primal_lower229  571
    u[1]      primal_lower230  277
    u[1]      primal_lower231  965
    u[1]      primal_lower232  850
    u[1]      primal_lower233  547
    u[1]      primal_lower234  804
    u[1]      primal_lower235  892
    u[1]      primal_lower236  477
    u[1]      primal_lower237  597
    u[1]      primal_lower238  550
    u[1]      primal_lower239  338
    u[1]      primal_lower240  832
    u[1]      primal_lower241  299
    u[1]      primal_lower242  31
    u[1]      primal_lower243  894
    u[1]      primal_lower244  86
    u[1]      primal_lower245  987
    u[1]      primal_lower246  822
    u[1]      primal_lower247  626
    u[1]      primal_lower248  574
    u[1]      primal_lower249  831
    u[1]      primal_lower250  608
    u[1]      primal_lower251  336
    u[1]      primal_lower252  69
    u[1]      primal_lower253  510
    u[1]      primal_lower254  633
    u[1]      primal_lower255  973
    u[1]      primal_lower256  316
    u[1]      primal_lower257  233
    u[1]      primal_lower258  174
    u[1]      primal_lower259  921
    u[1]      primal_lower260  913
    u[1]      primal_lower261  970
    u[1]      primal_lower262  214
    u[1]      primal_lower263  956
    u[1]      primal_lower264  927
    u[1]      primal_lower265  349
    u[1]      primal_lower266  420
    u[1]      primal_lower267  378
    u[1]      primal_lower268  140
    u[1]      primal_lower269  152
    u[1]      primal_lower270  801
    u[1]      primal_lower271  941
    u[1]      primal_lower272  387
    u[1]      primal_lower273  188
    u[1]      primal_lower274  829
    u[1]      primal_lower275  65
    u[1]      primal_lower276  506
    u[1]      primal_lower277  223
    u[1]      primal_lower278  943
    u[1]      primal_lower279  345
    u[1]      primal_lower280  600
    u[1]      primal_lower281  949
    u[1]      primal_lower282  695
    u[1]      primal_lower283  478
    u[1]      primal_lower284  794
    u[1]      primal_lower285  353
    u[1]      primal_lower286  408
    u[1]      primal_lower287  12
    u[1]      primal_lower288  760
    u[1]      primal_lower289  559
    u[1]      primal_lower290  160
    u[1]      primal_lower291  626
    u[1]      primal_lower292  970
    u[1]      primal_lower293  182
    u[1]      primal_lower294  807
    u[1]      primal_lower295  979
    u[1]      primal_lower296  31
    u[1]      primal_lower297  324
    u[1]      primal_lower298  618
    u[1]      primal_lower299  452
    u[1]      primal_lower300  396
    u[1]      primal_lower301  915
    u[1]      primal_lower302  134
    u[1]      primal_lower303  428
    u[1]      primal_lower304  552
    u[1]      primal_lower305  756
    u[1]      primal_lower306  942
    u[1]      primal_lower307  870
    u[1]      primal_lower308  602
    u[1]      primal_lower309  168
    u[1]      primal_lower310  615
    u[1]      primal_lower311  305
    u[1]      primal_lower312  425
    u[1]      primal_lower313  224
    u[1]      primal_lower314  737
    u[1]      primal_lower315  852
    u[1]      primal_lower316  92
    u[1]      primal_lower317  613
    u[1]      primal_lower318  781
    u[1]      primal_lower319  458
    u[1]      primal_lower320  939
    u[1]      primal_lower321  532
    u[1]      primal_lower322  708
    u[1]      primal_lower323  444
    u[1]      primal_lower324  504
    u[1]      primal_lower325  122
    u[1]      primal_lower326  477
    u[1]      primal_lower327  472
    u[1]      primal_lower328  877
    u[1]      primal_lower329  497
    u[1]      primal_lower330  705
    u[1]      primal_lower331  321
    u[1]      primal_lower332  458
    u[1]      primal_lower333  254
    u[1]      primal_lower334  185
    u[1]      primal_lower335  744
    u[1]      primal_lower336  239
    u[1]      primal_lower337  567
    u[1]      primal_lower338  727
    u[1]      primal_lower339  237
    u[1]      primal_lower340  94
    u[1]      primal_lower341  606
    u[1]      primal_lower342  451
    u[1]      primal_lower343  42
    u[1]      primal_lower344  861
    u[1]      primal_lower345  752
    u[1]      primal_lower346  776
    u[1]      primal_lower347  228
    u[1]      primal_lower348  667
    u[1]      primal_lower349  789
    u[1]      primal_lower350  431
    u[1]      primal_lower351  240
    u[1]      primal_lower352  825
    u[1]      primal_lower353  608
    u[1]      primal_lower354  771
    u[1]      primal_lower355  241
    u[1]      primal_lower356  479
    u[1]      primal_lower357  990
    u[1]      primal_lower358  956
    u[1]      primal_lower359  795
    u[1]      primal_lower360  235
    u[1]      primal_lower361  217
    u[1]      primal_lower362  675
    u[1]      primal_lower363  942
    u[1]      primal_lower364  647
    u[1]      primal_lower365  353
    u[1]      primal_lower366  255
    u[1]      primal_lower367  169
    u[1]      primal_lower368  303
    u[1]      primal_lower369  659
    u[1]      primal_lower370  711
    u[1]      primal_lower371  435
    u[1]      primal_lower372  555
    u[1]      primal_lower373  208
    u[1]      primal_lower374  203
    u[1]      primal_lower375  76
    u[1]      primal_lower376  92
    u[1]      primal_lower377  908
    u[1]      primal_lower378  340
    u[1]      primal_lower379  864
    u[1]      primal_lower380  645
    u[1]      primal_lower381  256
    u[1]      primal_lower382  686
    u[1]      primal_lower383  373
    u[1]      primal_lower384  309
    u[1]      primal_lower385  970
    u[1]      primal_lower386  733
    u[1]      primal_lower387  618
    u[1]      primal_lower388  804
    u[1]      primal_lower389  923
    u[1]      primal_lower390  287
    u[1]      primal_lower391  269
    u[1]      primal_lower392  888
    u[1]      primal_lower393  314
    u[1]      primal_lower394  626
    u[1]      primal_lower395  827
    u[1]      primal_lower396  846
    u[1]      primal_lower397  854
    u[1]      primal_lower398  394
    u[1]      primal_lower399  993
    u[1]      primal_lower400  944
    u[1]      primal_lower401  322
    u[1]      primal_lower402  450
    u[1]      primal_lower403  819
    u[1]      primal_lower404  525
    u[1]      primal_lower405  145
    u[1]      primal_lower406  503
    u[1]      primal_lower407  809
    u[1]      primal_lower408  528
    u[1]      primal_lower409  852
    u[1]      primal_lower410  699
    u[1]      primal_lower411  297
    u[1]      primal_lower412  902
    u[1]      primal_lower413  942
    u[1]      primal_lower414  470
    u[1]      primal_lower415  216
    u[1]      primal_lower416  26
    u[1]      primal_lower417  100
    u[1]      primal_lower418  502
    u[1]      primal_lower419  653
    u[1]      primal_lower420  377
    u[1]      primal_lower421  591
    u[1]      primal_lower422  124
    u[1]      primal_lower423  852
    u[1]      primal_lower424  550
    u[1]      primal_lower425  343
    u[1]      primal_lower426  942
    u[1]      primal_lower427  196
    u[1]      primal_lower428  524
    u[1]      primal_lower429  343
    u[1]      primal_lower430  332
    u[1]      primal_lower431  922
    u[1]      primal_lower432  223
    u[1]      primal_lower433  679
    u[1]      primal_lower434  86
    u[1]      primal_lower435  812
    u[1]      primal_lower436  99
    u[1]      primal_lower437  687
    u[1]      primal_lower438  785
    u[1]      primal_lower439  1000
    u[1]      primal_lower440  810
    u[1]      primal_lower441  22
    u[1]      primal_lower442  189
    u[1]      primal_lower443  648
    u[1]      primal_lower444  643
    u[1]      primal_lower445  232
    u[1]      primal_lower446  17
    u[1]      primal_lower447  197
    u[1]      primal_lower448  452
    u[1]      primal_lower449  14
    u[1]      primal_lower450  345
    u[1]      primal_lower451  537
    u[1]      primal_lower452  228
    u[1]      primal_lower453  667
    u[1]      primal_lower454  859
    u[1]      primal_lower455  825
    u[1]      primal_lower456  296
    u[1]      primal_lower457  550
    u[1]      primal_lower458  713
    u[1]      primal_lower459  628
    u[1]      primal_lower460  682
    u[1]      primal_lower461  659
    u[1]      primal_lower462  312
    u[1]      primal_lower463  931
    u[1]      primal_lower464  379
    u[1]      primal_lower465  958
    u[1]      primal_lower466  631
    u[1]      primal_lower467  821
    u[1]      primal_lower468  709
    u[1]      primal_lower469  2
    u[1]      primal_lower470  230
    u[1]      primal_lower471  677
    u[1]      primal_lower472  338
    u[1]      primal_lower473  218
    u[1]      primal_lower474  329
    u[1]      primal_lower475  924
    u[1]      primal_lower476  261
    u[1]      primal_lower477  500
    u[1]      primal_lower478  326
    u[1]      primal_lower479  722
    u[1]      primal_lower480  607
    u[1]      primal_lower481  652
    u[1]      primal_lower482  43
    u[1]      primal_lower483  357
    u[1]      primal_lower484  47
    u[1]      primal_lower485  115
    u[1]      primal_lower486  257
    u[1]      primal_lower487  974
    u[1]      primal_lower488  441
    u[1]      primal_lower489  904
    u[1]      primal_lower490  750
    u[1]      primal_lower491  292
    u[1]      primal_lower492  757
    u[1]      primal_lower493  861
    u[1]      primal_lower494  230
    u[1]      primal_lower495  544
    u[1]      primal_lower496  896
    u[1]      primal_lower497  429
    u[1]      primal_lower498  901
    u[1]      primal_lower499  354
    u[1]      primal_lower500  832
    u[1]      primal_lower501  411
    u[1]      primal_lower502  708
    u[1]      primal_lower503  827
    u[1]      primal_lower504  484
    u[1]      primal_lower505  192
    u[1]      primal_lower506  817
    u[1]      primal_lower507  302
    u[1]      primal_lower508  277
    u[1]      primal_lower509  483
    u[1]      primal_lower510  67
    u[1]      primal_lower511  645
    u[1]      primal_lower512  804
    u[1]      primal_lower513  849
    u[1]      primal_lower514  289
    u[1]      primal_lower515  473
    u[1]      primal_lower516  315
    u[1]      primal_lower517  777
    u[1]      primal_lower518  652
    u[1]      primal_lower519  223
    u[1]      primal_lower520  145
    u[1]      primal_lower521  964
    u[1]      primal_lower522  430
    u[1]      primal_lower523  453
    u[1]      primal_lower524  689
    u[1]      primal_lower525  606
    u[1]      primal_lower526  556
    u[1]      primal_lower527  839
    u[1]      primal_lower528  385
    u[1]      primal_lower529  589
    u[1]      primal_lower530  146
    u[1]      primal_lower531  31
    u[1]      primal_lower532  195
    u[1]      primal_lower533  644
    u[1]      primal_lower534  139
    u[1]      primal_lower535  610
    u[1]      primal_lower536  827
    u[1]      primal_lower537  678
    u[1]      primal_lower538  231
    u[1]      primal_lower539  151
    u[1]      primal_lower540  810
    u[1]      primal_lower541  620
    u[1]      primal_lower542  601
    u[1]      primal_lower543  17
    u[1]      primal_lower544  822
    u[1]      primal_lower545  5
    u[1]      primal_lower546  562
    u[1]      primal_lower547  282
    u[1]      primal_lower548  141
    u[1]      primal_lower549  726
    u[1]      primal_lower550  798
    u[1]      primal_lower551  425
    u[1]      primal_lower552  635
    u[1]      primal_lower553  959
    u[1]      primal_lower554  501
    u[1]      primal_lower555  10
    u[1]      primal_lower556  336
    u[1]      primal_lower557  690
    u[1]      primal_lower558  703
    u[1]      primal_lower559  955
    u[1]      primal_lower560  281
    u[1]      primal_lower561  878
    u[1]      primal_lower562  208
    u[1]      primal_lower563  289
    u[1]      primal_lower564  646
    u[1]      primal_lower565  93
    u[1]      primal_lower566  415
    u[1]      primal_lower567  86
    u[1]      primal_lower568  560
    u[1]      primal_lower569  571
    u[1]      primal_lower570  223
    u[1]      primal_lower571  449
    u[1]      primal_lower572  414
    u[1]      primal_lower573  511
    u[1]      primal_lower574  270
    u[1]      primal_lower575  163
    u[1]      primal_lower576  359
    u[1]      primal_lower577  358
    u[1]      primal_lower578  797
    u[1]      primal_lower579  187
    u[1]      primal_lower580  680
    u[1]      primal_lower581  394
    u[1]      primal_lower582  988
    u[1]      primal_lower583  280
    u[1]      primal_lower584  869
    u[1]      primal_lower585  467
    u[1]      primal_lower586  33
    u[1]      primal_lower587  328
    u[1]      primal_lower588  398
    u[1]      primal_lower589  967
    u[1]      primal_lower590  164
    u[1]      primal_lower591  656
    u[1]      primal_lower592  276
    u[1]      primal_lower593  826
    u[1]      primal_lower594  204
    u[1]      primal_lower595  345
    u[1]      primal_lower596  464
    u[1]      primal_lower597  365
    u[1]      primal_lower598  783
    u[1]      primal_lower599  922
    u[1]      primal_lower600  43
    u[1]      primal_lower601  401
    u[1]      primal_lower602  114
    u[1]      primal_lower603  185
    u[1]      primal_lower604  169
    u[1]      primal_lower605  919
    u[1]      primal_lower606  13
    u[1]      primal_lower607  931
    u[1]      primal_lower608  18
    u[1]      primal_lower609  889
    u[1]      primal_lower610  81
    u[1]      primal_lower611  60
    u[1]      primal_lower612  224
    u[1]      primal_lower613  714
    u[1]      primal_lower614  173
    u[1]      primal_lower615  54
    u[1]      primal_lower616  872
    u[1]      primal_lower617  386
    u[1]      primal_lower618  985
    u[1]      primal_lower619  986
    u[1]      primal_lower620  268
    u[1]      primal_lower621  624
    u[1]      primal_lower622  301
    u[1]      primal_lower623  15
    u[1]      primal_lower624  784
    u[1]      primal_lower625  934
    u[1]      primal_lower626  843
    u[1]      primal_lower627  172
    u[1]      primal_lower628  418
    u[1]      primal_lower629  650
    u[1]      primal_lower630  486
    u[1]      primal_lower631  219
    u[1]      primal_lower632  985
    u[1]      primal_lower633  883
    u[1]      primal_lower634  681
    u[1]      primal_lower635  480
    u[1]      primal_lower636  523
    u[1]      primal_lower637  542
    u[1]      primal_lower638  626
    u[1]      primal_lower639  921
    u[1]      primal_lower640  301
    u[1]      primal_lower641  963
    u[1]      primal_lower642  170
    u[1]      primal_lower643  754
    u[1]      primal_lower644  747
    u[1]      primal_lower645  3
    u[1]      primal_lower646  984
    u[1]      primal_lower647  822
    u[1]      primal_lower648  739
    u[1]      primal_lower649  58
    u[1]      primal_lower650  151
    u[1]      primal_lower651  846
    u[1]      primal_lower652  327
    u[1]      primal_lower653  469
    u[1]      primal_lower654  318
    u[1]      primal_lower655  422
    u[1]      primal_lower656  610
    u[1]      primal_lower657  412
    u[1]      primal_lower658  758
    u[1]      primal_lower659  179
    u[1]      primal_lower660  223
    u[1]      primal_lower661  888
    u[1]      primal_lower662  68
    u[1]      primal_lower663  432
    u[1]      primal_lower664  236
    u[1]      primal_lower665  842
    u[1]      primal_lower666  996
    u[1]      primal_lower667  703
    u[1]      primal_lower668  164
    u[1]      primal_lower669  802
    u[1]      primal_lower670  994
    u[1]      primal_lower671  83
    u[1]      primal_lower672  216
    u[1]      primal_lower673  821
    u[1]      primal_lower674  789
    u[1]      primal_lower675  303
    u[1]      primal_lower676  173
    u[1]      primal_lower677  964
    u[1]      primal_lower678  115
    u[1]      primal_lower679  472
    u[1]      primal_lower680  394
    u[1]      primal_lower681  770
    u[1]      primal_lower682  192
    u[1]      primal_lower683  517
    u[1]      primal_lower684  908
    u[1]      primal_lower685  939
    u[1]      primal_lower686  779
    u[1]      primal_lower687  599
    u[1]      primal_lower688  654
    u[1]      primal_lower689  356
    u[1]      primal_lower690  607
    u[1]      primal_lower691  388
    u[1]      primal_lower692  901
    u[1]      primal_lower693  309
    u[1]      primal_lower694  423
    u[1]      primal_lower695  819
    u[1]      primal_lower696  915
    u[1]      primal_lower697  28
    u[1]      primal_lower698  448
    u[1]      primal_lower699  897
    u[1]      primal_lower700  700
    u[1]      primal_lower701  22
    u[1]      primal_lower702  593
    u[1]      primal_lower703  539
    u[1]      primal_lower704  942
    u[1]      primal_lower705  163
    u[1]      primal_lower706  702
    u[1]      primal_lower707  702
    u[1]      primal_lower708  733
    u[1]      primal_lower709  497
    u[1]      primal_lower710  255
    u[1]      primal_lower711  889
    u[1]      primal_lower712  712
    u[1]      primal_lower713  744
    u[1]      primal_lower714  621
    u[1]      primal_lower715  983
    u[1]      primal_lower716  461
    u[1]      primal_lower717  399
    u[1]      primal_lower718  317
    u[1]      primal_lower719  635
    u[1]      primal_lower720  923
    u[1]      primal_lower721  29
    u[1]      primal_lower722  338
    u[1]      primal_lower723  60
    u[1]      primal_lower724  771
    u[1]      primal_lower725  476
    u[1]      primal_lower726  720
    u[1]      primal_lower727  690
    u[1]      primal_lower728  842
    u[1]      primal_lower729  719
    u[1]      primal_lower730  649
    u[1]      primal_lower731  308
    u[1]      primal_lower732  30
    u[1]      primal_lower733  886
    u[1]      primal_lower734  261
    u[1]      primal_lower735  735
    u[1]      primal_lower736  651
    u[1]      primal_lower737  175
    u[1]      primal_lower738  463
    u[1]      primal_lower739  654
    u[1]      primal_lower740  382
    u[1]      primal_lower741  778
    u[1]      primal_lower742  3
    u[1]      primal_lower743  804
    u[1]      primal_lower744  542
    u[1]      primal_lower745  663
    u[1]      primal_lower746  924
    u[1]      primal_lower747  741
    u[1]      primal_lower748  214
    u[1]      primal_lower749  931
    u[1]      primal_lower750  780
    u[1]      primal_lower751  683
    u[1]      primal_lower752  885
    u[1]      primal_lower753  552
    u[1]      primal_lower754  972
    u[1]      primal_lower755  809
    u[1]      primal_lower756  962
    u[1]      primal_lower757  776
    u[1]      primal_lower758  548
    u[1]      primal_lower759  499
    u[1]      primal_lower760  650
    u[1]      primal_lower761  490
    u[1]      primal_lower762  997
    u[1]      primal_lower763  542
    u[1]      primal_lower764  104
    u[1]      primal_lower765  562
    u[1]      primal_lower766  352
    u[1]      primal_lower767  708
    u[1]      primal_lower768  705
    u[1]      primal_lower769  409
    u[1]      primal_lower770  7
    u[1]      primal_lower771  756
    u[1]      primal_lower772  887
    u[1]      primal_lower773  614
    u[1]      primal_lower774  926
    u[1]      primal_lower775  892
    u[1]      primal_lower776  463
    u[1]      primal_lower777  490
    u[1]      primal_lower778  251
    u[1]      primal_lower779  248
    u[1]      primal_lower780  365
    u[1]      primal_lower781  405
    u[1]      primal_lower782  163
    u[1]      primal_lower783  292
    u[1]      primal_lower784  677
    u[1]      primal_lower785  163
    u[1]      primal_lower786  363
    u[1]      primal_lower787  700
    u[1]      primal_lower788  830
    u[1]      primal_lower789  703
    u[1]      primal_lower790  237
    u[1]      primal_lower791  155
    u[1]      primal_lower792  645
    u[1]      primal_lower793  272
    u[1]      primal_lower794  288
    u[1]      primal_lower795  232
    u[1]      primal_lower796  531
    u[1]      primal_lower797  636
    u[1]      primal_lower798  275
    u[1]      primal_lower799  713
    u[1]      primal_lower800  434
    u[1]      primal_lower801  637
    u[1]      primal_lower802  313
    u[1]      primal_lower803  569
    u[1]      primal_lower804  307
    u[1]      primal_lower805  144
    u[1]      primal_lower806  414
    u[1]      primal_lower807  869
    u[1]      primal_lower808  497
    u[1]      primal_lower809  276
    u[1]      primal_lower810  360
    u[1]      primal_lower811  835
    u[1]      primal_lower812  240
    u[1]      primal_lower813  10
    u[1]      primal_lower814  367
    u[1]      primal_lower815  546
    u[1]      primal_lower816  536
    u[1]      primal_lower817  991
    u[1]      primal_lower818  790
    u[1]      primal_lower819  854
    u[1]      primal_lower820  909
    u[1]      primal_lower821  620
    u[1]      primal_lower822  153
    u[1]      primal_lower823  252
    u[1]      primal_lower824  435
    u[1]      primal_lower825  757
    u[1]      primal_lower826  82
    u[1]      primal_lower827  219
    u[1]      primal_lower828  826
    u[1]      primal_lower829  446
    u[1]      primal_lower830  659
    u[1]      primal_lower831  426
    u[1]      primal_lower832  757
    u[1]      primal_lower833  453
    u[1]      primal_lower834  553
    u[1]      primal_lower835  96
    u[1]      primal_lower836  242
    u[1]      primal_lower837  821
    u[1]      primal_lower838  31
    u[1]      primal_lower839  75
    u[1]      primal_lower840  970
    u[1]      primal_lower841  224
    u[1]      primal_lower842  156
    u[1]      primal_lower843  181
    u[1]      primal_lower844  77
    u[1]      primal_lower845  402
    u[1]      primal_lower846  362
    u[1]      primal_lower847  850
    u[1]      primal_lower848  920
    u[1]      primal_lower849  25
    u[1]      primal_lower850  195
    u[1]      primal_lower851  120
    u[1]      primal_lower852  183
    u[1]      primal_lower853  753
    u[1]      primal_lower854  186
    u[1]      primal_lower855  84
    u[1]      primal_lower856  593
    u[1]      primal_lower857  883
    u[1]      primal_lower858  978
    u[1]      primal_lower859  680
    u[1]      primal_lower860  892
    u[1]      primal_lower861  166
    u[1]      primal_lower862  126
    u[1]      primal_lower863  291
    u[1]      primal_lower864  500
    u[1]      primal_lower865  85
    u[1]      primal_lower866  733
    u[1]      primal_lower867  673
    u[1]      primal_lower868  631
    u[1]      primal_lower869  280
    u[1]      primal_lower870  436
    u[1]      primal_lower871  676
    u[1]      primal_lower872  97
    u[1]      primal_lower873  197
    u[1]      primal_lower874  968
    u[1]      primal_lower875  958
    u[1]      primal_lower876  478
    u[1]      primal_lower877  422
    u[1]      primal_lower878  7
    u[1]      primal_lower879  737
    u[1]      primal_lower880  773
    u[1]      primal_lower881  133
    u[1]      primal_lower882  153
    u[1]      primal_lower883  594
    u[1]      primal_lower884  288
    u[1]      primal_lower885  462
    u[1]      primal_lower886  899
    u[1]      primal_lower887  650
    u[1]      primal_lower888  896
    u[1]      primal_lower889  472
    u[1]      primal_lower890  361
    u[1]      primal_lower891  553
    u[1]      primal_lower892  175
    u[1]      primal_lower893  975
    u[1]      primal_lower894  794
    u[1]      primal_lower895  460
    u[1]      primal_lower896  732
    u[1]      primal_lower897  314
    u[1]      primal_lower898  851
    u[1]      primal_lower899  925
    u[1]      primal_lower900  21
    u[1]      primal_lower901  613
    u[1]      primal_lower902  96
    u[1]      primal_lower903  762
    u[1]      primal_lower904  697
    u[1]      primal_lower905  450
    u[1]      primal_lower906  175
    u[1]      primal_lower907  872
    u[1]      primal_lower908  503
    u[1]      primal_lower909  667
    u[1]      primal_lower910  27
    u[1]      primal_lower911  458
    u[1]      primal_lower912  891
    u[1]      primal_lower913  849
    u[1]      primal_lower914  456
    u[1]      primal_lower915  742
    u[1]      primal_lower916  948
    u[1]      primal_lower917  661
    u[1]      primal_lower918  710
    u[1]      primal_lower919  20
    u[1]      primal_lower920  763
    u[1]      primal_lower921  487
    u[1]      primal_lower922  292
    u[1]      primal_lower923  251
    u[1]      primal_lower924  920
    u[1]      primal_lower925  944
    u[1]      primal_lower926  289
    u[1]      primal_lower927  415
    u[1]      primal_lower928  192
    u[1]      primal_lower929  595
    u[1]      primal_lower930  666
    u[1]      primal_lower931  61
    u[1]      primal_lower932  230
    u[1]      primal_lower933  113
    u[1]      primal_lower934  483
    u[1]      primal_lower935  36
    u[1]      primal_lower936  615
    u[1]      primal_lower937  831
    u[1]      primal_lower938  893
    u[1]      primal_lower939  288
    u[1]      primal_lower940  887
    u[1]      primal_lower941  588
    u[1]      primal_lower942  604
    u[1]      primal_lower943  972
    u[1]      primal_lower944  382
    u[1]      primal_lower945  965
    u[1]      primal_lower946  614
    u[1]      primal_lower947  210
    u[1]      primal_lower948  227
    u[1]      primal_lower949  832
    u[1]      primal_lower950  532
    u[1]      primal_lower951  212
    u[1]      primal_lower952  583
    u[1]      primal_lower953  834
    u[1]      primal_lower954  809
    u[1]      primal_lower955  655
    u[1]      primal_lower956  505
    u[1]      primal_lower957  734
    u[1]      primal_lower958  597
    u[1]      primal_lower959  297
    u[1]      primal_lower960  686
    u[1]      primal_lower961  276
    u[1]      primal_lower962  210
    u[1]      primal_lower963  216
    u[1]      primal_lower964  692
    u[1]      primal_lower965  740
    u[1]      primal_lower966  820
    u[1]      primal_lower967  243
    u[1]      primal_lower968  201
    u[1]      primal_lower969  410
    u[1]      primal_lower970  251
    u[1]      primal_lower971  323
    u[1]      primal_lower972  118
    u[1]      primal_lower973  465
    u[1]      primal_lower974  348
    u[1]      primal_lower975  929
    u[1]      primal_lower976  416
    u[1]      primal_lower977  713
    u[1]      primal_lower978  232
    u[1]      primal_lower979  266
    u[1]      primal_lower980  12
    u[1]      primal_lower981  88
    u[1]      primal_lower982  691
    u[1]      primal_lower983  363
    u[1]      primal_lower984  672
    u[1]      primal_lower985  15
    u[1]      primal_lower986  25
    u[1]      primal_lower987  116
    u[1]      primal_lower988  418
    u[1]      primal_lower989  184
    u[1]      primal_lower990  651
    u[1]      primal_lower991  53
    u[1]      primal_lower992  901
    u[1]      primal_lower993  92
    u[1]      primal_lower994  434
    u[1]      primal_lower995  332
    u[1]      primal_lower996  524
    u[1]      primal_lower997  567
    u[1]      primal_lower998  132
    u[1]      primal_lower999  44
    u[1]      interdiction[1]  1
    u[1]      mccormick1[1]  -1
    u[1]      mccormick3[1]  1
    u[2]      primal_lower0  690
    u[2]      primal_lower1  502
    u[2]      primal_lower2  214
    u[2]      primal_lower3  664
    u[2]      primal_lower4  939
    u[2]      primal_lower5  187
    u[2]      primal_lower6  188
    u[2]      primal_lower7  887
    u[2]      primal_lower8  189
    u[2]      primal_lower9  83
    u[2]      primal_lower10  890
    u[2]      primal_lower11  251
    u[2]      primal_lower12  890
    u[2]      primal_lower13  940
    u[2]      primal_lower14  780
    u[2]      primal_lower15  337
    u[2]      primal_lower16  167
    u[2]      primal_lower17  697
    u[2]      primal_lower18  474
    u[2]      primal_lower19  505
    u[2]      primal_lower20  407
    u[2]      primal_lower21  106
    u[2]      primal_lower22  261
    u[2]      primal_lower23  525
    u[2]      primal_lower24  945
    u[2]      primal_lower25  698
    u[2]      primal_lower26  439
    u[2]      primal_lower27  271
    u[2]      primal_lower28  902
    u[2]      primal_lower29  147
    u[2]      primal_lower30  629
    u[2]      primal_lower31  407
    u[2]      primal_lower32  396
    u[2]      primal_lower33  679
    u[2]      primal_lower34  948
    u[2]      primal_lower35  339
    u[2]      primal_lower36  199
    u[2]      primal_lower37  376
    u[2]      primal_lower38  127
    u[2]      primal_lower39  132
    u[2]      primal_lower40  651
    u[2]      primal_lower41  109
    u[2]      primal_lower42  642
    u[2]      primal_lower43  535
    u[2]      primal_lower44  948
    u[2]      primal_lower45  143
    u[2]      primal_lower46  850
    u[2]      primal_lower47  593
    u[2]      primal_lower48  515
    u[2]      primal_lower49  836
    u[2]      primal_lower50  834
    u[2]      primal_lower51  690
    u[2]      primal_lower52  755
    u[2]      primal_lower53  477
    u[2]      primal_lower54  446
    u[2]      primal_lower55  946
    u[2]      primal_lower56  660
    u[2]      primal_lower57  410
    u[2]      primal_lower58  116
    u[2]      primal_lower59  423
    u[2]      primal_lower60  119
    u[2]      primal_lower61  851
    u[2]      primal_lower62  966
    u[2]      primal_lower63  327
    u[2]      primal_lower64  971
    u[2]      primal_lower65  711
    u[2]      primal_lower66  372
    u[2]      primal_lower67  43
    u[2]      primal_lower68  510
    u[2]      primal_lower69  644
    u[2]      primal_lower70  115
    u[2]      primal_lower71  700
    u[2]      primal_lower72  372
    u[2]      primal_lower73  385
    u[2]      primal_lower74  604
    u[2]      primal_lower75  830
    u[2]      primal_lower76  651
    u[2]      primal_lower77  416
    u[2]      primal_lower78  380
    u[2]      primal_lower79  366
    u[2]      primal_lower80  581
    u[2]      primal_lower81  150
    u[2]      primal_lower82  197
    u[2]      primal_lower83  79
    u[2]      primal_lower84  308
    u[2]      primal_lower85  312
    u[2]      primal_lower86  869
    u[2]      primal_lower87  70
    u[2]      primal_lower88  988
    u[2]      primal_lower89  192
    u[2]      primal_lower90  817
    u[2]      primal_lower91  589
    u[2]      primal_lower92  159
    u[2]      primal_lower93  171
    u[2]      primal_lower94  497
    u[2]      primal_lower95  909
    u[2]      primal_lower96  724
    u[2]      primal_lower97  624
    u[2]      primal_lower98  238
    u[2]      primal_lower99  213
    u[2]      primal_lower100  235
    u[2]      primal_lower101  600
    u[2]      primal_lower102  23
    u[2]      primal_lower103  313
    u[2]      primal_lower104  828
    u[2]      primal_lower105  41
    u[2]      primal_lower106  123
    u[2]      primal_lower107  247
    u[2]      primal_lower108  266
    u[2]      primal_lower109  656
    u[2]      primal_lower110  859
    u[2]      primal_lower111  670
    u[2]      primal_lower112  130
    u[2]      primal_lower113  53
    u[2]      primal_lower114  645
    u[2]      primal_lower115  234
    u[2]      primal_lower116  881
    u[2]      primal_lower117  223
    u[2]      primal_lower118  60
    u[2]      primal_lower119  281
    u[2]      primal_lower120  945
    u[2]      primal_lower121  288
    u[2]      primal_lower122  728
    u[2]      primal_lower123  213
    u[2]      primal_lower124  442
    u[2]      primal_lower125  133
    u[2]      primal_lower126  811
    u[2]      primal_lower127  184
    u[2]      primal_lower128  750
    u[2]      primal_lower129  329
    u[2]      primal_lower130  663
    u[2]      primal_lower131  972
    u[2]      primal_lower132  52
    u[2]      primal_lower133  789
    u[2]      primal_lower134  558
    u[2]      primal_lower135  967
    u[2]      primal_lower136  578
    u[2]      primal_lower137  45
    u[2]      primal_lower138  249
    u[2]      primal_lower139  563
    u[2]      primal_lower140  880
    u[2]      primal_lower141  324
    u[2]      primal_lower142  162
    u[2]      primal_lower143  286
    u[2]      primal_lower144  45
    u[2]      primal_lower145  20
    u[2]      primal_lower146  351
    u[2]      primal_lower147  634
    u[2]      primal_lower148  795
    u[2]      primal_lower149  432
    u[2]      primal_lower150  575
    u[2]      primal_lower151  291
    u[2]      primal_lower152  460
    u[2]      primal_lower153  49
    u[2]      primal_lower154  816
    u[2]      primal_lower155  440
    u[2]      primal_lower156  190
    u[2]      primal_lower157  913
    u[2]      primal_lower158  165
    u[2]      primal_lower159  426
    u[2]      primal_lower160  486
    u[2]      primal_lower161  752
    u[2]      primal_lower162  78
    u[2]      primal_lower163  673
    u[2]      primal_lower164  691
    u[2]      primal_lower165  512
    u[2]      primal_lower166  125
    u[2]      primal_lower167  907
    u[2]      primal_lower168  352
    u[2]      primal_lower169  488
    u[2]      primal_lower170  648
    u[2]      primal_lower171  626
    u[2]      primal_lower172  20
    u[2]      primal_lower173  936
    u[2]      primal_lower174  381
    u[2]      primal_lower175  788
    u[2]      primal_lower176  576
    u[2]      primal_lower177  653
    u[2]      primal_lower178  441
    u[2]      primal_lower179  880
    u[2]      primal_lower180  616
    u[2]      primal_lower181  906
    u[2]      primal_lower182  101
    u[2]      primal_lower183  865
    u[2]      primal_lower184  545
    u[2]      primal_lower185  191
    u[2]      primal_lower186  411
    u[2]      primal_lower187  486
    u[2]      primal_lower188  48
    u[2]      primal_lower189  295
    u[2]      primal_lower190  967
    u[2]      primal_lower191  283
    u[2]      primal_lower192  493
    u[2]      primal_lower193  781
    u[2]      primal_lower194  327
    u[2]      primal_lower195  762
    u[2]      primal_lower196  960
    u[2]      primal_lower197  822
    u[2]      primal_lower198  357
    u[2]      primal_lower199  677
    u[2]      primal_lower200  971
    u[2]      primal_lower201  457
    u[2]      primal_lower202  322
    u[2]      primal_lower203  906
    u[2]      primal_lower204  171
    u[2]      primal_lower205  49
    u[2]      primal_lower206  936
    u[2]      primal_lower207  975
    u[2]      primal_lower208  999
    u[2]      primal_lower209  356
    u[2]      primal_lower210  66
    u[2]      primal_lower211  432
    u[2]      primal_lower212  445
    u[2]      primal_lower213  791
    u[2]      primal_lower214  118
    u[2]      primal_lower215  123
    u[2]      primal_lower216  196
    u[2]      primal_lower217  897
    u[2]      primal_lower218  70
    u[2]      primal_lower219  370
    u[2]      primal_lower220  790
    u[2]      primal_lower221  388
    u[2]      primal_lower222  194
    u[2]      primal_lower223  419
    u[2]      primal_lower224  778
    u[2]      primal_lower225  942
    u[2]      primal_lower226  486
    u[2]      primal_lower227  923
    u[2]      primal_lower228  722
    u[2]      primal_lower229  977
    u[2]      primal_lower230  263
    u[2]      primal_lower231  459
    u[2]      primal_lower232  572
    u[2]      primal_lower233  529
    u[2]      primal_lower234  874
    u[2]      primal_lower235  26
    u[2]      primal_lower236  623
    u[2]      primal_lower237  663
    u[2]      primal_lower238  168
    u[2]      primal_lower239  528
    u[2]      primal_lower240  998
    u[2]      primal_lower241  697
    u[2]      primal_lower242  41
    u[2]      primal_lower243  680
    u[2]      primal_lower244  112
    u[2]      primal_lower245  645
    u[2]      primal_lower246  220
    u[2]      primal_lower247  108
    u[2]      primal_lower248  768
    u[2]      primal_lower249  537
    u[2]      primal_lower250  650
    u[2]      primal_lower251  114
    u[2]      primal_lower252  759
    u[2]      primal_lower253  252
    u[2]      primal_lower254  763
    u[2]      primal_lower255  463
    u[2]      primal_lower256  574
    u[2]      primal_lower257  175
    u[2]      primal_lower258  496
    u[2]      primal_lower259  631
    u[2]      primal_lower260  959
    u[2]      primal_lower261  540
    u[2]      primal_lower262  800
    u[2]      primal_lower263  918
    u[2]      primal_lower264  369
    u[2]      primal_lower265  167
    u[2]      primal_lower266  682
    u[2]      primal_lower267  716
    u[2]      primal_lower268  22
    u[2]      primal_lower269  922
    u[2]      primal_lower270  943
    u[2]      primal_lower271  523
    u[2]      primal_lower272  705
    u[2]      primal_lower273  206
    u[2]      primal_lower274  151
    u[2]      primal_lower275  223
    u[2]      primal_lower276  588
    u[2]      primal_lower277  465
    u[2]      primal_lower278  825
    u[2]      primal_lower279  23
    u[2]      primal_lower280  614
    u[2]      primal_lower281  527
    u[2]      primal_lower282  853
    u[2]      primal_lower283  416
    u[2]      primal_lower284  668
    u[2]      primal_lower285  415
    u[2]      primal_lower286  674
    u[2]      primal_lower287  418
    u[2]      primal_lower288  458
    u[2]      primal_lower289  689
    u[2]      primal_lower290  138
    u[2]      primal_lower291  932
    u[2]      primal_lower292  168
    u[2]      primal_lower293  816
    u[2]      primal_lower294  901
    u[2]      primal_lower295  1
    u[2]      primal_lower296  157
    u[2]      primal_lower297  130
    u[2]      primal_lower298  728
    u[2]      primal_lower299  338
    u[2]      primal_lower300  246
    u[2]      primal_lower301  741
    u[2]      primal_lower302  692
    u[2]      primal_lower303  930
    u[2]      primal_lower304  470
    u[2]      primal_lower305  162
    u[2]      primal_lower306  980
    u[2]      primal_lower307  976
    u[2]      primal_lower308  880
    u[2]      primal_lower309  138
    u[2]      primal_lower310  793
    u[2]      primal_lower311  907
    u[2]      primal_lower312  203
    u[2]      primal_lower313  54
    u[2]      primal_lower314  803
    u[2]      primal_lower315  274
    u[2]      primal_lower316  946
    u[2]      primal_lower317  783
    u[2]      primal_lower318  875
    u[2]      primal_lower319  996
    u[2]      primal_lower320  681
    u[2]      primal_lower321  30
    u[2]      primal_lower322  50
    u[2]      primal_lower323  342
    u[2]      primal_lower324  786
    u[2]      primal_lower325  864
    u[2]      primal_lower326  987
    u[2]      primal_lower327  798
    u[2]      primal_lower328  331
    u[2]      primal_lower329  907
    u[2]      primal_lower330  355
    u[2]      primal_lower331  451
    u[2]      primal_lower332  96
    u[2]      primal_lower333  328
    u[2]      primal_lower334  423
    u[2]      primal_lower335  910
    u[2]      primal_lower336  573
    u[2]      primal_lower337  269
    u[2]      primal_lower338  313
    u[2]      primal_lower339  979
    u[2]      primal_lower340  840
    u[2]      primal_lower341  936
    u[2]      primal_lower342  781
    u[2]      primal_lower343  540
    u[2]      primal_lower344  883
    u[2]      primal_lower345  106
    u[2]      primal_lower346  550
    u[2]      primal_lower347  318
    u[2]      primal_lower348  5
    u[2]      primal_lower349  563
    u[2]      primal_lower350  961
    u[2]      primal_lower351  790
    u[2]      primal_lower352  35
    u[2]      primal_lower353  822
    u[2]      primal_lower354  717
    u[2]      primal_lower355  563
    u[2]      primal_lower356  21
    u[2]      primal_lower357  624
    u[2]      primal_lower358  642
    u[2]      primal_lower359  797
    u[2]      primal_lower360  481
    u[2]      primal_lower361  427
    u[2]      primal_lower362  213
    u[2]      primal_lower363  588
    u[2]      primal_lower364  881
    u[2]      primal_lower365  827
    u[2]      primal_lower366  801
    u[2]      primal_lower367  739
    u[2]      primal_lower368  801
    u[2]      primal_lower369  333
    u[2]      primal_lower370  197
    u[2]      primal_lower371  685
    u[2]      primal_lower372  909
    u[2]      primal_lower373  562
    u[2]      primal_lower374  441
    u[2]      primal_lower375  598
    u[2]      primal_lower376  38
    u[2]      primal_lower377  382
    u[2]      primal_lower378  550
    u[2]      primal_lower379  38
    u[2]      primal_lower380  963
    u[2]      primal_lower381  958
    u[2]      primal_lower382  512
    u[2]      primal_lower383  515
    u[2]      primal_lower384  599
    u[2]      primal_lower385  784
    u[2]      primal_lower386  587
    u[2]      primal_lower387  968
    u[2]      primal_lower388  346
    u[2]      primal_lower389  857
    u[2]      primal_lower390  977
    u[2]      primal_lower391  919
    u[2]      primal_lower392  834
    u[2]      primal_lower393  244
    u[2]      primal_lower394  64
    u[2]      primal_lower395  109
    u[2]      primal_lower396  908
    u[2]      primal_lower397  532
    u[2]      primal_lower398  216
    u[2]      primal_lower399  447
    u[2]      primal_lower400  762
    u[2]      primal_lower401  876
    u[2]      primal_lower402  992
    u[2]      primal_lower403  257
    u[2]      primal_lower404  435
    u[2]      primal_lower405  439
    u[2]      primal_lower406  513
    u[2]      primal_lower407  159
    u[2]      primal_lower408  502
    u[2]      primal_lower409  842
    u[2]      primal_lower410  945
    u[2]      primal_lower411  559
    u[2]      primal_lower412  256
    u[2]      primal_lower413  888
    u[2]      primal_lower414  344
    u[2]      primal_lower415  10
    u[2]      primal_lower416  896
    u[2]      primal_lower417  534
    u[2]      primal_lower418  100
    u[2]      primal_lower419  867
    u[2]      primal_lower420  251
    u[2]      primal_lower421  117
    u[2]      primal_lower422  894
    u[2]      primal_lower423  94
    u[2]      primal_lower424  692
    u[2]      primal_lower425  553
    u[2]      primal_lower426  892
    u[2]      primal_lower427  174
    u[2]      primal_lower428  202
    u[2]      primal_lower429  745
    u[2]      primal_lower430  898
    u[2]      primal_lower431  532
    u[2]      primal_lower432  125
    u[2]      primal_lower433  437
    u[2]      primal_lower434  836
    u[2]      primal_lower435  170
    u[2]      primal_lower436  405
    u[2]      primal_lower437  925
    u[2]      primal_lower438  699
    u[2]      primal_lower439  922
    u[2]      primal_lower440  904
    u[2]      primal_lower441  840
    u[2]      primal_lower442  647
    u[2]      primal_lower443  962
    u[2]      primal_lower444  369
    u[2]      primal_lower445  62
    u[2]      primal_lower446  551
    u[2]      primal_lower447  511
    u[2]      primal_lower448  866
    u[2]      primal_lower449  320
    u[2]      primal_lower450  315
    u[2]      primal_lower451  447
    u[2]      primal_lower452  166
    u[2]      primal_lower453  397
    u[2]      primal_lower454  917
    u[2]      primal_lower455  123
    u[2]      primal_lower456  214
    u[2]      primal_lower457  724
    u[2]      primal_lower458  855
    u[2]      primal_lower459  762
    u[2]      primal_lower460  756
    u[2]      primal_lower461  745
    u[2]      primal_lower462  618
    u[2]      primal_lower463  233
    u[2]      primal_lower464  977
    u[2]      primal_lower465  516
    u[2]      primal_lower466  257
    u[2]      primal_lower467  551
    u[2]      primal_lower468  95
    u[2]      primal_lower469  384
    u[2]      primal_lower470  148
    u[2]      primal_lower471  291
    u[2]      primal_lower472  772
    u[2]      primal_lower473  400
    u[2]      primal_lower474  651
    u[2]      primal_lower475  998
    u[2]      primal_lower476  683
    u[2]      primal_lower477  542
    u[2]      primal_lower478  772
    u[2]      primal_lower479  136
    u[2]      primal_lower480  305
    u[2]      primal_lower481  602
    u[2]      primal_lower482  373
    u[2]      primal_lower483  687
    u[2]      primal_lower484  861
    u[2]      primal_lower485  465
    u[2]      primal_lower486  331
    u[2]      primal_lower487  52
    u[2]      primal_lower488  363
    u[2]      primal_lower489  330
    u[2]      primal_lower490  216
    u[2]      primal_lower491  626
    u[2]      primal_lower492  435
    u[2]      primal_lower493  739
    u[2]      primal_lower494  376
    u[2]      primal_lower495  930
    u[2]      primal_lower496  58
    u[2]      primal_lower497  771
    u[2]      primal_lower498  623
    u[2]      primal_lower499  928
    u[2]      primal_lower500  286
    u[2]      primal_lower501  837
    u[2]      primal_lower502  34
    u[2]      primal_lower503  165
    u[2]      primal_lower504  382
    u[2]      primal_lower505  278
    u[2]      primal_lower506  599
    u[2]      primal_lower507  568
    u[2]      primal_lower508  459
    u[2]      primal_lower509  29
    u[2]      primal_lower510  997
    u[2]      primal_lower511  139
    u[2]      primal_lower512  34
    u[2]      primal_lower513  671
    u[2]      primal_lower514  991
    u[2]      primal_lower515  799
    u[2]      primal_lower516  861
    u[2]      primal_lower517  843
    u[2]      primal_lower518  826
    u[2]      primal_lower519  277
    u[2]      primal_lower520  191
    u[2]      primal_lower521  258
    u[2]      primal_lower522  492
    u[2]      primal_lower523  995
    u[2]      primal_lower524  923
    u[2]      primal_lower525  556
    u[2]      primal_lower526  530
    u[2]      primal_lower527  705
    u[2]      primal_lower528  979
    u[2]      primal_lower529  515
    u[2]      primal_lower530  512
    u[2]      primal_lower531  505
    u[2]      primal_lower532  217
    u[2]      primal_lower533  882
    u[2]      primal_lower534  785
    u[2]      primal_lower535  384
    u[2]      primal_lower536  961
    u[2]      primal_lower537  852
    u[2]      primal_lower538  889
    u[2]      primal_lower539  381
    u[2]      primal_lower540  392
    u[2]      primal_lower541  850
    u[2]      primal_lower542  131
    u[2]      primal_lower543  891
    u[2]      primal_lower544  12
    u[2]      primal_lower545  31
    u[2]      primal_lower546  832
    u[2]      primal_lower547  312
    u[2]      primal_lower548  291
    u[2]      primal_lower549  324
    u[2]      primal_lower550  96
    u[2]      primal_lower551  479
    u[2]      primal_lower552  413
    u[2]      primal_lower553  289
    u[2]      primal_lower554  147
    u[2]      primal_lower555  772
    u[2]      primal_lower556  594
    u[2]      primal_lower557  676
    u[2]      primal_lower558  821
    u[2]      primal_lower559  17
    u[2]      primal_lower560  647
    u[2]      primal_lower561  92
    u[2]      primal_lower562  430
    u[2]      primal_lower563  31
    u[2]      primal_lower564  632
    u[2]      primal_lower565  315
    u[2]      primal_lower566  597
    u[2]      primal_lower567  672
    u[2]      primal_lower568  906
    u[2]      primal_lower569  233
    u[2]      primal_lower570  265
    u[2]      primal_lower571  239
    u[2]      primal_lower572  176
    u[2]      primal_lower573  577
    u[2]      primal_lower574  516
    u[2]      primal_lower575  301
    u[2]      primal_lower576  769
    u[2]      primal_lower577  792
    u[2]      primal_lower578  399
    u[2]      primal_lower579  501
    u[2]      primal_lower580  202
    u[2]      primal_lower581  580
    u[2]      primal_lower582  346
    u[2]      primal_lower583  178
    u[2]      primal_lower584  471
    u[2]      primal_lower585  253
    u[2]      primal_lower586  435
    u[2]      primal_lower587  966
    u[2]      primal_lower588  880
    u[2]      primal_lower589  89
    u[2]      primal_lower590  610
    u[2]      primal_lower591  758
    u[2]      primal_lower592  986
    u[2]      primal_lower593  188
    u[2]      primal_lower594  938
    u[2]      primal_lower595  63
    u[2]      primal_lower596  38
    u[2]      primal_lower597  187
    u[2]      primal_lower598  921
    u[2]      primal_lower599  532
    u[2]      primal_lower600  561
    u[2]      primal_lower601  883
    u[2]      primal_lower602  104
    u[2]      primal_lower603  335
    u[2]      primal_lower604  899
    u[2]      primal_lower605  517
    u[2]      primal_lower606  947
    u[2]      primal_lower607  709
    u[2]      primal_lower608  312
    u[2]      primal_lower609  403
    u[2]      primal_lower610  227
    u[2]      primal_lower611  254
    u[2]      primal_lower612  794
    u[2]      primal_lower613  620
    u[2]      primal_lower614  275
    u[2]      primal_lower615  32
    u[2]      primal_lower616  74
    u[2]      primal_lower617  664
    u[2]      primal_lower618  271
    u[2]      primal_lower619  556
    u[2]      primal_lower620  830
    u[2]      primal_lower621  338
    u[2]      primal_lower622  251
    u[2]      primal_lower623  709
    u[2]      primal_lower624  906
    u[2]      primal_lower625  212
    u[2]      primal_lower626  761
    u[2]      primal_lower627  186
    u[2]      primal_lower628  376
    u[2]      primal_lower629  36
    u[2]      primal_lower630  780
    u[2]      primal_lower631  461
    u[2]      primal_lower632  231
    u[2]      primal_lower633  881
    u[2]      primal_lower634  559
    u[2]      primal_lower635  670
    u[2]      primal_lower636  557
    u[2]      primal_lower637  680
    u[2]      primal_lower638  344
    u[2]      primal_lower639  47
    u[2]      primal_lower640  975
    u[2]      primal_lower641  665
    u[2]      primal_lower642  500
    u[2]      primal_lower643  784
    u[2]      primal_lower644  761
    u[2]      primal_lower645  793
    u[2]      primal_lower646  874
    u[2]      primal_lower647  212
    u[2]      primal_lower648  677
    u[2]      primal_lower649  448
    u[2]      primal_lower650  165
    u[2]      primal_lower651  576
    u[2]      primal_lower652  265
    u[2]      primal_lower653  547
    u[2]      primal_lower654  388
    u[2]      primal_lower655  152
    u[2]      primal_lower656  36
    u[2]      primal_lower657  910
    u[2]      primal_lower658  236
    u[2]      primal_lower659  449
    u[2]      primal_lower660  257
    u[2]      primal_lower661  270
    u[2]      primal_lower662  722
    u[2]      primal_lower663  434
    u[2]      primal_lower664  606
    u[2]      primal_lower665  244
    u[2]      primal_lower666  470
    u[2]      primal_lower667  293
    u[2]      primal_lower668  286
    u[2]      primal_lower669  284
    u[2]      primal_lower670  1000
    u[2]      primal_lower671  473
    u[2]      primal_lower672  542
    u[2]      primal_lower673  235
    u[2]      primal_lower674  643
    u[2]      primal_lower675  433
    u[2]      primal_lower676  243
    u[2]      primal_lower677  842
    u[2]      primal_lower678  97
    u[2]      primal_lower679  434
    u[2]      primal_lower680  652
    u[2]      primal_lower681  212
    u[2]      primal_lower682  306
    u[2]      primal_lower683  519
    u[2]      primal_lower684  14
    u[2]      primal_lower685  149
    u[2]      primal_lower686  709
    u[2]      primal_lower687  689
    u[2]      primal_lower688  916
    u[2]      primal_lower689  438
    u[2]      primal_lower690  589
    u[2]      primal_lower691  78
    u[2]      primal_lower692  595
    u[2]      primal_lower693  295
    u[2]      primal_lower694  761
    u[2]      primal_lower695  481
    u[2]      primal_lower696  261
    u[2]      primal_lower697  714
    u[2]      primal_lower698  478
    u[2]      primal_lower699  883
    u[2]      primal_lower700  898
    u[2]      primal_lower701  788
    u[2]      primal_lower702  415
    u[2]      primal_lower703  425
    u[2]      primal_lower704  68
    u[2]      primal_lower705  581
    u[2]      primal_lower706  440
    u[2]      primal_lower707  368
    u[2]      primal_lower708  775
    u[2]      primal_lower709  67
    u[2]      primal_lower710  41
    u[2]      primal_lower711  315
    u[2]      primal_lower712  594
    u[2]      primal_lower713  198
    u[2]      primal_lower714  459
    u[2]      primal_lower715  637
    u[2]      primal_lower716  503
    u[2]      primal_lower717  577
    u[2]      primal_lower718  563
    u[2]      primal_lower719  529
    u[2]      primal_lower720  473
    u[2]      primal_lower721  487
    u[2]      primal_lower722  892
    u[2]      primal_lower723  910
    u[2]      primal_lower724  141
    u[2]      primal_lower725  518
    u[2]      primal_lower726  874
    u[2]      primal_lower727  196
    u[2]      primal_lower728  292
    u[2]      primal_lower729  937
    u[2]      primal_lower730  823
    u[2]      primal_lower731  442
    u[2]      primal_lower732  328
    u[2]      primal_lower733  180
    u[2]      primal_lower734  295
    u[2]      primal_lower735  993
    u[2]      primal_lower736  505
    u[2]      primal_lower737  245
    u[2]      primal_lower738  41
    u[2]      primal_lower739  952
    u[2]      primal_lower740  152
    u[2]      primal_lower741  336
    u[2]      primal_lower742  437
    u[2]      primal_lower743  922
    u[2]      primal_lower744  292
    u[2]      primal_lower745  449
    u[2]      primal_lower746  458
    u[2]      primal_lower747  175
    u[2]      primal_lower748  320
    u[2]      primal_lower749  389
    u[2]      primal_lower750  386
    u[2]      primal_lower751  837
    u[2]      primal_lower752  443
    u[2]      primal_lower753  186
    u[2]      primal_lower754  82
    u[2]      primal_lower755  963
    u[2]      primal_lower756  484
    u[2]      primal_lower757  650
    u[2]      primal_lower758  170
    u[2]      primal_lower759  465
    u[2]      primal_lower760  184
    u[2]      primal_lower761  480
    u[2]      primal_lower762  583
    u[2]      primal_lower763  428
    u[2]      primal_lower764  722
    u[2]      primal_lower765  320
    u[2]      primal_lower766  174
    u[2]      primal_lower767  610
    u[2]      primal_lower768  659
    u[2]      primal_lower769  867
    u[2]      primal_lower770  941
    u[2]      primal_lower771  622
    u[2]      primal_lower772  753
    u[2]      primal_lower773  384
    u[2]      primal_lower774  904
    u[2]      primal_lower775  246
    u[2]      primal_lower776  813
    u[2]      primal_lower777  380
    u[2]      primal_lower778  877
    u[2]      primal_lower779  250
    u[2]      primal_lower780  331
    u[2]      primal_lower781  131
    u[2]      primal_lower782  225
    u[2]      primal_lower783  874
    u[2]      primal_lower784  795
    u[2]      primal_lower785  157
    u[2]      primal_lower786  117
    u[2]      primal_lower787  910
    u[2]      primal_lower788  564
    u[2]      primal_lower789  229
    u[2]      primal_lower790  731
    u[2]      primal_lower791  93
    u[2]      primal_lower792  771
    u[2]      primal_lower793  450
    u[2]      primal_lower794  774
    u[2]      primal_lower795  466
    u[2]      primal_lower796  985
    u[2]      primal_lower797  370
    u[2]      primal_lower798  237
    u[2]      primal_lower799  263
    u[2]      primal_lower800  72
    u[2]      primal_lower801  755
    u[2]      primal_lower802  83
    u[2]      primal_lower803  907
    u[2]      primal_lower804  805
    u[2]      primal_lower805  10
    u[2]      primal_lower806  992
    u[2]      primal_lower807  651
    u[2]      primal_lower808  435
    u[2]      primal_lower809  602
    u[2]      primal_lower810  178
    u[2]      primal_lower811  881
    u[2]      primal_lower812  990
    u[2]      primal_lower813  460
    u[2]      primal_lower814  393
    u[2]      primal_lower815  616
    u[2]      primal_lower816  226
    u[2]      primal_lower817  397
    u[2]      primal_lower818  84
    u[2]      primal_lower819  200
    u[2]      primal_lower820  803
    u[2]      primal_lower821  30
    u[2]      primal_lower822  623
    u[2]      primal_lower823  590
    u[2]      primal_lower824  761
    u[2]      primal_lower825  967
    u[2]      primal_lower826  764
    u[2]      primal_lower827  213
    u[2]      primal_lower828  740
    u[2]      primal_lower829  888
    u[2]      primal_lower830  849
    u[2]      primal_lower831  972
    u[2]      primal_lower832  823
    u[2]      primal_lower833  955
    u[2]      primal_lower834  619
    u[2]      primal_lower835  570
    u[2]      primal_lower836  540
    u[2]      primal_lower837  463
    u[2]      primal_lower838  549
    u[2]      primal_lower839  413
    u[2]      primal_lower840  20
    u[2]      primal_lower841  82
    u[2]      primal_lower842  650
    u[2]      primal_lower843  811
    u[2]      primal_lower844  819
    u[2]      primal_lower845  104
    u[2]      primal_lower846  116
    u[2]      primal_lower847  904
    u[2]      primal_lower848  774
    u[2]      primal_lower849  483
    u[2]      primal_lower850  989
    u[2]      primal_lower851  178
    u[2]      primal_lower852  589
    u[2]      primal_lower853  135
    u[2]      primal_lower854  804
    u[2]      primal_lower855  650
    u[2]      primal_lower856  859
    u[2]      primal_lower857  661
    u[2]      primal_lower858  932
    u[2]      primal_lower859  770
    u[2]      primal_lower860  946
    u[2]      primal_lower861  76
    u[2]      primal_lower862  928
    u[2]      primal_lower863  721
    u[2]      primal_lower864  642
    u[2]      primal_lower865  231
    u[2]      primal_lower866  15
    u[2]      primal_lower867  887
    u[2]      primal_lower868  489
    u[2]      primal_lower869  626
    u[2]      primal_lower870  746
    u[2]      primal_lower871  686
    u[2]      primal_lower872  603
    u[2]      primal_lower873  255
    u[2]      primal_lower874  466
    u[2]      primal_lower875  628
    u[2]      primal_lower876  252
    u[2]      primal_lower877  908
    u[2]      primal_lower878  381
    u[2]      primal_lower879  175
    u[2]      primal_lower880  255
    u[2]      primal_lower881  671
    u[2]      primal_lower882  383
    u[2]      primal_lower883  64
    u[2]      primal_lower884  970
    u[2]      primal_lower885  228
    u[2]      primal_lower886  909
    u[2]      primal_lower887  156
    u[2]      primal_lower888  626
    u[2]      primal_lower889  138
    u[2]      primal_lower890  503
    u[2]      primal_lower891  523
    u[2]      primal_lower892  465
    u[2]      primal_lower893  101
    u[2]      primal_lower894  516
    u[2]      primal_lower895  274
    u[2]      primal_lower896  802
    u[2]      primal_lower897  820
    u[2]      primal_lower898  253
    u[2]      primal_lower899  299
    u[2]      primal_lower900  35
    u[2]      primal_lower901  859
    u[2]      primal_lower902  762
    u[2]      primal_lower903  668
    u[2]      primal_lower904  731
    u[2]      primal_lower905  516
    u[2]      primal_lower906  417
    u[2]      primal_lower907  482
    u[2]      primal_lower908  813
    u[2]      primal_lower909  445
    u[2]      primal_lower910  25
    u[2]      primal_lower911  440
    u[2]      primal_lower912  149
    u[2]      primal_lower913  359
    u[2]      primal_lower914  694
    u[2]      primal_lower915  220
    u[2]      primal_lower916  954
    u[2]      primal_lower917  27
    u[2]      primal_lower918  872
    u[2]      primal_lower919  618
    u[2]      primal_lower920  325
    u[2]      primal_lower921  109
    u[2]      primal_lower922  206
    u[2]      primal_lower923  441
    u[2]      primal_lower924  630
    u[2]      primal_lower925  834
    u[2]      primal_lower926  367
    u[2]      primal_lower927  697
    u[2]      primal_lower928  362
    u[2]      primal_lower929  69
    u[2]      primal_lower930  212
    u[2]      primal_lower931  39
    u[2]      primal_lower932  348
    u[2]      primal_lower933  111
    u[2]      primal_lower934  481
    u[2]      primal_lower935  350
    u[2]      primal_lower936  577
    u[2]      primal_lower937  265
    u[2]      primal_lower938  703
    u[2]      primal_lower939  430
    u[2]      primal_lower940  857
    u[2]      primal_lower941  618
    u[2]      primal_lower942  906
    u[2]      primal_lower943  858
    u[2]      primal_lower944  988
    u[2]      primal_lower945  607
    u[2]      primal_lower946  952
    u[2]      primal_lower947  824
    u[2]      primal_lower948  257
    u[2]      primal_lower949  46
    u[2]      primal_lower950  110
    u[2]      primal_lower951  290
    u[2]      primal_lower952  337
    u[2]      primal_lower953  88
    u[2]      primal_lower954  527
    u[2]      primal_lower955  997
    u[2]      primal_lower956  635
    u[2]      primal_lower957  672
    u[2]      primal_lower958  243
    u[2]      primal_lower959  291
    u[2]      primal_lower960  796
    u[2]      primal_lower961  522
    u[2]      primal_lower962  76
    u[2]      primal_lower963  490
    u[2]      primal_lower964  562
    u[2]      primal_lower965  810
    u[2]      primal_lower966  814
    u[2]      primal_lower967  5
    u[2]      primal_lower968  647
    u[2]      primal_lower969  708
    u[2]      primal_lower970  213
    u[2]      primal_lower971  157
    u[2]      primal_lower972  616
    u[2]      primal_lower973  59
    u[2]      primal_lower974  998
    u[2]      primal_lower975  839
    u[2]      primal_lower976  574
    u[2]      primal_lower977  851
    u[2]      primal_lower978  182
    u[2]      primal_lower979  564
    u[2]      primal_lower980  242
    u[2]      primal_lower981  598
    u[2]      primal_lower982  381
    u[2]      primal_lower983  473
    u[2]      primal_lower984  614
    u[2]      primal_lower985  381
    u[2]      primal_lower986  911
    u[2]      primal_lower987  130
    u[2]      primal_lower988  716
    u[2]      primal_lower989  494
    u[2]      primal_lower990  901
    u[2]      primal_lower991  415
    u[2]      primal_lower992  323
    u[2]      primal_lower993  534
    u[2]      primal_lower994  484
    u[2]      primal_lower995  862
    u[2]      primal_lower996  534
    u[2]      primal_lower997  81
    u[2]      primal_lower998  198
    u[2]      primal_lower999  606
    u[2]      interdiction[2]  1
    u[2]      mccormick1[2]  -1
    u[2]      mccormick3[2]  1
    u[3]      primal_lower0  263
    u[3]      primal_lower1  931
    u[3]      primal_lower2  847
    u[3]      primal_lower3  753
    u[3]      primal_lower4  344
    u[3]      primal_lower5  8
    u[3]      primal_lower6  573
    u[3]      primal_lower7  388
    u[3]      primal_lower8  806
    u[3]      primal_lower9  72
    u[3]      primal_lower10  455
    u[3]      primal_lower11  284
    u[3]      primal_lower12  291
    u[3]      primal_lower13  629
    u[3]      primal_lower14  569
    u[3]      primal_lower15  662
    u[3]      primal_lower16  592
    u[3]      primal_lower17  274
    u[3]      primal_lower18  167
    u[3]      primal_lower19  658
    u[3]      primal_lower20  580
    u[3]      primal_lower21  47
    u[3]      primal_lower22  50
    u[3]      primal_lower23  854
    u[3]      primal_lower24  598
    u[3]      primal_lower25  71
    u[3]      primal_lower26  164
    u[3]      primal_lower27  652
    u[3]      primal_lower28  779
    u[3]      primal_lower29  528
    u[3]      primal_lower30  810
    u[3]      primal_lower31  24
    u[3]      primal_lower32  101
    u[3]      primal_lower33  44
    u[3]      primal_lower34  717
    u[3]      primal_lower35  256
    u[3]      primal_lower36  608
    u[3]      primal_lower37  165
    u[3]      primal_lower38  32
    u[3]      primal_lower39  349
    u[3]      primal_lower40  128
    u[3]      primal_lower41  850
    u[3]      primal_lower42  159
    u[3]      primal_lower43  528
    u[3]      primal_lower44  829
    u[3]      primal_lower45  176
    u[3]      primal_lower46  851
    u[3]      primal_lower47  114
    u[3]      primal_lower48  160
    u[3]      primal_lower49  345
    u[3]      primal_lower50  143
    u[3]      primal_lower51  155
    u[3]      primal_lower52  300
    u[3]      primal_lower53  186
    u[3]      primal_lower54  575
    u[3]      primal_lower55  835
    u[3]      primal_lower56  817
    u[3]      primal_lower57  379
    u[3]      primal_lower58  953
    u[3]      primal_lower59  504
    u[3]      primal_lower60  828
    u[3]      primal_lower61  320
    u[3]      primal_lower62  291
    u[3]      primal_lower63  660
    u[3]      primal_lower64  792
    u[3]      primal_lower65  400
    u[3]      primal_lower66  45
    u[3]      primal_lower67  792
    u[3]      primal_lower68  903
    u[3]      primal_lower69  21
    u[3]      primal_lower70  648
    u[3]      primal_lower71  661
    u[3]      primal_lower72  89
    u[3]      primal_lower73  370
    u[3]      primal_lower74  113
    u[3]      primal_lower75  211
    u[3]      primal_lower76  704
    u[3]      primal_lower77  485
    u[3]      primal_lower78  489
    u[3]      primal_lower79  163
    u[3]      primal_lower80  310
    u[3]      primal_lower81  15
    u[3]      primal_lower82  618
    u[3]      primal_lower83  384
    u[3]      primal_lower84  113
    u[3]      primal_lower85  637
    u[3]      primal_lower86  50
    u[3]      primal_lower87  215
    u[3]      primal_lower88  381
    u[3]      primal_lower89  905
    u[3]      primal_lower90  866
    u[3]      primal_lower91  902
    u[3]      primal_lower92  48
    u[3]      primal_lower93  864
    u[3]      primal_lower94  990
    u[3]      primal_lower95  954
    u[3]      primal_lower96  713
    u[3]      primal_lower97  249
    u[3]      primal_lower98  847
    u[3]      primal_lower99  362
    u[3]      primal_lower100  276
    u[3]      primal_lower101  673
    u[3]      primal_lower102  24
    u[3]      primal_lower103  194
    u[3]      primal_lower104  273
    u[3]      primal_lower105  582
    u[3]      primal_lower106  764
    u[3]      primal_lower107  832
    u[3]      primal_lower108  567
    u[3]      primal_lower109  365
    u[3]      primal_lower110  392
    u[3]      primal_lower111  343
    u[3]      primal_lower112  383
    u[3]      primal_lower113  606
    u[3]      primal_lower114  654
    u[3]      primal_lower115  767
    u[3]      primal_lower116  254
    u[3]      primal_lower117  836
    u[3]      primal_lower118  925
    u[3]      primal_lower119  866
    u[3]      primal_lower120  470
    u[3]      primal_lower121  353
    u[3]      primal_lower122  161
    u[3]      primal_lower123  490
    u[3]      primal_lower124  443
    u[3]      primal_lower125  858
    u[3]      primal_lower126  788
    u[3]      primal_lower127  97
    u[3]      primal_lower128  535
    u[3]      primal_lower129  574
    u[3]      primal_lower130  224
    u[3]      primal_lower131  877
    u[3]      primal_lower132  401
    u[3]      primal_lower133  438
    u[3]      primal_lower134  391
    u[3]      primal_lower135  952
    u[3]      primal_lower136  403
    u[3]      primal_lower137  646
    u[3]      primal_lower138  850
    u[3]      primal_lower139  284
    u[3]      primal_lower140  773
    u[3]      primal_lower141  121
    u[3]      primal_lower142  511
    u[3]      primal_lower143  703
    u[3]      primal_lower144  382
    u[3]      primal_lower145  601
    u[3]      primal_lower146  64
    u[3]      primal_lower147  355
    u[3]      primal_lower148  392
    u[3]      primal_lower149  861
    u[3]      primal_lower150  964
    u[3]      primal_lower151  604
    u[3]      primal_lower152  301
    u[3]      primal_lower153  394
    u[3]      primal_lower154  261
    u[3]      primal_lower155  85
    u[3]      primal_lower156  111
    u[3]      primal_lower157  358
    u[3]      primal_lower158  154
    u[3]      primal_lower159  543
    u[3]      primal_lower160  875
    u[3]      primal_lower161  269
    u[3]      primal_lower162  919
    u[3]      primal_lower163  994
    u[3]      primal_lower164  80
    u[3]      primal_lower165  253
    u[3]      primal_lower166  574
    u[3]      primal_lower167  752
    u[3]      primal_lower168  353
    u[3]      primal_lower169  961
    u[3]      primal_lower170  65
    u[3]      primal_lower171  967
    u[3]      primal_lower172  841
    u[3]      primal_lower173  909
    u[3]      primal_lower174  990
    u[3]      primal_lower175  373
    u[3]      primal_lower176  309
    u[3]      primal_lower177  878
    u[3]      primal_lower178  186
    u[3]      primal_lower179  609
    u[3]      primal_lower180  389
    u[3]      primal_lower181  115
    u[3]      primal_lower182  922
    u[3]      primal_lower183  998
    u[3]      primal_lower184  214
    u[3]      primal_lower185  436
    u[3]      primal_lower186  388
    u[3]      primal_lower187  663
    u[3]      primal_lower188  137
    u[3]      primal_lower189  280
    u[3]      primal_lower190  444
    u[3]      primal_lower191  720
    u[3]      primal_lower192  814
    u[3]      primal_lower193  642
    u[3]      primal_lower194  236
    u[3]      primal_lower195  43
    u[3]      primal_lower196  921
    u[3]      primal_lower197  555
    u[3]      primal_lower198  410
    u[3]      primal_lower199  218
    u[3]      primal_lower200  508
    u[3]      primal_lower201  614
    u[3]      primal_lower202  723
    u[3]      primal_lower203  855
    u[3]      primal_lower204  692
    u[3]      primal_lower205  394
    u[3]      primal_lower206  673
    u[3]      primal_lower207  228
    u[3]      primal_lower208  940
    u[3]      primal_lower209  385
    u[3]      primal_lower210  191
    u[3]      primal_lower211  929
    u[3]      primal_lower212  802
    u[3]      primal_lower213  812
    u[3]      primal_lower214  315
    u[3]      primal_lower215  560
    u[3]      primal_lower216  221
    u[3]      primal_lower217  130
    u[3]      primal_lower218  459
    u[3]      primal_lower219  187
    u[3]      primal_lower220  467
    u[3]      primal_lower221  77
    u[3]      primal_lower222  603
    u[3]      primal_lower223  980
    u[3]      primal_lower224  539
    u[3]      primal_lower225  387
    u[3]      primal_lower226  767
    u[3]      primal_lower227  612
    u[3]      primal_lower228  595
    u[3]      primal_lower229  690
    u[3]      primal_lower230  108
    u[3]      primal_lower231  860
    u[3]      primal_lower232  673
    u[3]      primal_lower233  362
    u[3]      primal_lower234  347
    u[3]      primal_lower235  947
    u[3]      primal_lower236  92
    u[3]      primal_lower237  756
    u[3]      primal_lower238  165
    u[3]      primal_lower239  969
    u[3]      primal_lower240  943
    u[3]      primal_lower241  778
    u[3]      primal_lower242  326
    u[3]      primal_lower243  469
    u[3]      primal_lower244  925
    u[3]      primal_lower245  994
    u[3]      primal_lower246  869
    u[3]      primal_lower247  553
    u[3]      primal_lower248  749
    u[3]      primal_lower249  542
    u[3]      primal_lower250  551
    u[3]      primal_lower251  647
    u[3]      primal_lower252  4
    u[3]      primal_lower253  629
    u[3]      primal_lower254  88
    u[3]      primal_lower255  532
    u[3]      primal_lower256  579
    u[3]      primal_lower257  576
    u[3]      primal_lower258  525
    u[3]      primal_lower259  264
    u[3]      primal_lower260  536
    u[3]      primal_lower261  737
    u[3]      primal_lower262  917
    u[3]      primal_lower263  867
    u[3]      primal_lower264  206
    u[3]      primal_lower265  908
    u[3]      primal_lower266  35
    u[3]      primal_lower267  377
    u[3]      primal_lower268  779
    u[3]      primal_lower269  655
    u[3]      primal_lower270  216
    u[3]      primal_lower271  732
    u[3]      primal_lower272  770
    u[3]      primal_lower273  659
    u[3]      primal_lower274  4
    u[3]      primal_lower275  1000
    u[3]      primal_lower276  233
    u[3]      primal_lower277  446
    u[3]      primal_lower278  734
    u[3]      primal_lower279  104
    u[3]      primal_lower280  431
    u[3]      primal_lower281  404
    u[3]      primal_lower282  206
    u[3]      primal_lower283  429
    u[3]      primal_lower284  673
    u[3]      primal_lower285  696
    u[3]      primal_lower286  631
    u[3]      primal_lower287  131
    u[3]      primal_lower288  343
    u[3]      primal_lower289  894
    u[3]      primal_lower290  719
    u[3]      primal_lower291  25
    u[3]      primal_lower292  921
    u[3]      primal_lower293  445
    u[3]      primal_lower294  878
    u[3]      primal_lower295  458
    u[3]      primal_lower296  590
    u[3]      primal_lower297  579
    u[3]      primal_lower298  81
    u[3]      primal_lower299  99
    u[3]      primal_lower300  699
    u[3]      primal_lower301  10
    u[3]      primal_lower302  989
    u[3]      primal_lower303  643
    u[3]      primal_lower304  423
    u[3]      primal_lower305  475
    u[3]      primal_lower306  333
    u[3]      primal_lower307  341
    u[3]      primal_lower308  161
    u[3]      primal_lower309  855
    u[3]      primal_lower310  166
    u[3]      primal_lower311  48
    u[3]      primal_lower312  512
    u[3]      primal_lower313  791
    u[3]      primal_lower314  480
    u[3]      primal_lower315  467
    u[3]      primal_lower316  523
    u[3]      primal_lower317  420
    u[3]      primal_lower318  476
    u[3]      primal_lower319  297
    u[3]      primal_lower320  930
    u[3]      primal_lower321  427
    u[3]      primal_lower322  11
    u[3]      primal_lower323  507
    u[3]      primal_lower324  495
    u[3]      primal_lower325  521
    u[3]      primal_lower326  828
    u[3]      primal_lower327  295
    u[3]      primal_lower328  532
    u[3]      primal_lower329  232
    u[3]      primal_lower330  424
    u[3]      primal_lower331  648
    u[3]      primal_lower332  305
    u[3]      primal_lower333  853
    u[3]      primal_lower334  56
    u[3]      primal_lower335  15
    u[3]      primal_lower336  54
    u[3]      primal_lower337  886
    u[3]      primal_lower338  350
    u[3]      primal_lower339  916
    u[3]      primal_lower340  997
    u[3]      primal_lower341  701
    u[3]      primal_lower342  170
    u[3]      primal_lower343  129
    u[3]      primal_lower344  148
    u[3]      primal_lower345  815
    u[3]      primal_lower346  479
    u[3]      primal_lower347  115
    u[3]      primal_lower348  18
    u[3]      primal_lower349  868
    u[3]      primal_lower350  30
    u[3]      primal_lower351  519
    u[3]      primal_lower352  144
    u[3]      primal_lower353  351
    u[3]      primal_lower354  10
    u[3]      primal_lower355  312
    u[3]      primal_lower356  566
    u[3]      primal_lower357  325
    u[3]      primal_lower358  267
    u[3]      primal_lower359  874
    u[3]      primal_lower360  370
    u[3]      primal_lower361  912
    u[3]      primal_lower362  754
    u[3]      primal_lower363  941
    u[3]      primal_lower364  558
    u[3]      primal_lower365  512
    u[3]      primal_lower366  310
    u[3]      primal_lower367  448
    u[3]      primal_lower368  710
    u[3]      primal_lower369  226
    u[3]      primal_lower370  350
    u[3]      primal_lower371  498
    u[3]      primal_lower372  770
    u[3]      primal_lower373  119
    u[3]      primal_lower374  178
    u[3]      primal_lower375  395
    u[3]      primal_lower376  259
    u[3]      primal_lower377  275
    u[3]      primal_lower378  771
    u[3]      primal_lower379  943
    u[3]      primal_lower380  620
    u[3]      primal_lower381  511
    u[3]      primal_lower382  293
    u[3]      primal_lower383  980
    u[3]      primal_lower384  908
    u[3]      primal_lower385  857
    u[3]      primal_lower386  548
    u[3]      primal_lower387  225
    u[3]      primal_lower388  483
    u[3]      primal_lower389  938
    u[3]      primal_lower390  902
    u[3]      primal_lower391  908
    u[3]      primal_lower392  879
    u[3]      primal_lower393  169
    u[3]      primal_lower394  953
    u[3]      primal_lower395  938
    u[3]      primal_lower396  533
    u[3]      primal_lower397  933
    u[3]      primal_lower398  569
    u[3]      primal_lower399  864
    u[3]      primal_lower400  807
    u[3]      primal_lower401  713
    u[3]      primal_lower402  433
    u[3]      primal_lower403  202
    u[3]      primal_lower404  156
    u[3]      primal_lower405  456
    u[3]      primal_lower406  494
    u[3]      primal_lower407  280
    u[3]      primal_lower408  559
    u[3]      primal_lower409  203
    u[3]      primal_lower410  890
    u[3]      primal_lower411  184
    u[3]      primal_lower412  669
    u[3]      primal_lower413  469
    u[3]      primal_lower414  101
    u[3]      primal_lower415  991
    u[3]      primal_lower416  457
    u[3]      primal_lower417  523
    u[3]      primal_lower418  365
    u[3]      primal_lower419  220
    u[3]      primal_lower420  440
    u[3]      primal_lower421  814
    u[3]      primal_lower422  659
    u[3]      primal_lower423  211
    u[3]      primal_lower424  485
    u[3]      primal_lower425  310
    u[3]      primal_lower426  261
    u[3]      primal_lower427  251
    u[3]      primal_lower428  91
    u[3]      primal_lower429  438
    u[3]      primal_lower430  715
    u[3]      primal_lower431  9
    u[3]      primal_lower432  46
    u[3]      primal_lower433  550
    u[3]      primal_lower434  325
    u[3]      primal_lower435  339
    u[3]      primal_lower436  322
    u[3]      primal_lower437  486
    u[3]      primal_lower438  16
    u[3]      primal_lower439  735
    u[3]      primal_lower440  609
    u[3]      primal_lower441  605
    u[3]      primal_lower442  508
    u[3]      primal_lower443  559
    u[3]      primal_lower444  482
    u[3]      primal_lower445  255
    u[3]      primal_lower446  192
    u[3]      primal_lower447  52
    u[3]      primal_lower448  963
    u[3]      primal_lower449  125
    u[3]      primal_lower450  176
    u[3]      primal_lower451  288
    u[3]      primal_lower452  51
    u[3]      primal_lower453  226
    u[3]      primal_lower454  938
    u[3]      primal_lower455  216
    u[3]      primal_lower456  767
    u[3]      primal_lower457  29
    u[3]      primal_lower458  480
    u[3]      primal_lower459  955
    u[3]      primal_lower460  281
    u[3]      primal_lower461  354
    u[3]      primal_lower462  111
    u[3]      primal_lower463  866
    u[3]      primal_lower464  506
    u[3]      primal_lower465  797
    u[3]      primal_lower466  22
    u[3]      primal_lower467  876
    u[3]      primal_lower468  676
    u[3]      primal_lower469  265
    u[3]      primal_lower470  45
    u[3]      primal_lower471  340
    u[3]      primal_lower472  833
    u[3]      primal_lower473  321
    u[3]      primal_lower474  240
    u[3]      primal_lower475  195
    u[3]      primal_lower476  236
    u[3]      primal_lower477  307
    u[3]      primal_lower478  917
    u[3]      primal_lower479  945
    u[3]      primal_lower480  230
    u[3]      primal_lower481  555
    u[3]      primal_lower482  658
    u[3]      primal_lower483  572
    u[3]      primal_lower484  590
    u[3]      primal_lower485  730
    u[3]      primal_lower486  584
    u[3]      primal_lower487  69
    u[3]      primal_lower488  176
    u[3]      primal_lower489  279
    u[3]      primal_lower490  877
    u[3]      primal_lower491  579
    u[3]      primal_lower492  604
    u[3]      primal_lower493  540
    u[3]      primal_lower494  253
    u[3]      primal_lower495  303
    u[3]      primal_lower496  399
    u[3]      primal_lower497  500
    u[3]      primal_lower498  724
    u[3]      primal_lower499  961
    u[3]      primal_lower500  471
    u[3]      primal_lower501  570
    u[3]      primal_lower502  227
    u[3]      primal_lower503  282
    u[3]      primal_lower504  643
    u[3]      primal_lower505  919
    u[3]      primal_lower506  200
    u[3]      primal_lower507  581
    u[3]      primal_lower508  836
    u[3]      primal_lower509  898
    u[3]      primal_lower510  858
    u[3]      primal_lower511  956
    u[3]      primal_lower512  739
    u[3]      primal_lower513  744
    u[3]      primal_lower514  312
    u[3]      primal_lower515  360
    u[3]      primal_lower516  170
    u[3]      primal_lower517  616
    u[3]      primal_lower518  219
    u[3]      primal_lower519  110
    u[3]      primal_lower520  984
    u[3]      primal_lower521  339
    u[3]      primal_lower522  429
    u[3]      primal_lower523  164
    u[3]      primal_lower524  888
    u[3]      primal_lower525  429
    u[3]      primal_lower526  563
    u[3]      primal_lower527  406
    u[3]      primal_lower528  704
    u[3]      primal_lower529  156
    u[3]      primal_lower530  121
    u[3]      primal_lower531  134
    u[3]      primal_lower532  786
    u[3]      primal_lower533  619
    u[3]      primal_lower534  986
    u[3]      primal_lower535  945
    u[3]      primal_lower536  474
    u[3]      primal_lower537  621
    u[3]      primal_lower538  390
    u[3]      primal_lower539  454
    u[3]      primal_lower540  409
    u[3]      primal_lower541  83
    u[3]      primal_lower542  232
    u[3]      primal_lower543  592
    u[3]      primal_lower544  85
    u[3]      primal_lower545  396
    u[3]      primal_lower546  697
    u[3]      primal_lower547  505
    u[3]      primal_lower548  52
    u[3]      primal_lower549  221
    u[3]      primal_lower550  469
    u[3]      primal_lower551  176
    u[3]      primal_lower552  946
    u[3]      primal_lower553  590
    u[3]      primal_lower554  500
    u[3]      primal_lower555  1
    u[3]      primal_lower556  303
    u[3]      primal_lower557  481
    u[3]      primal_lower558  422
    u[3]      primal_lower559  938
    u[3]      primal_lower560  112
    u[3]      primal_lower561  269
    u[3]      primal_lower562  255
    u[3]      primal_lower563  376
    u[3]      primal_lower564  549
    u[3]      primal_lower565  52
    u[3]      primal_lower566  366
    u[3]      primal_lower567  325
    u[3]      primal_lower568  359
    u[3]      primal_lower569  682
    u[3]      primal_lower570  990
    u[3]      primal_lower571  840
    u[3]      primal_lower572  845
    u[3]      primal_lower573  494
    u[3]      primal_lower574  581
    u[3]      primal_lower575  658
    u[3]      primal_lower576  510
    u[3]      primal_lower577  373
    u[3]      primal_lower578  532
    u[3]      primal_lower579  394
    u[3]      primal_lower580  15
    u[3]      primal_lower581  241
    u[3]      primal_lower582  723
    u[3]      primal_lower583  383
    u[3]      primal_lower584  340
    u[3]      primal_lower585  298
    u[3]      primal_lower586  192
    u[3]      primal_lower587  239
    u[3]      primal_lower588  901
    u[3]      primal_lower589  270
    u[3]      primal_lower590  179
    u[3]      primal_lower591  287
    u[3]      primal_lower592  443
    u[3]      primal_lower593  145
    u[3]      primal_lower594  659
    u[3]      primal_lower595  976
    u[3]      primal_lower596  303
    u[3]      primal_lower597  628
    u[3]      primal_lower598  206
    u[3]      primal_lower599  9
    u[3]      primal_lower600  930
    u[3]      primal_lower601  440
    u[3]      primal_lower602  529
    u[3]      primal_lower603  984
    u[3]      primal_lower604  656
    u[3]      primal_lower605  598
    u[3]      primal_lower606  60
    u[3]      primal_lower607  738
    u[3]      primal_lower608  929
    u[3]      primal_lower609  864
    u[3]      primal_lower610  520
    u[3]      primal_lower611  59
    u[3]      primal_lower612  103
    u[3]      primal_lower613  945
    u[3]      primal_lower614  516
    u[3]      primal_lower615  861
    u[3]      primal_lower616  63
    u[3]      primal_lower617  833
    u[3]      primal_lower618  672
    u[3]      primal_lower619  665
    u[3]      primal_lower620  579
    u[3]      primal_lower621  887
    u[3]      primal_lower622  44
    u[3]      primal_lower623  206
    u[3]      primal_lower624  487
    u[3]      primal_lower625  197
    u[3]      primal_lower626  66
    u[3]      primal_lower627  187
    u[3]      primal_lower628  433
    u[3]      primal_lower629  353
    u[3]      primal_lower630  493
    u[3]      primal_lower631  650
    u[3]      primal_lower632  800
    u[3]      primal_lower633  138
    u[3]      primal_lower634  552
    u[3]      primal_lower635  295
    u[3]      primal_lower636  834
    u[3]      primal_lower637  229
    u[3]      primal_lower638  153
    u[3]      primal_lower639  936
    u[3]      primal_lower640  572
    u[3]      primal_lower641  266
    u[3]      primal_lower642  185
    u[3]      primal_lower643  489
    u[3]      primal_lower644  682
    u[3]      primal_lower645  666
    u[3]      primal_lower646  263
    u[3]      primal_lower647  541
    u[3]      primal_lower648  10
    u[3]      primal_lower649  657
    u[3]      primal_lower650  526
    u[3]      primal_lower651  149
    u[3]      primal_lower652  510
    u[3]      primal_lower653  100
    u[3]      primal_lower654  845
    u[3]      primal_lower655  765
    u[3]      primal_lower656  89
    u[3]      primal_lower657  299
    u[3]      primal_lower658  277
    u[3]      primal_lower659  514
    u[3]      primal_lower660  846
    u[3]      primal_lower661  935
    u[3]      primal_lower662  859
    u[3]      primal_lower663  295
    u[3]      primal_lower664  779
    u[3]      primal_lower665  137
    u[3]      primal_lower666  731
    u[3]      primal_lower667  750
    u[3]      primal_lower668  315
    u[3]      primal_lower669  745
    u[3]      primal_lower670  1
    u[3]      primal_lower671  930
    u[3]      primal_lower672  647
    u[3]      primal_lower673  404
    u[3]      primal_lower674  612
    u[3]      primal_lower675  430
    u[3]      primal_lower676  788
    u[3]      primal_lower677  859
    u[3]      primal_lower678  450
    u[3]      primal_lower679  559
    u[3]      primal_lower680  561
    u[3]      primal_lower681  201
    u[3]      primal_lower682  47
    u[3]      primal_lower683  492
    u[3]      primal_lower684  811
    u[3]      primal_lower685  466
    u[3]      primal_lower686  818
    u[3]      primal_lower687  158
    u[3]      primal_lower688  677
    u[3]      primal_lower689  563
    u[3]      primal_lower690  222
    u[3]      primal_lower691  843
    u[3]      primal_lower692  68
    u[3]      primal_lower693  780
    u[3]      primal_lower694  438
    u[3]      primal_lower695  874
    u[3]      primal_lower696  538
    u[3]      primal_lower697  267
    u[3]      primal_lower698  231
    u[3]      primal_lower699  472
    u[3]      primal_lower700  811
    u[3]      primal_lower701  925
    u[3]      primal_lower702  88
    u[3]      primal_lower703  490
    u[3]      primal_lower704  597
    u[3]      primal_lower705  50
    u[3]      primal_lower706  957
    u[3]      primal_lower707  541
    u[3]      primal_lower708  884
    u[3]      primal_lower709  624
    u[3]      primal_lower710  638
    u[3]      primal_lower711  600
    u[3]      primal_lower712  351
    u[3]      primal_lower713  735
    u[3]      primal_lower714  756
    u[3]      primal_lower715  662
    u[3]      primal_lower716  300
    u[3]      primal_lower717  838
    u[3]      primal_lower718  836
    u[3]      primal_lower719  26
    u[3]      primal_lower720  66
    u[3]      primal_lower721  60
    u[3]      primal_lower722  641
    u[3]      primal_lower723  59
    u[3]      primal_lower724  946
    u[3]      primal_lower725  99
    u[3]      primal_lower726  687
    u[3]      primal_lower727  825
    u[3]      primal_lower728  337
    u[3]      primal_lower729  422
    u[3]      primal_lower730  680
    u[3]      primal_lower731  51
    u[3]      primal_lower732  725
    u[3]      primal_lower733  669
    u[3]      primal_lower734  380
    u[3]      primal_lower735  414
    u[3]      primal_lower736  82
    u[3]      primal_lower737  454
    u[3]      primal_lower738  902
    u[3]      primal_lower739  757
    u[3]      primal_lower740  501
    u[3]      primal_lower741  745
    u[3]      primal_lower742  258
    u[3]      primal_lower743  547
    u[3]      primal_lower744  629
    u[3]      primal_lower745  278
    u[3]      primal_lower746  531
    u[3]      primal_lower747  740
    u[3]      primal_lower748  445
    u[3]      primal_lower749  474
    u[3]      primal_lower750  139
    u[3]      primal_lower751  90
    u[3]      primal_lower752  668
    u[3]      primal_lower753  431
    u[3]      primal_lower754  131
    u[3]      primal_lower755  552
    u[3]      primal_lower756  257
    u[3]      primal_lower757  551
    u[3]      primal_lower758  763
    u[3]      primal_lower759  98
    u[3]      primal_lower760  753
    u[3]      primal_lower761  497
    u[3]      primal_lower762  332
    u[3]      primal_lower763  221
    u[3]      primal_lower764  991
    u[3]      primal_lower765  497
    u[3]      primal_lower766  239
    u[3]      primal_lower767  419
    u[3]      primal_lower768  616
    u[3]      primal_lower769  696
    u[3]      primal_lower770  70
    u[3]      primal_lower771  683
    u[3]      primal_lower772  6
    u[3]      primal_lower773  949
    u[3]      primal_lower774  269
    u[3]      primal_lower775  539
    u[3]      primal_lower776  694
    u[3]      primal_lower777  489
    u[3]      primal_lower778  386
    u[3]      primal_lower779  639
    u[3]      primal_lower780  236
    u[3]      primal_lower781  44
    u[3]      primal_lower782  986
    u[3]      primal_lower783  235
    u[3]      primal_lower784  20
    u[3]      primal_lower785  922
    u[3]      primal_lower786  370
    u[3]      primal_lower787  619
    u[3]      primal_lower788  197
    u[3]      primal_lower789  950
    u[3]      primal_lower790  444
    u[3]      primal_lower791  114
    u[3]      primal_lower792  492
    u[3]      primal_lower793  311
    u[3]      primal_lower794  847
    u[3]      primal_lower795  519
    u[3]      primal_lower796  762
    u[3]      primal_lower797  883
    u[3]      primal_lower798  514
    u[3]      primal_lower799  816
    u[3]      primal_lower800  97
    u[3]      primal_lower801  884
    u[3]      primal_lower802  48
    u[3]      primal_lower803  624
    u[3]      primal_lower804  314
    u[3]      primal_lower805  599
    u[3]      primal_lower806  237
    u[3]      primal_lower807  284
    u[3]      primal_lower808  904
    u[3]      primal_lower809  507
    u[3]      primal_lower810  911
    u[3]      primal_lower811  674
    u[3]      primal_lower812  975
    u[3]      primal_lower813  257
    u[3]      primal_lower814  910
    u[3]      primal_lower815  497
    u[3]      primal_lower816  31
    u[3]      primal_lower817  470
    u[3]      primal_lower818  277
    u[3]      primal_lower819  549
    u[3]      primal_lower820  804
    u[3]      primal_lower821  899
    u[3]      primal_lower822  384
    u[3]      primal_lower823  979
    u[3]      primal_lower824  706
    u[3]      primal_lower825  812
    u[3]      primal_lower826  65
    u[3]      primal_lower827  178
    u[3]      primal_lower828  409
    u[3]      primal_lower829  629
    u[3]      primal_lower830  282
    u[3]      primal_lower831  769
    u[3]      primal_lower832  204
    u[3]      primal_lower833  292
    u[3]      primal_lower834  824
    u[3]      primal_lower835  791
    u[3]      primal_lower836  449
    u[3]      primal_lower837  612
    u[3]      primal_lower838  798
    u[3]      primal_lower839  658
    u[3]      primal_lower840  393
    u[3]      primal_lower841  447
    u[3]      primal_lower842  915
    u[3]      primal_lower843  844
    u[3]      primal_lower844  652
    u[3]      primal_lower845  513
    u[3]      primal_lower846  305
    u[3]      primal_lower847  873
    u[3]      primal_lower848  935
    u[3]      primal_lower849  200
    u[3]      primal_lower850  514
    u[3]      primal_lower851  519
    u[3]      primal_lower852  590
    u[3]      primal_lower853  944
    u[3]      primal_lower854  457
    u[3]      primal_lower855  523
    u[3]      primal_lower856  416
    u[3]      primal_lower857  946
    u[3]      primal_lower858  265
    u[3]      primal_lower859  559
    u[3]      primal_lower860  203
    u[3]      primal_lower861  181
    u[3]      primal_lower862  389
    u[3]      primal_lower863  42
    u[3]      primal_lower864  691
    u[3]      primal_lower865  380
    u[3]      primal_lower866  212
    u[3]      primal_lower867  760
    u[3]      primal_lower868  22
    u[3]      primal_lower869  311
    u[3]      primal_lower870  171
    u[3]      primal_lower871  147
    u[3]      primal_lower872  400
    u[3]      primal_lower873  60
    u[3]      primal_lower874  127
    u[3]      primal_lower875  989
    u[3]      primal_lower876  309
    u[3]      primal_lower877  901
    u[3]      primal_lower878  854
    u[3]      primal_lower879  736
    u[3]      primal_lower880  804
    u[3]      primal_lower881  188
    u[3]      primal_lower882  56
    u[3]      primal_lower883  825
    u[3]      primal_lower884  511
    u[3]      primal_lower885  237
    u[3]      primal_lower886  874
    u[3]      primal_lower887  689
    u[3]      primal_lower888  943
    u[3]      primal_lower889  695
    u[3]      primal_lower890  904
    u[3]      primal_lower891  416
    u[3]      primal_lower892  46
    u[3]      primal_lower893  334
    u[3]      primal_lower894  609
    u[3]      primal_lower895  963
    u[3]      primal_lower896  347
    u[3]      primal_lower897  41
    u[3]      primal_lower898  666
    u[3]      primal_lower899  204
    u[3]      primal_lower900  268
    u[3]      primal_lower901  628
    u[3]      primal_lower902  727
    u[3]      primal_lower903  545
    u[3]      primal_lower904  88
    u[3]      primal_lower905  505
    u[3]      primal_lower906  654
    u[3]      primal_lower907  215
    u[3]      primal_lower908  958
    u[3]      primal_lower909  618
    u[3]      primal_lower910  658
    u[3]      primal_lower911  497
    u[3]      primal_lower912  66
    u[3]      primal_lower913  1000
    u[3]      primal_lower914  103
    u[3]      primal_lower915  533
    u[3]      primal_lower916  67
    u[3]      primal_lower917  748
    u[3]      primal_lower918  357
    u[3]      primal_lower919  723
    u[3]      primal_lower920  610
    u[3]      primal_lower921  774
    u[3]      primal_lower922  307
    u[3]      primal_lower923  578
    u[3]      primal_lower924  199
    u[3]      primal_lower925  127
    u[3]      primal_lower926  48
    u[3]      primal_lower927  438
    u[3]      primal_lower928  519
    u[3]      primal_lower929  426
    u[3]      primal_lower930  489
    u[3]      primal_lower931  260
    u[3]      primal_lower932  309
    u[3]      primal_lower933  920
    u[3]      primal_lower934  898
    u[3]      primal_lower935  659
    u[3]      primal_lower936  14
    u[3]      primal_lower937  670
    u[3]      primal_lower938  332
    u[3]      primal_lower939  783
    u[3]      primal_lower940  742
    u[3]      primal_lower941  955
    u[3]      primal_lower942  755
    u[3]      primal_lower943  467
    u[3]      primal_lower944  381
    u[3]      primal_lower945  132
    u[3]      primal_lower946  493
    u[3]      primal_lower947  313
    u[3]      primal_lower948  786
    u[3]      primal_lower949  143
    u[3]      primal_lower950  171
    u[3]      primal_lower951  315
    u[3]      primal_lower952  558
    u[3]      primal_lower953  209
    u[3]      primal_lower954  744
    u[3]      primal_lower955  678
    u[3]      primal_lower956  496
    u[3]      primal_lower957  85
    u[3]      primal_lower958  420
    u[3]      primal_lower959  976
    u[3]      primal_lower960  285
    u[3]      primal_lower961  571
    u[3]      primal_lower962  513
    u[3]      primal_lower963  647
    u[3]      primal_lower964  755
    u[3]      primal_lower965  811
    u[3]      primal_lower966  67
    u[3]      primal_lower967  386
    u[3]      primal_lower968  584
    u[3]      primal_lower969  177
    u[3]      primal_lower970  306
    u[3]      primal_lower971  978
    u[3]      primal_lower972  733
    u[3]      primal_lower973  168
    u[3]      primal_lower974  643
    u[3]      primal_lower975  1000
    u[3]      primal_lower976  503
    u[3]      primal_lower977  688
    u[3]      primal_lower978  775
    u[3]      primal_lower979  657
    u[3]      primal_lower980  795
    u[3]      primal_lower981  663
    u[3]      primal_lower982  746
    u[3]      primal_lower983  778
    u[3]      primal_lower984  823
    u[3]      primal_lower985  990
    u[3]      primal_lower986  992
    u[3]      primal_lower987  123
    u[3]      primal_lower988  641
    u[3]      primal_lower989  311
    u[3]      primal_lower990  826
    u[3]      primal_lower991  860
    u[3]      primal_lower992  196
    u[3]      primal_lower993  579
    u[3]      primal_lower994  913
    u[3]      primal_lower995  379
    u[3]      primal_lower996  971
    u[3]      primal_lower997  486
    u[3]      primal_lower998  923
    u[3]      primal_lower999  595
    u[3]      interdiction[3]  1
    u[3]      mccormick1[3]  -1
    u[3]      mccormick3[3]  1
    u[4]      primal_lower0  116
    u[4]      primal_lower1  392
    u[4]      primal_lower2  600
    u[4]      primal_lower3  274
    u[4]      primal_lower4  237
    u[4]      primal_lower5  181
    u[4]      primal_lower6  534
    u[4]      primal_lower7  89
    u[4]      primal_lower8  239
    u[4]      primal_lower9  213
    u[4]      primal_lower10  908
    u[4]      primal_lower11  917
    u[4]      primal_lower12  948
    u[4]      primal_lower13  38
    u[4]      primal_lower14  822
    u[4]      primal_lower15  707
    u[4]      primal_lower16  417
    u[4]      primal_lower17  99
    u[4]      primal_lower18  540
    u[4]      primal_lower19  147
    u[4]      primal_lower20  985
    u[4]      primal_lower21  300
    u[4]      primal_lower22  991
    u[4]      primal_lower23  527
    u[4]      primal_lower24  627
    u[4]      primal_lower25  468
    u[4]      primal_lower26  601
    u[4]      primal_lower27  993
    u[4]      primal_lower28  208
    u[4]      primal_lower29  13
    u[4]      primal_lower30  655
    u[4]      primal_lower31  849
    u[4]      primal_lower32  638
    u[4]      primal_lower33  809
    u[4]      primal_lower34  942
    u[4]      primal_lower35  589
    u[4]      primal_lower36  561
    u[4]      primal_lower37  298
    u[4]      primal_lower38  873
    u[4]      primal_lower39  246
    u[4]      primal_lower40  277
    u[4]      primal_lower41  623
    u[4]      primal_lower42  716
    u[4]      primal_lower43  185
    u[4]      primal_lower44  758
    u[4]      primal_lower45  377
    u[4]      primal_lower46  940
    u[4]      primal_lower47  795
    u[4]      primal_lower48  565
    u[4]      primal_lower49  334
    u[4]      primal_lower50  468
    u[4]      primal_lower51  404
    u[4]      primal_lower52  165
    u[4]      primal_lower53  127
    u[4]      primal_lower54  128
    u[4]      primal_lower55  948
    u[4]      primal_lower56  430
    u[4]      primal_lower57  396
    u[4]      primal_lower58  70
    u[4]      primal_lower59  961
    u[4]      primal_lower60  697
    u[4]      primal_lower61  421
    u[4]      primal_lower62  368
    u[4]      primal_lower63  857
    u[4]      primal_lower64  21
    u[4]      primal_lower65  177
    u[4]      primal_lower66  982
    u[4]      primal_lower67  61
    u[4]      primal_lower68  56
    u[4]      primal_lower69  710
    u[4]      primal_lower70  109
    u[4]      primal_lower71  438
    u[4]      primal_lower72  806
    u[4]      primal_lower73  667
    u[4]      primal_lower74  622
    u[4]      primal_lower75  888
    u[4]      primal_lower76  117
    u[4]      primal_lower77  610
    u[4]      primal_lower78  846
    u[4]      primal_lower79  448
    u[4]      primal_lower80  975
    u[4]      primal_lower81  728
    u[4]      primal_lower82  855
    u[4]      primal_lower83  777
    u[4]      primal_lower84  574
    u[4]      primal_lower85  842
    u[4]      primal_lower86  439
    u[4]      primal_lower87  896
    u[4]      primal_lower88  582
    u[4]      primal_lower89  850
    u[4]      primal_lower90  635
    u[4]      primal_lower91  63
    u[4]      primal_lower92  17
    u[4]      primal_lower93  869
    u[4]      primal_lower94  139
    u[4]      primal_lower95  959
    u[4]      primal_lower96  478
    u[4]      primal_lower97  330
    u[4]      primal_lower98  848
    u[4]      primal_lower99  623
    u[4]      primal_lower100  845
    u[4]      primal_lower101  594
    u[4]      primal_lower102  249
    u[4]      primal_lower103  715
    u[4]      primal_lower104  678
    u[4]      primal_lower105  827
    u[4]      primal_lower106  733
    u[4]      primal_lower107  497
    u[4]      primal_lower108  972
    u[4]      primal_lower109  818
    u[4]      primal_lower110  77
    u[4]      primal_lower111  816
    u[4]      primal_lower112  156
    u[4]      primal_lower113  175
    u[4]      primal_lower114  959
    u[4]      primal_lower115  900
    u[4]      primal_lower116  995
    u[4]      primal_lower117  673
    u[4]      primal_lower118  286
    u[4]      primal_lower119  35
    u[4]      primal_lower120  915
    u[4]      primal_lower121  130
    u[4]      primal_lower122  986
    u[4]      primal_lower123  495
    u[4]      primal_lower124  420
    u[4]      primal_lower125  887
    u[4]      primal_lower126  757
    u[4]      primal_lower127  498
    u[4]      primal_lower128  16
    u[4]      primal_lower129  803
    u[4]      primal_lower130  473
    u[4]      primal_lower131  694
    u[4]      primal_lower132  398
    u[4]      primal_lower133  343
    u[4]      primal_lower134  296
    u[4]      primal_lower135  689
    u[4]      primal_lower136  364
    u[4]      primal_lower137  335
    u[4]      primal_lower138  891
    u[4]      primal_lower139  669
    u[4]      primal_lower140  930
    u[4]      primal_lower141  998
    u[4]      primal_lower142  276
    u[4]      primal_lower143  840
    u[4]      primal_lower144  31
    u[4]      primal_lower145  518
    u[4]      primal_lower146  865
    u[4]      primal_lower147  628
    u[4]      primal_lower148  229
    u[4]      primal_lower149  626
    u[4]      primal_lower150  337
    u[4]      primal_lower151  581
    u[4]      primal_lower152  662
    u[4]      primal_lower153  443
    u[4]      primal_lower154  722
    u[4]      primal_lower155  770
    u[4]      primal_lower156  200
    u[4]      primal_lower157  739
    u[4]      primal_lower158  935
    u[4]      primal_lower159  868
    u[4]      primal_lower160  280
    u[4]      primal_lower161  594
    u[4]      primal_lower162  800
    u[4]      primal_lower163  651
    u[4]      primal_lower164  837
    u[4]      primal_lower165  954
    u[4]      primal_lower166  231
    u[4]      primal_lower167  253
    u[4]      primal_lower168  978
    u[4]      primal_lower169  66
    u[4]      primal_lower170  106
    u[4]      primal_lower171  172
    u[4]      primal_lower172  398
    u[4]      primal_lower173  666
    u[4]      primal_lower174  311
    u[4]      primal_lower175  262
    u[4]      primal_lower176  858
    u[4]      primal_lower177  295
    u[4]      primal_lower178  99
    u[4]      primal_lower179  162
    u[4]      primal_lower180  642
    u[4]      primal_lower181  740
    u[4]      primal_lower182  575
    u[4]      primal_lower183  563
    u[4]      primal_lower184  235
    u[4]      primal_lower185  369
    u[4]      primal_lower186  717
    u[4]      primal_lower187  120
    u[4]      primal_lower188  314
    u[4]      primal_lower189  225
    u[4]      primal_lower190  49
    u[4]      primal_lower191  309
    u[4]      primal_lower192  767
    u[4]      primal_lower193  671
    u[4]      primal_lower194  505
    u[4]      primal_lower195  436
    u[4]      primal_lower196  498
    u[4]      primal_lower197  24
    u[4]      primal_lower198  119
    u[4]      primal_lower199  63
    u[4]      primal_lower200  557
    u[4]      primal_lower201  419
    u[4]      primal_lower202  820
    u[4]      primal_lower203  348
    u[4]      primal_lower204  981
    u[4]      primal_lower205  443
    u[4]      primal_lower206  242
    u[4]      primal_lower207  785
    u[4]      primal_lower208  113
    u[4]      primal_lower209  502
    u[4]      primal_lower210  708
    u[4]      primal_lower211  778
    u[4]      primal_lower212  231
    u[4]      primal_lower213  745
    u[4]      primal_lower214  32
    u[4]      primal_lower215  909
    u[4]      primal_lower216  30
    u[4]      primal_lower217  91
    u[4]      primal_lower218  848
    u[4]      primal_lower219  796
    u[4]      primal_lower220  64
    u[4]      primal_lower221  670
    u[4]      primal_lower222  532
    u[4]      primal_lower223  45
    u[4]      primal_lower224  748
    u[4]      primal_lower225  440
    u[4]      primal_lower226  728
    u[4]      primal_lower227  53
    u[4]      primal_lower228  60
    u[4]      primal_lower229  883
    u[4]      primal_lower230  137
    u[4]      primal_lower231  61
    u[4]      primal_lower232  966
    u[4]      primal_lower233  755
    u[4]      primal_lower234  652
    u[4]      primal_lower235  156
    u[4]      primal_lower236  353
    u[4]      primal_lower237  185
    u[4]      primal_lower238  994
    u[4]      primal_lower239  194
    u[4]      primal_lower240  24
    u[4]      primal_lower241  283
    u[4]      primal_lower242  51
    u[4]      primal_lower243  162
    u[4]      primal_lower244  810
    u[4]      primal_lower245  831
    u[4]      primal_lower246  230
    u[4]      primal_lower247  30
    u[4]      primal_lower248  866
    u[4]      primal_lower249  963
    u[4]      primal_lower250  436
    u[4]      primal_lower251  756
    u[4]      primal_lower252  337
    u[4]      primal_lower253  790
    u[4]      primal_lower254  165
    u[4]      primal_lower255  249
    u[4]      primal_lower256  544
    u[4]      primal_lower257  681
    u[4]      primal_lower258  322
    u[4]      primal_lower259  385
    u[4]      primal_lower260  513
    u[4]      primal_lower261  654
    u[4]      primal_lower262  690
    u[4]      primal_lower263  112
    u[4]      primal_lower264  651
    u[4]      primal_lower265  673
    u[4]      primal_lower266  708
    u[4]      primal_lower267  326
    u[4]      primal_lower268  960
    u[4]      primal_lower269  524
    u[4]      primal_lower270  745
    u[4]      primal_lower271  845
    u[4]      primal_lower272  915
    u[4]      primal_lower273  912
    u[4]      primal_lower274  49
    u[4]      primal_lower275  825
    u[4]      primal_lower276  614
    u[4]      primal_lower277  195
    u[4]      primal_lower278  659
    u[4]      primal_lower279  81
    u[4]      primal_lower280  112
    u[4]      primal_lower281  33
    u[4]      primal_lower282  679
    u[4]      primal_lower283  202
    u[4]      primal_lower284  822
    u[4]      primal_lower285  769
    u[4]      primal_lower286  164
    u[4]      primal_lower287  180
    u[4]      primal_lower288  940
    u[4]      primal_lower289  819
    u[4]      primal_lower290  116
    u[4]      primal_lower291  126
    u[4]      primal_lower292  802
    u[4]      primal_lower293  194
    u[4]      primal_lower294  199
    u[4]      primal_lower295  619
    u[4]      primal_lower296  375
    u[4]      primal_lower297  260
    u[4]      primal_lower298  154
    u[4]      primal_lower299  644
    u[4]      primal_lower300  784
    u[4]      primal_lower301  823
    u[4]      primal_lower302  518
    u[4]      primal_lower303  244
    u[4]      primal_lower304  696
    u[4]      primal_lower305  220
    u[4]      primal_lower306  350
    u[4]      primal_lower307  146
    u[4]      primal_lower308  226
    u[4]      primal_lower309  548
    u[4]      primal_lower310  939
    u[4]      primal_lower311  541
    u[4]      primal_lower312  261
    u[4]      primal_lower313  840
    u[4]      primal_lower314  133
    u[4]      primal_lower315  92
    u[4]      primal_lower316  604
    u[4]      primal_lower317  185
    u[4]      primal_lower318  909
    u[4]      primal_lower319  646
    u[4]      primal_lower320  67
    u[4]      primal_lower321  456
    u[4]      primal_lower322  748
    u[4]      primal_lower323  880
    u[4]      primal_lower324  372
    u[4]      primal_lower325  906
    u[4]      primal_lower326  165
    u[4]      primal_lower327  928
    u[4]      primal_lower328  525
    u[4]      primal_lower329  13
    u[4]      primal_lower330  709
    u[4]      primal_lower331  597
    u[4]      primal_lower332  842
    u[4]      primal_lower333  810
    u[4]      primal_lower334  185
    u[4]      primal_lower335  936
    u[4]      primal_lower336  847
    u[4]      primal_lower337  223
    u[4]      primal_lower338  115
    u[4]      primal_lower339  365
    u[4]      primal_lower340  314
    u[4]      primal_lower341  770
    u[4]      primal_lower342  279
    u[4]      primal_lower343  22
    u[4]      primal_lower344  829
    u[4]      primal_lower345  788
    u[4]      primal_lower346  496
    u[4]      primal_lower347  616
    u[4]      primal_lower348  991
    u[4]      primal_lower349  877
    u[4]      primal_lower350  211
    u[4]      primal_lower351  560
    u[4]      primal_lower352  565
    u[4]      primal_lower353  584
    u[4]      primal_lower354  927
    u[4]      primal_lower355  197
    u[4]      primal_lower356  607
    u[4]      primal_lower357  58
    u[4]      primal_lower358  620
    u[4]      primal_lower359  487
    u[4]      primal_lower360  523
    u[4]      primal_lower361  5
    u[4]      primal_lower362  799
    u[4]      primal_lower363  430
    u[4]      primal_lower364  859
    u[4]      primal_lower365  13
    u[4]      primal_lower366  411
    u[4]      primal_lower367  733
    u[4]      primal_lower368  147
    u[4]      primal_lower369  591
    u[4]      primal_lower370  287
    u[4]      primal_lower371  967
    u[4]      primal_lower372  487
    u[4]      primal_lower373  52
    u[4]      primal_lower374  731
    u[4]      primal_lower375  160
    u[4]      primal_lower376  72
    u[4]      primal_lower377  968
    u[4]      primal_lower378  488
    u[4]      primal_lower379  624
    u[4]      primal_lower380  373
    u[4]      primal_lower381  544
    u[4]      primal_lower382  706
    u[4]      primal_lower383  549
    u[4]      primal_lower384  825
    u[4]      primal_lower385  474
    u[4]      primal_lower386  869
    u[4]      primal_lower387  666
    u[4]      primal_lower388  836
    u[4]      primal_lower389  491
    u[4]      primal_lower390  43
    u[4]      primal_lower391  769
    u[4]      primal_lower392  164
    u[4]      primal_lower393  486
    u[4]      primal_lower394  738
    u[4]      primal_lower395  15
    u[4]      primal_lower396  870
    u[4]      primal_lower397  758
    u[4]      primal_lower398  898
    u[4]      primal_lower399  593
    u[4]      primal_lower400  660
    u[4]      primal_lower401  686
    u[4]      primal_lower402  458
    u[4]      primal_lower403  99
    u[4]      primal_lower404  453
    u[4]      primal_lower405  785
    u[4]      primal_lower406  27
    u[4]      primal_lower407  529
    u[4]      primal_lower408  536
    u[4]      primal_lower409  444
    u[4]      primal_lower410  3
    u[4]      primal_lower411  753
    u[4]      primal_lower412  730
    u[4]      primal_lower413  466
    u[4]      primal_lower414  762
    u[4]      primal_lower415  36
    u[4]      primal_lower416  378
    u[4]      primal_lower417  376
    u[4]      primal_lower418  894
    u[4]      primal_lower419  781
    u[4]      primal_lower420  509
    u[4]      primal_lower421  919
    u[4]      primal_lower422  320
    u[4]      primal_lower423  496
    u[4]      primal_lower424  334
    u[4]      primal_lower425  347
    u[4]      primal_lower426  494
    u[4]      primal_lower427  400
    u[4]      primal_lower428  172
    u[4]      primal_lower429  819
    u[4]      primal_lower430  300
    u[4]      primal_lower431  326
    u[4]      primal_lower432  623
    u[4]      primal_lower433  207
    u[4]      primal_lower434  126
    u[4]      primal_lower435  980
    u[4]      primal_lower436  711
    u[4]      primal_lower437  727
    u[4]      primal_lower438  253
    u[4]      primal_lower439  356
    u[4]      primal_lower440  58
    u[4]      primal_lower441  946
    u[4]      primal_lower442  233
    u[4]      primal_lower443  204
    u[4]      primal_lower444  699
    u[4]      primal_lower445  56
    u[4]      primal_lower446  929
    u[4]      primal_lower447  633
    u[4]      primal_lower448  460
    u[4]      primal_lower449  482
    u[4]      primal_lower450  861
    u[4]      primal_lower451  753
    u[4]      primal_lower452  488
    u[4]      primal_lower453  439
    u[4]      primal_lower454  415
    u[4]      primal_lower455  421
    u[4]      primal_lower456  928
    u[4]      primal_lower457  278
    u[4]      primal_lower458  849
    u[4]      primal_lower459  836
    u[4]      primal_lower460  6
    u[4]      primal_lower461  723
    u[4]      primal_lower462  780
    u[4]      primal_lower463  83
    u[4]      primal_lower464  411
    u[4]      primal_lower465  622
    u[4]      primal_lower466  731
    u[4]      primal_lower467  129
    u[4]      primal_lower468  313
    u[4]      primal_lower469  834
    u[4]      primal_lower470  134
    u[4]      primal_lower471  277
    u[4]      primal_lower472  126
    u[4]      primal_lower473  786
    u[4]      primal_lower474  93
    u[4]      primal_lower475  696
    u[4]      primal_lower476  381
    u[4]      primal_lower477  112
    u[4]      primal_lower478  62
    u[4]      primal_lower479  218
    u[4]      primal_lower480  419
    u[4]      primal_lower481  748
    u[4]      primal_lower482  71
    u[4]      primal_lower483  609
    u[4]      primal_lower484  679
    u[4]      primal_lower485  851
    u[4]      primal_lower486  669
    u[4]      primal_lower487  894
    u[4]      primal_lower488  653
    u[4]      primal_lower489  708
    u[4]      primal_lower490  26
    u[4]      primal_lower491  260
    u[4]      primal_lower492  229
    u[4]      primal_lower493  341
    u[4]      primal_lower494  498
    u[4]      primal_lower495  20
    u[4]      primal_lower496  204
    u[4]      primal_lower497  77
    u[4]      primal_lower498  601
    u[4]      primal_lower499  570
    u[4]      primal_lower500  328
    u[4]      primal_lower501  271
    u[4]      primal_lower502  708
    u[4]      primal_lower503  647
    u[4]      primal_lower504  720
    u[4]      primal_lower505  912
    u[4]      primal_lower506  201
    u[4]      primal_lower507  530
    u[4]      primal_lower508  445
    u[4]      primal_lower509  303
    u[4]      primal_lower510  543
    u[4]      primal_lower511  277
    u[4]      primal_lower512  372
    u[4]      primal_lower513  745
    u[4]      primal_lower514  969
    u[4]      primal_lower515  9
    u[4]      primal_lower516  431
    u[4]      primal_lower517  165
    u[4]      primal_lower518  636
    u[4]      primal_lower519  559
    u[4]      primal_lower520  489
    u[4]      primal_lower521  724
    u[4]      primal_lower522  974
    u[4]      primal_lower523  125
    u[4]      primal_lower524  389
    u[4]      primal_lower525  470
    u[4]      primal_lower526  268
    u[4]      primal_lower527  427
    u[4]      primal_lower528  13
    u[4]      primal_lower529  653
    u[4]      primal_lower530  818
    u[4]      primal_lower531  451
    u[4]      primal_lower532  355
    u[4]      primal_lower533  28
    u[4]      primal_lower534  731
    u[4]      primal_lower535  122
    u[4]      primal_lower536  915
    u[4]      primal_lower537  926
    u[4]      primal_lower538  827
    u[4]      primal_lower539  143
    u[4]      primal_lower540  146
    u[4]      primal_lower541  452
    u[4]      primal_lower542  861
    u[4]      primal_lower543  693
    u[4]      primal_lower544  190
    u[4]      primal_lower545  665
    u[4]      primal_lower546  410
    u[4]      primal_lower547  866
    u[4]      primal_lower548  357
    u[4]      primal_lower549  374
    u[4]      primal_lower550  770
    u[4]      primal_lower551  833
    u[4]      primal_lower552  943
    u[4]      primal_lower553  259
    u[4]      primal_lower554  325
    u[4]      primal_lower555  350
    u[4]      primal_lower556  532
    u[4]      primal_lower557  174
    u[4]      primal_lower558  695
    u[4]      primal_lower559  891
    u[4]      primal_lower560  601
    u[4]      primal_lower561  814
    u[4]      primal_lower562  712
    u[4]      primal_lower563  505
    u[4]      primal_lower564  394
    u[4]      primal_lower565  253
    u[4]      primal_lower566  87
    u[4]      primal_lower567  850
    u[4]      primal_lower568  532
    u[4]      primal_lower569  963
    u[4]      primal_lower570  939
    u[4]      primal_lower571  673
    u[4]      primal_lower572  282
    u[4]      primal_lower573  875
    u[4]      primal_lower574  198
    u[4]      primal_lower575  223
    u[4]      primal_lower576  371
    u[4]      primal_lower577  642
    u[4]      primal_lower578  753
    u[4]      primal_lower579  919
    u[4]      primal_lower580  60
    u[4]      primal_lower581  438
    u[4]      primal_lower582  876
    u[4]      primal_lower583  756
    u[4]      primal_lower584  601
    u[4]      primal_lower585  47
    u[4]      primal_lower586  557
    u[4]      primal_lower587  224
    u[4]      primal_lower588  994
    u[4]      primal_lower589  435
    u[4]      primal_lower590  820
    u[4]      primal_lower591  960
    u[4]      primal_lower592  372
    u[4]      primal_lower593  918
    u[4]      primal_lower594  684
    u[4]      primal_lower595  809
    u[4]      primal_lower596  200
    u[4]      primal_lower597  749
    u[4]      primal_lower598  555
    u[4]      primal_lower599  326
    u[4]      primal_lower600  315
    u[4]      primal_lower601  661
    u[4]      primal_lower602  986
    u[4]      primal_lower603  137
    u[4]      primal_lower604  981
    u[4]      primal_lower605  399
    u[4]      primal_lower606  885
    u[4]      primal_lower607  551
    u[4]      primal_lower608  26
    u[4]      primal_lower609  69
    u[4]      primal_lower610  445
    u[4]      primal_lower611  360
    u[4]      primal_lower612  116
    u[4]      primal_lower613  702
    u[4]      primal_lower614  325
    u[4]      primal_lower615  482
    u[4]      primal_lower616  948
    u[4]      primal_lower617  298
    u[4]      primal_lower618  345
    u[4]      primal_lower619  894
    u[4]      primal_lower620  640
    u[4]      primal_lower621  644
    u[4]      primal_lower622  229
    u[4]      primal_lower623  679
    u[4]      primal_lower624  404
    u[4]      primal_lower625  310
    u[4]      primal_lower626  859
    u[4]      primal_lower627  196
    u[4]      primal_lower628  58
    u[4]      primal_lower629  654
    u[4]      primal_lower630  254
    u[4]      primal_lower631  447
    u[4]      primal_lower632  809
    u[4]      primal_lower633  963
    u[4]      primal_lower634  505
    u[4]      primal_lower635  776
    u[4]      primal_lower636  423
    u[4]      primal_lower637  282
    u[4]      primal_lower638  258
    u[4]      primal_lower639  993
    u[4]      primal_lower640  465
    u[4]      primal_lower641  131
    u[4]      primal_lower642  830
    u[4]      primal_lower643  562
    u[4]      primal_lower644  859
    u[4]      primal_lower645  211
    u[4]      primal_lower646  364
    u[4]      primal_lower647  638
    u[4]      primal_lower648  327
    u[4]      primal_lower649  698
    u[4]      primal_lower650  791
    u[4]      primal_lower651  2
    u[4]      primal_lower652  179
    u[4]      primal_lower653  493
    u[4]      primal_lower654  158
    u[4]      primal_lower655  554
    u[4]      primal_lower656  350
    u[4]      primal_lower657  640
    u[4]      primal_lower658  390
    u[4]      primal_lower659  883
    u[4]      primal_lower660  627
    u[4]      primal_lower661  456
    u[4]      primal_lower662  556
    u[4]      primal_lower663  812
    u[4]      primal_lower664  160
    u[4]      primal_lower665  694
    u[4]      primal_lower666  776
    u[4]      primal_lower667  879
    u[4]      primal_lower668  736
    u[4]      primal_lower669  926
    u[4]      primal_lower670  930
    u[4]      primal_lower671  571
    u[4]      primal_lower672  688
    u[4]      primal_lower673  909
    u[4]      primal_lower674  949
    u[4]      primal_lower675  51
    u[4]      primal_lower676  909
    u[4]      primal_lower677  116
    u[4]      primal_lower678  755
    u[4]      primal_lower679  308
    u[4]      primal_lower680  302
    u[4]      primal_lower681  382
    u[4]      primal_lower682  492
    u[4]      primal_lower683  233
    u[4]      primal_lower684  400
    u[4]      primal_lower685  223
    u[4]      primal_lower686  575
    u[4]      primal_lower687  123
    u[4]      primal_lower688  182
    u[4]      primal_lower689  952
    u[4]      primal_lower690  775
    u[4]      primal_lower691  40
    u[4]      primal_lower692  301
    u[4]      primal_lower693  953
    u[4]      primal_lower694  523
    u[4]      primal_lower695  515
    u[4]      primal_lower696  327
    u[4]      primal_lower697  468
    u[4]      primal_lower698  48
    u[4]      primal_lower699  805
    u[4]      primal_lower700  572
    u[4]      primal_lower701  486
    u[4]      primal_lower702  977
    u[4]      primal_lower703  563
    u[4]      primal_lower704  398
    u[4]      primal_lower705  743
    u[4]      primal_lower706  898
    u[4]      primal_lower707  226
    u[4]      primal_lower708  697
    u[4]      primal_lower709  541
    u[4]      primal_lower710  395
    u[4]      primal_lower711  21
    u[4]      primal_lower712  572
    u[4]      primal_lower713  240
    u[4]      primal_lower714  613
    u[4]      primal_lower715  327
    u[4]      primal_lower716  689
    u[4]      primal_lower717  11
    u[4]      primal_lower718  893
    u[4]      primal_lower719  987
    u[4]      primal_lower720  163
    u[4]      primal_lower721  105
    u[4]      primal_lower722  926
    u[4]      primal_lower723  760
    u[4]      primal_lower724  791
    u[4]      primal_lower725  320
    u[4]      primal_lower726  524
    u[4]      primal_lower727  206
    u[4]      primal_lower728  14
    u[4]      primal_lower729  523
    u[4]      primal_lower730  969
    u[4]      primal_lower731  52
    u[4]      primal_lower732  746
    u[4]      primal_lower733  102
    u[4]      primal_lower734  217
    u[4]      primal_lower735  299
    u[4]      primal_lower736  499
    u[4]      primal_lower737  687
    u[4]      primal_lower738  539
    u[4]      primal_lower739  882
    u[4]      primal_lower740  58
    u[4]      primal_lower741  642
    u[4]      primal_lower742  183
    u[4]      primal_lower743  972
    u[4]      primal_lower744  390
    u[4]      primal_lower745  267
    u[4]      primal_lower746  676
    u[4]      primal_lower747  641
    u[4]      primal_lower748  194
    u[4]      primal_lower749  495
    u[4]      primal_lower750  460
    u[4]      primal_lower751  351
    u[4]      primal_lower752  357
    u[4]      primal_lower753  340
    u[4]      primal_lower754  532
    u[4]      primal_lower755  29
    u[4]      primal_lower756  782
    u[4]      primal_lower757  84
    u[4]      primal_lower758  332
    u[4]      primal_lower759  795
    u[4]      primal_lower760  170
    u[4]      primal_lower761  42
    u[4]      primal_lower762  681
    u[4]      primal_lower763  230
    u[4]      primal_lower764  340
    u[4]      primal_lower765  690
    u[4]      primal_lower766  368
    u[4]      primal_lower767  508
    u[4]      primal_lower768  917
    u[4]      primal_lower769  245
    u[4]      primal_lower770  639
    u[4]      primal_lower771  784
    u[4]      primal_lower772  483
    u[4]      primal_lower773  34
    u[4]      primal_lower774  642
    u[4]      primal_lower775  928
    u[4]      primal_lower776  175
    u[4]      primal_lower777  846
    u[4]      primal_lower778  399
    u[4]      primal_lower779  892
    u[4]      primal_lower780  429
    u[4]      primal_lower781  477
    u[4]      primal_lower782  75
    u[4]      primal_lower783  836
    u[4]      primal_lower784  213
    u[4]      primal_lower785  71
    u[4]      primal_lower786  55
    u[4]      primal_lower787  304
    u[4]      primal_lower788  262
    u[4]      primal_lower789  799
    u[4]      primal_lower790  69
    u[4]      primal_lower791  223
    u[4]      primal_lower792  709
    u[4]      primal_lower793  252
    u[4]      primal_lower794  256
    u[4]      primal_lower795  44
    u[4]      primal_lower796  891
    u[4]      primal_lower797  628
    u[4]      primal_lower798  7
    u[4]      primal_lower799  953
    u[4]      primal_lower800  50
    u[4]      primal_lower801  373
    u[4]      primal_lower802  597
    u[4]      primal_lower803  189
    u[4]      primal_lower804  87
    u[4]      primal_lower805  668
    u[4]      primal_lower806  402
    u[4]      primal_lower807  61
    u[4]      primal_lower808  829
    u[4]      primal_lower809  708
    u[4]      primal_lower810  556
    u[4]      primal_lower811  891
    u[4]      primal_lower812  816
    u[4]      primal_lower813  886
    u[4]      primal_lower814  259
    u[4]      primal_lower815  386
    u[4]      primal_lower816  204
    u[4]      primal_lower817  583
    u[4]      primal_lower818  990
    u[4]      primal_lower819  890
    u[4]      primal_lower820  301
    u[4]      primal_lower821  496
    u[4]      primal_lower822  377
    u[4]      primal_lower823  984
    u[4]      primal_lower824  283
    u[4]      primal_lower825  801
    u[4]      primal_lower826  934
    u[4]      primal_lower827  151
    u[4]      primal_lower828  366
    u[4]      primal_lower829  322
    u[4]      primal_lower830  675
    u[4]      primal_lower831  950
    u[4]      primal_lower832  121
    u[4]      primal_lower833  589
    u[4]      primal_lower834  213
    u[4]      primal_lower835  164
    u[4]      primal_lower836  926
    u[4]      primal_lower837  273
    u[4]      primal_lower838  15
    u[4]      primal_lower839  671
    u[4]      primal_lower840  622
    u[4]      primal_lower841  140
    u[4]      primal_lower842  924
    u[4]      primal_lower843  165
    u[4]      primal_lower844  517
    u[4]      primal_lower845  930
    u[4]      primal_lower846  166
    u[4]      primal_lower847  362
    u[4]      primal_lower848  648
    u[4]      primal_lower849  829
    u[4]      primal_lower850  911
    u[4]      primal_lower851  348
    u[4]      primal_lower852  719
    u[4]      primal_lower853  673
    u[4]      primal_lower854  902
    u[4]      primal_lower855  748
    u[4]      primal_lower856  501
    u[4]      primal_lower857  687
    u[4]      primal_lower858  6
    u[4]      primal_lower859  604
    u[4]      primal_lower860  892
    u[4]      primal_lower861  718
    u[4]      primal_lower862  234
    u[4]      primal_lower863  483
    u[4]      primal_lower864  780
    u[4]      primal_lower865  721
    u[4]      primal_lower866  489
    u[4]      primal_lower867  297
    u[4]      primal_lower868  931
    u[4]      primal_lower869  500
    u[4]      primal_lower870  796
    u[4]      primal_lower871  64
    u[4]      primal_lower872  997
    u[4]      primal_lower873  553
    u[4]      primal_lower874  676
    u[4]      primal_lower875  22
    u[4]      primal_lower876  726
    u[4]      primal_lower877  622
    u[4]      primal_lower878  879
    u[4]      primal_lower879  729
    u[4]      primal_lower880  777
    u[4]      primal_lower881  225
    u[4]      primal_lower882  585
    u[4]      primal_lower883  674
    u[4]      primal_lower884  676
    u[4]      primal_lower885  174
    u[4]      primal_lower886  935
    u[4]      primal_lower887  366
    u[4]      primal_lower888  556
    u[4]      primal_lower889  692
    u[4]      primal_lower890  57
    u[4]      primal_lower891  45
    u[4]      primal_lower892  459
    u[4]      primal_lower893  295
    u[4]      primal_lower894  886
    u[4]      primal_lower895  908
    u[4]      primal_lower896  804
    u[4]      primal_lower897  814
    u[4]      primal_lower898  799
    u[4]      primal_lower899  37
    u[4]      primal_lower900  365
    u[4]      primal_lower901  693
    u[4]      primal_lower902  636
    u[4]      primal_lower903  758
    u[4]      primal_lower904  157
    u[4]      primal_lower905  438
    u[4]      primal_lower906  139
    u[4]      primal_lower907  772
    u[4]      primal_lower908  479
    u[4]      primal_lower909  759
    u[4]      primal_lower910  43
    u[4]      primal_lower911  442
    u[4]      primal_lower912  487
    u[4]      primal_lower913  281
    u[4]      primal_lower914  832
    u[4]      primal_lower915  622
    u[4]      primal_lower916  652
    u[4]      primal_lower917  741
    u[4]      primal_lower918  786
    u[4]      primal_lower919  676
    u[4]      primal_lower920  239
    u[4]      primal_lower921  895
    u[4]      primal_lower922  816
    u[4]      primal_lower923  467
    u[4]      primal_lower924  304
    u[4]      primal_lower925  332
    u[4]      primal_lower926  321
    u[4]      primal_lower927  867
    u[4]      primal_lower928  596
    u[4]      primal_lower929  511
    u[4]      primal_lower930  142
    u[4]      primal_lower931  425
    u[4]      primal_lower932  582
    u[4]      primal_lower933  353
    u[4]      primal_lower934  971
    u[4]      primal_lower935  368
    u[4]      primal_lower936  115
    u[4]      primal_lower937  227
    u[4]      primal_lower938  433
    u[4]      primal_lower939  320
    u[4]      primal_lower940  435
    u[4]      primal_lower941  188
    u[4]      primal_lower942  164
    u[4]      primal_lower943  644
    u[4]      primal_lower944  582
    u[4]      primal_lower945  161
    u[4]      primal_lower946  578
    u[4]      primal_lower947  218
    u[4]      primal_lower948  955
    u[4]      primal_lower949  344
    u[4]      primal_lower950  528
    u[4]      primal_lower951  308
    u[4]      primal_lower952  259
    u[4]      primal_lower953  570
    u[4]      primal_lower954  97
    u[4]      primal_lower955  527
    u[4]      primal_lower956  517
    u[4]      primal_lower957  970
    u[4]      primal_lower958  157
    u[4]      primal_lower959  437
    u[4]      primal_lower960  62
    u[4]      primal_lower961  444
    u[4]      primal_lower962  462
    u[4]      primal_lower963  4
    u[4]      primal_lower964  516
    u[4]      primal_lower965  828
    u[4]      primal_lower966  384
    u[4]      primal_lower967  743
    u[4]      primal_lower968  993
    u[4]      primal_lower969  606
    u[4]      primal_lower970  215
    u[4]      primal_lower971  479
    u[4]      primal_lower972  810
    u[4]      primal_lower973  885
    u[4]      primal_lower974  472
    u[4]      primal_lower975  385
    u[4]      primal_lower976  816
    u[4]      primal_lower977  821
    u[4]      primal_lower978  48
    u[4]      primal_lower979  718
    u[4]      primal_lower980  84
    u[4]      primal_lower981  728
    u[4]      primal_lower982  975
    u[4]      primal_lower983  83
    u[4]      primal_lower984  480
    u[4]      primal_lower985  311
    u[4]      primal_lower986  865
    u[4]      primal_lower987  116
    u[4]      primal_lower988  630
    u[4]      primal_lower989  776
    u[4]      primal_lower990  703
    u[4]      primal_lower991  537
    u[4]      primal_lower992  565
    u[4]      primal_lower993  944
    u[4]      primal_lower994  102
    u[4]      primal_lower995  520
    u[4]      primal_lower996  152
    u[4]      primal_lower997  507
    u[4]      primal_lower998  624
    u[4]      primal_lower999  880
    u[4]      interdiction[4]  1
    u[4]      mccormick1[4]  -1
    u[4]      mccormick3[4]  1
    u[5]      primal_lower0  997
    u[5]      primal_lower1  681
    u[5]      primal_lower2  390
    u[5]      primal_lower3  592
    u[5]      primal_lower4  310
    u[5]      primal_lower5  638
    u[5]      primal_lower6  756
    u[5]      primal_lower7  266
    u[5]      primal_lower8  733
    u[5]      primal_lower9  710
    u[5]      primal_lower10  573
    u[5]      primal_lower11  59
    u[5]      primal_lower12  722
    u[5]      primal_lower13  276
    u[5]      primal_lower14  519
    u[5]      primal_lower15  868
    u[5]      primal_lower16  383
    u[5]      primal_lower17  161
    u[5]      primal_lower18  533
    u[5]      primal_lower19  185
    u[5]      primal_lower20  762
    u[5]      primal_lower21  221
    u[5]      primal_lower22  936
    u[5]      primal_lower23  981
    u[5]      primal_lower24  716
    u[5]      primal_lower25  773
    u[5]      primal_lower26  770
    u[5]      primal_lower27  890
    u[5]      primal_lower28  217
    u[5]      primal_lower29  414
    u[5]      primal_lower30  288
    u[5]      primal_lower31  927
    u[5]      primal_lower32  868
    u[5]      primal_lower33  714
    u[5]      primal_lower34  204
    u[5]      primal_lower35  222
    u[5]      primal_lower36  647
    u[5]      primal_lower37  875
    u[5]      primal_lower38  799
    u[5]      primal_lower39  644
    u[5]      primal_lower40  390
    u[5]      primal_lower41  328
    u[5]      primal_lower42  645
    u[5]      primal_lower43  495
    u[5]      primal_lower44  36
    u[5]      primal_lower45  751
    u[5]      primal_lower46  770
    u[5]      primal_lower47  305
    u[5]      primal_lower48  502
    u[5]      primal_lower49  423
    u[5]      primal_lower50  501
    u[5]      primal_lower51  10
    u[5]      primal_lower52  411
    u[5]      primal_lower53  864
    u[5]      primal_lower54  550
    u[5]      primal_lower55  258
    u[5]      primal_lower56  503
    u[5]      primal_lower57  826
    u[5]      primal_lower58  527
    u[5]      primal_lower59  87
    u[5]      primal_lower60  834
    u[5]      primal_lower61  518
    u[5]      primal_lower62  857
    u[5]      primal_lower63  610
    u[5]      primal_lower64  902
    u[5]      primal_lower65  943
    u[5]      primal_lower66  196
    u[5]      primal_lower67  374
    u[5]      primal_lower68  470
    u[5]      primal_lower69  764
    u[5]      primal_lower70  374
    u[5]      primal_lower71  84
    u[5]      primal_lower72  447
    u[5]      primal_lower73  641
    u[5]      primal_lower74  639
    u[5]      primal_lower75  809
    u[5]      primal_lower76  574
    u[5]      primal_lower77  291
    u[5]      primal_lower78  167
    u[5]      primal_lower79  617
    u[5]      primal_lower80  909
    u[5]      primal_lower81  134
    u[5]      primal_lower82  104
    u[5]      primal_lower83  647
    u[5]      primal_lower84  783
    u[5]      primal_lower85  611
    u[5]      primal_lower86  384
    u[5]      primal_lower87  134
    u[5]      primal_lower88  628
    u[5]      primal_lower89  872
    u[5]      primal_lower90  561
    u[5]      primal_lower91  653
    u[5]      primal_lower92  63
    u[5]      primal_lower93  878
    u[5]      primal_lower94  676
    u[5]      primal_lower95  424
    u[5]      primal_lower96  807
    u[5]      primal_lower97  424
    u[5]      primal_lower98  454
    u[5]      primal_lower99  632
    u[5]      primal_lower100  523
    u[5]      primal_lower101  536
    u[5]      primal_lower102  311
    u[5]      primal_lower103  217
    u[5]      primal_lower104  447
    u[5]      primal_lower105  204
    u[5]      primal_lower106  923
    u[5]      primal_lower107  983
    u[5]      primal_lower108  53
    u[5]      primal_lower109  235
    u[5]      primal_lower110  302
    u[5]      primal_lower111  374
    u[5]      primal_lower112  493
    u[5]      primal_lower113  29
    u[5]      primal_lower114  165
    u[5]      primal_lower115  821
    u[5]      primal_lower116  12
    u[5]      primal_lower117  682
    u[5]      primal_lower118  644
    u[5]      primal_lower119  777
    u[5]      primal_lower120  292
    u[5]      primal_lower121  968
    u[5]      primal_lower122  32
    u[5]      primal_lower123  416
    u[5]      primal_lower124  706
    u[5]      primal_lower125  472
    u[5]      primal_lower126  723
    u[5]      primal_lower127  904
    u[5]      primal_lower128  358
    u[5]      primal_lower129  748
    u[5]      primal_lower130  583
    u[5]      primal_lower131  716
    u[5]      primal_lower132  63
    u[5]      primal_lower133  789
    u[5]      primal_lower134  814
    u[5]      primal_lower135  47
    u[5]      primal_lower136  770
    u[5]      primal_lower137  885
    u[5]      primal_lower138  513
    u[5]      primal_lower139  203
    u[5]      primal_lower140  99
    u[5]      primal_lower141  871
    u[5]      primal_lower142  949
    u[5]      primal_lower143  390
    u[5]      primal_lower144  685
    u[5]      primal_lower145  831
    u[5]      primal_lower146  823
    u[5]      primal_lower147  74
    u[5]      primal_lower148  246
    u[5]      primal_lower149  419
    u[5]      primal_lower150  858
    u[5]      primal_lower151  27
    u[5]      primal_lower152  908
    u[5]      primal_lower153  377
    u[5]      primal_lower154  979
    u[5]      primal_lower155  763
    u[5]      primal_lower156  694
    u[5]      primal_lower157  908
    u[5]      primal_lower158  440
    u[5]      primal_lower159  965
    u[5]      primal_lower160  977
    u[5]      primal_lower161  531
    u[5]      primal_lower162  518
    u[5]      primal_lower163  305
    u[5]      primal_lower164  406
    u[5]      primal_lower165  363
    u[5]      primal_lower166  669
    u[5]      primal_lower167  862
    u[5]      primal_lower168  216
    u[5]      primal_lower169  472
    u[5]      primal_lower170  288
    u[5]      primal_lower171  717
    u[5]      primal_lower172  447
    u[5]      primal_lower173  603
    u[5]      primal_lower174  549
    u[5]      primal_lower175  252
    u[5]      primal_lower176  475
    u[5]      primal_lower177  317
    u[5]      primal_lower178  337
    u[5]      primal_lower179  248
    u[5]      primal_lower180  827
    u[5]      primal_lower181  58
    u[5]      primal_lower182  16
    u[5]      primal_lower183  348
    u[5]      primal_lower184  372
    u[5]      primal_lower185  514
    u[5]      primal_lower186  587
    u[5]      primal_lower187  790
    u[5]      primal_lower188  8
    u[5]      primal_lower189  151
    u[5]      primal_lower190  26
    u[5]      primal_lower191  486
    u[5]      primal_lower192  133
    u[5]      primal_lower193  688
    u[5]      primal_lower194  794
    u[5]      primal_lower195  842
    u[5]      primal_lower196  24
    u[5]      primal_lower197  209
    u[5]      primal_lower198  264
    u[5]      primal_lower199  824
    u[5]      primal_lower200  515
    u[5]      primal_lower201  844
    u[5]      primal_lower202  522
    u[5]      primal_lower203  93
    u[5]      primal_lower204  843
    u[5]      primal_lower205  377
    u[5]      primal_lower206  192
    u[5]      primal_lower207  410
    u[5]      primal_lower208  882
    u[5]      primal_lower209  71
    u[5]      primal_lower210  85
    u[5]      primal_lower211  360
    u[5]      primal_lower212  200
    u[5]      primal_lower213  194
    u[5]      primal_lower214  89
    u[5]      primal_lower215  734
    u[5]      primal_lower216  916
    u[5]      primal_lower217  721
    u[5]      primal_lower218  153
    u[5]      primal_lower219  834
    u[5]      primal_lower220  25
    u[5]      primal_lower221  508
    u[5]      primal_lower222  978
    u[5]      primal_lower223  619
    u[5]      primal_lower224  122
    u[5]      primal_lower225  225
    u[5]      primal_lower226  542
    u[5]      primal_lower227  947
    u[5]      primal_lower228  642
    u[5]      primal_lower229  745
    u[5]      primal_lower230  122
    u[5]      primal_lower231  147
    u[5]      primal_lower232  7
    u[5]      primal_lower233  49
    u[5]      primal_lower234  850
    u[5]      primal_lower235  74
    u[5]      primal_lower236  410
    u[5]      primal_lower237  834
    u[5]      primal_lower238  971
    u[5]      primal_lower239  264
    u[5]      primal_lower240  118
    u[5]      primal_lower241  977
    u[5]      primal_lower242  996
    u[5]      primal_lower243  331
    u[5]      primal_lower244  75
    u[5]      primal_lower245  776
    u[5]      primal_lower246  172
    u[5]      primal_lower247  807
    u[5]      primal_lower248  51
    u[5]      primal_lower249  460
    u[5]      primal_lower250  405
    u[5]      primal_lower251  213
    u[5]      primal_lower252  162
    u[5]      primal_lower253  228
    u[5]      primal_lower254  390
    u[5]      primal_lower255  66
    u[5]      primal_lower256  897
    u[5]      primal_lower257  919
    u[5]      primal_lower258  907
    u[5]      primal_lower259  375
    u[5]      primal_lower260  63
    u[5]      primal_lower261  551
    u[5]      primal_lower262  683
    u[5]      primal_lower263  753
    u[5]      primal_lower264  340
    u[5]      primal_lower265  602
    u[5]      primal_lower266  58
    u[5]      primal_lower267  823
    u[5]      primal_lower268  169
    u[5]      primal_lower269  37
    u[5]      primal_lower270  991
    u[5]      primal_lower271  419
    u[5]      primal_lower272  953
    u[5]      primal_lower273  857
    u[5]      primal_lower274  266
    u[5]      primal_lower275  335
    u[5]      primal_lower276  695
    u[5]      primal_lower277  204
    u[5]      primal_lower278  348
    u[5]      primal_lower279  119
    u[5]      primal_lower280  726
    u[5]      primal_lower281  338
    u[5]      primal_lower282  669
    u[5]      primal_lower283  875
    u[5]      primal_lower284  255
    u[5]      primal_lower285  479
    u[5]      primal_lower286  109
    u[5]      primal_lower287  826
    u[5]      primal_lower288  197
    u[5]      primal_lower289  244
    u[5]      primal_lower290  477
    u[5]      primal_lower291  887
    u[5]      primal_lower292  928
    u[5]      primal_lower293  179
    u[5]      primal_lower294  213
    u[5]      primal_lower295  633
    u[5]      primal_lower296  933
    u[5]      primal_lower297  338
    u[5]      primal_lower298  32
    u[5]      primal_lower299  650
    u[5]      primal_lower300  1
    u[5]      primal_lower301  288
    u[5]      primal_lower302  340
    u[5]      primal_lower303  970
    u[5]      primal_lower304  246
    u[5]      primal_lower305  522
    u[5]      primal_lower306  236
    u[5]      primal_lower307  211
    u[5]      primal_lower308  488
    u[5]      primal_lower309  701
    u[5]      primal_lower310  932
    u[5]      primal_lower311  894
    u[5]      primal_lower312  742
    u[5]      primal_lower313  30
    u[5]      primal_lower314  366
    u[5]      primal_lower315  354
    u[5]      primal_lower316  274
    u[5]      primal_lower317  794
    u[5]      primal_lower318  435
    u[5]      primal_lower319  391
    u[5]      primal_lower320  57
    u[5]      primal_lower321  329
    u[5]      primal_lower322  514
    u[5]      primal_lower323  729
    u[5]      primal_lower324  541
    u[5]      primal_lower325  352
    u[5]      primal_lower326  227
    u[5]      primal_lower327  342
    u[5]      primal_lower328  459
    u[5]      primal_lower329  94
    u[5]      primal_lower330  566
    u[5]      primal_lower331  862
    u[5]      primal_lower332  928
    u[5]      primal_lower333  931
    u[5]      primal_lower334  687
    u[5]      primal_lower335  726
    u[5]      primal_lower336  733
    u[5]      primal_lower337  501
    u[5]      primal_lower338  628
    u[5]      primal_lower339  59
    u[5]      primal_lower340  483
    u[5]      primal_lower341  819
    u[5]      primal_lower342  896
    u[5]      primal_lower343  535
    u[5]      primal_lower344  987
    u[5]      primal_lower345  45
    u[5]      primal_lower346  646
    u[5]      primal_lower347  41
    u[5]      primal_lower348  720
    u[5]      primal_lower349  635
    u[5]      primal_lower350  620
    u[5]      primal_lower351  398
    u[5]      primal_lower352  406
    u[5]      primal_lower353  822
    u[5]      primal_lower354  392
    u[5]      primal_lower355  830
    u[5]      primal_lower356  181
    u[5]      primal_lower357  387
    u[5]      primal_lower358  242
    u[5]      primal_lower359  960
    u[5]      primal_lower360  889
    u[5]      primal_lower361  166
    u[5]      primal_lower362  616
    u[5]      primal_lower363  700
    u[5]      primal_lower364  676
    u[5]      primal_lower365  902
    u[5]      primal_lower366  828
    u[5]      primal_lower367  766
    u[5]      primal_lower368  60
    u[5]      primal_lower369  1000
    u[5]      primal_lower370  501
    u[5]      primal_lower371  944
    u[5]      primal_lower372  32
    u[5]      primal_lower373  509
    u[5]      primal_lower374  897
    u[5]      primal_lower375  401
    u[5]      primal_lower376  329
    u[5]      primal_lower377  545
    u[5]      primal_lower378  833
    u[5]      primal_lower379  110
    u[5]      primal_lower380  739
    u[5]      primal_lower381  510
    u[5]      primal_lower382  19
    u[5]      primal_lower383  507
    u[5]      primal_lower384  146
    u[5]      primal_lower385  936
    u[5]      primal_lower386  915
    u[5]      primal_lower387  176
    u[5]      primal_lower388  610
    u[5]      primal_lower389  729
    u[5]      primal_lower390  932
    u[5]      primal_lower391  706
    u[5]      primal_lower392  493
    u[5]      primal_lower393  503
    u[5]      primal_lower394  904
    u[5]      primal_lower395  576
    u[5]      primal_lower396  12
    u[5]      primal_lower397  980
    u[5]      primal_lower398  888
    u[5]      primal_lower399  111
    u[5]      primal_lower400  461
    u[5]      primal_lower401  815
    u[5]      primal_lower402  664
    u[5]      primal_lower403  641
    u[5]      primal_lower404  475
    u[5]      primal_lower405  759
    u[5]      primal_lower406  780
    u[5]      primal_lower407  431
    u[5]      primal_lower408  46
    u[5]      primal_lower409  610
    u[5]      primal_lower410  513
    u[5]      primal_lower411  191
    u[5]      primal_lower412  547
    u[5]      primal_lower413  235
    u[5]      primal_lower414  83
    u[5]      primal_lower415  557
    u[5]      primal_lower416  168
    u[5]      primal_lower417  129
    u[5]      primal_lower418  212
    u[5]      primal_lower419  259
    u[5]      primal_lower420  662
    u[5]      primal_lower421  869
    u[5]      primal_lower422  265
    u[5]      primal_lower423  993
    u[5]      primal_lower424  716
    u[5]      primal_lower425  572
    u[5]      primal_lower426  276
    u[5]      primal_lower427  609
    u[5]      primal_lower428  330
    u[5]      primal_lower429  972
    u[5]      primal_lower430  954
    u[5]      primal_lower431  583
    u[5]      primal_lower432  461
    u[5]      primal_lower433  869
    u[5]      primal_lower434  756
    u[5]      primal_lower435  714
    u[5]      primal_lower436  616
    u[5]      primal_lower437  125
    u[5]      primal_lower438  158
    u[5]      primal_lower439  37
    u[5]      primal_lower440  952
    u[5]      primal_lower441  691
    u[5]      primal_lower442  682
    u[5]      primal_lower443  437
    u[5]      primal_lower444  65
    u[5]      primal_lower445  798
    u[5]      primal_lower446  215
    u[5]      primal_lower447  602
    u[5]      primal_lower448  698
    u[5]      primal_lower449  963
    u[5]      primal_lower450  710
    u[5]      primal_lower451  119
    u[5]      primal_lower452  849
    u[5]      primal_lower453  56
    u[5]      primal_lower454  960
    u[5]      primal_lower455  366
    u[5]      primal_lower456  942
    u[5]      primal_lower457  188
    u[5]      primal_lower458  599
    u[5]      primal_lower459  210
    u[5]      primal_lower460  223
    u[5]      primal_lower461  569
    u[5]      primal_lower462  965
    u[5]      primal_lower463  9
    u[5]      primal_lower464  545
    u[5]      primal_lower465  468
    u[5]      primal_lower466  484
    u[5]      primal_lower467  834
    u[5]      primal_lower468  762
    u[5]      primal_lower469  448
    u[5]      primal_lower470  556
    u[5]      primal_lower471  827
    u[5]      primal_lower472  111
    u[5]      primal_lower473  792
    u[5]      primal_lower474  222
    u[5]      primal_lower475  481
    u[5]      primal_lower476  179
    u[5]      primal_lower477  513
    u[5]      primal_lower478  956
    u[5]      primal_lower479  128
    u[5]      primal_lower480  676
    u[5]      primal_lower481  842
    u[5]      primal_lower482  608
    u[5]      primal_lower483  338
    u[5]      primal_lower484  629
    u[5]      primal_lower485  393
    u[5]      primal_lower486  670
    u[5]      primal_lower487  700
    u[5]      primal_lower488  118
    u[5]      primal_lower489  517
    u[5]      primal_lower490  147
    u[5]      primal_lower491  130
    u[5]      primal_lower492  683
    u[5]      primal_lower493  739
    u[5]      primal_lower494  123
    u[5]      primal_lower495  197
    u[5]      primal_lower496  69
    u[5]      primal_lower497  779
    u[5]      primal_lower498  10
    u[5]      primal_lower499  984
    u[5]      primal_lower500  22
    u[5]      primal_lower501  576
    u[5]      primal_lower502  642
    u[5]      primal_lower503  864
    u[5]      primal_lower504  945
    u[5]      primal_lower505  6
    u[5]      primal_lower506  943
    u[5]      primal_lower507  507
    u[5]      primal_lower508  755
    u[5]      primal_lower509  960
    u[5]      primal_lower510  112
    u[5]      primal_lower511  659
    u[5]      primal_lower512  778
    u[5]      primal_lower513  407
    u[5]      primal_lower514  711
    u[5]      primal_lower515  687
    u[5]      primal_lower516  48
    u[5]      primal_lower517  582
    u[5]      primal_lower518  106
    u[5]      primal_lower519  845
    u[5]      primal_lower520  71
    u[5]      primal_lower521  666
    u[5]      primal_lower522  364
    u[5]      primal_lower523  211
    u[5]      primal_lower524  374
    u[5]      primal_lower525  60
    u[5]      primal_lower526  618
    u[5]      primal_lower527  148
    u[5]      primal_lower528  70
    u[5]      primal_lower529  459
    u[5]      primal_lower530  984
    u[5]      primal_lower531  212
    u[5]      primal_lower532  721
    u[5]      primal_lower533  978
    u[5]      primal_lower534  521
    u[5]      primal_lower535  24
    u[5]      primal_lower536  425
    u[5]      primal_lower537  884
    u[5]      primal_lower538  36
    u[5]      primal_lower539  901
    u[5]      primal_lower540  984
    u[5]      primal_lower541  946
    u[5]      primal_lower542  926
    u[5]      primal_lower543  958
    u[5]      primal_lower544  492
    u[5]      primal_lower545  106
    u[5]      primal_lower546  728
    u[5]      primal_lower547  592
    u[5]      primal_lower548  235
    u[5]      primal_lower549  668
    u[5]      primal_lower550  139
    u[5]      primal_lower551  407
    u[5]      primal_lower552  552
    u[5]      primal_lower553  900
    u[5]      primal_lower554  427
    u[5]      primal_lower555  359
    u[5]      primal_lower556  901
    u[5]      primal_lower557  223
    u[5]      primal_lower558  221
    u[5]      primal_lower559  153
    u[5]      primal_lower560  295
    u[5]      primal_lower561  652
    u[5]      primal_lower562  838
    u[5]      primal_lower563  919
    u[5]      primal_lower564  731
    u[5]      primal_lower565  131
    u[5]      primal_lower566  613
    u[5]      primal_lower567  987
    u[5]      primal_lower568  909
    u[5]      primal_lower569  169
    u[5]      primal_lower570  68
    u[5]      primal_lower571  815
    u[5]      primal_lower572  963
    u[5]      primal_lower573  836
    u[5]      primal_lower574  76
    u[5]      primal_lower575  944
    u[5]      primal_lower576  236
    u[5]      primal_lower577  915
    u[5]      primal_lower578  370
    u[5]      primal_lower579  352
    u[5]      primal_lower580  565
    u[5]      primal_lower581  359
    u[5]      primal_lower582  586
    u[5]      primal_lower583  901
    u[5]      primal_lower584  842
    u[5]      primal_lower585  384
    u[5]      primal_lower586  734
    u[5]      primal_lower587  838
    u[5]      primal_lower588  883
    u[5]      primal_lower589  988
    u[5]      primal_lower590  418
    u[5]      primal_lower591  910
    u[5]      primal_lower592  266
    u[5]      primal_lower593  543
    u[5]      primal_lower594  530
    u[5]      primal_lower595  327
    u[5]      primal_lower596  70
    u[5]      primal_lower597  371
    u[5]      primal_lower598  28
    u[5]      primal_lower599  583
    u[5]      primal_lower600  913
    u[5]      primal_lower601  622
    u[5]      primal_lower602  80
    u[5]      primal_lower603  727
    u[5]      primal_lower604  494
    u[5]      primal_lower605  805
    u[5]      primal_lower606  411
    u[5]      primal_lower607  264
    u[5]      primal_lower608  408
    u[5]      primal_lower609  486
    u[5]      primal_lower610  766
    u[5]      primal_lower611  569
    u[5]      primal_lower612  853
    u[5]      primal_lower613  295
    u[5]      primal_lower614  131
    u[5]      primal_lower615  875
    u[5]      primal_lower616  789
    u[5]      primal_lower617  400
    u[5]      primal_lower618  879
    u[5]      primal_lower619  471
    u[5]      primal_lower620  209
    u[5]      primal_lower621  21
    u[5]      primal_lower622  443
    u[5]      primal_lower623  461
    u[5]      primal_lower624  693
    u[5]      primal_lower625  620
    u[5]      primal_lower626  625
    u[5]      primal_lower627  634
    u[5]      primal_lower628  88
    u[5]      primal_lower629  799
    u[5]      primal_lower630  916
    u[5]      primal_lower631  120
    u[5]      primal_lower632  671
    u[5]      primal_lower633  257
    u[5]      primal_lower634  783
    u[5]      primal_lower635  398
    u[5]      primal_lower636  208
    u[5]      primal_lower637  715
    u[5]      primal_lower638  456
    u[5]      primal_lower639  247
    u[5]      primal_lower640  778
    u[5]      primal_lower641  337
    u[5]      primal_lower642  959
    u[5]      primal_lower643  984
    u[5]      primal_lower644  81
    u[5]      primal_lower645  513
    u[5]      primal_lower646  645
    u[5]      primal_lower647  628
    u[5]      primal_lower648  400
    u[5]      primal_lower649  128
    u[5]      primal_lower650  685
    u[5]      primal_lower651  667
    u[5]      primal_lower652  836
    u[5]      primal_lower653  715
    u[5]      primal_lower654  140
    u[5]      primal_lower655  259
    u[5]      primal_lower656  791
    u[5]      primal_lower657  401
    u[5]      primal_lower658  684
    u[5]      primal_lower659  881
    u[5]      primal_lower660  724
    u[5]      primal_lower661  278
    u[5]      primal_lower662  650
    u[5]      primal_lower663  517
    u[5]      primal_lower664  361
    u[5]      primal_lower665  479
    u[5]      primal_lower666  25
    u[5]      primal_lower667  981
    u[5]      primal_lower668  809
    u[5]      primal_lower669  679
    u[5]      primal_lower670  824
    u[5]      primal_lower671  153
    u[5]      primal_lower672  646
    u[5]      primal_lower673  307
    u[5]      primal_lower674  51
    u[5]      primal_lower675  940
    u[5]      primal_lower676  267
    u[5]      primal_lower677  602
    u[5]      primal_lower678  81
    u[5]      primal_lower679  525
    u[5]      primal_lower680  327
    u[5]      primal_lower681  215
    u[5]      primal_lower682  637
    u[5]      primal_lower683  170
    u[5]      primal_lower684  225
    u[5]      primal_lower685  776
    u[5]      primal_lower686  72
    u[5]      primal_lower687  444
    u[5]      primal_lower688  548
    u[5]      primal_lower689  393
    u[5]      primal_lower690  269
    u[5]      primal_lower691  113
    u[5]      primal_lower692  291
    u[5]      primal_lower693  570
    u[5]      primal_lower694  260
    u[5]      primal_lower695  513
    u[5]      primal_lower696  992
    u[5]      primal_lower697  906
    u[5]      primal_lower698  22
    u[5]      primal_lower699  6
    u[5]      primal_lower700  906
    u[5]      primal_lower701  44
    u[5]      primal_lower702  103
    u[5]      primal_lower703  785
    u[5]      primal_lower704  196
    u[5]      primal_lower705  496
    u[5]      primal_lower706  787
    u[5]      primal_lower707  299
    u[5]      primal_lower708  466
    u[5]      primal_lower709  22
    u[5]      primal_lower710  980
    u[5]      primal_lower711  526
    u[5]      primal_lower712  877
    u[5]      primal_lower713  822
    u[5]      primal_lower714  755
    u[5]      primal_lower715  997
    u[5]      primal_lower716  242
    u[5]      primal_lower717  844
    u[5]      primal_lower718  803
    u[5]      primal_lower719  481
    u[5]      primal_lower720  737
    u[5]      primal_lower721  338
    u[5]      primal_lower722  543
    u[5]      primal_lower723  785
    u[5]      primal_lower724  592
    u[5]      primal_lower725  25
    u[5]      primal_lower726  461
    u[5]      primal_lower727  535
    u[5]      primal_lower728  423
    u[5]      primal_lower729  348
    u[5]      primal_lower730  367
    u[5]      primal_lower731  722
    u[5]      primal_lower732  955
    u[5]      primal_lower733  836
    u[5]      primal_lower734  146
    u[5]      primal_lower735  284
    u[5]      primal_lower736  1
    u[5]      primal_lower737  661
    u[5]      primal_lower738  820
    u[5]      primal_lower739  523
    u[5]      primal_lower740  251
    u[5]      primal_lower741  912
    u[5]      primal_lower742  432
    u[5]      primal_lower743  602
    u[5]      primal_lower744  220
    u[5]      primal_lower745  860
    u[5]      primal_lower746  602
    u[5]      primal_lower747  770
    u[5]      primal_lower748  387
    u[5]      primal_lower749  696
    u[5]      primal_lower750  146
    u[5]      primal_lower751  984
    u[5]      primal_lower752  859
    u[5]      primal_lower753  845
    u[5]      primal_lower754  170
    u[5]      primal_lower755  798
    u[5]      primal_lower756  39
    u[5]      primal_lower757  45
    u[5]      primal_lower758  530
    u[5]      primal_lower759  793
    u[5]      primal_lower760  88
    u[5]      primal_lower761  704
    u[5]      primal_lower762  58
    u[5]      primal_lower763  524
    u[5]      primal_lower764  669
    u[5]      primal_lower765  568
    u[5]      primal_lower766  382
    u[5]      primal_lower767  34
    u[5]      primal_lower768  742
    u[5]      primal_lower769  454
    u[5]      primal_lower770  845
    u[5]      primal_lower771  697
    u[5]      primal_lower772  132
    u[5]      primal_lower773  259
    u[5]      primal_lower774  179
    u[5]      primal_lower775  385
    u[5]      primal_lower776  253
    u[5]      primal_lower777  167
    u[5]      primal_lower778  368
    u[5]      primal_lower779  685
    u[5]      primal_lower780  619
    u[5]      primal_lower781  491
    u[5]      primal_lower782  673
    u[5]      primal_lower783  18
    u[5]      primal_lower784  251
    u[5]      primal_lower785  296
    u[5]      primal_lower786  704
    u[5]      primal_lower787  537
    u[5]      primal_lower788  180
    u[5]      primal_lower789  749
    u[5]      primal_lower790  371
    u[5]      primal_lower791  240
    u[5]      primal_lower792  339
    u[5]      primal_lower793  493
    u[5]      primal_lower794  238
    u[5]      primal_lower795  373
    u[5]      primal_lower796  81
    u[5]      primal_lower797  98
    u[5]      primal_lower798  704
    u[5]      primal_lower799  127
    u[5]      primal_lower800  440
    u[5]      primal_lower801  35
    u[5]      primal_lower802  126
    u[5]      primal_lower803  78
    u[5]      primal_lower804  336
    u[5]      primal_lower805  573
    u[5]      primal_lower806  107
    u[5]      primal_lower807  603
    u[5]      primal_lower808  142
    u[5]      primal_lower809  866
    u[5]      primal_lower810  109
    u[5]      primal_lower811  233
    u[5]      primal_lower812  534
    u[5]      primal_lower813  335
    u[5]      primal_lower814  204
    u[5]      primal_lower815  872
    u[5]      primal_lower816  413
    u[5]      primal_lower817  877
    u[5]      primal_lower818  676
    u[5]      primal_lower819  635
    u[5]      primal_lower820  995
    u[5]      primal_lower821  761
    u[5]      primal_lower822  39
    u[5]      primal_lower823  417
    u[5]      primal_lower824  473
    u[5]      primal_lower825  426
    u[5]      primal_lower826  607
    u[5]      primal_lower827  432
    u[5]      primal_lower828  719
    u[5]      primal_lower829  43
    u[5]      primal_lower830  609
    u[5]      primal_lower831  479
    u[5]      primal_lower832  178
    u[5]      primal_lower833  195
    u[5]      primal_lower834  534
    u[5]      primal_lower835  61
    u[5]      primal_lower836  959
    u[5]      primal_lower837  874
    u[5]      primal_lower838  461
    u[5]      primal_lower839  600
    u[5]      primal_lower840  47
    u[5]      primal_lower841  749
    u[5]      primal_lower842  402
    u[5]      primal_lower843  139
    u[5]      primal_lower844  915
    u[5]      primal_lower845  128
    u[5]      primal_lower846  167
    u[5]      primal_lower847  152
    u[5]      primal_lower848  486
    u[5]      primal_lower849  654
    u[5]      primal_lower850  808
    u[5]      primal_lower851  485
    u[5]      primal_lower852  669
    u[5]      primal_lower853  967
    u[5]      primal_lower854  583
    u[5]      primal_lower855  418
    u[5]      primal_lower856  886
    u[5]      primal_lower857  88
    u[5]      primal_lower858  503
    u[5]      primal_lower859  821
    u[5]      primal_lower860  850
    u[5]      primal_lower861  116
    u[5]      primal_lower862  419
    u[5]      primal_lower863  689
    u[5]      primal_lower864  58
    u[5]      primal_lower865  450
    u[5]      primal_lower866  618
    u[5]      primal_lower867  871
    u[5]      primal_lower868  92
    u[5]      primal_lower869  725
    u[5]      primal_lower870  530
    u[5]      primal_lower871  913
    u[5]      primal_lower872  70
    u[5]      primal_lower873  370
    u[5]      primal_lower874  581
    u[5]      primal_lower875  644
    u[5]      primal_lower876  444
    u[5]      primal_lower877  412
    u[5]      primal_lower878  325
    u[5]      primal_lower879  727
    u[5]      primal_lower880  970
    u[5]      primal_lower881  962
    u[5]      primal_lower882  695
    u[5]      primal_lower883  120
    u[5]      primal_lower884  333
    u[5]      primal_lower885  180
    u[5]      primal_lower886  424
    u[5]      primal_lower887  319
    u[5]      primal_lower888  325
    u[5]      primal_lower889  85
    u[5]      primal_lower890  663
    u[5]      primal_lower891  38
    u[5]      primal_lower892  972
    u[5]      primal_lower893  989
    u[5]      primal_lower894  63
    u[5]      primal_lower895  730
    u[5]      primal_lower896  186
    u[5]      primal_lower897  303
    u[5]      primal_lower898  976
    u[5]      primal_lower899  211
    u[5]      primal_lower900  595
    u[5]      primal_lower901  515
    u[5]      primal_lower902  461
    u[5]      primal_lower903  471
    u[5]      primal_lower904  198
    u[5]      primal_lower905  671
    u[5]      primal_lower906  28
    u[5]      primal_lower907  117
    u[5]      primal_lower908  261
    u[5]      primal_lower909  1000
    u[5]      primal_lower910  681
    u[5]      primal_lower911  712
    u[5]      primal_lower912  544
    u[5]      primal_lower913  575
    u[5]      primal_lower914  462
    u[5]      primal_lower915  964
    u[5]      primal_lower916  42
    u[5]      primal_lower917  411
    u[5]      primal_lower918  755
    u[5]      primal_lower919  186
    u[5]      primal_lower920  224
    u[5]      primal_lower921  365
    u[5]      primal_lower922  25
    u[5]      primal_lower923  321
    u[5]      primal_lower924  838
    u[5]      primal_lower925  429
    u[5]      primal_lower926  967
    u[5]      primal_lower927  12
    u[5]      primal_lower928  325
    u[5]      primal_lower929  160
    u[5]      primal_lower930  255
    u[5]      primal_lower931  298
    u[5]      primal_lower932  692
    u[5]      primal_lower933  871
    u[5]      primal_lower934  737
    u[5]      primal_lower935  513
    u[5]      primal_lower936  604
    u[5]      primal_lower937  644
    u[5]      primal_lower938  202
    u[5]      primal_lower939  854
    u[5]      primal_lower940  172
    u[5]      primal_lower941  554
    u[5]      primal_lower942  98
    u[5]      primal_lower943  906
    u[5]      primal_lower944  628
    u[5]      primal_lower945  490
    u[5]      primal_lower946  515
    u[5]      primal_lower947  576
    u[5]      primal_lower948  713
    u[5]      primal_lower949  870
    u[5]      primal_lower950  553
    u[5]      primal_lower951  274
    u[5]      primal_lower952  476
    u[5]      primal_lower953  368
    u[5]      primal_lower954  751
    u[5]      primal_lower955  117
    u[5]      primal_lower956  502
    u[5]      primal_lower957  371
    u[5]      primal_lower958  867
    u[5]      primal_lower959  662
    u[5]      primal_lower960  420
    u[5]      primal_lower961  642
    u[5]      primal_lower962  959
    u[5]      primal_lower963  53
    u[5]      primal_lower964  834
    u[5]      primal_lower965  146
    u[5]      primal_lower966  857
    u[5]      primal_lower967  120
    u[5]      primal_lower968  87
    u[5]      primal_lower969  63
    u[5]      primal_lower970  216
    u[5]      primal_lower971  712
    u[5]      primal_lower972  283
    u[5]      primal_lower973  502
    u[5]      primal_lower974  881
    u[5]      primal_lower975  79
    u[5]      primal_lower976  934
    u[5]      primal_lower977  558
    u[5]      primal_lower978  710
    u[5]      primal_lower979  447
    u[5]      primal_lower980  98
    u[5]      primal_lower981  806
    u[5]      primal_lower982  728
    u[5]      primal_lower983  785
    u[5]      primal_lower984  710
    u[5]      primal_lower985  549
    u[5]      primal_lower986  303
    u[5]      primal_lower987  690
    u[5]      primal_lower988  831
    u[5]      primal_lower989  310
    u[5]      primal_lower990  32
    u[5]      primal_lower991  330
    u[5]      primal_lower992  475
    u[5]      primal_lower993  905
    u[5]      primal_lower994  671
    u[5]      primal_lower995  441
    u[5]      primal_lower996  337
    u[5]      primal_lower997  604
    u[5]      primal_lower998  65
    u[5]      primal_lower999  161
    u[5]      interdiction[5]  1
    u[5]      mccormick1[5]  -1
    u[5]      mccormick3[5]  1
    u[6]      primal_lower0  213
    u[6]      primal_lower1  585
    u[6]      primal_lower2  441
    u[6]      primal_lower3  539
    u[6]      primal_lower4  454
    u[6]      primal_lower5  918
    u[6]      primal_lower6  623
    u[6]      primal_lower7  26
    u[6]      primal_lower8  592
    u[6]      primal_lower9  206
    u[6]      primal_lower10  621
    u[6]      primal_lower11  638
    u[6]      primal_lower12  253
    u[6]      primal_lower13  719
    u[6]      primal_lower14  551
    u[6]      primal_lower15  548
    u[6]      primal_lower16  594
    u[6]      primal_lower17  716
    u[6]      primal_lower18  253
    u[6]      primal_lower19  836
    u[6]      primal_lower20  938
    u[6]      primal_lower21  165
    u[6]      primal_lower22  232
    u[6]      primal_lower23  472
    u[6]      primal_lower24  940
    u[6]      primal_lower25  365
    u[6]      primal_lower26  730
    u[6]      primal_lower27  314
    u[6]      primal_lower28  649
    u[6]      primal_lower29  990
    u[6]      primal_lower30  728
    u[6]      primal_lower31  642
    u[6]      primal_lower32  79
    u[6]      primal_lower33  546
    u[6]      primal_lower34  311
    u[6]      primal_lower35  166
    u[6]      primal_lower36  482
    u[6]      primal_lower37  443
    u[6]      primal_lower38  962
    u[6]      primal_lower39  255
    u[6]      primal_lower40  934
    u[6]      primal_lower41  800
    u[6]      primal_lower42  773
    u[6]      primal_lower43  874
    u[6]      primal_lower44  799
    u[6]      primal_lower45  994
    u[6]      primal_lower46  493
    u[6]      primal_lower47  212
    u[6]      primal_lower48  302
    u[6]      primal_lower49  151
    u[6]      primal_lower50  101
    u[6]      primal_lower51  325
    u[6]      primal_lower52  14
    u[6]      primal_lower53  32
    u[6]      primal_lower54  993
    u[6]      primal_lower55  229
    u[6]      primal_lower56  439
    u[6]      primal_lower57  509
    u[6]      primal_lower58  711
    u[6]      primal_lower59  402
    u[6]      primal_lower60  306
    u[6]      primal_lower61  510
    u[6]      primal_lower62  57
    u[6]      primal_lower63  370
    u[6]      primal_lower64  966
    u[6]      primal_lower65  674
    u[6]      primal_lower66  263
    u[6]      primal_lower67  750
    u[6]      primal_lower68  617
    u[6]      primal_lower69  479
    u[6]      primal_lower70  710
    u[6]      primal_lower71  919
    u[6]      primal_lower72  335
    u[6]      primal_lower73  828
    u[6]      primal_lower74  183
    u[6]      primal_lower75  961
    u[6]      primal_lower76  670
    u[6]      primal_lower77  67
    u[6]      primal_lower78  31
    u[6]      primal_lower79  265
    u[6]      primal_lower80  296
    u[6]      primal_lower81  425
    u[6]      primal_lower82  168
    u[6]      primal_lower83  482
    u[6]      primal_lower84  655
    u[6]      primal_lower85  531
    u[6]      primal_lower86  136
    u[6]      primal_lower87  513
    u[6]      primal_lower88  47
    u[6]      primal_lower89  523
    u[6]      primal_lower90  332
    u[6]      primal_lower91  112
    u[6]      primal_lower92  42
    u[6]      primal_lower93  886
    u[6]      primal_lower94  740
    u[6]      primal_lower95  520
    u[6]      primal_lower96  607
    u[6]      primal_lower97  747
    u[6]      primal_lower98  609
    u[6]      primal_lower99  248
    u[6]      primal_lower100  598
    u[6]      primal_lower101  203
    u[6]      primal_lower102  122
    u[6]      primal_lower103  68
    u[6]      primal_lower104  231
    u[6]      primal_lower105  868
    u[6]      primal_lower106  214
    u[6]      primal_lower107  890
    u[6]      primal_lower108  477
    u[6]      primal_lower109  883
    u[6]      primal_lower110  430
    u[6]      primal_lower111  113
    u[6]      primal_lower112  253
    u[6]      primal_lower113  888
    u[6]      primal_lower114  400
    u[6]      primal_lower115  541
    u[6]      primal_lower116  196
    u[6]      primal_lower117  506
    u[6]      primal_lower118  231
    u[6]      primal_lower119  212
    u[6]      primal_lower120  332
    u[6]      primal_lower121  859
    u[6]      primal_lower122  291
    u[6]      primal_lower123  216
    u[6]      primal_lower124  45
    u[6]      primal_lower125  440
    u[6]      primal_lower126  342
    u[6]      primal_lower127  563
    u[6]      primal_lower128  145
    u[6]      primal_lower129  956
    u[6]      primal_lower130  82
    u[6]      primal_lower131  423
    u[6]      primal_lower132  775
    u[6]      primal_lower133  800
    u[6]      primal_lower134  985
    u[6]      primal_lower135  250
    u[6]      primal_lower136  365
    u[6]      primal_lower137  264
    u[6]      primal_lower138  324
    u[6]      primal_lower139  182
    u[6]      primal_lower140  411
    u[6]      primal_lower141  55
    u[6]      primal_lower142  989
    u[6]      primal_lower143  401
    u[6]      primal_lower144  304
    u[6]      primal_lower145  839
    u[6]      primal_lower146  42
    u[6]      primal_lower147  581
    u[6]      primal_lower148  246
    u[6]      primal_lower149  723
    u[6]      primal_lower150  386
    u[6]      primal_lower151  622
    u[6]      primal_lower152  191
    u[6]      primal_lower153  596
    u[6]      primal_lower154  979
    u[6]      primal_lower155  115
    u[6]      primal_lower156  593
    u[6]      primal_lower157  740
    u[6]      primal_lower158  320
    u[6]      primal_lower159  85
    u[6]      primal_lower160  537
    u[6]      primal_lower161  987
    u[6]      primal_lower162  817
    u[6]      primal_lower163  468
    u[6]      primal_lower164  942
    u[6]      primal_lower165  371
    u[6]      primal_lower166  336
    u[6]      primal_lower167  830
    u[6]      primal_lower168  851
    u[6]      primal_lower169  867
    u[6]      primal_lower170  107
    u[6]      primal_lower171  925
    u[6]      primal_lower172  295
    u[6]      primal_lower173  435
    u[6]      primal_lower174  920
    u[6]      primal_lower175  447
    u[6]      primal_lower176  843
    u[6]      primal_lower177  792
    u[6]      primal_lower178  572
    u[6]      primal_lower179  43
    u[6]      primal_lower180  371
    u[6]      primal_lower181  485
    u[6]      primal_lower182  704
    u[6]      primal_lower183  340
    u[6]      primal_lower184  508
    u[6]      primal_lower185  970
    u[6]      primal_lower186  854
    u[6]      primal_lower187  993
    u[6]      primal_lower188  123
    u[6]      primal_lower189  634
    u[6]      primal_lower190  874
    u[6]      primal_lower191  382
    u[6]      primal_lower192  80
    u[6]      primal_lower193  216
    u[6]      primal_lower194  106
    u[6]      primal_lower195  621
    u[6]      primal_lower196  179
    u[6]      primal_lower197  473
    u[6]      primal_lower198  608
    u[6]      primal_lower199  944
    u[6]      primal_lower200  462
    u[6]      primal_lower201  468
    u[6]      primal_lower202  461
    u[6]      primal_lower203  589
    u[6]      primal_lower204  846
    u[6]      primal_lower205  596
    u[6]      primal_lower206  747
    u[6]      primal_lower207  522
    u[6]      primal_lower208  418
    u[6]      primal_lower209  759
    u[6]      primal_lower210  453
    u[6]      primal_lower211  499
    u[6]      primal_lower212  528
    u[6]      primal_lower213  722
    u[6]      primal_lower214  185
    u[6]      primal_lower215  326
    u[6]      primal_lower216  279
    u[6]      primal_lower217  12
    u[6]      primal_lower218  393
    u[6]      primal_lower219  685
    u[6]      primal_lower220  713
    u[6]      primal_lower221  615
    u[6]      primal_lower222  157
    u[6]      primal_lower223  886
    u[6]      primal_lower224  741
    u[6]      primal_lower225  737
    u[6]      primal_lower226  9
    u[6]      primal_lower227  142
    u[6]      primal_lower228  29
    u[6]      primal_lower229  108
    u[6]      primal_lower230  314
    u[6]      primal_lower231  910
    u[6]      primal_lower232  479
    u[6]      primal_lower233  348
    u[6]      primal_lower234  693
    u[6]      primal_lower235  557
    u[6]      primal_lower236  330
    u[6]      primal_lower237  66
    u[6]      primal_lower238  907
    u[6]      primal_lower239  75
    u[6]      primal_lower240  481
    u[6]      primal_lower241  132
    u[6]      primal_lower242  100
    u[6]      primal_lower243  347
    u[6]      primal_lower244  227
    u[6]      primal_lower245  744
    u[6]      primal_lower246  143
    u[6]      primal_lower247  823
    u[6]      primal_lower248  107
    u[6]      primal_lower249  988
    u[6]      primal_lower250  661
    u[6]      primal_lower251  5
    u[6]      primal_lower252  402
    u[6]      primal_lower253  455
    u[6]      primal_lower254  894
    u[6]      primal_lower255  154
    u[6]      primal_lower256  233
    u[6]      primal_lower257  530
    u[6]      primal_lower258  627
    u[6]      primal_lower259  482
    u[6]      primal_lower260  218
    u[6]      primal_lower261  551
    u[6]      primal_lower262  659
    u[6]      primal_lower263  841
    u[6]      primal_lower264  548
    u[6]      primal_lower265  434
    u[6]      primal_lower266  397
    u[6]      primal_lower267  727
    u[6]      primal_lower268  385
    u[6]      primal_lower269  317
    u[6]      primal_lower270  42
    u[6]      primal_lower271  934
    u[6]      primal_lower272  900
    u[6]      primal_lower273  289
    u[6]      primal_lower274  858
    u[6]      primal_lower275  410
    u[6]      primal_lower276  111
    u[6]      primal_lower277  932
    u[6]      primal_lower278  556
    u[6]      primal_lower279  274
    u[6]      primal_lower280  737
    u[6]      primal_lower281  178
    u[6]      primal_lower282  360
    u[6]      primal_lower283  419
    u[6]      primal_lower284  407
    u[6]      primal_lower285  802
    u[6]      primal_lower286  621
    u[6]      primal_lower287  461
    u[6]      primal_lower288  21
    u[6]      primal_lower289  892
    u[6]      primal_lower290  133
    u[6]      primal_lower291  111
    u[6]      primal_lower292  907
    u[6]      primal_lower293  787
    u[6]      primal_lower294  344
    u[6]      primal_lower295  652
    u[6]      primal_lower296  416
    u[6]      primal_lower297  661
    u[6]      primal_lower298  139
    u[6]      primal_lower299  925
    u[6]      primal_lower300  617
    u[6]      primal_lower301  816
    u[6]      primal_lower302  759
    u[6]      primal_lower303  21
    u[6]      primal_lower304  689
    u[6]      primal_lower305  421
    u[6]      primal_lower306  439
    u[6]      primal_lower307  907
    u[6]      primal_lower308  915
    u[6]      primal_lower309  933
    u[6]      primal_lower310  884
    u[6]      primal_lower311  934
    u[6]      primal_lower312  350
    u[6]      primal_lower313  41
    u[6]      primal_lower314  838
    u[6]      primal_lower315  717
    u[6]      primal_lower316  453
    u[6]      primal_lower317  2
    u[6]      primal_lower318  198
    u[6]      primal_lower319  87
    u[6]      primal_lower320  396
    u[6]      primal_lower321  41
    u[6]      primal_lower322  373
    u[6]      primal_lower323  569
    u[6]      primal_lower324  621
    u[6]      primal_lower325  491
    u[6]      primal_lower326  278
    u[6]      primal_lower327  113
    u[6]      primal_lower328  126
    u[6]      primal_lower329  742
    u[6]      primal_lower330  510
    u[6]      primal_lower331  894
    u[6]      primal_lower332  883
    u[6]      primal_lower333  691
    u[6]      primal_lower334  634
    u[6]      primal_lower335  809
    u[6]      primal_lower336  568
    u[6]      primal_lower337  656
    u[6]      primal_lower338  604
    u[6]      primal_lower339  662
    u[6]      primal_lower340  827
    u[6]      primal_lower341  123
    u[6]      primal_lower342  136
    u[6]      primal_lower343  671
    u[6]      primal_lower344  358
    u[6]      primal_lower345  541
    u[6]      primal_lower346  369
    u[6]      primal_lower347  833
    u[6]      primal_lower348  408
    u[6]      primal_lower349  942
    u[6]      primal_lower350  604
    u[6]      primal_lower351  489
    u[6]      primal_lower352  94
    u[6]      primal_lower353  121
    u[6]      primal_lower354  8
    u[6]      primal_lower355  750
    u[6]      primal_lower356  304
    u[6]      primal_lower357  491
    u[6]      primal_lower358  197
    u[6]      primal_lower359  568
    u[6]      primal_lower360  756
    u[6]      primal_lower361  46
    u[6]      primal_lower362  176
    u[6]      primal_lower363  415
    u[6]      primal_lower364  804
    u[6]      primal_lower365  982
    u[6]      primal_lower366  484
    u[6]      primal_lower367  534
    u[6]      primal_lower368  244
    u[6]      primal_lower369  632
    u[6]      primal_lower370  784
    u[6]      primal_lower371  536
    u[6]      primal_lower372  712
    u[6]      primal_lower373  429
    u[6]      primal_lower374  740
    u[6]      primal_lower375  425
    u[6]      primal_lower376  145
    u[6]      primal_lower377  961
    u[6]      primal_lower378  65
    u[6]      primal_lower379  305
    u[6]      primal_lower380  158
    u[6]      primal_lower381  9
    u[6]      primal_lower382  19
    u[6]      primal_lower383  454
    u[6]      primal_lower384  354
    u[6]      primal_lower385  739
    u[6]      primal_lower386  950
    u[6]      primal_lower387  723
    u[6]      primal_lower388  621
    u[6]      primal_lower389  188
    u[6]      primal_lower390  652
    u[6]      primal_lower391  690
    u[6]      primal_lower392  141
    u[6]      primal_lower393  479
    u[6]      primal_lower394  523
    u[6]      primal_lower395  784
    u[6]      primal_lower396  487
    u[6]      primal_lower397  359
    u[6]      primal_lower398  387
    u[6]      primal_lower399  162
    u[6]      primal_lower400  229
    u[6]      primal_lower401  783
    u[6]      primal_lower402  843
    u[6]      primal_lower403  684
    u[6]      primal_lower404  398
    u[6]      primal_lower405  962
    u[6]      primal_lower406  364
    u[6]      primal_lower407  666
    u[6]      primal_lower408  905
    u[6]      primal_lower409  645
    u[6]      primal_lower410  172
    u[6]      primal_lower411  570
    u[6]      primal_lower412  315
    u[6]      primal_lower413  883
    u[6]      primal_lower414  187
    u[6]      primal_lower415  589
    u[6]      primal_lower416  587
    u[6]      primal_lower417  209
    u[6]      primal_lower418  511
    u[6]      primal_lower419  470
    u[6]      primal_lower420  982
    u[6]      primal_lower421  192
    u[6]      primal_lower422  913
    u[6]      primal_lower423  721
    u[6]      primal_lower424  343
    u[6]      primal_lower425  572
    u[6]      primal_lower426  679
    u[6]      primal_lower427  281
    u[6]      primal_lower428  509
    u[6]      primal_lower429  60
    u[6]      primal_lower430  117
    u[6]      primal_lower431  743
    u[6]      primal_lower432  416
    u[6]      primal_lower433  208
    u[6]      primal_lower434  583
    u[6]      primal_lower435  29
    u[6]      primal_lower436  48
    u[6]      primal_lower437  224
    u[6]      primal_lower438  62
    u[6]      primal_lower439  469
    u[6]      primal_lower440  851
    u[6]      primal_lower441  899
    u[6]      primal_lower442  570
    u[6]      primal_lower443  869
    u[6]      primal_lower444  444
    u[6]      primal_lower445  889
    u[6]      primal_lower446  802
    u[6]      primal_lower447  218
    u[6]      primal_lower448  997
    u[6]      primal_lower449  883
    u[6]      primal_lower450  206
    u[6]      primal_lower451  426
    u[6]      primal_lower452  201
    u[6]      primal_lower453  816
    u[6]      primal_lower454  264
    u[6]      primal_lower455  854
    u[6]      primal_lower456  649
    u[6]      primal_lower457  343
    u[6]      primal_lower458  370
    u[6]      primal_lower459  157
    u[6]      primal_lower460  279
    u[6]      primal_lower461  484
    u[6]      primal_lower462  149
    u[6]      primal_lower463  236
    u[6]      primal_lower464  300
    u[6]      primal_lower465  351
    u[6]      primal_lower466  940
    u[6]      primal_lower467  258
    u[6]      primal_lower468  26
    u[6]      primal_lower469  635
    u[6]      primal_lower470  879
    u[6]      primal_lower471  662
    u[6]      primal_lower472  719
    u[6]      primal_lower473  323
    u[6]      primal_lower474  422
    u[6]      primal_lower475  649
    u[6]      primal_lower476  102
    u[6]      primal_lower477  857
    u[6]      primal_lower478  471
    u[6]      primal_lower479  475
    u[6]      primal_lower480  676
    u[6]      primal_lower481  645
    u[6]      primal_lower482  104
    u[6]      primal_lower483  66
    u[6]      primal_lower484  56
    u[6]      primal_lower485  780
    u[6]      primal_lower486  6
    u[6]      primal_lower487  263
    u[6]      primal_lower488  822
    u[6]      primal_lower489  197
    u[6]      primal_lower490  419
    u[6]      primal_lower491  765
    u[6]      primal_lower492  974
    u[6]      primal_lower493  262
    u[6]      primal_lower494  619
    u[6]      primal_lower495  973
    u[6]      primal_lower496  493
    u[6]      primal_lower497  694
    u[6]      primal_lower498  906
    u[6]      primal_lower499  939
    u[6]      primal_lower500  777
    u[6]      primal_lower501  1000
    u[6]      primal_lower502  789
    u[6]      primal_lower503  120
    u[6]      primal_lower504  385
    u[6]      primal_lower505  753
    u[6]      primal_lower506  586
    u[6]      primal_lower507  35
    u[6]      primal_lower508  406
    u[6]      primal_lower509  416
    u[6]      primal_lower510  24
    u[6]      primal_lower511  62
    u[6]      primal_lower512  373
    u[6]      primal_lower513  410
    u[6]      primal_lower514  650
    u[6]      primal_lower515  466
    u[6]      primal_lower516  856
    u[6]      primal_lower517  654
    u[6]      primal_lower518  749
    u[6]      primal_lower519  48
    u[6]      primal_lower520  330
    u[6]      primal_lower521  21
    u[6]      primal_lower522  119
    u[6]      primal_lower523  158
    u[6]      primal_lower524  838
    u[6]      primal_lower525  751
    u[6]      primal_lower526  693
    u[6]      primal_lower527  708
    u[6]      primal_lower528  582
    u[6]      primal_lower529  238
    u[6]      primal_lower530  979
    u[6]      primal_lower531  980
    u[6]      primal_lower532  68
    u[6]      primal_lower533  93
    u[6]      primal_lower534  244
    u[6]      primal_lower535  27
    u[6]      primal_lower536  948
    u[6]      primal_lower537  895
    u[6]      primal_lower538  268
    u[6]      primal_lower539  168
    u[6]      primal_lower540  67
    u[6]      primal_lower541  117
    u[6]      primal_lower542  126
    u[6]      primal_lower543  318
    u[6]      primal_lower544  559
    u[6]      primal_lower545  242
    u[6]      primal_lower546  51
    u[6]      primal_lower547  499
    u[6]      primal_lower548  198
    u[6]      primal_lower549  95
    u[6]      primal_lower550  611
    u[6]      primal_lower551  538
    u[6]      primal_lower552  752
    u[6]      primal_lower553  612
    u[6]      primal_lower554  62
    u[6]      primal_lower555  47
    u[6]      primal_lower556  981
    u[6]      primal_lower557  367
    u[6]      primal_lower558  544
    u[6]      primal_lower559  772
    u[6]      primal_lower560  218
    u[6]      primal_lower561  87
    u[6]      primal_lower562  177
    u[6]      primal_lower563  698
    u[6]      primal_lower564  883
    u[6]      primal_lower565  6
    u[6]      primal_lower566  152
    u[6]      primal_lower567  107
    u[6]      primal_lower568  5
    u[6]      primal_lower569  788
    u[6]      primal_lower570  396
    u[6]      primal_lower571  122
    u[6]      primal_lower572  899
    u[6]      primal_lower573  548
    u[6]      primal_lower574  39
    u[6]      primal_lower575  320
    u[6]      primal_lower576  188
    u[6]      primal_lower577  659
    u[6]      primal_lower578  330
    u[6]      primal_lower579  960
    u[6]      primal_lower580  421
    u[6]      primal_lower581  983
    u[6]      primal_lower582  629
    u[6]      primal_lower583  869
    u[6]      primal_lower584  114
    u[6]      primal_lower585  920
    u[6]      primal_lower586  278
    u[6]      primal_lower587  177
    u[6]      primal_lower588  379
    u[6]      primal_lower589  68
    u[6]      primal_lower590  797
    u[6]      primal_lower591  457
    u[6]      primal_lower592  317
    u[6]      primal_lower593  591
    u[6]      primal_lower594  293
    u[6]      primal_lower595  130
    u[6]      primal_lower596  89
    u[6]      primal_lower597  926
    u[6]      primal_lower598  204
    u[6]      primal_lower599  743
    u[6]      primal_lower600  660
    u[6]      primal_lower601  694
    u[6]      primal_lower602  275
    u[6]      primal_lower603  874
    u[6]      primal_lower604  406
    u[6]      primal_lower605  744
    u[6]      primal_lower606  886
    u[6]      primal_lower607  800
    u[6]      primal_lower608  763
    u[6]      primal_lower609  422
    u[6]      primal_lower610  326
    u[6]      primal_lower611  1
    u[6]      primal_lower612  437
    u[6]      primal_lower613  583
    u[6]      primal_lower614  70
    u[6]      primal_lower615  355
    u[6]      primal_lower616  421
    u[6]      primal_lower617  691
    u[6]      primal_lower618  394
    u[6]      primal_lower619  439
    u[6]      primal_lower620  577
    u[6]      primal_lower621  205
    u[6]      primal_lower622  990
    u[6]      primal_lower623  456
    u[6]      primal_lower624  973
    u[6]      primal_lower625  983
    u[6]      primal_lower626  588
    u[6]      primal_lower627  765
    u[6]      primal_lower628  363
    u[6]      primal_lower629  751
    u[6]      primal_lower630  167
    u[6]      primal_lower631  72
    u[6]      primal_lower632  538
    u[6]      primal_lower633  308
    u[6]      primal_lower634  186
    u[6]      primal_lower635  297
    u[6]      primal_lower636  448
    u[6]      primal_lower637  699
    u[6]      primal_lower638  963
    u[6]      primal_lower639  970
    u[6]      primal_lower640  994
    u[6]      primal_lower641  468
    u[6]      primal_lower642  303
    u[6]      primal_lower643  955
    u[6]      primal_lower644  492
    u[6]      primal_lower645  236
    u[6]      primal_lower646  773
    u[6]      primal_lower647  95
    u[6]      primal_lower648  184
    u[6]      primal_lower649  387
    u[6]      primal_lower650  344
    u[6]      primal_lower651  539
    u[6]      primal_lower652  292
    u[6]      primal_lower653  358
    u[6]      primal_lower654  991
    u[6]      primal_lower655  939
    u[6]      primal_lower656  791
    u[6]      primal_lower657  337
    u[6]      primal_lower658  303
    u[6]      primal_lower659  620
    u[6]      primal_lower660  964
    u[6]      primal_lower661  817
    u[6]      primal_lower662  989
    u[6]      primal_lower663  397
    u[6]      primal_lower664  121
    u[6]      primal_lower665  335
    u[6]      primal_lower666  697
    u[6]      primal_lower667  472
    u[6]      primal_lower668  897
    u[6]      primal_lower669  231
    u[6]      primal_lower670  347
    u[6]      primal_lower671  860
    u[6]      primal_lower672  265
    u[6]      primal_lower673  566
    u[6]      primal_lower674  654
    u[6]      primal_lower675  852
    u[6]      primal_lower676  262
    u[6]      primal_lower677  533
    u[6]      primal_lower678  388
    u[6]      primal_lower679  357
    u[6]      primal_lower680  711
    u[6]      primal_lower681  407
    u[6]      primal_lower682  765
    u[6]      primal_lower683  562
    u[6]      primal_lower684  569
    u[6]      primal_lower685  720
    u[6]      primal_lower686  952
    u[6]      primal_lower687  852
    u[6]      primal_lower688  727
    u[6]      primal_lower689  145
    u[6]      primal_lower690  912
    u[6]      primal_lower691  89
    u[6]      primal_lower692  638
    u[6]      primal_lower693  282
    u[6]      primal_lower694  268
    u[6]      primal_lower695  172
    u[6]      primal_lower696  648
    u[6]      primal_lower697  981
    u[6]      primal_lower698  841
    u[6]      primal_lower699  390
    u[6]      primal_lower700  749
    u[6]      primal_lower701  871
    u[6]      primal_lower702  370
    u[6]      primal_lower703  308
    u[6]      primal_lower704  391
    u[6]      primal_lower705  760
    u[6]      primal_lower706  147
    u[6]      primal_lower707  291
    u[6]      primal_lower708  834
    u[6]      primal_lower709  422
    u[6]      primal_lower710  876
    u[6]      primal_lower711  470
    u[6]      primal_lower712  797
    u[6]      primal_lower713  105
    u[6]      primal_lower714  254
    u[6]      primal_lower715  632
    u[6]      primal_lower716  906
    u[6]      primal_lower717  468
    u[6]      primal_lower718  606
    u[6]      primal_lower719  260
    u[6]      primal_lower720  20
    u[6]      primal_lower721  242
    u[6]      primal_lower722  479
    u[6]      primal_lower723  881
    u[6]      primal_lower724  32
    u[6]      primal_lower725  929
    u[6]      primal_lower726  37
    u[6]      primal_lower727  583
    u[6]      primal_lower728  239
    u[6]      primal_lower729  364
    u[6]      primal_lower730  434
    u[6]      primal_lower731  117
    u[6]      primal_lower732  723
    u[6]      primal_lower733  839
    u[6]      primal_lower734  330
    u[6]      primal_lower735  108
    u[6]      primal_lower736  100
    u[6]      primal_lower737  416
    u[6]      primal_lower738  476
    u[6]      primal_lower739  979
    u[6]      primal_lower740  979
    u[6]      primal_lower741  763
    u[6]      primal_lower742  336
    u[6]      primal_lower743  789
    u[6]      primal_lower744  471
    u[6]      primal_lower745  588
    u[6]      primal_lower746  597
    u[6]      primal_lower747  898
    u[6]      primal_lower748  491
    u[6]      primal_lower749  504
    u[6]      primal_lower750  885
    u[6]      primal_lower751  536
    u[6]      primal_lower752  702
    u[6]      primal_lower753  645
    u[6]      primal_lower754  917
    u[6]      primal_lower755  574
    u[6]      primal_lower756  607
    u[6]      primal_lower757  301
    u[6]      primal_lower758  293
    u[6]      primal_lower759  396
    u[6]      primal_lower760  451
    u[6]      primal_lower761  827
    u[6]      primal_lower762  82
    u[6]      primal_lower763  815
    u[6]      primal_lower764  21
    u[6]      primal_lower765  267
    u[6]      primal_lower766  353
    u[6]      primal_lower767  253
    u[6]      primal_lower768  286
    u[6]      primal_lower769  974
    u[6]      primal_lower770  1000
    u[6]      primal_lower771  505
    u[6]      primal_lower772  564
    u[6]      primal_lower773  91
    u[6]      primal_lower774  803
    u[6]      primal_lower775  313
    u[6]      primal_lower776  736
    u[6]      primal_lower777  31
    u[6]      primal_lower778  16
    u[6]      primal_lower779  949
    u[6]      primal_lower780  22
    u[6]      primal_lower781  446
    u[6]      primal_lower782  956
    u[6]      primal_lower783  205
    u[6]      primal_lower784  398
    u[6]      primal_lower785  736
    u[6]      primal_lower786  488
    u[6]      primal_lower787  921
    u[6]      primal_lower788  63
    u[6]      primal_lower789  792
    u[6]      primal_lower790  838
    u[6]      primal_lower791  552
    u[6]      primal_lower792  670
    u[6]      primal_lower793  269
    u[6]      primal_lower794  729
    u[6]      primal_lower795  597
    u[6]      primal_lower796  388
    u[6]      primal_lower797  741
    u[6]      primal_lower798  528
    u[6]      primal_lower799  618
    u[6]      primal_lower800  763
    u[6]      primal_lower801  582
    u[6]      primal_lower802  702
    u[6]      primal_lower803  670
    u[6]      primal_lower804  104
    u[6]      primal_lower805  469
    u[6]      primal_lower806  459
    u[6]      primal_lower807  814
    u[6]      primal_lower808  814
    u[6]      primal_lower809  637
    u[6]      primal_lower810  597
    u[6]      primal_lower811  36
    u[6]      primal_lower812  25
    u[6]      primal_lower813  799
    u[6]      primal_lower814  60
    u[6]      primal_lower815  435
    u[6]      primal_lower816  709
    u[6]      primal_lower817  40
    u[6]      primal_lower818  319
    u[6]      primal_lower819  411
    u[6]      primal_lower820  406
    u[6]      primal_lower821  761
    u[6]      primal_lower822  202
    u[6]      primal_lower823  393
    u[6]      primal_lower824  996
    u[6]      primal_lower825  490
    u[6]      primal_lower826  927
    u[6]      primal_lower827  440
    u[6]      primal_lower828  231
    u[6]      primal_lower829  187
    u[6]      primal_lower830  532
    u[6]      primal_lower831  359
    u[6]      primal_lower832  394
    u[6]      primal_lower833  302
    u[6]      primal_lower834  582
    u[6]      primal_lower835  397
    u[6]      primal_lower836  279
    u[6]      primal_lower837  306
    u[6]      primal_lower838  632
    u[6]      primal_lower839  120
    u[6]      primal_lower840  527
    u[6]      primal_lower841  117
    u[6]      primal_lower842  853
    u[6]      primal_lower843  990
    u[6]      primal_lower844  950
    u[6]      primal_lower845  603
    u[6]      primal_lower846  135
    u[6]      primal_lower847  811
    u[6]      primal_lower848  713
    u[6]      primal_lower849  62
    u[6]      primal_lower850  784
    u[6]      primal_lower851  29
    u[6]      primal_lower852  336
    u[6]      primal_lower853  578
    u[6]      primal_lower854  871
    u[6]      primal_lower855  925
    u[6]      primal_lower856  934
    u[6]      primal_lower857  944
    u[6]      primal_lower858  567
    u[6]      primal_lower859  541
    u[6]      primal_lower860  845
    u[6]      primal_lower861  895
    u[6]      primal_lower862  747
    u[6]      primal_lower863  900
    u[6]      primal_lower864  461
    u[6]      primal_lower865  698
    u[6]      primal_lower866  226
    u[6]      primal_lower867  410
    u[6]      primal_lower868  476
    u[6]      primal_lower869  37
    u[6]      primal_lower870  573
    u[6]      primal_lower871  457
    u[6]      primal_lower872  750
    u[6]      primal_lower873  346
    u[6]      primal_lower874  669
    u[6]      primal_lower875  127
    u[6]      primal_lower876  487
    u[6]      primal_lower877  103
    u[6]      primal_lower878  120
    u[6]      primal_lower879  834
    u[6]      primal_lower880  770
    u[6]      primal_lower881  770
    u[6]      primal_lower882  810
    u[6]      primal_lower883  555
    u[6]      primal_lower884  469
    u[6]      primal_lower885  359
    u[6]      primal_lower886  176
    u[6]      primal_lower887  575
    u[6]      primal_lower888  421
    u[6]      primal_lower889  629
    u[6]      primal_lower890  554
    u[6]      primal_lower891  390
    u[6]      primal_lower892  980
    u[6]      primal_lower893  712
    u[6]      primal_lower894  775
    u[6]      primal_lower895  301
    u[6]      primal_lower896  909
    u[6]      primal_lower897  647
    u[6]      primal_lower898  536
    u[6]      primal_lower899  462
    u[6]      primal_lower900  638
    u[6]      primal_lower901  654
    u[6]      primal_lower902  77
    u[6]      primal_lower903  439
    u[6]      primal_lower904  150
    u[6]      primal_lower905  119
    u[6]      primal_lower906  76
    u[6]      primal_lower907  861
    u[6]      primal_lower908  696
    u[6]      primal_lower909  720
    u[6]      primal_lower910  748
    u[6]      primal_lower911  3
    u[6]      primal_lower912  768
    u[6]      primal_lower913  162
    u[6]      primal_lower914  465
    u[6]      primal_lower915  223
    u[6]      primal_lower916  453
    u[6]      primal_lower917  950
    u[6]      primal_lower918  19
    u[6]      primal_lower919  989
    u[6]      primal_lower920  672
    u[6]      primal_lower921  56
    u[6]      primal_lower922  673
    u[6]      primal_lower923  500
    u[6]      primal_lower924  129
    u[6]      primal_lower925  957
    u[6]      primal_lower926  770
    u[6]      primal_lower927  84
    u[6]      primal_lower928  589
    u[6]      primal_lower929  160
    u[6]      primal_lower930  319
    u[6]      primal_lower931  42
    u[6]      primal_lower932  415
    u[6]      primal_lower933  458
    u[6]      primal_lower934  124
    u[6]      primal_lower935  641
    u[6]      primal_lower936  444
    u[6]      primal_lower937  596
    u[6]      primal_lower938  818
    u[6]      primal_lower939  97
    u[6]      primal_lower940  612
    u[6]      primal_lower941  613
    u[6]      primal_lower942  701
    u[6]      primal_lower943  813
    u[6]      primal_lower944  47
    u[6]      primal_lower945  746
    u[6]      primal_lower946  19
    u[6]      primal_lower947  355
    u[6]      primal_lower948  892
    u[6]      primal_lower949  385
    u[6]      primal_lower950  945
    u[6]      primal_lower951  453
    u[6]      primal_lower952  892
    u[6]      primal_lower953  459
    u[6]      primal_lower954  866
    u[6]      primal_lower955  984
    u[6]      primal_lower956  342
    u[6]      primal_lower957  459
    u[6]      primal_lower958  838
    u[6]      primal_lower959  110
    u[6]      primal_lower960  63
    u[6]      primal_lower961  925
    u[6]      primal_lower962  431
    u[6]      primal_lower963  373
    u[6]      primal_lower964  557
    u[6]      primal_lower965  949
    u[6]      primal_lower966  121
    u[6]      primal_lower967  24
    u[6]      primal_lower968  298
    u[6]      primal_lower969  839
    u[6]      primal_lower970  408
    u[6]      primal_lower971  384
    u[6]      primal_lower972  123
    u[6]      primal_lower973  214
    u[6]      primal_lower974  225
    u[6]      primal_lower975  250
    u[6]      primal_lower976  681
    u[6]      primal_lower977  766
    u[6]      primal_lower978  713
    u[6]      primal_lower979  207
    u[6]      primal_lower980  749
    u[6]      primal_lower981  153
    u[6]      primal_lower982  504
    u[6]      primal_lower983  388
    u[6]      primal_lower984  665
    u[6]      primal_lower985  920
    u[6]      primal_lower986  202
    u[6]      primal_lower987  61
    u[6]      primal_lower988  687
    u[6]      primal_lower989  9
    u[6]      primal_lower990  760
    u[6]      primal_lower991  170
    u[6]      primal_lower992  246
    u[6]      primal_lower993  409
    u[6]      primal_lower994  135
    u[6]      primal_lower995  513
    u[6]      primal_lower996  977
    u[6]      primal_lower997  420
    u[6]      primal_lower998  977
    u[6]      primal_lower999  313
    u[6]      interdiction[6]  1
    u[6]      mccormick1[6]  -1
    u[6]      mccormick3[6]  1
    u[7]      primal_lower0  983
    u[7]      primal_lower1  923
    u[7]      primal_lower2  568
    u[7]      primal_lower3  378
    u[7]      primal_lower4  200
    u[7]      primal_lower5  304
    u[7]      primal_lower6  286
    u[7]      primal_lower7  692
    u[7]      primal_lower8  911
    u[7]      primal_lower9  824
    u[7]      primal_lower10  223
    u[7]      primal_lower11  725
    u[7]      primal_lower12  764
    u[7]      primal_lower13  22
    u[7]      primal_lower14  977
    u[7]      primal_lower15  286
    u[7]      primal_lower16  33
    u[7]      primal_lower17  675
    u[7]      primal_lower18  303
    u[7]      primal_lower19  995
    u[7]      primal_lower20  412
    u[7]      primal_lower21  63
    u[7]      primal_lower22  994
    u[7]      primal_lower23  543
    u[7]      primal_lower24  398
    u[7]      primal_lower25  271
    u[7]      primal_lower26  756
    u[7]      primal_lower27  588
    u[7]      primal_lower28  883
    u[7]      primal_lower29  240
    u[7]      primal_lower30  938
    u[7]      primal_lower31  145
    u[7]      primal_lower32  894
    u[7]      primal_lower33  596
    u[7]      primal_lower34  470
    u[7]      primal_lower35  568
    u[7]      primal_lower36  185
    u[7]      primal_lower37  669
    u[7]      primal_lower38  617
    u[7]      primal_lower39  862
    u[7]      primal_lower40  384
    u[7]      primal_lower41  162
    u[7]      primal_lower42  903
    u[7]      primal_lower43  785
    u[7]      primal_lower44  310
    u[7]      primal_lower45  249
    u[7]      primal_lower46  892
    u[7]      primal_lower47  955
    u[7]      primal_lower48  808
    u[7]      primal_lower49  481
    u[7]      primal_lower50  983
    u[7]      primal_lower51  228
    u[7]      primal_lower52  85
    u[7]      primal_lower53  210
    u[7]      primal_lower54  744
    u[7]      primal_lower55  540
    u[7]      primal_lower56  897
    u[7]      primal_lower57  324
    u[7]      primal_lower58  689
    u[7]      primal_lower59  641
    u[7]      primal_lower60  220
    u[7]      primal_lower61  648
    u[7]      primal_lower62  219
    u[7]      primal_lower63  796
    u[7]      primal_lower64  952
    u[7]      primal_lower65  321
    u[7]      primal_lower66  598
    u[7]      primal_lower67  32
    u[7]      primal_lower68  592
    u[7]      primal_lower69  134
    u[7]      primal_lower70  952
    u[7]      primal_lower71  366
    u[7]      primal_lower72  537
    u[7]      primal_lower73  963
    u[7]      primal_lower74  657
    u[7]      primal_lower75  611
    u[7]      primal_lower76  680
    u[7]      primal_lower77  461
    u[7]      primal_lower78  505
    u[7]      primal_lower79  179
    u[7]      primal_lower80  479
    u[7]      primal_lower81  880
    u[7]      primal_lower82  602
    u[7]      primal_lower83  969
    u[7]      primal_lower84  553
    u[7]      primal_lower85  605
    u[7]      primal_lower86  266
    u[7]      primal_lower87  808
    u[7]      primal_lower88  22
    u[7]      primal_lower89  146
    u[7]      primal_lower90  675
    u[7]      primal_lower91  767
    u[7]      primal_lower92  961
    u[7]      primal_lower93  672
    u[7]      primal_lower94  758
    u[7]      primal_lower95  842
    u[7]      primal_lower96  337
    u[7]      primal_lower97  882
    u[7]      primal_lower98  136
    u[7]      primal_lower99  746
    u[7]      primal_lower100  957
    u[7]      primal_lower101  234
    u[7]      primal_lower102  681
    u[7]      primal_lower103  883
    u[7]      primal_lower104  761
    u[7]      primal_lower105  46
    u[7]      primal_lower106  701
    u[7]      primal_lower107  321
    u[7]      primal_lower108  47
    u[7]      primal_lower109  493
    u[7]      primal_lower110  560
    u[7]      primal_lower111  848
    u[7]      primal_lower112  495
    u[7]      primal_lower113  631
    u[7]      primal_lower114  55
    u[7]      primal_lower115  703
    u[7]      primal_lower116  38
    u[7]      primal_lower117  372
    u[7]      primal_lower118  886
    u[7]      primal_lower119  675
    u[7]      primal_lower120  46
    u[7]      primal_lower121  690
    u[7]      primal_lower122  554
    u[7]      primal_lower123  314
    u[7]      primal_lower124  692
    u[7]      primal_lower125  810
    u[7]      primal_lower126  941
    u[7]      primal_lower127  666
    u[7]      primal_lower128  920
    u[7]      primal_lower129  646
    u[7]      primal_lower130  617
    u[7]      primal_lower131  94
    u[7]      primal_lower132  945
    u[7]      primal_lower133  791
    u[7]      primal_lower134  160
    u[7]      primal_lower135  849
    u[7]      primal_lower136  436
    u[7]      primal_lower137  751
    u[7]      primal_lower138  523
    u[7]      primal_lower139  917
    u[7]      primal_lower140  301
    u[7]      primal_lower141  537
    u[7]      primal_lower142  703
    u[7]      primal_lower143  488
    u[7]      primal_lower144  127
    u[7]      primal_lower145  793
    u[7]      primal_lower146  153
    u[7]      primal_lower147  724
    u[7]      primal_lower148  360
    u[7]      primal_lower149  821
    u[7]      primal_lower150  12
    u[7]      primal_lower151  733
    u[7]      primal_lower152  902
    u[7]      primal_lower153  635
    u[7]      primal_lower154  965
    u[7]      primal_lower155  517
    u[7]      primal_lower156  840
    u[7]      primal_lower157  350
    u[7]      primal_lower158  530
    u[7]      primal_lower159  871
    u[7]      primal_lower160  723
    u[7]      primal_lower161  661
    u[7]      primal_lower162  744
    u[7]      primal_lower163  163
    u[7]      primal_lower164  392
    u[7]      primal_lower165  573
    u[7]      primal_lower166  199
    u[7]      primal_lower167  560
    u[7]      primal_lower168  698
    u[7]      primal_lower169  170
    u[7]      primal_lower170  154
    u[7]      primal_lower171  839
    u[7]      primal_lower172  9
    u[7]      primal_lower173  885
    u[7]      primal_lower174  863
    u[7]      primal_lower175  78
    u[7]      primal_lower176  285
    u[7]      primal_lower177  559
    u[7]      primal_lower178  851
    u[7]      primal_lower179  842
    u[7]      primal_lower180  269
    u[7]      primal_lower181  44
    u[7]      primal_lower182  602
    u[7]      primal_lower183  350
    u[7]      primal_lower184  110
    u[7]      primal_lower185  300
    u[7]      primal_lower186  709
    u[7]      primal_lower187  808
    u[7]      primal_lower188  794
    u[7]      primal_lower189  969
    u[7]      primal_lower190  900
    u[7]      primal_lower191  496
    u[7]      primal_lower192  983
    u[7]      primal_lower193  522
    u[7]      primal_lower194  92
    u[7]      primal_lower195  660
    u[7]      primal_lower196  242
    u[7]      primal_lower197  107
    u[7]      primal_lower198  914
    u[7]      primal_lower199  370
    u[7]      primal_lower200  413
    u[7]      primal_lower201  46
    u[7]      primal_lower202  124
    u[7]      primal_lower203  799
    u[7]      primal_lower204  165
    u[7]      primal_lower205  635
    u[7]      primal_lower206  970
    u[7]      primal_lower207  972
    u[7]      primal_lower208  700
    u[7]      primal_lower209  801
    u[7]      primal_lower210  511
    u[7]      primal_lower211  938
    u[7]      primal_lower212  274
    u[7]      primal_lower213  580
    u[7]      primal_lower214  779
    u[7]      primal_lower215  400
    u[7]      primal_lower216  494
    u[7]      primal_lower217  859
    u[7]      primal_lower218  427
    u[7]      primal_lower219  692
    u[7]      primal_lower220  899
    u[7]      primal_lower221  390
    u[7]      primal_lower222  804
    u[7]      primal_lower223  805
    u[7]      primal_lower224  756
    u[7]      primal_lower225  323
    u[7]      primal_lower226  376
    u[7]      primal_lower227  845
    u[7]      primal_lower228  300
    u[7]      primal_lower229  499
    u[7]      primal_lower230  732
    u[7]      primal_lower231  765
    u[7]      primal_lower232  585
    u[7]      primal_lower233  211
    u[7]      primal_lower234  404
    u[7]      primal_lower235  260
    u[7]      primal_lower236  308
    u[7]      primal_lower237  668
    u[7]      primal_lower238  925
    u[7]      primal_lower239  314
    u[7]      primal_lower240  888
    u[7]      primal_lower241  323
    u[7]      primal_lower242  318
    u[7]      primal_lower243  197
    u[7]      primal_lower244  989
    u[7]      primal_lower245  514
    u[7]      primal_lower246  790
    u[7]      primal_lower247  721
    u[7]      primal_lower248  181
    u[7]      primal_lower249  470
    u[7]      primal_lower250  191
    u[7]      primal_lower251  839
    u[7]      primal_lower252  724
    u[7]      primal_lower253  214
    u[7]      primal_lower254  560
    u[7]      primal_lower255  700
    u[7]      primal_lower256  139
    u[7]      primal_lower257  321
    u[7]      primal_lower258  749
    u[7]      primal_lower259  977
    u[7]      primal_lower260  369
    u[7]      primal_lower261  377
    u[7]      primal_lower262  309
    u[7]      primal_lower263  595
    u[7]      primal_lower264  494
    u[7]      primal_lower265  84
    u[7]      primal_lower266  76
    u[7]      primal_lower267  185
    u[7]      primal_lower268  75
    u[7]      primal_lower269  863
    u[7]      primal_lower270  713
    u[7]      primal_lower271  205
    u[7]      primal_lower272  99
    u[7]      primal_lower273  707
    u[7]      primal_lower274  668
    u[7]      primal_lower275  537
    u[7]      primal_lower276  649
    u[7]      primal_lower277  550
    u[7]      primal_lower278  286
    u[7]      primal_lower279  817
    u[7]      primal_lower280  96
    u[7]      primal_lower281  332
    u[7]      primal_lower282  879
    u[7]      primal_lower283  733
    u[7]      primal_lower284  617
    u[7]      primal_lower285  569
    u[7]      primal_lower286  487
    u[7]      primal_lower287  476
    u[7]      primal_lower288  23
    u[7]      primal_lower289  86
    u[7]      primal_lower290  839
    u[7]      primal_lower291  945
    u[7]      primal_lower292  986
    u[7]      primal_lower293  453
    u[7]      primal_lower294  935
    u[7]      primal_lower295  339
    u[7]      primal_lower296  543
    u[7]      primal_lower297  580
    u[7]      primal_lower298  418
    u[7]      primal_lower299  676
    u[7]      primal_lower300  747
    u[7]      primal_lower301  674
    u[7]      primal_lower302  134
    u[7]      primal_lower303  260
    u[7]      primal_lower304  528
    u[7]      primal_lower305  788
    u[7]      primal_lower306  326
    u[7]      primal_lower307  733
    u[7]      primal_lower308  898
    u[7]      primal_lower309  703
    u[7]      primal_lower310  646
    u[7]      primal_lower311  504
    u[7]      primal_lower312  40
    u[7]      primal_lower313  16
    u[7]      primal_lower314  1000
    u[7]      primal_lower315  476
    u[7]      primal_lower316  676
    u[7]      primal_lower317  508
    u[7]      primal_lower318  869
    u[7]      primal_lower319  873
    u[7]      primal_lower320  827
    u[7]      primal_lower321  283
    u[7]      primal_lower322  428
    u[7]      primal_lower323  395
    u[7]      primal_lower324  335
    u[7]      primal_lower325  914
    u[7]      primal_lower326  853
    u[7]      primal_lower327  408
    u[7]      primal_lower328  525
    u[7]      primal_lower329  992
    u[7]      primal_lower330  416
    u[7]      primal_lower331  280
    u[7]      primal_lower332  10
    u[7]      primal_lower333  885
    u[7]      primal_lower334  721
    u[7]      primal_lower335  176
    u[7]      primal_lower336  271
    u[7]      primal_lower337  799
    u[7]      primal_lower338  854
    u[7]      primal_lower339  405
    u[7]      primal_lower340  885
    u[7]      primal_lower341  373
    u[7]      primal_lower342  386
    u[7]      primal_lower343  377
    u[7]      primal_lower344  101
    u[7]      primal_lower345  335
    u[7]      primal_lower346  520
    u[7]      primal_lower347  43
    u[7]      primal_lower348  626
    u[7]      primal_lower349  701
    u[7]      primal_lower350  894
    u[7]      primal_lower351  632
    u[7]      primal_lower352  824
    u[7]      primal_lower353  704
    u[7]      primal_lower354  514
    u[7]      primal_lower355  320
    u[7]      primal_lower356  263
    u[7]      primal_lower357  933
    u[7]      primal_lower358  364
    u[7]      primal_lower359  994
    u[7]      primal_lower360  995
    u[7]      primal_lower361  360
    u[7]      primal_lower362  746
    u[7]      primal_lower363  598
    u[7]      primal_lower364  6
    u[7]      primal_lower365  56
    u[7]      primal_lower366  230
    u[7]      primal_lower367  96
    u[7]      primal_lower368  718
    u[7]      primal_lower369  50
    u[7]      primal_lower370  767
    u[7]      primal_lower371  818
    u[7]      primal_lower372  546
    u[7]      primal_lower373  231
    u[7]      primal_lower374  363
    u[7]      primal_lower375  3
    u[7]      primal_lower376  571
    u[7]      primal_lower377  107
    u[7]      primal_lower378  571
    u[7]      primal_lower379  520
    u[7]      primal_lower380  989
    u[7]      primal_lower381  232
    u[7]      primal_lower382  301
    u[7]      primal_lower383  621
    u[7]      primal_lower384  444
    u[7]      primal_lower385  922
    u[7]      primal_lower386  701
    u[7]      primal_lower387  882
    u[7]      primal_lower388  260
    u[7]      primal_lower389  419
    u[7]      primal_lower390  606
    u[7]      primal_lower391  900
    u[7]      primal_lower392  551
    u[7]      primal_lower393  681
    u[7]      primal_lower394  586
    u[7]      primal_lower395  594
    u[7]      primal_lower396  542
    u[7]      primal_lower397  390
    u[7]      primal_lower398  634
    u[7]      primal_lower399  505
    u[7]      primal_lower400  631
    u[7]      primal_lower401  897
    u[7]      primal_lower402  938
    u[7]      primal_lower403  595
    u[7]      primal_lower404  549
    u[7]      primal_lower405  513
    u[7]      primal_lower406  686
    u[7]      primal_lower407  689
    u[7]      primal_lower408  952
    u[7]      primal_lower409  684
    u[7]      primal_lower410  347
    u[7]      primal_lower411  569
    u[7]      primal_lower412  125
    u[7]      primal_lower413  749
    u[7]      primal_lower414  677
    u[7]      primal_lower415  303
    u[7]      primal_lower416  338
    u[7]      primal_lower417  563
    u[7]      primal_lower418  222
    u[7]      primal_lower419  661
    u[7]      primal_lower420  504
    u[7]      primal_lower421  343
    u[7]      primal_lower422  539
    u[7]      primal_lower423  75
    u[7]      primal_lower424  294
    u[7]      primal_lower425  830
    u[7]      primal_lower426  534
    u[7]      primal_lower427  363
    u[7]      primal_lower428  932
    u[7]      primal_lower429  862
    u[7]      primal_lower430  540
    u[7]      primal_lower431  225
    u[7]      primal_lower432  335
    u[7]      primal_lower433  151
    u[7]      primal_lower434  758
    u[7]      primal_lower435  804
    u[7]      primal_lower436  994
    u[7]      primal_lower437  287
    u[7]      primal_lower438  248
    u[7]      primal_lower439  807
    u[7]      primal_lower440  194
    u[7]      primal_lower441  885
    u[7]      primal_lower442  876
    u[7]      primal_lower443  655
    u[7]      primal_lower444  931
    u[7]      primal_lower445  736
    u[7]      primal_lower446  793
    u[7]      primal_lower447  188
    u[7]      primal_lower448  820
    u[7]      primal_lower449  733
    u[7]      primal_lower450  80
    u[7]      primal_lower451  209
    u[7]      primal_lower452  75
    u[7]      primal_lower453  58
    u[7]      primal_lower454  130
    u[7]      primal_lower455  808
    u[7]      primal_lower456  840
    u[7]      primal_lower457  502
    u[7]      primal_lower458  1
    u[7]      primal_lower459  692
    u[7]      primal_lower460  977
    u[7]      primal_lower461  323
    u[7]      primal_lower462  119
    u[7]      primal_lower463  947
    u[7]      primal_lower464  203
    u[7]      primal_lower465  246
    u[7]      primal_lower466  294
    u[7]      primal_lower467  628
    u[7]      primal_lower468  84
    u[7]      primal_lower469  906
    u[7]      primal_lower470  790
    u[7]      primal_lower471  301
    u[7]      primal_lower472  337
    u[7]      primal_lower473  698
    u[7]      primal_lower474  32
    u[7]      primal_lower475  723
    u[7]      primal_lower476  677
    u[7]      primal_lower477  635
    u[7]      primal_lower478  558
    u[7]      primal_lower479  370
    u[7]      primal_lower480  510
    u[7]      primal_lower481  572
    u[7]      primal_lower482  706
    u[7]      primal_lower483  724
    u[7]      primal_lower484  655
    u[7]      primal_lower485  987
    u[7]      primal_lower486  144
    u[7]      primal_lower487  166
    u[7]      primal_lower488  784
    u[7]      primal_lower489  407
    u[7]      primal_lower490  197
    u[7]      primal_lower491  140
    u[7]      primal_lower492  277
    u[7]      primal_lower493  21
    u[7]      primal_lower494  101
    u[7]      primal_lower495  879
    u[7]      primal_lower496  415
    u[7]      primal_lower497  445
    u[7]      primal_lower498  524
    u[7]      primal_lower499  10
    u[7]      primal_lower500  568
    u[7]      primal_lower501  274
    u[7]      primal_lower502  684
    u[7]      primal_lower503  882
    u[7]      primal_lower504  891
    u[7]      primal_lower505  416
    u[7]      primal_lower506  393
    u[7]      primal_lower507  133
    u[7]      primal_lower508  549
    u[7]      primal_lower509  306
    u[7]      primal_lower510  746
    u[7]      primal_lower511  765
    u[7]      primal_lower512  228
    u[7]      primal_lower513  41
    u[7]      primal_lower514  497
    u[7]      primal_lower515  929
    u[7]      primal_lower516  138
    u[7]      primal_lower517  496
    u[7]      primal_lower518  108
    u[7]      primal_lower519  303
    u[7]      primal_lower520  385
    u[7]      primal_lower521  356
    u[7]      primal_lower522  110
    u[7]      primal_lower523  197
    u[7]      primal_lower524  704
    u[7]      primal_lower525  94
    u[7]      primal_lower526  788
    u[7]      primal_lower527  718
    u[7]      primal_lower528  400
    u[7]      primal_lower529  621
    u[7]      primal_lower530  794
    u[7]      primal_lower531  318
    u[7]      primal_lower532  531
    u[7]      primal_lower533  340
    u[7]      primal_lower534  387
    u[7]      primal_lower535  554
    u[7]      primal_lower536  219
    u[7]      primal_lower537  174
    u[7]      primal_lower538  510
    u[7]      primal_lower539  511
    u[7]      primal_lower540  274
    u[7]      primal_lower541  620
    u[7]      primal_lower542  608
    u[7]      primal_lower543  200
    u[7]      primal_lower544  238
    u[7]      primal_lower545  476
    u[7]      primal_lower546  546
    u[7]      primal_lower547  850
    u[7]      primal_lower548  461
    u[7]      primal_lower549  294
    u[7]      primal_lower550  493
    u[7]      primal_lower551  793
    u[7]      primal_lower552  202
    u[7]      primal_lower553  934
    u[7]      primal_lower554  621
    u[7]      primal_lower555  905
    u[7]      primal_lower556  551
    u[7]      primal_lower557  905
    u[7]      primal_lower558  239
    u[7]      primal_lower559  859
    u[7]      primal_lower560  473
    u[7]      primal_lower561  286
    u[7]      primal_lower562  304
    u[7]      primal_lower563  369
    u[7]      primal_lower564  629
    u[7]      primal_lower565  813
    u[7]      primal_lower566  487
    u[7]      primal_lower567  637
    u[7]      primal_lower568  447
    u[7]      primal_lower569  675
    u[7]      primal_lower570  854
    u[7]      primal_lower571  545
    u[7]      primal_lower572  837
    u[7]      primal_lower573  694
    u[7]      primal_lower574  30
    u[7]      primal_lower575  626
    u[7]      primal_lower576  862
    u[7]      primal_lower577  453
    u[7]      primal_lower578  908
    u[7]      primal_lower579  266
    u[7]      primal_lower580  983
    u[7]      primal_lower581  657
    u[7]      primal_lower582  692
    u[7]      primal_lower583  199
    u[7]      primal_lower584  988
    u[7]      primal_lower585  626
    u[7]      primal_lower586  784
    u[7]      primal_lower587  600
    u[7]      primal_lower588  677
    u[7]      primal_lower589  102
    u[7]      primal_lower590  372
    u[7]      primal_lower591  288
    u[7]      primal_lower592  980
    u[7]      primal_lower593  473
    u[7]      primal_lower594  252
    u[7]      primal_lower595  689
    u[7]      primal_lower596  816
    u[7]      primal_lower597  309
    u[7]      primal_lower598  46
    u[7]      primal_lower599  225
    u[7]      primal_lower600  635
    u[7]      primal_lower601  128
    u[7]      primal_lower602  514
    u[7]      primal_lower603  929
    u[7]      primal_lower604  432
    u[7]      primal_lower605  335
    u[7]      primal_lower606  141
    u[7]      primal_lower607  386
    u[7]      primal_lower608  554
    u[7]      primal_lower609  576
    u[7]      primal_lower610  288
    u[7]      primal_lower611  115
    u[7]      primal_lower612  815
    u[7]      primal_lower613  833
    u[7]      primal_lower614  805
    u[7]      primal_lower615  485
    u[7]      primal_lower616  423
    u[7]      primal_lower617  514
    u[7]      primal_lower618  401
    u[7]      primal_lower619  9
    u[7]      primal_lower620  395
    u[7]      primal_lower621  887
    u[7]      primal_lower622  317
    u[7]      primal_lower623  119
    u[7]      primal_lower624  15
    u[7]      primal_lower625  366
    u[7]      primal_lower626  171
    u[7]      primal_lower627  300
    u[7]      primal_lower628  402
    u[7]      primal_lower629  425
    u[7]      primal_lower630  142
    u[7]      primal_lower631  770
    u[7]      primal_lower632  529
    u[7]      primal_lower633  603
    u[7]      primal_lower634  353
    u[7]      primal_lower635  416
    u[7]      primal_lower636  882
    u[7]      primal_lower637  789
    u[7]      primal_lower638  410
    u[7]      primal_lower639  217
    u[7]      primal_lower640  756
    u[7]      primal_lower641  819
    u[7]      primal_lower642  857
    u[7]      primal_lower643  114
    u[7]      primal_lower644  467
    u[7]      primal_lower645  107
    u[7]      primal_lower646  159
    u[7]      primal_lower647  934
    u[7]      primal_lower648  882
    u[7]      primal_lower649  698
    u[7]      primal_lower650  399
    u[7]      primal_lower651  205
    u[7]      primal_lower652  230
    u[7]      primal_lower653  341
    u[7]      primal_lower654  470
    u[7]      primal_lower655  349
    u[7]      primal_lower656  801
    u[7]      primal_lower657  523
    u[7]      primal_lower658  70
    u[7]      primal_lower659  707
    u[7]      primal_lower660  294
    u[7]      primal_lower661  128
    u[7]      primal_lower662  924
    u[7]      primal_lower663  239
    u[7]      primal_lower664  779
    u[7]      primal_lower665  977
    u[7]      primal_lower666  283
    u[7]      primal_lower667  95
    u[7]      primal_lower668  891
    u[7]      primal_lower669  609
    u[7]      primal_lower670  10
    u[7]      primal_lower671  275
    u[7]      primal_lower672  232
    u[7]      primal_lower673  525
    u[7]      primal_lower674  829
    u[7]      primal_lower675  398
    u[7]      primal_lower676  301
    u[7]      primal_lower677  116
    u[7]      primal_lower678  667
    u[7]      primal_lower679  671
    u[7]      primal_lower680  689
    u[7]      primal_lower681  769
    u[7]      primal_lower682  327
    u[7]      primal_lower683  692
    u[7]      primal_lower684  491
    u[7]      primal_lower685  90
    u[7]      primal_lower686  522
    u[7]      primal_lower687  710
    u[7]      primal_lower688  102
    u[7]      primal_lower689  155
    u[7]      primal_lower690  119
    u[7]      primal_lower691  203
    u[7]      primal_lower692  341
    u[7]      primal_lower693  508
    u[7]      primal_lower694  142
    u[7]      primal_lower695  643
    u[7]      primal_lower696  450
    u[7]      primal_lower697  444
    u[7]      primal_lower698  816
    u[7]      primal_lower699  856
    u[7]      primal_lower700  404
    u[7]      primal_lower701  350
    u[7]      primal_lower702  353
    u[7]      primal_lower703  139
    u[7]      primal_lower704  310
    u[7]      primal_lower705  450
    u[7]      primal_lower706  949
    u[7]      primal_lower707  677
    u[7]      primal_lower708  948
    u[7]      primal_lower709  816
    u[7]      primal_lower710  182
    u[7]      primal_lower711  784
    u[7]      primal_lower712  983
    u[7]      primal_lower713  856
    u[7]      primal_lower714  413
    u[7]      primal_lower715  471
    u[7]      primal_lower716  628
    u[7]      primal_lower717  262
    u[7]      primal_lower718  997
    u[7]      primal_lower719  131
    u[7]      primal_lower720  355
    u[7]      primal_lower721  132
    u[7]      primal_lower722  337
    u[7]      primal_lower723  115
    u[7]      primal_lower724  450
    u[7]      primal_lower725  579
    u[7]      primal_lower726  671
    u[7]      primal_lower727  193
    u[7]      primal_lower728  897
    u[7]      primal_lower729  326
    u[7]      primal_lower730  657
    u[7]      primal_lower731  692
    u[7]      primal_lower732  317
    u[7]      primal_lower733  134
    u[7]      primal_lower734  20
    u[7]      primal_lower735  830
    u[7]      primal_lower736  699
    u[7]      primal_lower737  39
    u[7]      primal_lower738  398
    u[7]      primal_lower739  381
    u[7]      primal_lower740  917
    u[7]      primal_lower741  418
    u[7]      primal_lower742  418
    u[7]      primal_lower743  324
    u[7]      primal_lower744  846
    u[7]      primal_lower745  894
    u[7]      primal_lower746  620
    u[7]      primal_lower747  588
    u[7]      primal_lower748  893
    u[7]      primal_lower749  498
    u[7]      primal_lower750  540
    u[7]      primal_lower751  626
    u[7]      primal_lower752  485
    u[7]      primal_lower753  919
    u[7]      primal_lower754  932
    u[7]      primal_lower755  64
    u[7]      primal_lower756  225
    u[7]      primal_lower757  975
    u[7]      primal_lower758  508
    u[7]      primal_lower759  771
    u[7]      primal_lower760  98
    u[7]      primal_lower761  450
    u[7]      primal_lower762  404
    u[7]      primal_lower763  398
    u[7]      primal_lower764  487
    u[7]      primal_lower765  626
    u[7]      primal_lower766  128
    u[7]      primal_lower767  588
    u[7]      primal_lower768  320
    u[7]      primal_lower769  8
    u[7]      primal_lower770  159
    u[7]      primal_lower771  3
    u[7]      primal_lower772  934
    u[7]      primal_lower773  741
    u[7]      primal_lower774  813
    u[7]      primal_lower775  475
    u[7]      primal_lower776  87
    u[7]      primal_lower777  505
    u[7]      primal_lower778  418
    u[7]      primal_lower779  631
    u[7]      primal_lower780  389
    u[7]      primal_lower781  125
    u[7]      primal_lower782  819
    u[7]      primal_lower783  756
    u[7]      primal_lower784  173
    u[7]      primal_lower785  514
    u[7]      primal_lower786  802
    u[7]      primal_lower787  67
    u[7]      primal_lower788  654
    u[7]      primal_lower789  111
    u[7]      primal_lower790  85
    u[7]      primal_lower791  314
    u[7]      primal_lower792  957
    u[7]      primal_lower793  303
    u[7]      primal_lower794  136
    u[7]      primal_lower795  95
    u[7]      primal_lower796  435
    u[7]      primal_lower797  316
    u[7]      primal_lower798  882
    u[7]      primal_lower799  681
    u[7]      primal_lower800  954
    u[7]      primal_lower801  869
    u[7]      primal_lower802  608
    u[7]      primal_lower803  992
    u[7]      primal_lower804  498
    u[7]      primal_lower805  303
    u[7]      primal_lower806  661
    u[7]      primal_lower807  61
    u[7]      primal_lower808  136
    u[7]      primal_lower809  140
    u[7]      primal_lower810  255
    u[7]      primal_lower811  147
    u[7]      primal_lower812  520
    u[7]      primal_lower813  873
    u[7]      primal_lower814  710
    u[7]      primal_lower815  514
    u[7]      primal_lower816  63
    u[7]      primal_lower817  575
    u[7]      primal_lower818  510
    u[7]      primal_lower819  53
    u[7]      primal_lower820  653
    u[7]      primal_lower821  203
    u[7]      primal_lower822  41
    u[7]      primal_lower823  715
    u[7]      primal_lower824  683
    u[7]      primal_lower825  684
    u[7]      primal_lower826  49
    u[7]      primal_lower827  450
    u[7]      primal_lower828  265
    u[7]      primal_lower829  21
    u[7]      primal_lower830  531
    u[7]      primal_lower831  657
    u[7]      primal_lower832  412
    u[7]      primal_lower833  133
    u[7]      primal_lower834  392
    u[7]      primal_lower835  655
    u[7]      primal_lower836  729
    u[7]      primal_lower837  836
    u[7]      primal_lower838  975
    u[7]      primal_lower839  338
    u[7]      primal_lower840  89
    u[7]      primal_lower841  199
    u[7]      primal_lower842  572
    u[7]      primal_lower843  669
    u[7]      primal_lower844  957
    u[7]      primal_lower845  594
    u[7]      primal_lower846  89
    u[7]      primal_lower847  626
    u[7]      primal_lower848  568
    u[7]      primal_lower849  384
    u[7]      primal_lower850  698
    u[7]      primal_lower851  279
    u[7]      primal_lower852  903
    u[7]      primal_lower853  257
    u[7]      primal_lower854  681
    u[7]      primal_lower855  572
    u[7]      primal_lower856  776
    u[7]      primal_lower857  170
    u[7]      primal_lower858  161
    u[7]      primal_lower859  191
    u[7]      primal_lower860  324
    u[7]      primal_lower861  574
    u[7]      primal_lower862  245
    u[7]      primal_lower863  107
    u[7]      primal_lower864  68
    u[7]      primal_lower865  228
    u[7]      primal_lower866  900
    u[7]      primal_lower867  777
    u[7]      primal_lower868  390
    u[7]      primal_lower869  407
    u[7]      primal_lower870  140
    u[7]      primal_lower871  315
    u[7]      primal_lower872  384
    u[7]      primal_lower873  12
    u[7]      primal_lower874  95
    u[7]      primal_lower875  150
    u[7]      primal_lower876  646
    u[7]      primal_lower877  326
    u[7]      primal_lower878  807
    u[7]      primal_lower879  401
    u[7]      primal_lower880  92
    u[7]      primal_lower881  876
    u[7]      primal_lower882  281
    u[7]      primal_lower883  18
    u[7]      primal_lower884  239
    u[7]      primal_lower885  646
    u[7]      primal_lower886  706
    u[7]      primal_lower887  697
    u[7]      primal_lower888  623
    u[7]      primal_lower889  623
    u[7]      primal_lower890  225
    u[7]      primal_lower891  40
    u[7]      primal_lower892  254
    u[7]      primal_lower893  415
    u[7]      primal_lower894  649
    u[7]      primal_lower895  828
    u[7]      primal_lower896  324
    u[7]      primal_lower897  553
    u[7]      primal_lower898  410
    u[7]      primal_lower899  317
    u[7]      primal_lower900  989
    u[7]      primal_lower901  373
    u[7]      primal_lower902  687
    u[7]      primal_lower903  49
    u[7]      primal_lower904  536
    u[7]      primal_lower905  297
    u[7]      primal_lower906  334
    u[7]      primal_lower907  807
    u[7]      primal_lower908  519
    u[7]      primal_lower909  978
    u[7]      primal_lower910  715
    u[7]      primal_lower911  10
    u[7]      primal_lower912  602
    u[7]      primal_lower913  9
    u[7]      primal_lower914  984
    u[7]      primal_lower915  926
    u[7]      primal_lower916  532
    u[7]      primal_lower917  349
    u[7]      primal_lower918  605
    u[7]      primal_lower919  228
    u[7]      primal_lower920  570
    u[7]      primal_lower921  111
    u[7]      primal_lower922  115
    u[7]      primal_lower923  851
    u[7]      primal_lower924  456
    u[7]      primal_lower925  663
    u[7]      primal_lower926  513
    u[7]      primal_lower927  942
    u[7]      primal_lower928  455
    u[7]      primal_lower929  802
    u[7]      primal_lower930  393
    u[7]      primal_lower931  684
    u[7]      primal_lower932  678
    u[7]      primal_lower933  689
    u[7]      primal_lower934  643
    u[7]      primal_lower935  251
    u[7]      primal_lower936  262
    u[7]      primal_lower937  502
    u[7]      primal_lower938  596
    u[7]      primal_lower939  168
    u[7]      primal_lower940  142
    u[7]      primal_lower941  148
    u[7]      primal_lower942  748
    u[7]      primal_lower943  396
    u[7]      primal_lower944  22
    u[7]      primal_lower945  948
    u[7]      primal_lower946  949
    u[7]      primal_lower947  770
    u[7]      primal_lower948  163
    u[7]      primal_lower949  808
    u[7]      primal_lower950  219
    u[7]      primal_lower951  972
    u[7]      primal_lower952  934
    u[7]      primal_lower953  882
    u[7]      primal_lower954  497
    u[7]      primal_lower955  559
    u[7]      primal_lower956  888
    u[7]      primal_lower957  421
    u[7]      primal_lower958  517
    u[7]      primal_lower959  704
    u[7]      primal_lower960  718
    u[7]      primal_lower961  12
    u[7]      primal_lower962  161
    u[7]      primal_lower963  15
    u[7]      primal_lower964  940
    u[7]      primal_lower965  44
    u[7]      primal_lower966  171
    u[7]      primal_lower967  410
    u[7]      primal_lower968  609
    u[7]      primal_lower969  897
    u[7]      primal_lower970  18
    u[7]      primal_lower971  242
    u[7]      primal_lower972  621
    u[7]      primal_lower973  392
    u[7]      primal_lower974  643
    u[7]      primal_lower975  289
    u[7]      primal_lower976  88
    u[7]      primal_lower977  216
    u[7]      primal_lower978  496
    u[7]      primal_lower979  785
    u[7]      primal_lower980  700
    u[7]      primal_lower981  736
    u[7]      primal_lower982  346
    u[7]      primal_lower983  491
    u[7]      primal_lower984  96
    u[7]      primal_lower985  863
    u[7]      primal_lower986  73
    u[7]      primal_lower987  364
    u[7]      primal_lower988  617
    u[7]      primal_lower989  232
    u[7]      primal_lower990  202
    u[7]      primal_lower991  836
    u[7]      primal_lower992  373
    u[7]      primal_lower993  507
    u[7]      primal_lower994  441
    u[7]      primal_lower995  739
    u[7]      primal_lower996  291
    u[7]      primal_lower997  838
    u[7]      primal_lower998  531
    u[7]      primal_lower999  291
    u[7]      interdiction[7]  1
    u[7]      mccormick1[7]  -1
    u[7]      mccormick3[7]  1
    u[8]      primal_lower0  37
    u[8]      primal_lower1  273
    u[8]      primal_lower2  185
    u[8]      primal_lower3  131
    u[8]      primal_lower4  806
    u[8]      primal_lower5  414
    u[8]      primal_lower6  31
    u[8]      primal_lower7  770
    u[8]      primal_lower8  696
    u[8]      primal_lower9  14
    u[8]      primal_lower10  733
    u[8]      primal_lower11  886
    u[8]      primal_lower12  757
    u[8]      primal_lower13  207
    u[8]      primal_lower14  887
    u[8]      primal_lower15  324
    u[8]      primal_lower16  498
    u[8]      primal_lower17  844
    u[8]      primal_lower18  893
    u[8]      primal_lower19  60
    u[8]      primal_lower20  578
    u[8]      primal_lower21  229
    u[8]      primal_lower22  512
    u[8]      primal_lower23  632
    u[8]      primal_lower24  972
    u[8]      primal_lower25  709
    u[8]      primal_lower26  666
    u[8]      primal_lower27  746
    u[8]      primal_lower28  761
    u[8]      primal_lower29  70
    u[8]      primal_lower30  864
    u[8]      primal_lower31  266
    u[8]      primal_lower32  175
    u[8]      primal_lower33  330
    u[8]      primal_lower34  95
    u[8]      primal_lower35  974
    u[8]      primal_lower36  242
    u[8]      primal_lower37  491
    u[8]      primal_lower38  466
    u[8]      primal_lower39  7
    u[8]      primal_lower40  670
    u[8]      primal_lower41  408
    u[8]      primal_lower42  733
    u[8]      primal_lower43  50
    u[8]      primal_lower44  215
    u[8]      primal_lower45  186
    u[8]      primal_lower46  541
    u[8]      primal_lower47  980
    u[8]      primal_lower48  502
    u[8]      primal_lower49  15
    u[8]      primal_lower50  109
    u[8]      primal_lower51  29
    u[8]      primal_lower52  550
    u[8]      primal_lower53  400
    u[8]      primal_lower54  297
    u[8]      primal_lower55  933
    u[8]      primal_lower56  215
    u[8]      primal_lower57  549
    u[8]      primal_lower58  599
    u[8]      primal_lower59  170
    u[8]      primal_lower60  370
    u[8]      primal_lower61  766
    u[8]      primal_lower62  393
    u[8]      primal_lower63  42
    u[8]      primal_lower64  238
    u[8]      primal_lower65  746
    u[8]      primal_lower66  367
    u[8]      primal_lower67  374
    u[8]      primal_lower68  417
    u[8]      primal_lower69  463
    u[8]      primal_lower70  366
    u[8]      primal_lower71  959
    u[8]      primal_lower72  911
    u[8]      primal_lower73  492
    u[8]      primal_lower74  447
    u[8]      primal_lower75  281
    u[8]      primal_lower76  310
    u[8]      primal_lower77  259
    u[8]      primal_lower78  231
    u[8]      primal_lower79  209
    u[8]      primal_lower80  16
    u[8]      primal_lower81  401
    u[8]      primal_lower82  360
    u[8]      primal_lower83  754
    u[8]      primal_lower84  775
    u[8]      primal_lower85  251
    u[8]      primal_lower86  32
    u[8]      primal_lower87  697
    u[8]      primal_lower88  743
    u[8]      primal_lower89  491
    u[8]      primal_lower90  940
    u[8]      primal_lower91  360
    u[8]      primal_lower92  18
    u[8]      primal_lower93  694
    u[8]      primal_lower94  636
    u[8]      primal_lower95  736
    u[8]      primal_lower96  663
    u[8]      primal_lower97  467
    u[8]      primal_lower98  625
    u[8]      primal_lower99  448
    u[8]      primal_lower100  206
    u[8]      primal_lower101  979
    u[8]      primal_lower102  882
    u[8]      primal_lower103  156
    u[8]      primal_lower104  559
    u[8]      primal_lower105  364
    u[8]      primal_lower106  286
    u[8]      primal_lower107  402
    u[8]      primal_lower108  565
    u[8]      primal_lower109  923
    u[8]      primal_lower110  222
    u[8]      primal_lower111  73
    u[8]      primal_lower112  853
    u[8]      primal_lower113  552
    u[8]      primal_lower114  760
    u[8]      primal_lower115  149
    u[8]      primal_lower116  628
    u[8]      primal_lower117  354
    u[8]      primal_lower118  687
    u[8]      primal_lower119  556
    u[8]      primal_lower120  628
    u[8]      primal_lower121  387
    u[8]      primal_lower122  747
    u[8]      primal_lower123  192
    u[8]      primal_lower124  965
    u[8]      primal_lower125  360
    u[8]      primal_lower126  166
    u[8]      primal_lower127  819
    u[8]      primal_lower128  113
    u[8]      primal_lower129  436
    u[8]      primal_lower130  850
    u[8]      primal_lower131  519
    u[8]      primal_lower132  439
    u[8]      primal_lower133  720
    u[8]      primal_lower134  361
    u[8]      primal_lower135  314
    u[8]      primal_lower136  221
    u[8]      primal_lower137  408
    u[8]      primal_lower138  812
    u[8]      primal_lower139  134
    u[8]      primal_lower140  195
    u[8]      primal_lower141  47
    u[8]      primal_lower142  117
    u[8]      primal_lower143  177
    u[8]      primal_lower144  624
    u[8]      primal_lower145  23
    u[8]      primal_lower146  834
    u[8]      primal_lower147  957
    u[8]      primal_lower148  358
    u[8]      primal_lower149  739
    u[8]      primal_lower150  754
    u[8]      primal_lower151  54
    u[8]      primal_lower152  375
    u[8]      primal_lower153  932
    u[8]      primal_lower154  579
    u[8]      primal_lower155  475
    u[8]      primal_lower156  121
    u[8]      primal_lower157  380
    u[8]      primal_lower158  720
    u[8]      primal_lower159  101
    u[8]      primal_lower160  137
    u[8]      primal_lower161  411
    u[8]      primal_lower162  545
    u[8]      primal_lower163  780
    u[8]      primal_lower164  638
    u[8]      primal_lower165  899
    u[8]      primal_lower166  664
    u[8]      primal_lower167  422
    u[8]      primal_lower168  251
    u[8]      primal_lower169  739
    u[8]      primal_lower170  603
    u[8]      primal_lower171  557
    u[8]      primal_lower172  887
    u[8]      primal_lower173  235
    u[8]      primal_lower174  384
    u[8]      primal_lower175  351
    u[8]      primal_lower176  731
    u[8]      primal_lower177  496
    u[8]      primal_lower178  572
    u[8]      primal_lower179  219
    u[8]      primal_lower180  35
    u[8]      primal_lower181  325
    u[8]      primal_lower182  96
    u[8]      primal_lower183  180
    u[8]      primal_lower184  388
    u[8]      primal_lower185  170
    u[8]      primal_lower186  766
    u[8]      primal_lower187  113
    u[8]      primal_lower188  539
    u[8]      primal_lower189  586
    u[8]      primal_lower190  962
    u[8]      primal_lower191  494
    u[8]      primal_lower192  352
    u[8]      primal_lower193  168
    u[8]      primal_lower194  874
    u[8]      primal_lower195  45
    u[8]      primal_lower196  499
    u[8]      primal_lower197  889
    u[8]      primal_lower198  1000
    u[8]      primal_lower199  520
    u[8]      primal_lower200  814
    u[8]      primal_lower201  308
    u[8]      primal_lower202  317
    u[8]      primal_lower203  941
    u[8]      primal_lower204  406
    u[8]      primal_lower205  932
    u[8]      primal_lower206  75
    u[8]      primal_lower207  906
    u[8]      primal_lower208  834
    u[8]      primal_lower209  175
    u[8]      primal_lower210  373
    u[8]      primal_lower211  715
    u[8]      primal_lower212  48
    u[8]      primal_lower213  130
    u[8]      primal_lower214  105
    u[8]      primal_lower215  54
    u[8]      primal_lower216  127
    u[8]      primal_lower217  356
    u[8]      primal_lower218  553
    u[8]      primal_lower219  933
    u[8]      primal_lower220  753
    u[8]      primal_lower221  775
    u[8]      primal_lower222  749
    u[8]      primal_lower223  94
    u[8]      primal_lower224  357
    u[8]      primal_lower225  849
    u[8]      primal_lower226  721
    u[8]      primal_lower227  542
    u[8]      primal_lower228  533
    u[8]      primal_lower229  412
    u[8]      primal_lower230  666
    u[8]      primal_lower231  678
    u[8]      primal_lower232  943
    u[8]      primal_lower233  292
    u[8]      primal_lower234  741
    u[8]      primal_lower235  93
    u[8]      primal_lower236  786
    u[8]      primal_lower237  434
    u[8]      primal_lower238  531
    u[8]      primal_lower239  859
    u[8]      primal_lower240  233
    u[8]      primal_lower241  492
    u[8]      primal_lower242  468
    u[8]      primal_lower243  787
    u[8]      primal_lower244  475
    u[8]      primal_lower245  744
    u[8]      primal_lower246  799
    u[8]      primal_lower247  279
    u[8]      primal_lower248  907
    u[8]      primal_lower249  164
    u[8]      primal_lower250  741
    u[8]      primal_lower251  869
    u[8]      primal_lower252  210
    u[8]      primal_lower253  455
    u[8]      primal_lower254  294
    u[8]      primal_lower255  314
    u[8]      primal_lower256  233
    u[8]      primal_lower257  370
    u[8]      primal_lower258  635
    u[8]      primal_lower259  266
    u[8]      primal_lower260  978
    u[8]      primal_lower261  679
    u[8]      primal_lower262  931
    u[8]      primal_lower263  921
    u[8]      primal_lower264  252
    u[8]      primal_lower265  946
    u[8]      primal_lower266  309
    u[8]      primal_lower267  615
    u[8]      primal_lower268  9
    u[8]      primal_lower269  589
    u[8]      primal_lower270  658
    u[8]      primal_lower271  606
    u[8]      primal_lower272  468
    u[8]      primal_lower273  889
    u[8]      primal_lower274  282
    u[8]      primal_lower275  426
    u[8]      primal_lower276  319
    u[8]      primal_lower277  708
    u[8]      primal_lower278  972
    u[8]      primal_lower279  170
    u[8]      primal_lower280  81
    u[8]      primal_lower281  434
    u[8]      primal_lower282  632
    u[8]      primal_lower283  507
    u[8]      primal_lower284  343
    u[8]      primal_lower285  90
    u[8]      primal_lower286  69
    u[8]      primal_lower287  69
    u[8]      primal_lower288  517
    u[8]      primal_lower289  740
    u[8]      primal_lower290  901
    u[8]      primal_lower291  671
    u[8]      primal_lower292  459
    u[8]      primal_lower293  883
    u[8]      primal_lower294  72
    u[8]      primal_lower295  92
    u[8]      primal_lower296  216
    u[8]      primal_lower297  157
    u[8]      primal_lower298  459
    u[8]      primal_lower299  797
    u[8]      primal_lower300  857
    u[8]      primal_lower301  352
    u[8]      primal_lower302  135
    u[8]      primal_lower303  357
    u[8]      primal_lower304  73
    u[8]      primal_lower305  485
    u[8]      primal_lower306  15
    u[8]      primal_lower307  523
    u[8]      primal_lower308  731
    u[8]      primal_lower309  749
    u[8]      primal_lower310  916
    u[8]      primal_lower311  846
    u[8]      primal_lower312  638
    u[8]      primal_lower313  953
    u[8]      primal_lower314  246
    u[8]      primal_lower315  133
    u[8]      primal_lower316  885
    u[8]      primal_lower317  522
    u[8]      primal_lower318  582
    u[8]      primal_lower319  231
    u[8]      primal_lower320  196
    u[8]      primal_lower321  105
    u[8]      primal_lower322  405
    u[8]      primal_lower323  241
    u[8]      primal_lower324  589
    u[8]      primal_lower325  659
    u[8]      primal_lower326  734
    u[8]      primal_lower327  753
    u[8]      primal_lower328  486
    u[8]      primal_lower329  342
    u[8]      primal_lower330  422
    u[8]      primal_lower331  62
    u[8]      primal_lower332  139
    u[8]      primal_lower333  155
    u[8]      primal_lower334  274
    u[8]      primal_lower335  705
    u[8]      primal_lower336  256
    u[8]      primal_lower337  808
    u[8]      primal_lower338  28
    u[8]      primal_lower339  46
    u[8]      primal_lower340  835
    u[8]      primal_lower341  203
    u[8]      primal_lower342  352
    u[8]      primal_lower343  15
    u[8]      primal_lower344  214
    u[8]      primal_lower345  469
    u[8]      primal_lower346  673
    u[8]      primal_lower347  57
    u[8]      primal_lower348  608
    u[8]      primal_lower349  70
    u[8]      primal_lower350  412
    u[8]      primal_lower351  913
    u[8]      primal_lower352  278
    u[8]      primal_lower353  753
    u[8]      primal_lower354  504
    u[8]      primal_lower355  262
    u[8]      primal_lower356  272
    u[8]      primal_lower357  451
    u[8]      primal_lower358  645
    u[8]      primal_lower359  888
    u[8]      primal_lower360  892
    u[8]      primal_lower361  806
    u[8]      primal_lower362  784
    u[8]      primal_lower363  199
    u[8]      primal_lower364  964
    u[8]      primal_lower365  926
    u[8]      primal_lower366  956
    u[8]      primal_lower367  534
    u[8]      primal_lower368  396
    u[8]      primal_lower369  256
    u[8]      primal_lower370  776
    u[8]      primal_lower371  408
    u[8]      primal_lower372  240
    u[8]      primal_lower373  149
    u[8]      primal_lower374  276
    u[8]      primal_lower375  777
    u[8]      primal_lower376  105
    u[8]      primal_lower377  905
    u[8]      primal_lower378  793
    u[8]      primal_lower379  657
    u[8]      primal_lower380  854
    u[8]      primal_lower381  753
    u[8]      primal_lower382  643
    u[8]      primal_lower383  94
    u[8]      primal_lower384  42
    u[8]      primal_lower385  395
    u[8]      primal_lower386  766
    u[8]      primal_lower387  715
    u[8]      primal_lower388  109
    u[8]      primal_lower389  932
    u[8]      primal_lower390  436
    u[8]      primal_lower391  562
    u[8]      primal_lower392  517
    u[8]      primal_lower393  63
    u[8]      primal_lower394  811
    u[8]      primal_lower395  800
    u[8]      primal_lower396  175
    u[8]      primal_lower397  903
    u[8]      primal_lower398  171
    u[8]      primal_lower399  114
    u[8]      primal_lower400  389
    u[8]      primal_lower401  47
    u[8]      primal_lower402  595
    u[8]      primal_lower403  484
    u[8]      primal_lower404  254
    u[8]      primal_lower405  882
    u[8]      primal_lower406  860
    u[8]      primal_lower407  778
    u[8]      primal_lower408  265
    u[8]      primal_lower409  445
    u[8]      primal_lower410  996
    u[8]      primal_lower411  826
    u[8]      primal_lower412  699
    u[8]      primal_lower413  747
    u[8]      primal_lower414  891
    u[8]      primal_lower415  77
    u[8]      primal_lower416  323
    u[8]      primal_lower417  657
    u[8]      primal_lower418  287
    u[8]      primal_lower419  822
    u[8]      primal_lower420  758
    u[8]      primal_lower421  448
    u[8]      primal_lower422  41
    u[8]      primal_lower423  241
    u[8]      primal_lower424  679
    u[8]      primal_lower425  980
    u[8]      primal_lower426  711
    u[8]      primal_lower427  809
    u[8]      primal_lower428  77
    u[8]      primal_lower429  916
    u[8]      primal_lower430  197
    u[8]      primal_lower431  295
    u[8]      primal_lower432  288
    u[8]      primal_lower433  784
    u[8]      primal_lower434  199
    u[8]      primal_lower435  717
    u[8]      primal_lower436  304
    u[8]      primal_lower437  392
    u[8]      primal_lower438  54
    u[8]      primal_lower439  877
    u[8]      primal_lower440  67
    u[8]      primal_lower441  307
    u[8]      primal_lower442  698
    u[8]      primal_lower443  693
    u[8]      primal_lower444  452
    u[8]      primal_lower445  553
    u[8]      primal_lower446  850
    u[8]      primal_lower447  682
    u[8]      primal_lower448  237
    u[8]      primal_lower449  771
    u[8]      primal_lower450  838
    u[8]      primal_lower451  474
    u[8]      primal_lower452  609
    u[8]      primal_lower453  120
    u[8]      primal_lower454  608
    u[8]      primal_lower455  582
    u[8]      primal_lower456  489
    u[8]      primal_lower457  607
    u[8]      primal_lower458  130
    u[8]      primal_lower459  845
    u[8]      primal_lower460  719
    u[8]      primal_lower461  828
    u[8]      primal_lower462  429
    u[8]      primal_lower463  268
    u[8]      primal_lower464  108
    u[8]      primal_lower465  287
    u[8]      primal_lower466  388
    u[8]      primal_lower467  906
    u[8]      primal_lower468  242
    u[8]      primal_lower469  379
    u[8]      primal_lower470  231
    u[8]      primal_lower471  462
    u[8]      primal_lower472  399
    u[8]      primal_lower473  115
    u[8]      primal_lower474  790
    u[8]      primal_lower475  825
    u[8]      primal_lower476  118
    u[8]      primal_lower477  601
    u[8]      primal_lower478  991
    u[8]      primal_lower479  651
    u[8]      primal_lower480  116
    u[8]      primal_lower481  541
    u[8]      primal_lower482  736
    u[8]      primal_lower483  978
    u[8]      primal_lower484  136
    u[8]      primal_lower485  228
    u[8]      primal_lower486  342
    u[8]      primal_lower487  559
    u[8]      primal_lower488  534
    u[8]      primal_lower489  917
    u[8]      primal_lower490  307
    u[8]      primal_lower491  117
    u[8]      primal_lower492  342
    u[8]      primal_lower493  838
    u[8]      primal_lower494  883
    u[8]      primal_lower495  685
    u[8]      primal_lower496  517
    u[8]      primal_lower497  830
    u[8]      primal_lower498  986
    u[8]      primal_lower499  507
    u[8]      primal_lower500  417
    u[8]      primal_lower501  960
    u[8]      primal_lower502  581
    u[8]      primal_lower503  872
    u[8]      primal_lower504  705
    u[8]      primal_lower505  233
    u[8]      primal_lower506  258
    u[8]      primal_lower507  347
    u[8]      primal_lower508  950
    u[8]      primal_lower509  424
    u[8]      primal_lower510  952
    u[8]      primal_lower511  462
    u[8]      primal_lower512  941
    u[8]      primal_lower513  610
    u[8]      primal_lower514  666
    u[8]      primal_lower515  122
    u[8]      primal_lower516  176
    u[8]      primal_lower517  710
    u[8]      primal_lower518  709
    u[8]      primal_lower519  736
    u[8]      primal_lower520  874
    u[8]      primal_lower521  429
    u[8]      primal_lower522  831
    u[8]      primal_lower523  782
    u[8]      primal_lower524  38
    u[8]      primal_lower525  103
    u[8]      primal_lower526  509
    u[8]      primal_lower527  660
    u[8]      primal_lower528  118
    u[8]      primal_lower529  294
    u[8]      primal_lower530  355
    u[8]      primal_lower531  84
    u[8]      primal_lower532  404
    u[8]      primal_lower533  933
    u[8]      primal_lower534  236
    u[8]      primal_lower535  35
    u[8]      primal_lower536  700
    u[8]      primal_lower537  199
    u[8]      primal_lower538  364
    u[8]      primal_lower539  904
    u[8]      primal_lower540  827
    u[8]      primal_lower541  301
    u[8]      primal_lower542  286
    u[8]      primal_lower543  78
    u[8]      primal_lower544  975
    u[8]      primal_lower545  370
    u[8]      primal_lower546  515
    u[8]      primal_lower547  299
    u[8]      primal_lower548  142
    u[8]      primal_lower549  263
    u[8]      primal_lower550  707
    u[8]      primal_lower551  282
    u[8]      primal_lower552  72
    u[8]      primal_lower553  636
    u[8]      primal_lower554  542
    u[8]      primal_lower555  79
    u[8]      primal_lower556  181
    u[8]      primal_lower557  207
    u[8]      primal_lower558  440
    u[8]      primal_lower559  588
    u[8]      primal_lower560  370
    u[8]      primal_lower561  103
    u[8]      primal_lower562  377
    u[8]      primal_lower563  346
    u[8]      primal_lower564  379
    u[8]      primal_lower565  990
    u[8]      primal_lower566  152
    u[8]      primal_lower567  147
    u[8]      primal_lower568  397
    u[8]      primal_lower569  556
    u[8]      primal_lower570  828
    u[8]      primal_lower571  426
    u[8]      primal_lower572  459
    u[8]      primal_lower573  532
    u[8]      primal_lower574  559
    u[8]      primal_lower575  792
    u[8]      primal_lower576  948
    u[8]      primal_lower577  851
    u[8]      primal_lower578  850
    u[8]      primal_lower579  280
    u[8]      primal_lower580  189
    u[8]      primal_lower581  751
    u[8]      primal_lower582  565
    u[8]      primal_lower583  549
    u[8]      primal_lower584  986
    u[8]      primal_lower585  400
    u[8]      primal_lower586  102
    u[8]      primal_lower587  729
    u[8]      primal_lower588  939
    u[8]      primal_lower589  604
    u[8]      primal_lower590  909
    u[8]      primal_lower591  225
    u[8]      primal_lower592  21
    u[8]      primal_lower593  775
    u[8]      primal_lower594  61
    u[8]      primal_lower595  42
    u[8]      primal_lower596  161
    u[8]      primal_lower597  494
    u[8]      primal_lower598  596
    u[8]      primal_lower599  295
    u[8]      primal_lower600  948
    u[8]      primal_lower601  934
    u[8]      primal_lower602  67
    u[8]      primal_lower603  970
    u[8]      primal_lower604  238
    u[8]      primal_lower605  872
    u[8]      primal_lower606  878
    u[8]      primal_lower607  120
    u[8]      primal_lower608  467
    u[8]      primal_lower609  502
    u[8]      primal_lower610  198
    u[8]      primal_lower611  633
    u[8]      primal_lower612  941
    u[8]      primal_lower613  535
    u[8]      primal_lower614  494
    u[8]      primal_lower615  179
    u[8]      primal_lower616  509
    u[8]      primal_lower617  419
    u[8]      primal_lower618  674
    u[8]      primal_lower619  263
    u[8]      primal_lower620  889
    u[8]      primal_lower621  269
    u[8]      primal_lower622  22
    u[8]      primal_lower623  136
    u[8]      primal_lower624  141
    u[8]      primal_lower625  975
    u[8]      primal_lower626  676
    u[8]      primal_lower627  821
    u[8]      primal_lower628  979
    u[8]      primal_lower629  407
    u[8]      primal_lower630  495
    u[8]      primal_lower631  344
    u[8]      primal_lower632  994
    u[8]      primal_lower633  500
    u[8]      primal_lower634  626
    u[8]      primal_lower635  617
    u[8]      primal_lower636  456
    u[8]      primal_lower637  731
    u[8]      primal_lower638  243
    u[8]      primal_lower639  322
    u[8]      primal_lower640  378
    u[8]      primal_lower641  396
    u[8]      primal_lower642  151
    u[8]      primal_lower643  195
    u[8]      primal_lower644  444
    u[8]      primal_lower645  164
    u[8]      primal_lower646  557
    u[8]      primal_lower647  855
    u[8]      primal_lower648  888
    u[8]      primal_lower649  987
    u[8]      primal_lower650  632
    u[8]      primal_lower651  155
    u[8]      primal_lower652  908
    u[8]      primal_lower653  254
    u[8]      primal_lower654  15
    u[8]      primal_lower655  323
    u[8]      primal_lower656  623
    u[8]      primal_lower657  113
    u[8]      primal_lower658  703
    u[8]      primal_lower659  324
    u[8]      primal_lower660  188
    u[8]      primal_lower661  361
    u[8]      primal_lower662  125
    u[8]      primal_lower663  213
    u[8]      primal_lower664  89
    u[8]      primal_lower665  39
    u[8]      primal_lower666  417
    u[8]      primal_lower667  808
    u[8]      primal_lower668  641
    u[8]      primal_lower669  127
    u[8]      primal_lower670  403
    u[8]      primal_lower671  236
    u[8]      primal_lower672  673
    u[8]      primal_lower673  950
    u[8]      primal_lower674  622
    u[8]      primal_lower675  964
    u[8]      primal_lower676  262
    u[8]      primal_lower677  373
    u[8]      primal_lower678  796
    u[8]      primal_lower679  805
    u[8]      primal_lower680  647
    u[8]      primal_lower681  775
    u[8]      primal_lower682  309
    u[8]      primal_lower683  554
    u[8]      primal_lower684  169
    u[8]      primal_lower685  600
    u[8]      primal_lower686  408
    u[8]      primal_lower687  332
    u[8]      primal_lower688  623
    u[8]      primal_lower689  201
    u[8]      primal_lower690  704
    u[8]      primal_lower691  57
    u[8]      primal_lower692  118
    u[8]      primal_lower693  338
    u[8]      primal_lower694  684
    u[8]      primal_lower695  348
    u[8]      primal_lower696  344
    u[8]      primal_lower697  589
    u[8]      primal_lower698  745
    u[8]      primal_lower699  358
    u[8]      primal_lower700  109
    u[8]      primal_lower701  263
    u[8]      primal_lower702  26
    u[8]      primal_lower703  748
    u[8]      primal_lower704  319
    u[8]      primal_lower705  32
    u[8]      primal_lower706  731
    u[8]      primal_lower707  123
    u[8]      primal_lower708  738
    u[8]      primal_lower709  350
    u[8]      primal_lower710  516
    u[8]      primal_lower711  198
    u[8]      primal_lower712  445
    u[8]      primal_lower713  889
    u[8]      primal_lower714  662
    u[8]      primal_lower715  592
    u[8]      primal_lower716  570
    u[8]      primal_lower717  604
    u[8]      primal_lower718  238
    u[8]      primal_lower719  516
    u[8]      primal_lower720  676
    u[8]      primal_lower721  938
    u[8]      primal_lower722  631
    u[8]      primal_lower723  249
    u[8]      primal_lower724  248
    u[8]      primal_lower725  721
    u[8]      primal_lower726  917
    u[8]      primal_lower727  895
    u[8]      primal_lower728  663
    u[8]      primal_lower729  500
    u[8]      primal_lower730  714
    u[8]      primal_lower731  629
    u[8]      primal_lower732  411
    u[8]      primal_lower733  447
    u[8]      primal_lower734  898
    u[8]      primal_lower735  764
    u[8]      primal_lower736  228
    u[8]      primal_lower737  80
    u[8]      primal_lower738  708
    u[8]      primal_lower739  339
    u[8]      primal_lower740  731
    u[8]      primal_lower741  11
    u[8]      primal_lower742  968
    u[8]      primal_lower743  365
    u[8]      primal_lower744  879
    u[8]      primal_lower745  260
    u[8]      primal_lower746  717
    u[8]      primal_lower747  346
    u[8]      primal_lower748  923
    u[8]      primal_lower749  8
    u[8]      primal_lower750  245
    u[8]      primal_lower751  448
    u[8]      primal_lower752  910
    u[8]      primal_lower753  677
    u[8]      primal_lower754  973
    u[8]      primal_lower755  686
    u[8]      primal_lower756  759
    u[8]      primal_lower757  341
    u[8]      primal_lower758  885
    u[8]      primal_lower759  836
    u[8]      primal_lower760  939
    u[8]      primal_lower761  139
    u[8]      primal_lower762  442
    u[8]      primal_lower763  935
    u[8]      primal_lower764  269
    u[8]      primal_lower765  275
    u[8]      primal_lower766  97
    u[8]      primal_lower767  773
    u[8]      primal_lower768  998
    u[8]      primal_lower769  246
    u[8]      primal_lower770  904
    u[8]      primal_lower771  945
    u[8]      primal_lower772  724
    u[8]      primal_lower773  435
    u[8]      primal_lower774  395
    u[8]      primal_lower775  281
    u[8]      primal_lower776  864
    u[8]      primal_lower777  231
    u[8]      primal_lower778  80
    u[8]      primal_lower779  573
    u[8]      primal_lower780  870
    u[8]      primal_lower781  774
    u[8]      primal_lower782  412
    u[8]      primal_lower783  621
    u[8]      primal_lower784  950
    u[8]      primal_lower785  288
    u[8]      primal_lower786  760
    u[8]      primal_lower787  473
    u[8]      primal_lower788  31
    u[8]      primal_lower789  856
    u[8]      primal_lower790  846
    u[8]      primal_lower791  424
    u[8]      primal_lower792  726
    u[8]      primal_lower793  189
    u[8]      primal_lower794  9
    u[8]      primal_lower795  797
    u[8]      primal_lower796  268
    u[8]      primal_lower797  989
    u[8]      primal_lower798  768
    u[8]      primal_lower799  546
    u[8]      primal_lower800  259
    u[8]      primal_lower801  486
    u[8]      primal_lower802  286
    u[8]      primal_lower803  678
    u[8]      primal_lower804  760
    u[8]      primal_lower805  741
    u[8]      primal_lower806  275
    u[8]      primal_lower807  446
    u[8]      primal_lower808  782
    u[8]      primal_lower809  85
    u[8]      primal_lower810  733
    u[8]      primal_lower811  996
    u[8]      primal_lower812  793
    u[8]      primal_lower813  911
    u[8]      primal_lower814  676
    u[8]      primal_lower815  355
    u[8]      primal_lower816  661
    u[8]      primal_lower817  880
    u[8]      primal_lower818  127
    u[8]      primal_lower819  691
    u[8]      primal_lower820  294
    u[8]      primal_lower821  329
    u[8]      primal_lower822  410
    u[8]      primal_lower823  441
    u[8]      primal_lower824  172
    u[8]      primal_lower825  570
    u[8]      primal_lower826  663
    u[8]      primal_lower827  144
    u[8]      primal_lower828  887
    u[8]      primal_lower829  323
    u[8]      primal_lower830  524
    u[8]      primal_lower831  199
    u[8]      primal_lower832  194
    u[8]      primal_lower833  910
    u[8]      primal_lower834  606
    u[8]      primal_lower835  973
    u[8]      primal_lower836  359
    u[8]      primal_lower837  602
    u[8]      primal_lower838  920
    u[8]      primal_lower839  160
    u[8]      primal_lower840  991
    u[8]      primal_lower841  821
    u[8]      primal_lower842  741
    u[8]      primal_lower843  918
    u[8]      primal_lower844  590
    u[8]      primal_lower845  443
    u[8]      primal_lower846  391
    u[8]      primal_lower847  659
    u[8]      primal_lower848  401
    u[8]      primal_lower849  510
    u[8]      primal_lower850  384
    u[8]      primal_lower851  989
    u[8]      primal_lower852  312
    u[8]      primal_lower853  154
    u[8]      primal_lower854  615
    u[8]      primal_lower855  213
    u[8]      primal_lower856  950
    u[8]      primal_lower857  56
    u[8]      primal_lower858  535
    u[8]      primal_lower859  501
    u[8]      primal_lower860  733
    u[8]      primal_lower861  135
    u[8]      primal_lower862  883
    u[8]      primal_lower863  932
    u[8]      primal_lower864  813
    u[8]      primal_lower865  434
    u[8]      primal_lower866  298
    u[8]      primal_lower867  274
    u[8]      primal_lower868  196
    u[8]      primal_lower869  629
    u[8]      primal_lower870  21
    u[8]      primal_lower871  713
    u[8]      primal_lower872  270
    u[8]      primal_lower873  538
    u[8]      primal_lower874  461
    u[8]      primal_lower875  863
    u[8]      primal_lower876  711
    u[8]      primal_lower877  975
    u[8]      primal_lower878  536
    u[8]      primal_lower879  138
    u[8]      primal_lower880  642
    u[8]      primal_lower881  202
    u[8]      primal_lower882  850
    u[8]      primal_lower883  67
    u[8]      primal_lower884  733
    u[8]      primal_lower885  679
    u[8]      primal_lower886  256
    u[8]      primal_lower887  431
    u[8]      primal_lower888  829
    u[8]      primal_lower889  173
    u[8]      primal_lower890  242
    u[8]      primal_lower891  854
    u[8]      primal_lower892  76
    u[8]      primal_lower893  360
    u[8]      primal_lower894  87
    u[8]      primal_lower895  485
    u[8]      primal_lower896  605
    u[8]      primal_lower897  127
    u[8]      primal_lower898  200
    u[8]      primal_lower899  886
    u[8]      primal_lower900  222
    u[8]      primal_lower901  286
    u[8]      primal_lower902  101
    u[8]      primal_lower903  599
    u[8]      primal_lower904  758
    u[8]      primal_lower905  71
    u[8]      primal_lower906  452
    u[8]      primal_lower907  621
    u[8]      primal_lower908  648
    u[8]      primal_lower909  744
    u[8]      primal_lower910  868
    u[8]      primal_lower911  523
    u[8]      primal_lower912  160
    u[8]      primal_lower913  250
    u[8]      primal_lower914  57
    u[8]      primal_lower915  423
    u[8]      primal_lower916  965
    u[8]      primal_lower917  870
    u[8]      primal_lower918  267
    u[8]      primal_lower919  989
    u[8]      primal_lower920  584
    u[8]      primal_lower921  424
    u[8]      primal_lower922  905
    u[8]      primal_lower923  908
    u[8]      primal_lower924  897
    u[8]      primal_lower925  93
    u[8]      primal_lower926  978
    u[8]      primal_lower927  820
    u[8]      primal_lower928  509
    u[8]      primal_lower929  32
    u[8]      primal_lower930  695
    u[8]      primal_lower931  602
    u[8]      primal_lower932  111
    u[8]      primal_lower933  578
    u[8]      primal_lower934  676
    u[8]      primal_lower935  985
    u[8]      primal_lower936  804
    u[8]      primal_lower937  484
    u[8]      primal_lower938  690
    u[8]      primal_lower939  561
    u[8]      primal_lower940  420
    u[8]      primal_lower941  749
    u[8]      primal_lower942  629
    u[8]      primal_lower943  613
    u[8]      primal_lower944  743
    u[8]      primal_lower945  778
    u[8]      primal_lower946  747
    u[8]      primal_lower947  11
    u[8]      primal_lower948  828
    u[8]      primal_lower949  857
    u[8]      primal_lower950  657
    u[8]      primal_lower951  237
    u[8]      primal_lower952  308
    u[8]      primal_lower953  147
    u[8]      primal_lower954  514
    u[8]      primal_lower955  544
    u[8]      primal_lower956  702
    u[8]      primal_lower957  283
    u[8]      primal_lower958  654
    u[8]      primal_lower959  62
    u[8]      primal_lower960  39
    u[8]      primal_lower961  533
    u[8]      primal_lower962  999
    u[8]      primal_lower963  389
    u[8]      primal_lower964  453
    u[8]      primal_lower965  397
    u[8]      primal_lower966  561
    u[8]      primal_lower967  216
    u[8]      primal_lower968  186
    u[8]      primal_lower969  415
    u[8]      primal_lower970  888
    u[8]      primal_lower971  848
    u[8]      primal_lower972  515
    u[8]      primal_lower973  854
    u[8]      primal_lower974  913
    u[8]      primal_lower975  634
    u[8]      primal_lower976  249
    u[8]      primal_lower977  974
    u[8]      primal_lower978  73
    u[8]      primal_lower979  239
    u[8]      primal_lower980  461
    u[8]      primal_lower981  265
    u[8]      primal_lower982  624
    u[8]      primal_lower983  764
    u[8]      primal_lower984  417
    u[8]      primal_lower985  384
    u[8]      primal_lower986  474
    u[8]      primal_lower987  965
    u[8]      primal_lower988  207
    u[8]      primal_lower989  801
    u[8]      primal_lower990  720
    u[8]      primal_lower991  66
    u[8]      primal_lower992  438
    u[8]      primal_lower993  809
    u[8]      primal_lower994  287
    u[8]      primal_lower995  305
    u[8]      primal_lower996  553
    u[8]      primal_lower997  660
    u[8]      primal_lower998  593
    u[8]      primal_lower999  785
    u[8]      interdiction[8]  1
    u[8]      mccormick1[8]  -1
    u[8]      mccormick3[8]  1
    u[9]      primal_lower0  126
    u[9]      primal_lower1  114
    u[9]      primal_lower2  790
    u[9]      primal_lower3  896
    u[9]      primal_lower4  431
    u[9]      primal_lower5  703
    u[9]      primal_lower6  452
    u[9]      primal_lower7  107
    u[9]      primal_lower8  5
    u[9]      primal_lower9  135
    u[9]      primal_lower10  582
    u[9]      primal_lower11  59
    u[9]      primal_lower12  794
    u[9]      primal_lower13  116
    u[9]      primal_lower14  936
    u[9]      primal_lower15  981
    u[9]      primal_lower16  567
    u[9]      primal_lower17  281
    u[9]      primal_lower18  726
    u[9]      primal_lower19  425
    u[9]      primal_lower20  947
    u[9]      primal_lower21  526
    u[9]      primal_lower22  345
    u[9]      primal_lower23  317
    u[9]      primal_lower24  693
    u[9]      primal_lower25  806
    u[9]      primal_lower26  611
    u[9]      primal_lower27  819
    u[9]      primal_lower28  186
    u[9]      primal_lower29  463
    u[9]      primal_lower30  689
    u[9]      primal_lower31  495
    u[9]      primal_lower32  548
    u[9]      primal_lower33  99
    u[9]      primal_lower34  860
    u[9]      primal_lower35  111
    u[9]      primal_lower36  191
    u[9]      primal_lower37  836
    u[9]      primal_lower38  119
    u[9]      primal_lower39  660
    u[9]      primal_lower40  231
    u[9]      primal_lower41  729
    u[9]      primal_lower42  78
    u[9]      primal_lower43  479
    u[9]      primal_lower44  652
    u[9]      primal_lower45  23
    u[9]      primal_lower46  658
    u[9]      primal_lower47  737
    u[9]      primal_lower48  23
    u[9]      primal_lower49  168
    u[9]      primal_lower50  286
    u[9]      primal_lower51  818
    u[9]      primal_lower52  387
    u[9]      primal_lower53  409
    u[9]      primal_lower54  534
    u[9]      primal_lower55  754
    u[9]      primal_lower56  928
    u[9]      primal_lower57  946
    u[9]      primal_lower58  208
    u[9]      primal_lower59  751
    u[9]      primal_lower60  683
    u[9]      primal_lower61  103
    u[9]      primal_lower62  826
    u[9]      primal_lower63  523
    u[9]      primal_lower64  847
    u[9]      primal_lower65  391
    u[9]      primal_lower66  668
    u[9]      primal_lower67  583
    u[9]      primal_lower68  278
    u[9]      primal_lower69  796
    u[9]      primal_lower70  527
    u[9]      primal_lower71  732
    u[9]      primal_lower72  952
    u[9]      primal_lower73  553
    u[9]      primal_lower74  776
    u[9]      primal_lower75  218
    u[9]      primal_lower76  375
    u[9]      primal_lower77  492
    u[9]      primal_lower78  200
    u[9]      primal_lower79  378
    u[9]      primal_lower80  773
    u[9]      primal_lower81  982
    u[9]      primal_lower82  305
    u[9]      primal_lower83  343
    u[9]      primal_lower84  376
    u[9]      primal_lower85  820
    u[9]      primal_lower86  33
    u[9]      primal_lower87  670
    u[9]      primal_lower88  580
    u[9]      primal_lower89  288
    u[9]      primal_lower90  897
    u[9]      primal_lower91  165
    u[9]      primal_lower92  551
    u[9]      primal_lower93  799
    u[9]      primal_lower94  445
    u[9]      primal_lower95  937
    u[9]      primal_lower96  104
    u[9]      primal_lower97  152
    u[9]      primal_lower98  774
    u[9]      primal_lower99  441
    u[9]      primal_lower100  843
    u[9]      primal_lower101  632
    u[9]      primal_lower102  55
    u[9]      primal_lower103  441
    u[9]      primal_lower104  216
    u[9]      primal_lower105  789
    u[9]      primal_lower106  651
    u[9]      primal_lower107  111
    u[9]      primal_lower108  942
    u[9]      primal_lower109  980
    u[9]      primal_lower110  55
    u[9]      primal_lower111  118
    u[9]      primal_lower112  862
    u[9]      primal_lower113  941
    u[9]      primal_lower114  309
    u[9]      primal_lower115  990
    u[9]      primal_lower116  765
    u[9]      primal_lower117  355
    u[9]      primal_lower118  460
    u[9]      primal_lower119  945
    u[9]      primal_lower120  717
    u[9]      primal_lower121  760
    u[9]      primal_lower122  848
    u[9]      primal_lower123  833
    u[9]      primal_lower124  754
    u[9]      primal_lower125  209
    u[9]      primal_lower126  451
    u[9]      primal_lower127  608
    u[9]      primal_lower128  286
    u[9]      primal_lower129  237
    u[9]      primal_lower130  71
    u[9]      primal_lower131  820
    u[9]      primal_lower132  48
    u[9]      primal_lower133  909
    u[9]      primal_lower134  470
    u[9]      primal_lower135  135
    u[9]      primal_lower136  298
    u[9]      primal_lower137  781
    u[9]      primal_lower138  513
    u[9]      primal_lower139  763
    u[9]      primal_lower140  708
    u[9]      primal_lower141  8
    u[9]      primal_lower142  502
    u[9]      primal_lower143  926
    u[9]      primal_lower144  509
    u[9]      primal_lower145  904
    u[9]      primal_lower146  975
    u[9]      primal_lower147  298
    u[9]      primal_lower148  583
    u[9]      primal_lower149  668
    u[9]      primal_lower150  155
    u[9]      primal_lower151  131
    u[9]      primal_lower152  684
    u[9]      primal_lower153  369
    u[9]      primal_lower154  484
    u[9]      primal_lower155  100
    u[9]      primal_lower156  686
    u[9]      primal_lower157  653
    u[9]      primal_lower158  121
    u[9]      primal_lower159  846
    u[9]      primal_lower160  914
    u[9]      primal_lower161  724
    u[9]      primal_lower162  662
    u[9]      primal_lower163  841
    u[9]      primal_lower164  927
    u[9]      primal_lower165  548
    u[9]      primal_lower166  677
    u[9]      primal_lower167  663
    u[9]      primal_lower168  232
    u[9]      primal_lower169  384
    u[9]      primal_lower170  656
    u[9]      primal_lower171  382
    u[9]      primal_lower172  280
    u[9]      primal_lower173  996
    u[9]      primal_lower174  925
    u[9]      primal_lower175  604
    u[9]      primal_lower176  500
    u[9]      primal_lower177  741
    u[9]      primal_lower178  305
    u[9]      primal_lower179  920
    u[9]      primal_lower180  196
    u[9]      primal_lower181  722
    u[9]      primal_lower182  377
    u[9]      primal_lower183  45
    u[9]      primal_lower184  973
    u[9]      primal_lower185  563
    u[9]      primal_lower186  939
    u[9]      primal_lower187  918
    u[9]      primal_lower188  920
    u[9]      primal_lower189  31
    u[9]      primal_lower190  587
    u[9]      primal_lower191  863
    u[9]      primal_lower192  989
    u[9]      primal_lower193  97
    u[9]      primal_lower194  859
    u[9]      primal_lower195  762
    u[9]      primal_lower196  592
    u[9]      primal_lower197  18
    u[9]      primal_lower198  313
    u[9]      primal_lower199  89
    u[9]      primal_lower200  579
    u[9]      primal_lower201  893
    u[9]      primal_lower202  554
    u[9]      primal_lower203  654
    u[9]      primal_lower204  931
    u[9]      primal_lower205  369
    u[9]      primal_lower206  712
    u[9]      primal_lower207  563
    u[9]      primal_lower208  187
    u[9]      primal_lower209  136
    u[9]      primal_lower210  198
    u[9]      primal_lower211  592
    u[9]      primal_lower212  17
    u[9]      primal_lower213  51
    u[9]      primal_lower214  626
    u[9]      primal_lower215  87
    u[9]      primal_lower216  548
    u[9]      primal_lower217  193
    u[9]      primal_lower218  666
    u[9]      primal_lower219  458
    u[9]      primal_lower220  290
    u[9]      primal_lower221  780
    u[9]      primal_lower222  522
    u[9]      primal_lower223  723
    u[9]      primal_lower224  858
    u[9]      primal_lower225  10
    u[9]      primal_lower226  214
    u[9]      primal_lower227  99
    u[9]      primal_lower228  522
    u[9]      primal_lower229  905
    u[9]      primal_lower230  219
    u[9]      primal_lower231  947
    u[9]      primal_lower232  72
    u[9]      primal_lower233  529
    u[9]      primal_lower234  578
    u[9]      primal_lower235  522
    u[9]      primal_lower236  99
    u[9]      primal_lower237  627
    u[9]      primal_lower238  284
    u[9]      primal_lower239  584
    u[9]      primal_lower240  390
    u[9]      primal_lower241  737
    u[9]      primal_lower242  37
    u[9]      primal_lower243  44
    u[9]      primal_lower244  116
    u[9]      primal_lower245  281
    u[9]      primal_lower246  948
    u[9]      primal_lower247  152
    u[9]      primal_lower248  396
    u[9]      primal_lower249  373
    u[9]      primal_lower250  614
    u[9]      primal_lower251  830
    u[9]      primal_lower252  387
    u[9]      primal_lower253  820
    u[9]      primal_lower254  983
    u[9]      primal_lower255  947
    u[9]      primal_lower256  682
    u[9]      primal_lower257  815
    u[9]      primal_lower258  180
    u[9]      primal_lower259  927
    u[9]      primal_lower260  119
    u[9]      primal_lower261  432
    u[9]      primal_lower262  500
    u[9]      primal_lower263  194
    u[9]      primal_lower264  957
    u[9]      primal_lower265  835
    u[9]      primal_lower266  74
    u[9]      primal_lower267  72
    u[9]      primal_lower268  890
    u[9]      primal_lower269  494
    u[9]      primal_lower270  423
    u[9]      primal_lower271  835
    u[9]      primal_lower272  89
    u[9]      primal_lower273  538
    u[9]      primal_lower274  307
    u[9]      primal_lower275  423
    u[9]      primal_lower276  144
    u[9]      primal_lower277  469
    u[9]      primal_lower278  93
    u[9]      primal_lower279  847
    u[9]      primal_lower280  782
    u[9]      primal_lower281  835
    u[9]      primal_lower282  301
    u[9]      primal_lower283  596
    u[9]      primal_lower284  400
    u[9]      primal_lower285  487
    u[9]      primal_lower286  782
    u[9]      primal_lower287  314
    u[9]      primal_lower288  990
    u[9]      primal_lower289  469
    u[9]      primal_lower290  894
    u[9]      primal_lower291  720
    u[9]      primal_lower292  144
    u[9]      primal_lower293  964
    u[9]      primal_lower294  973
    u[9]      primal_lower295  425
    u[9]      primal_lower296  109
    u[9]      primal_lower297  154
    u[9]      primal_lower298  56
    u[9]      primal_lower299  730
    u[9]      primal_lower300  346
    u[9]      primal_lower301  377
    u[9]      primal_lower302  740
    u[9]      primal_lower303  450
    u[9]      primal_lower304  38
    u[9]      primal_lower305  882
    u[9]      primal_lower306  524
    u[9]      primal_lower307  52
    u[9]      primal_lower308  752
    u[9]      primal_lower309  582
    u[9]      primal_lower310  805
    u[9]      primal_lower311  935
    u[9]      primal_lower312  463
    u[9]      primal_lower313  702
    u[9]      primal_lower314  327
    u[9]      primal_lower315  634
    u[9]      primal_lower316  690
    u[9]      primal_lower317  123
    u[9]      primal_lower318  443
    u[9]      primal_lower319  568
    u[9]      primal_lower320  105
    u[9]      primal_lower321  986
    u[9]      primal_lower322  114
    u[9]      primal_lower323  66
    u[9]      primal_lower324  510
    u[9]      primal_lower325  496
    u[9]      primal_lower326  859
    u[9]      primal_lower327  854
    u[9]      primal_lower328  123
    u[9]      primal_lower329  223
    u[9]      primal_lower330  911
    u[9]      primal_lower331  191
    u[9]      primal_lower332  136
    u[9]      primal_lower333  412
    u[9]      primal_lower334  999
    u[9]      primal_lower335  230
    u[9]      primal_lower336  341
    u[9]      primal_lower337  821
    u[9]      primal_lower338  125
    u[9]      primal_lower339  491
    u[9]      primal_lower340  780
    u[9]      primal_lower341  812
    u[9]      primal_lower342  449
    u[9]      primal_lower343  96
    u[9]      primal_lower344  435
    u[9]      primal_lower345  254
    u[9]      primal_lower346  102
    u[9]      primal_lower347  834
    u[9]      primal_lower348  825
    u[9]      primal_lower349  11
    u[9]      primal_lower350  181
    u[9]      primal_lower351  982
    u[9]      primal_lower352  487
    u[9]      primal_lower353  542
    u[9]      primal_lower354  1
    u[9]      primal_lower355  671
    u[9]      primal_lower356  613
    u[9]      primal_lower357  652
    u[9]      primal_lower358  666
    u[9]      primal_lower359  921
    u[9]      primal_lower360  881
    u[9]      primal_lower361  87
    u[9]      primal_lower362  105
    u[9]      primal_lower363  356
    u[9]      primal_lower364  509
    u[9]      primal_lower365  703
    u[9]      primal_lower366  53
    u[9]      primal_lower367  247
    u[9]      primal_lower368  821
    u[9]      primal_lower369  849
    u[9]      primal_lower370  413
    u[9]      primal_lower371  25
    u[9]      primal_lower372  457
    u[9]      primal_lower373  782
    u[9]      primal_lower374  201
    u[9]      primal_lower375  578
    u[9]      primal_lower376  146
    u[9]      primal_lower377  282
    u[9]      primal_lower378  890
    u[9]      primal_lower379  70
    u[9]      primal_lower380  107
    u[9]      primal_lower381  526
    u[9]      primal_lower382  212
    u[9]      primal_lower383  443
    u[9]      primal_lower384  635
    u[9]      primal_lower385  288
    u[9]      primal_lower386  411
    u[9]      primal_lower387  816
    u[9]      primal_lower388  746
    u[9]      primal_lower389  705
    u[9]      primal_lower390  901
    u[9]      primal_lower391  603
    u[9]      primal_lower392  14
    u[9]      primal_lower393  216
    u[9]      primal_lower394  744
    u[9]      primal_lower395  433
    u[9]      primal_lower396  892
    u[9]      primal_lower397  652
    u[9]      primal_lower398  920
    u[9]      primal_lower399  399
    u[9]      primal_lower400  590
    u[9]      primal_lower401  616
    u[9]      primal_lower402  568
    u[9]      primal_lower403  529
    u[9]      primal_lower404  651
    u[9]      primal_lower405  679
    u[9]      primal_lower406  205
    u[9]      primal_lower407  823
    u[9]      primal_lower408  950
    u[9]      primal_lower409  562
    u[9]      primal_lower410  761
    u[9]      primal_lower411  791
    u[9]      primal_lower412  780
    u[9]      primal_lower413  596
    u[9]      primal_lower414  4
    u[9]      primal_lower415  302
    u[9]      primal_lower416  744
    u[9]      primal_lower417  690
    u[9]      primal_lower418  228
    u[9]      primal_lower419  11
    u[9]      primal_lower420  551
    u[9]      primal_lower421  789
    u[9]      primal_lower422  442
    u[9]      primal_lower423  562
    u[9]      primal_lower424  284
    u[9]      primal_lower425  213
    u[9]      primal_lower426  404
    u[9]      primal_lower427  250
    u[9]      primal_lower428  226
    u[9]      primal_lower429  237
    u[9]      primal_lower430  914
    u[9]      primal_lower431  352
    u[9]      primal_lower432  325
    u[9]      primal_lower433  69
    u[9]      primal_lower434  780
    u[9]      primal_lower435  458
    u[9]      primal_lower436  169
    u[9]      primal_lower437  493
    u[9]      primal_lower438  383
    u[9]      primal_lower439  286
    u[9]      primal_lower440  488
    u[9]      primal_lower441  924
    u[9]      primal_lower442  227
    u[9]      primal_lower443  6
    u[9]      primal_lower444  257
    u[9]      primal_lower445  510
    u[9]      primal_lower446  631
    u[9]      primal_lower447  555
    u[9]      primal_lower448  562
    u[9]      primal_lower449  524
    u[9]      primal_lower450  943
    u[9]      primal_lower451  255
    u[9]      primal_lower452  714
    u[9]      primal_lower453  321
    u[9]      primal_lower454  993
    u[9]      primal_lower455  607
    u[9]      primal_lower456  606
    u[9]      primal_lower457  68
    u[9]      primal_lower458  263
    u[9]      primal_lower459  498
    u[9]      primal_lower460  584
    u[9]      primal_lower461  825
    u[9]      primal_lower462  910
    u[9]      primal_lower463  585
    u[9]      primal_lower464  425
    u[9]      primal_lower465  852
    u[9]      primal_lower466  253
    u[9]      primal_lower467  859
    u[9]      primal_lower468  827
    u[9]      primal_lower469  584
    u[9]      primal_lower470  420
    u[9]      primal_lower471  51
    u[9]      primal_lower472  944
    u[9]      primal_lower473  176
    u[9]      primal_lower474  23
    u[9]      primal_lower475  658
    u[9]      primal_lower476  675
    u[9]      primal_lower477  666
    u[9]      primal_lower478  220
    u[9]      primal_lower479  376
    u[9]      primal_lower480  381
    u[9]      primal_lower481  346
    u[9]      primal_lower482  905
    u[9]      primal_lower483  715
    u[9]      primal_lower484  125
    u[9]      primal_lower485  17
    u[9]      primal_lower486  927
    u[9]      primal_lower487  988
    u[9]      primal_lower488  695
    u[9]      primal_lower489  438
    u[9]      primal_lower490  476
    u[9]      primal_lower491  618
    u[9]      primal_lower492  211
    u[9]      primal_lower493  651
    u[9]      primal_lower494  732
    u[9]      primal_lower495  590
    u[9]      primal_lower496  750
    u[9]      primal_lower497  187
    u[9]      primal_lower498  139
    u[9]      primal_lower499  56
    u[9]      primal_lower500  654
    u[9]      primal_lower501  57
    u[9]      primal_lower502  850
    u[9]      primal_lower503  289
    u[9]      primal_lower504  242
    u[9]      primal_lower505  950
    u[9]      primal_lower506  703
    u[9]      primal_lower507  420
    u[9]      primal_lower508  859
    u[9]      primal_lower509  745
    u[9]      primal_lower510  417
    u[9]      primal_lower511  347
    u[9]      primal_lower512  626
    u[9]      primal_lower513  167
    u[9]      primal_lower514  367
    u[9]      primal_lower515  159
    u[9]      primal_lower516  473
    u[9]      primal_lower517  503
    u[9]      primal_lower518  634
    u[9]      primal_lower519  253
    u[9]      primal_lower520  799
    u[9]      primal_lower521  498
    u[9]      primal_lower522  516
    u[9]      primal_lower523  83
    u[9]      primal_lower524  463
    u[9]      primal_lower525  380
    u[9]      primal_lower526  522
    u[9]      primal_lower527  749
    u[9]      primal_lower528  215
    u[9]      primal_lower529  819
    u[9]      primal_lower530  344
    u[9]      primal_lower531  85
    u[9]      primal_lower532  681
    u[9]      primal_lower533  802
    u[9]      primal_lower534  153
    u[9]      primal_lower535  608
    u[9]      primal_lower536  313
    u[9]      primal_lower537  164
    u[9]      primal_lower538  85
    u[9]      primal_lower539  277
    u[9]      primal_lower540  224
    u[9]      primal_lower541  930
    u[9]      primal_lower542  663
    u[9]      primal_lower543  967
    u[9]      primal_lower544  876
    u[9]      primal_lower545  267
    u[9]      primal_lower546  456
    u[9]      primal_lower547  224
    u[9]      primal_lower548  883
    u[9]      primal_lower549  76
    u[9]      primal_lower550  340
    u[9]      primal_lower551  103
    u[9]      primal_lower552  977
    u[9]      primal_lower553  541
    u[9]      primal_lower554  947
    u[9]      primal_lower555  632
    u[9]      primal_lower556  118
    u[9]      primal_lower557  80
    u[9]      primal_lower558  533
    u[9]      primal_lower559  289
    u[9]      primal_lower560  751
    u[9]      primal_lower561  380
    u[9]      primal_lower562  254
    u[9]      primal_lower563  271
    u[9]      primal_lower564  84
    u[9]      primal_lower565  259
    u[9]      primal_lower566  781
    u[9]      primal_lower567  404
    u[9]      primal_lower568  110
    u[9]      primal_lower569  713
    u[9]      primal_lower570  517
    u[9]      primal_lower571  951
    u[9]      primal_lower572  380
    u[9]      primal_lower573  677
    u[9]      primal_lower574  956
    u[9]      primal_lower575  169
    u[9]      primal_lower576  493
    u[9]      primal_lower577  900
    u[9]      primal_lower578  891
    u[9]      primal_lower579  161
    u[9]      primal_lower580  638
    u[9]      primal_lower581  568
    u[9]      primal_lower582  538
    u[9]      primal_lower583  614
    u[9]      primal_lower584  627
    u[9]      primal_lower585  369
    u[9]      primal_lower586  223
    u[9]      primal_lower587  22
    u[9]      primal_lower588  292
    u[9]      primal_lower589  85
    u[9]      primal_lower590  546
    u[9]      primal_lower591  70
    u[9]      primal_lower592  386
    u[9]      primal_lower593  696
    u[9]      primal_lower594  506
    u[9]      primal_lower595  751
    u[9]      primal_lower596  734
    u[9]      primal_lower597  67
    u[9]      primal_lower598  461
    u[9]      primal_lower599  352
    u[9]      primal_lower600  401
    u[9]      primal_lower601  807
    u[9]      primal_lower602  568
    u[9]      primal_lower603  879
    u[9]      primal_lower604  815
    u[9]      primal_lower605  885
    u[9]      primal_lower606  643
    u[9]      primal_lower607  777
    u[9]      primal_lower608  888
    u[9]      primal_lower609  727
    u[9]      primal_lower610  967
    u[9]      primal_lower611  466
    u[9]      primal_lower612  134
    u[9]      primal_lower613  832
    u[9]      primal_lower614  707
    u[9]      primal_lower615  532
    u[9]      primal_lower616  902
    u[9]      primal_lower617  688
    u[9]      primal_lower618  95
    u[9]      primal_lower619  856
    u[9]      primal_lower620  178
    u[9]      primal_lower621  870
    u[9]      primal_lower622  683
    u[9]      primal_lower623  613
    u[9]      primal_lower624  694
    u[9]      primal_lower625  956
    u[9]      primal_lower626  377
    u[9]      primal_lower627  282
    u[9]      primal_lower628  8
    u[9]      primal_lower629  952
    u[9]      primal_lower630  236
    u[9]      primal_lower631  649
    u[9]      primal_lower632  999
    u[9]      primal_lower633  745
    u[9]      primal_lower634  751
    u[9]      primal_lower635  326
    u[9]      primal_lower636  849
    u[9]      primal_lower637  668
    u[9]      primal_lower638  888
    u[9]      primal_lower639  927
    u[9]      primal_lower640  43
    u[9]      primal_lower641  953
    u[9]      primal_lower642  504
    u[9]      primal_lower643  912
    u[9]      primal_lower644  625
    u[9]      primal_lower645  249
    u[9]      primal_lower646  886
    u[9]      primal_lower647  828
    u[9]      primal_lower648  321
    u[9]      primal_lower649  496
    u[9]      primal_lower650  565
    u[9]      primal_lower651  916
    u[9]      primal_lower652  765
    u[9]      primal_lower653  171
    u[9]      primal_lower654  508
    u[9]      primal_lower655  212
    u[9]      primal_lower656  872
    u[9]      primal_lower657  698
    u[9]      primal_lower658  540
    u[9]      primal_lower659  425
    u[9]      primal_lower660  877
    u[9]      primal_lower661  894
    u[9]      primal_lower662  794
    u[9]      primal_lower663  630
    u[9]      primal_lower664  594
    u[9]      primal_lower665  216
    u[9]      primal_lower666  10
    u[9]      primal_lower667  701
    u[9]      primal_lower668  690
    u[9]      primal_lower669  40
    u[9]      primal_lower670  64
    u[9]      primal_lower671  553
    u[9]      primal_lower672  942
    u[9]      primal_lower673  427
    u[9]      primal_lower674  11
    u[9]      primal_lower675  37
    u[9]      primal_lower676  251
    u[9]      primal_lower677  498
    u[9]      primal_lower678  233
    u[9]      primal_lower679  902
    u[9]      primal_lower680  496
    u[9]      primal_lower681  576
    u[9]      primal_lower682  598
    u[9]      primal_lower683  467
    u[9]      primal_lower684  18
    u[9]      primal_lower685  465
    u[9]      primal_lower686  377
    u[9]      primal_lower687  741
    u[9]      primal_lower688  532
    u[9]      primal_lower689  98
    u[9]      primal_lower690  141
    u[9]      primal_lower691  490
    u[9]      primal_lower692  923
    u[9]      primal_lower693  779
    u[9]      primal_lower694  541
    u[9]      primal_lower695  337
    u[9]      primal_lower696  569
    u[9]      primal_lower697  402
    u[9]      primal_lower698  718
    u[9]      primal_lower699  223
    u[9]      primal_lower700  498
    u[9]      primal_lower701  44
    u[9]      primal_lower702  735
    u[9]      primal_lower703  153
    u[9]      primal_lower704  644
    u[9]      primal_lower705  121
    u[9]      primal_lower706  516
    u[9]      primal_lower707  636
    u[9]      primal_lower708  627
    u[9]      primal_lower709  463
    u[9]      primal_lower710  101
    u[9]      primal_lower711  607
    u[9]      primal_lower712  910
    u[9]      primal_lower713  494
    u[9]      primal_lower714  259
    u[9]      primal_lower715  149
    u[9]      primal_lower716  771
    u[9]      primal_lower717  741
    u[9]      primal_lower718  11
    u[9]      primal_lower719  761
    u[9]      primal_lower720  657
    u[9]      primal_lower721  283
    u[9]      primal_lower722  40
    u[9]      primal_lower723  514
    u[9]      primal_lower724  953
    u[9]      primal_lower725  722
    u[9]      primal_lower726  550
    u[9]      primal_lower727  792
    u[9]      primal_lower728  432
    u[9]      primal_lower729  53
    u[9]      primal_lower730  119
    u[9]      primal_lower731  898
    u[9]      primal_lower732  20
    u[9]      primal_lower733  996
    u[9]      primal_lower734  819
    u[9]      primal_lower735  573
    u[9]      primal_lower736  89
    u[9]      primal_lower737  461
    u[9]      primal_lower738  765
    u[9]      primal_lower739  820
    u[9]      primal_lower740  940
    u[9]      primal_lower741  976
    u[9]      primal_lower742  417
    u[9]      primal_lower743  602
    u[9]      primal_lower744  308
    u[9]      primal_lower745  669
    u[9]      primal_lower746  370
    u[9]      primal_lower747  411
    u[9]      primal_lower748  692
    u[9]      primal_lower749  537
    u[9]      primal_lower750  778
    u[9]      primal_lower751  889
    u[9]      primal_lower752  643
    u[9]      primal_lower753  86
    u[9]      primal_lower754  234
    u[9]      primal_lower755  183
    u[9]      primal_lower756  80
    u[9]      primal_lower757  198
    u[9]      primal_lower758  314
    u[9]      primal_lower759  977
    u[9]      primal_lower760  736
    u[9]      primal_lower761  576
    u[9]      primal_lower762  939
    u[9]      primal_lower763  668
    u[9]      primal_lower764  582
    u[9]      primal_lower765  384
    u[9]      primal_lower766  966
    u[9]      primal_lower767  922
    u[9]      primal_lower768  935
    u[9]      primal_lower769  279
    u[9]      primal_lower770  45
    u[9]      primal_lower771  122
    u[9]      primal_lower772  733
    u[9]      primal_lower773  620
    u[9]      primal_lower774  628
    u[9]      primal_lower775  762
    u[9]      primal_lower776  453
    u[9]      primal_lower777  200
    u[9]      primal_lower778  65
    u[9]      primal_lower779  934
    u[9]      primal_lower780  851
    u[9]      primal_lower781  979
    u[9]      primal_lower782  217
    u[9]      primal_lower783  786
    u[9]      primal_lower784  3
    u[9]      primal_lower785  169
    u[9]      primal_lower786  241
    u[9]      primal_lower787  474
    u[9]      primal_lower788  588
    u[9]      primal_lower789  701
    u[9]      primal_lower790  803
    u[9]      primal_lower791  697
    u[9]      primal_lower792  83
    u[9]      primal_lower793  950
    u[9]      primal_lower794  726
    u[9]      primal_lower795  438
    u[9]      primal_lower796  273
    u[9]      primal_lower797  498
    u[9]      primal_lower798  297
    u[9]      primal_lower799  431
    u[9]      primal_lower800  384
    u[9]      primal_lower801  827
    u[9]      primal_lower802  239
    u[9]      primal_lower803  79
    u[9]      primal_lower804  641
    u[9]      primal_lower805  446
    u[9]      primal_lower806  476
    u[9]      primal_lower807  195
    u[9]      primal_lower808  247
    u[9]      primal_lower809  554
    u[9]      primal_lower810  966
    u[9]      primal_lower811  809
    u[9]      primal_lower812  126
    u[9]      primal_lower813  512
    u[9]      primal_lower814  253
    u[9]      primal_lower815  368
    u[9]      primal_lower816  806
    u[9]      primal_lower817  597
    u[9]      primal_lower818  220
    u[9]      primal_lower819  676
    u[9]      primal_lower820  395
    u[9]      primal_lower821  26
    u[9]      primal_lower822  559
    u[9]      primal_lower823  754
    u[9]      primal_lower824  713
    u[9]      primal_lower825  547
    u[9]      primal_lower826  368
    u[9]      primal_lower827  961
    u[9]      primal_lower828  864
    u[9]      primal_lower829  180
    u[9]      primal_lower830  705
    u[9]      primal_lower831  648
    u[9]      primal_lower832  571
    u[9]      primal_lower833  987
    u[9]      primal_lower834  631
    u[9]      primal_lower835  966
    u[9]      primal_lower836  264
    u[9]      primal_lower837  547
    u[9]      primal_lower838  797
    u[9]      primal_lower839  393
    u[9]      primal_lower840  528
    u[9]      primal_lower841  918
    u[9]      primal_lower842  954
    u[9]      primal_lower843  347
    u[9]      primal_lower844  27
    u[9]      primal_lower845  584
    u[9]      primal_lower846  936
    u[9]      primal_lower847  568
    u[9]      primal_lower848  622
    u[9]      primal_lower849  295
    u[9]      primal_lower850  65
    u[9]      primal_lower851  718
    u[9]      primal_lower852  101
    u[9]      primal_lower853  487
    u[9]      primal_lower854  712
    u[9]      primal_lower855  98
    u[9]      primal_lower856  951
    u[9]      primal_lower857  793
    u[9]      primal_lower858  96
    u[9]      primal_lower859  566
    u[9]      primal_lower860  522
    u[9]      primal_lower861  372
    u[9]      primal_lower862  484
    u[9]      primal_lower863  385
    u[9]      primal_lower864  522
    u[9]      primal_lower865  955
    u[9]      primal_lower866  675
    u[9]      primal_lower867  967
    u[9]      primal_lower868  181
    u[9]      primal_lower869  446
    u[9]      primal_lower870  234
    u[9]      primal_lower871  578
    u[9]      primal_lower872  247
    u[9]      primal_lower873  747
    u[9]      primal_lower874  774
    u[9]      primal_lower875  684
    u[9]      primal_lower876  236
    u[9]      primal_lower877  660
    u[9]      primal_lower878  237
    u[9]      primal_lower879  207
    u[9]      primal_lower880  995
    u[9]      primal_lower881  435
    u[9]      primal_lower882  511
    u[9]      primal_lower883  160
    u[9]      primal_lower884  62
    u[9]      primal_lower885  172
    u[9]      primal_lower886  145
    u[9]      primal_lower887  616
    u[9]      primal_lower888  486
    u[9]      primal_lower889  998
    u[9]      primal_lower890  295
    u[9]      primal_lower891  871
    u[9]      primal_lower892  701
    u[9]      primal_lower893  509
    u[9]      primal_lower894  472
    u[9]      primal_lower895  986
    u[9]      primal_lower896  842
    u[9]      primal_lower897  264
    u[9]      primal_lower898  329
    u[9]      primal_lower899  627
    u[9]      primal_lower900  259
    u[9]      primal_lower901  619
    u[9]      primal_lower902  990
    u[9]      primal_lower903  816
    u[9]      primal_lower904  127
    u[9]      primal_lower905  784
    u[9]      primal_lower906  485
    u[9]      primal_lower907  782
    u[9]      primal_lower908  725
    u[9]      primal_lower909  537
    u[9]      primal_lower910  265
    u[9]      primal_lower911  88
    u[9]      primal_lower912  697
    u[9]      primal_lower913  239
    u[9]      primal_lower914  118
    u[9]      primal_lower915  596
    u[9]      primal_lower916  98
    u[9]      primal_lower917  747
    u[9]      primal_lower918  276
    u[9]      primal_lower919  146
    u[9]      primal_lower920  169
    u[9]      primal_lower921  421
    u[9]      primal_lower922  2
    u[9]      primal_lower923  161
    u[9]      primal_lower924  622
    u[9]      primal_lower925  518
    u[9]      primal_lower926  295
    u[9]      primal_lower927  69
    u[9]      primal_lower928  478
    u[9]      primal_lower929  777
    u[9]      primal_lower930  136
    u[9]      primal_lower931  843
    u[9]      primal_lower932  564
    u[9]      primal_lower933  215
    u[9]      primal_lower934  817
    u[9]      primal_lower935  618
    u[9]      primal_lower936  117
    u[9]      primal_lower937  349
    u[9]      primal_lower938  451
    u[9]      primal_lower939  798
    u[9]      primal_lower940  613
    u[9]      primal_lower941  226
    u[9]      primal_lower942  866
    u[9]      primal_lower943  946
    u[9]      primal_lower944  580
    u[9]      primal_lower945  67
    u[9]      primal_lower946  548
    u[9]      primal_lower947  632
    u[9]      primal_lower948  361
    u[9]      primal_lower949  414
    u[9]      primal_lower950  986
    u[9]      primal_lower951  266
    u[9]      primal_lower952  293
    u[9]      primal_lower953  288
    u[9]      primal_lower954  87
    u[9]      primal_lower955  837
    u[9]      primal_lower956  887
    u[9]      primal_lower957  28
    u[9]      primal_lower958  483
    u[9]      primal_lower959  295
    u[9]      primal_lower960  972
    u[9]      primal_lower961  362
    u[9]      primal_lower962  632
    u[9]      primal_lower963  590
    u[9]      primal_lower964  522
    u[9]      primal_lower965  458
    u[9]      primal_lower966  314
    u[9]      primal_lower967  593
    u[9]      primal_lower968  207
    u[9]      primal_lower969  536
    u[9]      primal_lower970  545
    u[9]      primal_lower971  65
    u[9]      primal_lower972  844
    u[9]      primal_lower973  759
    u[9]      primal_lower974  218
    u[9]      primal_lower975  399
    u[9]      primal_lower976  374
    u[9]      primal_lower977  455
    u[9]      primal_lower978  462
    u[9]      primal_lower979  16
    u[9]      primal_lower980  74
    u[9]      primal_lower981  750
    u[9]      primal_lower982  649
    u[9]      primal_lower983  73
    u[9]      primal_lower984  446
    u[9]      primal_lower985  925
    u[9]      primal_lower986  31
    u[9]      primal_lower987  490
    u[9]      primal_lower988  152
    u[9]      primal_lower989  622
    u[9]      primal_lower990  89
    u[9]      primal_lower991  275
    u[9]      primal_lower992  899
    u[9]      primal_lower993  194
    u[9]      primal_lower994  600
    u[9]      primal_lower995  130
    u[9]      primal_lower996  442
    u[9]      primal_lower997  301
    u[9]      primal_lower998  986
    u[9]      primal_lower999  114
    u[9]      interdiction[9]  1
    u[9]      mccormick1[9]  -1
    u[9]      mccormick3[9]  1
    u[10]     primal_lower0  91
    u[10]     primal_lower1  487
    u[10]     primal_lower2  832
    u[10]     primal_lower3  466
    u[10]     primal_lower4  252
    u[10]     primal_lower5  564
    u[10]     primal_lower6  398
    u[10]     primal_lower7  504
    u[10]     primal_lower8  71
    u[10]     primal_lower9  436
    u[10]     primal_lower10  259
    u[10]     primal_lower11  493
    u[10]     primal_lower12  284
    u[10]     primal_lower13  774
    u[10]     primal_lower14  429
    u[10]     primal_lower15  490
    u[10]     primal_lower16  73
    u[10]     primal_lower17  819
    u[10]     primal_lower18  539
    u[10]     primal_lower19  435
    u[10]     primal_lower20  88
    u[10]     primal_lower21  235
    u[10]     primal_lower22  798
    u[10]     primal_lower23  751
    u[10]     primal_lower24  722
    u[10]     primal_lower25  427
    u[10]     primal_lower26  672
    u[10]     primal_lower27  88
    u[10]     primal_lower28  999
    u[10]     primal_lower29  796
    u[10]     primal_lower30  286
    u[10]     primal_lower31  169
    u[10]     primal_lower32  318
    u[10]     primal_lower33  432
    u[10]     primal_lower34  422
    u[10]     primal_lower35  812
    u[10]     primal_lower36  881
    u[10]     primal_lower37  113
    u[10]     primal_lower38  937
    u[10]     primal_lower39  638
    u[10]     primal_lower40  436
    u[10]     primal_lower41  118
    u[10]     primal_lower42  915
    u[10]     primal_lower43  393
    u[10]     primal_lower44  54
    u[10]     primal_lower45  161
    u[10]     primal_lower46  604
    u[10]     primal_lower47  291
    u[10]     primal_lower48  196
    u[10]     primal_lower49  525
    u[10]     primal_lower50  283
    u[10]     primal_lower51  972
    u[10]     primal_lower52  53
    u[10]     primal_lower53  534
    u[10]     primal_lower54  688
    u[10]     primal_lower55  636
    u[10]     primal_lower56  821
    u[10]     primal_lower57  388
    u[10]     primal_lower58  333
    u[10]     primal_lower59  945
    u[10]     primal_lower60  88
    u[10]     primal_lower61  468
    u[10]     primal_lower62  255
    u[10]     primal_lower63  64
    u[10]     primal_lower64  132
    u[10]     primal_lower65  841
    u[10]     primal_lower66  414
    u[10]     primal_lower67  148
    u[10]     primal_lower68  592
    u[10]     primal_lower69  350
    u[10]     primal_lower70  404
    u[10]     primal_lower71  166
    u[10]     primal_lower72  237
    u[10]     primal_lower73  83
    u[10]     primal_lower74  901
    u[10]     primal_lower75  15
    u[10]     primal_lower76  556
    u[10]     primal_lower77  873
    u[10]     primal_lower78  229
    u[10]     primal_lower79  687
    u[10]     primal_lower80  583
    u[10]     primal_lower81  984
    u[10]     primal_lower82  46
    u[10]     primal_lower83  633
    u[10]     primal_lower84  861
    u[10]     primal_lower85  593
    u[10]     primal_lower86  54
    u[10]     primal_lower87  592
    u[10]     primal_lower88  366
    u[10]     primal_lower89  762
    u[10]     primal_lower90  419
    u[10]     primal_lower91  999
    u[10]     primal_lower92  553
    u[10]     primal_lower93  340
    u[10]     primal_lower94  98
    u[10]     primal_lower95  702
    u[10]     primal_lower96  829
    u[10]     primal_lower97  50
    u[10]     primal_lower98  824
    u[10]     primal_lower99  174
    u[10]     primal_lower100  685
    u[10]     primal_lower101  610
    u[10]     primal_lower102  457
    u[10]     primal_lower103  235
    u[10]     primal_lower104  317
    u[10]     primal_lower105  754
    u[10]     primal_lower106  733
    u[10]     primal_lower107  305
    u[10]     primal_lower108  267
    u[10]     primal_lower109  633
    u[10]     primal_lower110  676
    u[10]     primal_lower111  160
    u[10]     primal_lower112  779
    u[10]     primal_lower113  951
    u[10]     primal_lower114  119
    u[10]     primal_lower115  571
    u[10]     primal_lower116  858
    u[10]     primal_lower117  240
    u[10]     primal_lower118  374
    u[10]     primal_lower119  987
    u[10]     primal_lower120  130
    u[10]     primal_lower121  322
    u[10]     primal_lower122  434
    u[10]     primal_lower123  438
    u[10]     primal_lower124  92
    u[10]     primal_lower125  782
    u[10]     primal_lower126  493
    u[10]     primal_lower127  426
    u[10]     primal_lower128  496
    u[10]     primal_lower129  650
    u[10]     primal_lower130  177
    u[10]     primal_lower131  134
    u[10]     primal_lower132  125
    u[10]     primal_lower133  215
    u[10]     primal_lower134  696
    u[10]     primal_lower135  377
    u[10]     primal_lower136  892
    u[10]     primal_lower137  375
    u[10]     primal_lower138  371
    u[10]     primal_lower139  381
    u[10]     primal_lower140  97
    u[10]     primal_lower141  533
    u[10]     primal_lower142  891
    u[10]     primal_lower143  88
    u[10]     primal_lower144  695
    u[10]     primal_lower145  429
    u[10]     primal_lower146  89
    u[10]     primal_lower147  956
    u[10]     primal_lower148  324
    u[10]     primal_lower149  841
    u[10]     primal_lower150  600
    u[10]     primal_lower151  925
    u[10]     primal_lower152  614
    u[10]     primal_lower153  659
    u[10]     primal_lower154  17
    u[10]     primal_lower155  97
    u[10]     primal_lower156  1000
    u[10]     primal_lower157  610
    u[10]     primal_lower158  574
    u[10]     primal_lower159  19
    u[10]     primal_lower160  111
    u[10]     primal_lower161  681
    u[10]     primal_lower162  640
    u[10]     primal_lower163  187
    u[10]     primal_lower164  844
    u[10]     primal_lower165  505
    u[10]     primal_lower166  839
    u[10]     primal_lower167  324
    u[10]     primal_lower168  482
    u[10]     primal_lower169  82
    u[10]     primal_lower170  58
    u[10]     primal_lower171  123
    u[10]     primal_lower172  325
    u[10]     primal_lower173  337
    u[10]     primal_lower174  959
    u[10]     primal_lower175  182
    u[10]     primal_lower176  713
    u[10]     primal_lower177  375
    u[10]     primal_lower178  443
    u[10]     primal_lower179  122
    u[10]     primal_lower180  249
    u[10]     primal_lower181  108
    u[10]     primal_lower182  670
    u[10]     primal_lower183  770
    u[10]     primal_lower184  194
    u[10]     primal_lower185  968
    u[10]     primal_lower186  837
    u[10]     primal_lower187  704
    u[10]     primal_lower188  10
    u[10]     primal_lower189  473
    u[10]     primal_lower190  232
    u[10]     primal_lower191  476
    u[10]     primal_lower192  159
    u[10]     primal_lower193  902
    u[10]     primal_lower194  992
    u[10]     primal_lower195  356
    u[10]     primal_lower196  418
    u[10]     primal_lower197  727
    u[10]     primal_lower198  142
    u[10]     primal_lower199  694
    u[10]     primal_lower200  45
    u[10]     primal_lower201  618
    u[10]     primal_lower202  228
    u[10]     primal_lower203  11
    u[10]     primal_lower204  61
    u[10]     primal_lower205  659
    u[10]     primal_lower206  818
    u[10]     primal_lower207  976
    u[10]     primal_lower208  504
    u[10]     primal_lower209  429
    u[10]     primal_lower210  923
    u[10]     primal_lower211  322
    u[10]     primal_lower212  758
    u[10]     primal_lower213  872
    u[10]     primal_lower214  199
    u[10]     primal_lower215  220
    u[10]     primal_lower216  726
    u[10]     primal_lower217  819
    u[10]     primal_lower218  127
    u[10]     primal_lower219  220
    u[10]     primal_lower220  703
    u[10]     primal_lower221  6
    u[10]     primal_lower222  428
    u[10]     primal_lower223  885
    u[10]     primal_lower224  340
    u[10]     primal_lower225  31
    u[10]     primal_lower226  856
    u[10]     primal_lower227  21
    u[10]     primal_lower228  524
    u[10]     primal_lower229  259
    u[10]     primal_lower230  240
    u[10]     primal_lower231  981
    u[10]     primal_lower232  541
    u[10]     primal_lower233  139
    u[10]     primal_lower234  348
    u[10]     primal_lower235  412
    u[10]     primal_lower236  368
    u[10]     primal_lower237  312
    u[10]     primal_lower238  745
    u[10]     primal_lower239  74
    u[10]     primal_lower240  280
    u[10]     primal_lower241  395
    u[10]     primal_lower242  898
    u[10]     primal_lower243  433
    u[10]     primal_lower244  25
    u[10]     primal_lower245  926
    u[10]     primal_lower246  518
    u[10]     primal_lower247  341
    u[10]     primal_lower248  129
    u[10]     primal_lower249  410
    u[10]     primal_lower250  387
    u[10]     primal_lower251  611
    u[10]     primal_lower252  160
    u[10]     primal_lower253  470
    u[10]     primal_lower254  52
    u[10]     primal_lower255  344
    u[10]     primal_lower256  975
    u[10]     primal_lower257  433
    u[10]     primal_lower258  969
    u[10]     primal_lower259  417
    u[10]     primal_lower260  793
    u[10]     primal_lower261  429
    u[10]     primal_lower262  985
    u[10]     primal_lower263  503
    u[10]     primal_lower264  658
    u[10]     primal_lower265  288
    u[10]     primal_lower266  196
    u[10]     primal_lower267  941
    u[10]     primal_lower268  695
    u[10]     primal_lower269  51
    u[10]     primal_lower270  873
    u[10]     primal_lower271  69
    u[10]     primal_lower272  99
    u[10]     primal_lower273  247
    u[10]     primal_lower274  768
    u[10]     primal_lower275  145
    u[10]     primal_lower276  357
    u[10]     primal_lower277  930
    u[10]     primal_lower278  114
    u[10]     primal_lower279  961
    u[10]     primal_lower280  472
    u[10]     primal_lower281  240
    u[10]     primal_lower282  823
    u[10]     primal_lower283  961
    u[10]     primal_lower284  917
    u[10]     primal_lower285  89
    u[10]     primal_lower286  403
    u[10]     primal_lower287  332
    u[10]     primal_lower288  715
    u[10]     primal_lower289  138
    u[10]     primal_lower290  475
    u[10]     primal_lower291  637
    u[10]     primal_lower292  978
    u[10]     primal_lower293  193
    u[10]     primal_lower294  911
    u[10]     primal_lower295  699
    u[10]     primal_lower296  647
    u[10]     primal_lower297  292
    u[10]     primal_lower298  738
    u[10]     primal_lower299  388
    u[10]     primal_lower300  543
    u[10]     primal_lower301  894
    u[10]     primal_lower302  54
    u[10]     primal_lower303  788
    u[10]     primal_lower304  824
    u[10]     primal_lower305  316
    u[10]     primal_lower306  134
    u[10]     primal_lower307  209
    u[10]     primal_lower308  594
    u[10]     primal_lower309  891
    u[10]     primal_lower310  298
    u[10]     primal_lower311  132
    u[10]     primal_lower312  796
    u[10]     primal_lower313  56
    u[10]     primal_lower314  164
    u[10]     primal_lower315  60
    u[10]     primal_lower316  196
    u[10]     primal_lower317  264
    u[10]     primal_lower318  541
    u[10]     primal_lower319  821
    u[10]     primal_lower320  787
    u[10]     primal_lower321  23
    u[10]     primal_lower322  836
    u[10]     primal_lower323  743
    u[10]     primal_lower324  979
    u[10]     primal_lower325  754
    u[10]     primal_lower326  293
    u[10]     primal_lower327  240
    u[10]     primal_lower328  549
    u[10]     primal_lower329  116
    u[10]     primal_lower330  12
    u[10]     primal_lower331  940
    u[10]     primal_lower332  714
    u[10]     primal_lower333  361
    u[10]     primal_lower334  89
    u[10]     primal_lower335  152
    u[10]     primal_lower336  391
    u[10]     primal_lower337  487
    u[10]     primal_lower338  866
    u[10]     primal_lower339  285
    u[10]     primal_lower340  849
    u[10]     primal_lower341  377
    u[10]     primal_lower342  262
    u[10]     primal_lower343  373
    u[10]     primal_lower344  653
    u[10]     primal_lower345  491
    u[10]     primal_lower346  880
    u[10]     primal_lower347  287
    u[10]     primal_lower348  430
    u[10]     primal_lower349  461
    u[10]     primal_lower350  274
    u[10]     primal_lower351  840
    u[10]     primal_lower352  820
    u[10]     primal_lower353  336
    u[10]     primal_lower354  574
    u[10]     primal_lower355  940
    u[10]     primal_lower356  359
    u[10]     primal_lower357  41
    u[10]     primal_lower358  964
    u[10]     primal_lower359  206
    u[10]     primal_lower360  459
    u[10]     primal_lower361  108
    u[10]     primal_lower362  310
    u[10]     primal_lower363  254
    u[10]     primal_lower364  914
    u[10]     primal_lower365  612
    u[10]     primal_lower366  722
    u[10]     primal_lower367  508
    u[10]     primal_lower368  818
    u[10]     primal_lower369  974
    u[10]     primal_lower370  919
    u[10]     primal_lower371  534
    u[10]     primal_lower372  718
    u[10]     primal_lower373  451
    u[10]     primal_lower374  291
    u[10]     primal_lower375  311
    u[10]     primal_lower376  471
    u[10]     primal_lower377  975
    u[10]     primal_lower378  791
    u[10]     primal_lower379  448
    u[10]     primal_lower380  13
    u[10]     primal_lower381  408
    u[10]     primal_lower382  881
    u[10]     primal_lower383  589
    u[10]     primal_lower384  200
    u[10]     primal_lower385  834
    u[10]     primal_lower386  381
    u[10]     primal_lower387  370
    u[10]     primal_lower388  844
    u[10]     primal_lower389  651
    u[10]     primal_lower390  666
    u[10]     primal_lower391  560
    u[10]     primal_lower392  603
    u[10]     primal_lower393  93
    u[10]     primal_lower394  682
    u[10]     primal_lower395  966
    u[10]     primal_lower396  270
    u[10]     primal_lower397  278
    u[10]     primal_lower398  90
    u[10]     primal_lower399  945
    u[10]     primal_lower400  235
    u[10]     primal_lower401  853
    u[10]     primal_lower402  650
    u[10]     primal_lower403  891
    u[10]     primal_lower404  277
    u[10]     primal_lower405  705
    u[10]     primal_lower406  330
    u[10]     primal_lower407  297
    u[10]     primal_lower408  744
    u[10]     primal_lower409  468
    u[10]     primal_lower410  755
    u[10]     primal_lower411  529
    u[10]     primal_lower412  993
    u[10]     primal_lower413  993
    u[10]     primal_lower414  65
    u[10]     primal_lower415  947
    u[10]     primal_lower416  730
    u[10]     primal_lower417  223
    u[10]     primal_lower418  958
    u[10]     primal_lower419  349
    u[10]     primal_lower420  316
    u[10]     primal_lower421  71
    u[10]     primal_lower422  223
    u[10]     primal_lower423  399
    u[10]     primal_lower424  478
    u[10]     primal_lower425  322
    u[10]     primal_lower426  782
    u[10]     primal_lower427  495
    u[10]     primal_lower428  364
    u[10]     primal_lower429  490
    u[10]     primal_lower430  828
    u[10]     primal_lower431  597
    u[10]     primal_lower432  479
    u[10]     primal_lower433  271
    u[10]     primal_lower434  486
    u[10]     primal_lower435  564
    u[10]     primal_lower436  126
    u[10]     primal_lower437  287
    u[10]     primal_lower438  636
    u[10]     primal_lower439  747
    u[10]     primal_lower440  442
    u[10]     primal_lower441  713
    u[10]     primal_lower442  608
    u[10]     primal_lower443  563
    u[10]     primal_lower444  99
    u[10]     primal_lower445  208
    u[10]     primal_lower446  17
    u[10]     primal_lower447  56
    u[10]     primal_lower448  892
    u[10]     primal_lower449  529
    u[10]     primal_lower450  796
    u[10]     primal_lower451  17
    u[10]     primal_lower452  23
    u[10]     primal_lower453  134
    u[10]     primal_lower454  254
    u[10]     primal_lower455  172
    u[10]     primal_lower456  808
    u[10]     primal_lower457  646
    u[10]     primal_lower458  745
    u[10]     primal_lower459  412
    u[10]     primal_lower460  645
    u[10]     primal_lower461  347
    u[10]     primal_lower462  27
    u[10]     primal_lower463  483
    u[10]     primal_lower464  275
    u[10]     primal_lower465  206
    u[10]     primal_lower466  490
    u[10]     primal_lower467  200
    u[10]     primal_lower468  528
    u[10]     primal_lower469  674
    u[10]     primal_lower470  62
    u[10]     primal_lower471  245
    u[10]     primal_lower472  445
    u[10]     primal_lower473  378
    u[10]     primal_lower474  68
    u[10]     primal_lower475  431
    u[10]     primal_lower476  509
    u[10]     primal_lower477  967
    u[10]     primal_lower478  846
    u[10]     primal_lower479  546
    u[10]     primal_lower480  90
    u[10]     primal_lower481  260
    u[10]     primal_lower482  846
    u[10]     primal_lower483  648
    u[10]     primal_lower484  279
    u[10]     primal_lower485  947
    u[10]     primal_lower486  892
    u[10]     primal_lower487  278
    u[10]     primal_lower488  628
    u[10]     primal_lower489  963
    u[10]     primal_lower490  785
    u[10]     primal_lower491  556
    u[10]     primal_lower492  133
    u[10]     primal_lower493  101
    u[10]     primal_lower494  961
    u[10]     primal_lower495  187
    u[10]     primal_lower496  931
    u[10]     primal_lower497  997
    u[10]     primal_lower498  208
    u[10]     primal_lower499  522
    u[10]     primal_lower500  344
    u[10]     primal_lower501  758
    u[10]     primal_lower502  388
    u[10]     primal_lower503  166
    u[10]     primal_lower504  135
    u[10]     primal_lower505  536
    u[10]     primal_lower506  41
    u[10]     primal_lower507  73
    u[10]     primal_lower508  197
    u[10]     primal_lower509  870
    u[10]     primal_lower510  278
    u[10]     primal_lower511  717
    u[10]     primal_lower512  348
    u[10]     primal_lower513  377
    u[10]     primal_lower514  705
    u[10]     primal_lower515  465
    u[10]     primal_lower516  982
    u[10]     primal_lower517  748
    u[10]     primal_lower518  580
    u[10]     primal_lower519  743
    u[10]     primal_lower520  529
    u[10]     primal_lower521  236
    u[10]     primal_lower522  726
    u[10]     primal_lower523  181
    u[10]     primal_lower524  588
    u[10]     primal_lower525  214
    u[10]     primal_lower526  588
    u[10]     primal_lower527  386
    u[10]     primal_lower528  948
    u[10]     primal_lower529  421
    u[10]     primal_lower530  794
    u[10]     primal_lower531  658
    u[10]     primal_lower532  131
    u[10]     primal_lower533  364
    u[10]     primal_lower534  27
    u[10]     primal_lower535  82
    u[10]     primal_lower536  491
    u[10]     primal_lower537  950
    u[10]     primal_lower538  226
    u[10]     primal_lower539  447
    u[10]     primal_lower540  234
    u[10]     primal_lower541  348
    u[10]     primal_lower542  468
    u[10]     primal_lower543  468
    u[10]     primal_lower544  70
    u[10]     primal_lower545  16
    u[10]     primal_lower546  274
    u[10]     primal_lower547  554
    u[10]     primal_lower548  589
    u[10]     primal_lower549  374
    u[10]     primal_lower550  361
    u[10]     primal_lower551  369
    u[10]     primal_lower552  342
    u[10]     primal_lower553  306
    u[10]     primal_lower554  373
    u[10]     primal_lower555  989
    u[10]     primal_lower556  843
    u[10]     primal_lower557  445
    u[10]     primal_lower558  87
    u[10]     primal_lower559  339
    u[10]     primal_lower560  25
    u[10]     primal_lower561  966
    u[10]     primal_lower562  632
    u[10]     primal_lower563  609
    u[10]     primal_lower564  297
    u[10]     primal_lower565  101
    u[10]     primal_lower566  959
    u[10]     primal_lower567  873
    u[10]     primal_lower568  587
    u[10]     primal_lower569  171
    u[10]     primal_lower570  218
    u[10]     primal_lower571  793
    u[10]     primal_lower572  817
    u[10]     primal_lower573  682
    u[10]     primal_lower574  422
    u[10]     primal_lower575  22
    u[10]     primal_lower576  354
    u[10]     primal_lower577  329
    u[10]     primal_lower578  856
    u[10]     primal_lower579  814
    u[10]     primal_lower580  443
    u[10]     primal_lower581  981
    u[10]     primal_lower582  412
    u[10]     primal_lower583  419
    u[10]     primal_lower584  680
    u[10]     primal_lower585  182
    u[10]     primal_lower586  276
    u[10]     primal_lower587  912
    u[10]     primal_lower588  361
    u[10]     primal_lower589  818
    u[10]     primal_lower590  612
    u[10]     primal_lower591  112
    u[10]     primal_lower592  668
    u[10]     primal_lower593  141
    u[10]     primal_lower594  276
    u[10]     primal_lower595  865
    u[10]     primal_lower596  456
    u[10]     primal_lower597  381
    u[10]     primal_lower598  266
    u[10]     primal_lower599  597
    u[10]     primal_lower600  91
    u[10]     primal_lower601  892
    u[10]     primal_lower602  970
    u[10]     primal_lower603  737
    u[10]     primal_lower604  332
    u[10]     primal_lower605  559
    u[10]     primal_lower606  869
    u[10]     primal_lower607  750
    u[10]     primal_lower608  434
    u[10]     primal_lower609  220
    u[10]     primal_lower610  500
    u[10]     primal_lower611  215
    u[10]     primal_lower612  931
    u[10]     primal_lower613  109
    u[10]     primal_lower614  557
    u[10]     primal_lower615  145
    u[10]     primal_lower616  363
    u[10]     primal_lower617  162
    u[10]     primal_lower618  425
    u[10]     primal_lower619  541
    u[10]     primal_lower620  175
    u[10]     primal_lower621  723
    u[10]     primal_lower622  597
    u[10]     primal_lower623  751
    u[10]     primal_lower624  43
    u[10]     primal_lower625  598
    u[10]     primal_lower626  211
    u[10]     primal_lower627  172
    u[10]     primal_lower628  362
    u[10]     primal_lower629  709
    u[10]     primal_lower630  302
    u[10]     primal_lower631  366
    u[10]     primal_lower632  521
    u[10]     primal_lower633  411
    u[10]     primal_lower634  689
    u[10]     primal_lower635  592
    u[10]     primal_lower636  54
    u[10]     primal_lower637  537
    u[10]     primal_lower638  202
    u[10]     primal_lower639  561
    u[10]     primal_lower640  24
    u[10]     primal_lower641  355
    u[10]     primal_lower642  117
    u[10]     primal_lower643  810
    u[10]     primal_lower644  419
    u[10]     primal_lower645  291
    u[10]     primal_lower646  275
    u[10]     primal_lower647  974
    u[10]     primal_lower648  406
    u[10]     primal_lower649  106
    u[10]     primal_lower650  439
    u[10]     primal_lower651  513
    u[10]     primal_lower652  426
    u[10]     primal_lower653  549
    u[10]     primal_lower654  454
    u[10]     primal_lower655  801
    u[10]     primal_lower656  29
    u[10]     primal_lower657  871
    u[10]     primal_lower658  286
    u[10]     primal_lower659  179
    u[10]     primal_lower660  658
    u[10]     primal_lower661  176
    u[10]     primal_lower662  204
    u[10]     primal_lower663  635
    u[10]     primal_lower664  767
    u[10]     primal_lower665  157
    u[10]     primal_lower666  695
    u[10]     primal_lower667  391
    u[10]     primal_lower668  591
    u[10]     primal_lower669  189
    u[10]     primal_lower670  90
    u[10]     primal_lower671  419
    u[10]     primal_lower672  240
    u[10]     primal_lower673  949
    u[10]     primal_lower674  77
    u[10]     primal_lower675  122
    u[10]     primal_lower676  405
    u[10]     primal_lower677  92
    u[10]     primal_lower678  251
    u[10]     primal_lower679  507
    u[10]     primal_lower680  629
    u[10]     primal_lower681  45
    u[10]     primal_lower682  899
    u[10]     primal_lower683  424
    u[10]     primal_lower684  295
    u[10]     primal_lower685  494
    u[10]     primal_lower686  254
    u[10]     primal_lower687  818
    u[10]     primal_lower688  22
    u[10]     primal_lower689  839
    u[10]     primal_lower690  399
    u[10]     primal_lower691  583
    u[10]     primal_lower692  253
    u[10]     primal_lower693  672
    u[10]     primal_lower694  146
    u[10]     primal_lower695  35
    u[10]     primal_lower696  838
    u[10]     primal_lower697  788
    u[10]     primal_lower698  352
    u[10]     primal_lower699  692
    u[10]     primal_lower700  156
    u[10]     primal_lower701  518
    u[10]     primal_lower702  361
    u[10]     primal_lower703  75
    u[10]     primal_lower704  486
    u[10]     primal_lower705  350
    u[10]     primal_lower706  833
    u[10]     primal_lower707  761
    u[10]     primal_lower708  568
    u[10]     primal_lower709  116
    u[10]     primal_lower710  338
    u[10]     primal_lower711  868
    u[10]     primal_lower712  411
    u[10]     primal_lower713  216
    u[10]     primal_lower714  501
    u[10]     primal_lower715  607
    u[10]     primal_lower716  440
    u[10]     primal_lower717  866
    u[10]     primal_lower718  525
    u[10]     primal_lower719  915
    u[10]     primal_lower720  507
    u[10]     primal_lower721  888
    u[10]     primal_lower722  965
    u[10]     primal_lower723  975
    u[10]     primal_lower724  430
    u[10]     primal_lower725  687
    u[10]     primal_lower726  347
    u[10]     primal_lower727  213
    u[10]     primal_lower728  605
    u[10]     primal_lower729  34
    u[10]     primal_lower730  49
    u[10]     primal_lower731  956
    u[10]     primal_lower732  97
    u[10]     primal_lower733  734
    u[10]     primal_lower734  576
    u[10]     primal_lower735  242
    u[10]     primal_lower736  315
    u[10]     primal_lower737  903
    u[10]     primal_lower738  154
    u[10]     primal_lower739  945
    u[10]     primal_lower740  121
    u[10]     primal_lower741  770
    u[10]     primal_lower742  910
    u[10]     primal_lower743  988
    u[10]     primal_lower744  638
    u[10]     primal_lower745  730
    u[10]     primal_lower746  268
    u[10]     primal_lower747  408
    u[10]     primal_lower748  929
    u[10]     primal_lower749  518
    u[10]     primal_lower750  308
    u[10]     primal_lower751  294
    u[10]     primal_lower752  325
    u[10]     primal_lower753  515
    u[10]     primal_lower754  124
    u[10]     primal_lower755  532
    u[10]     primal_lower756  813
    u[10]     primal_lower757  715
    u[10]     primal_lower758  444
    u[10]     primal_lower759  107
    u[10]     primal_lower760  50
    u[10]     primal_lower761  930
    u[10]     primal_lower762  520
    u[10]     primal_lower763  606
    u[10]     primal_lower764  243
    u[10]     primal_lower765  66
    u[10]     primal_lower766  608
    u[10]     primal_lower767  508
    u[10]     primal_lower768  372
    u[10]     primal_lower769  436
    u[10]     primal_lower770  215
    u[10]     primal_lower771  287
    u[10]     primal_lower772  930
    u[10]     primal_lower773  857
    u[10]     primal_lower774  841
    u[10]     primal_lower775  343
    u[10]     primal_lower776  255
    u[10]     primal_lower777  229
    u[10]     primal_lower778  750
    u[10]     primal_lower779  635
    u[10]     primal_lower780  741
    u[10]     primal_lower781  709
    u[10]     primal_lower782  603
    u[10]     primal_lower783  716
    u[10]     primal_lower784  717
    u[10]     primal_lower785  494
    u[10]     primal_lower786  990
    u[10]     primal_lower787  639
    u[10]     primal_lower788  174
    u[10]     primal_lower789  671
    u[10]     primal_lower790  109
    u[10]     primal_lower791  142
    u[10]     primal_lower792  845
    u[10]     primal_lower793  787
    u[10]     primal_lower794  256
    u[10]     primal_lower795  403
    u[10]     primal_lower796  331
    u[10]     primal_lower797  124
    u[10]     primal_lower798  734
    u[10]     primal_lower799  329
    u[10]     primal_lower800  434
    u[10]     primal_lower801  133
    u[10]     primal_lower802  652
    u[10]     primal_lower803  60
    u[10]     primal_lower804  382
    u[10]     primal_lower805  3
    u[10]     primal_lower806  577
    u[10]     primal_lower807  189
    u[10]     primal_lower808  620
    u[10]     primal_lower809  692
    u[10]     primal_lower810  779
    u[10]     primal_lower811  291
    u[10]     primal_lower812  552
    u[10]     primal_lower813  493
    u[10]     primal_lower814  362
    u[10]     primal_lower815  434
    u[10]     primal_lower816  587
    u[10]     primal_lower817  407
    u[10]     primal_lower818  454
    u[10]     primal_lower819  521
    u[10]     primal_lower820  133
    u[10]     primal_lower821  799
    u[10]     primal_lower822  537
    u[10]     primal_lower823  919
    u[10]     primal_lower824  203
    u[10]     primal_lower825  392
    u[10]     primal_lower826  197
    u[10]     primal_lower827  190
    u[10]     primal_lower828  253
    u[10]     primal_lower829  193
    u[10]     primal_lower830  995
    u[10]     primal_lower831  949
    u[10]     primal_lower832  32
    u[10]     primal_lower833  277
    u[10]     primal_lower834  164
    u[10]     primal_lower835  563
    u[10]     primal_lower836  773
    u[10]     primal_lower837  848
    u[10]     primal_lower838  351
    u[10]     primal_lower839  14
    u[10]     primal_lower840  469
    u[10]     primal_lower841  819
    u[10]     primal_lower842  100
    u[10]     primal_lower843  213
    u[10]     primal_lower844  741
    u[10]     primal_lower845  146
    u[10]     primal_lower846  957
    u[10]     primal_lower847  122
    u[10]     primal_lower848  912
    u[10]     primal_lower849  300
    u[10]     primal_lower850  198
    u[10]     primal_lower851  699
    u[10]     primal_lower852  559
    u[10]     primal_lower853  753
    u[10]     primal_lower854  309
    u[10]     primal_lower855  156
    u[10]     primal_lower856  460
    u[10]     primal_lower857  14
    u[10]     primal_lower858  533
    u[10]     primal_lower859  851
    u[10]     primal_lower860  796
    u[10]     primal_lower861  462
    u[10]     primal_lower862  465
    u[10]     primal_lower863  587
    u[10]     primal_lower864  844
    u[10]     primal_lower865  88
    u[10]     primal_lower866  184
    u[10]     primal_lower867  233
    u[10]     primal_lower868  370
    u[10]     primal_lower869  307
    u[10]     primal_lower870  964
    u[10]     primal_lower871  647
    u[10]     primal_lower872  764
    u[10]     primal_lower873  144
    u[10]     primal_lower874  459
    u[10]     primal_lower875  566
    u[10]     primal_lower876  206
    u[10]     primal_lower877  430
    u[10]     primal_lower878  543
    u[10]     primal_lower879  825
    u[10]     primal_lower880  480
    u[10]     primal_lower881  336
    u[10]     primal_lower882  921
    u[10]     primal_lower883  418
    u[10]     primal_lower884  987
    u[10]     primal_lower885  342
    u[10]     primal_lower886  198
    u[10]     primal_lower887  821
    u[10]     primal_lower888  147
    u[10]     primal_lower889  691
    u[10]     primal_lower890  857
    u[10]     primal_lower891  252
    u[10]     primal_lower892  834
    u[10]     primal_lower893  951
    u[10]     primal_lower894  653
    u[10]     primal_lower895  484
    u[10]     primal_lower896  524
    u[10]     primal_lower897  237
    u[10]     primal_lower898  342
    u[10]     primal_lower899  493
    u[10]     primal_lower900  637
    u[10]     primal_lower901  933
    u[10]     primal_lower902  539
    u[10]     primal_lower903  653
    u[10]     primal_lower904  836
    u[10]     primal_lower905  173
    u[10]     primal_lower906  194
    u[10]     primal_lower907  963
    u[10]     primal_lower908  935
    u[10]     primal_lower909  582
    u[10]     primal_lower910  827
    u[10]     primal_lower911  954
    u[10]     primal_lower912  398
    u[10]     primal_lower913  881
    u[10]     primal_lower914  776
    u[10]     primal_lower915  158
    u[10]     primal_lower916  44
    u[10]     primal_lower917  765
    u[10]     primal_lower918  841
    u[10]     primal_lower919  460
    u[10]     primal_lower920  446
    u[10]     primal_lower921  127
    u[10]     primal_lower922  431
    u[10]     primal_lower923  387
    u[10]     primal_lower924  384
    u[10]     primal_lower925  883
    u[10]     primal_lower926  113
    u[10]     primal_lower927  794
    u[10]     primal_lower928  75
    u[10]     primal_lower929  398
    u[10]     primal_lower930  837
    u[10]     primal_lower931  264
    u[10]     primal_lower932  774
    u[10]     primal_lower933  649
    u[10]     primal_lower934  147
    u[10]     primal_lower935  455
    u[10]     primal_lower936  890
    u[10]     primal_lower937  626
    u[10]     primal_lower938  408
    u[10]     primal_lower939  992
    u[10]     primal_lower940  578
    u[10]     primal_lower941  204
    u[10]     primal_lower942  100
    u[10]     primal_lower943  804
    u[10]     primal_lower944  366
    u[10]     primal_lower945  456
    u[10]     primal_lower946  265
    u[10]     primal_lower947  818
    u[10]     primal_lower948  299
    u[10]     primal_lower949  728
    u[10]     primal_lower950  639
    u[10]     primal_lower951  668
    u[10]     primal_lower952  10
    u[10]     primal_lower953  722
    u[10]     primal_lower954  169
    u[10]     primal_lower955  671
    u[10]     primal_lower956  940
    u[10]     primal_lower957  977
    u[10]     primal_lower958  245
    u[10]     primal_lower959  668
    u[10]     primal_lower960  190
    u[10]     primal_lower961  76
    u[10]     primal_lower962  749
    u[10]     primal_lower963  987
    u[10]     primal_lower964  228
    u[10]     primal_lower965  484
    u[10]     primal_lower966  791
    u[10]     primal_lower967  590
    u[10]     primal_lower968  665
    u[10]     primal_lower969  661
    u[10]     primal_lower970  454
    u[10]     primal_lower971  214
    u[10]     primal_lower972  953
    u[10]     primal_lower973  116
    u[10]     primal_lower974  95
    u[10]     primal_lower975  297
    u[10]     primal_lower976  984
    u[10]     primal_lower977  764
    u[10]     primal_lower978  304
    u[10]     primal_lower979  53
    u[10]     primal_lower980  628
    u[10]     primal_lower981  368
    u[10]     primal_lower982  686
    u[10]     primal_lower983  371
    u[10]     primal_lower984  416
    u[10]     primal_lower985  959
    u[10]     primal_lower986  969
    u[10]     primal_lower987  476
    u[10]     primal_lower988  813
    u[10]     primal_lower989  512
    u[10]     primal_lower990  774
    u[10]     primal_lower991  64
    u[10]     primal_lower992  661
    u[10]     primal_lower993  807
    u[10]     primal_lower994  765
    u[10]     primal_lower995  871
    u[10]     primal_lower996  79
    u[10]     primal_lower997  266
    u[10]     primal_lower998  975
    u[10]     primal_lower999  783
    u[10]     interdiction[10]  1
    u[10]     mccormick1[10]  -1
    u[10]     mccormick3[10]  1
    u[11]     primal_lower0  407
    u[11]     primal_lower1  323
    u[11]     primal_lower2  719
    u[11]     primal_lower3  217
    u[11]     primal_lower4  320
    u[11]     primal_lower5  496
    u[11]     primal_lower6  949
    u[11]     primal_lower7  404
    u[11]     primal_lower8  14
    u[11]     primal_lower9  816
    u[11]     primal_lower10  103
    u[11]     primal_lower11  148
    u[11]     primal_lower12  739
    u[11]     primal_lower13  869
    u[11]     primal_lower14  561
    u[11]     primal_lower15  54
    u[11]     primal_lower16  648
    u[11]     primal_lower17  178
    u[11]     primal_lower18  215
    u[11]     primal_lower19  18
    u[11]     primal_lower20  764
    u[11]     primal_lower21  375
    u[11]     primal_lower22  954
    u[11]     primal_lower23  622
    u[11]     primal_lower24  798
    u[11]     primal_lower25  135
    u[11]     primal_lower26  572
    u[11]     primal_lower27  964
    u[11]     primal_lower28  451
    u[11]     primal_lower29  712
    u[11]     primal_lower30  866
    u[11]     primal_lower31  392
    u[11]     primal_lower32  445
    u[11]     primal_lower33  876
    u[11]     primal_lower34  309
    u[11]     primal_lower35  976
    u[11]     primal_lower36  1000
    u[11]     primal_lower37  629
    u[11]     primal_lower38  968
    u[11]     primal_lower39  293
    u[11]     primal_lower40  984
    u[11]     primal_lower41  186
    u[11]     primal_lower42  79
    u[11]     primal_lower43  8
    u[11]     primal_lower44  413
    u[11]     primal_lower45  8
    u[11]     primal_lower46  683
    u[11]     primal_lower47  338
    u[11]     primal_lower48  640
    u[11]     primal_lower49  657
    u[11]     primal_lower50  63
    u[11]     primal_lower51  107
    u[11]     primal_lower52  92
    u[11]     primal_lower53  394
    u[11]     primal_lower54  999
    u[11]     primal_lower55  835
    u[11]     primal_lower56  121
    u[11]     primal_lower57  835
    u[11]     primal_lower58  433
    u[11]     primal_lower59  400
    u[11]     primal_lower60  132
    u[11]     primal_lower61  168
    u[11]     primal_lower62  843
    u[11]     primal_lower63  764
    u[11]     primal_lower64  840
    u[11]     primal_lower65  784
    u[11]     primal_lower66  117
    u[11]     primal_lower67  384
    u[11]     primal_lower68  967
    u[11]     primal_lower69  669
    u[11]     primal_lower70  320
    u[11]     primal_lower71  317
    u[11]     primal_lower72  401
    u[11]     primal_lower73  338
    u[11]     primal_lower74  457
    u[11]     primal_lower75  451
    u[11]     primal_lower76  280
    u[11]     primal_lower77  597
    u[11]     primal_lower78  921
    u[11]     primal_lower79  339
    u[11]     primal_lower80  790
    u[11]     primal_lower81  695
    u[11]     primal_lower82  970
    u[11]     primal_lower83  336
    u[11]     primal_lower84  569
    u[11]     primal_lower85  357
    u[11]     primal_lower86  290
    u[11]     primal_lower87  455
    u[11]     primal_lower88  573
    u[11]     primal_lower89  409
    u[11]     primal_lower90  802
    u[11]     primal_lower91  150
    u[11]     primal_lower92  320
    u[11]     primal_lower93  456
    u[11]     primal_lower94  990
    u[11]     primal_lower95  586
    u[11]     primal_lower96  57
    u[11]     primal_lower97  89
    u[11]     primal_lower98  687
    u[11]     primal_lower99  162
    u[11]     primal_lower100  876
    u[11]     primal_lower101  313
    u[11]     primal_lower102  912
    u[11]     primal_lower103  154
    u[11]     primal_lower104  233
    u[11]     primal_lower105  950
    u[11]     primal_lower106  228
    u[11]     primal_lower107  928
    u[11]     primal_lower108  151
    u[11]     primal_lower109  901
    u[11]     primal_lower110  784
    u[11]     primal_lower111  959
    u[11]     primal_lower112  119
    u[11]     primal_lower113  966
    u[11]     primal_lower114  582
    u[11]     primal_lower115  167
    u[11]     primal_lower116  494
    u[11]     primal_lower117  676
    u[11]     primal_lower118  909
    u[11]     primal_lower119  202
    u[11]     primal_lower120  358
    u[11]     primal_lower121  937
    u[11]     primal_lower122  537
    u[11]     primal_lower123  90
    u[11]     primal_lower124  219
    u[11]     primal_lower125  506
    u[11]     primal_lower126  444
    u[11]     primal_lower127  873
    u[11]     primal_lower128  207
    u[11]     primal_lower129  614
    u[11]     primal_lower130  376
    u[11]     primal_lower131  413
    u[11]     primal_lower132  633
    u[11]     primal_lower133  630
    u[11]     primal_lower134  783
    u[11]     primal_lower135  904
    u[11]     primal_lower136  395
    u[11]     primal_lower137  646
    u[11]     primal_lower138  850
    u[11]     primal_lower139  84
    u[11]     primal_lower140  741
    u[11]     primal_lower141  329
    u[11]     primal_lower142  63
    u[11]     primal_lower143  463
    u[11]     primal_lower144  758
    u[11]     primal_lower145  649
    u[11]     primal_lower146  816
    u[11]     primal_lower147  643
    u[11]     primal_lower148  96
    u[11]     primal_lower149  829
    u[11]     primal_lower150  444
    u[11]     primal_lower151  796
    u[11]     primal_lower152  949
    u[11]     primal_lower153  778
    u[11]     primal_lower154  293
    u[11]     primal_lower155  229
    u[11]     primal_lower156  127
    u[11]     primal_lower157  614
    u[11]     primal_lower158  58
    u[11]     primal_lower159  439
    u[11]     primal_lower160  531
    u[11]     primal_lower161  317
    u[11]     primal_lower162  919
    u[11]     primal_lower163  986
    u[11]     primal_lower164  992
    u[11]     primal_lower165  53
    u[11]     primal_lower166  814
    u[11]     primal_lower167  480
    u[11]     primal_lower168  433
    u[11]     primal_lower169  793
    u[11]     primal_lower170  577
    u[11]     primal_lower171  327
    u[11]     primal_lower172  681
    u[11]     primal_lower173  469
    u[11]     primal_lower174  166
    u[11]     primal_lower175  549
    u[11]     primal_lower176  613
    u[11]     primal_lower177  982
    u[11]     primal_lower178  298
    u[11]     primal_lower179  377
    u[11]     primal_lower180  229
    u[11]     primal_lower181  339
    u[11]     primal_lower182  562
    u[11]     primal_lower183  726
    u[11]     primal_lower184  406
    u[11]     primal_lower185  860
    u[11]     primal_lower186  876
    u[11]     primal_lower187  967
    u[11]     primal_lower188  857
    u[11]     primal_lower189  552
    u[11]     primal_lower190  692
    u[11]     primal_lower191  400
    u[11]     primal_lower192  414
    u[11]     primal_lower193  2
    u[11]     primal_lower194  60
    u[11]     primal_lower195  547
    u[11]     primal_lower196  705
    u[11]     primal_lower197  507
    u[11]     primal_lower198  98
    u[11]     primal_lower199  274
    u[11]     primal_lower200  388
    u[11]     primal_lower201  470
    u[11]     primal_lower202  667
    u[11]     primal_lower203  191
    u[11]     primal_lower204  52
    u[11]     primal_lower205  778
    u[11]     primal_lower206  729
    u[11]     primal_lower207  564
    u[11]     primal_lower208  788
    u[11]     primal_lower209  369
    u[11]     primal_lower210  975
    u[11]     primal_lower211  137
    u[11]     primal_lower212  890
    u[11]     primal_lower213  948
    u[11]     primal_lower214  683
    u[11]     primal_lower215  120
    u[11]     primal_lower216  861
    u[11]     primal_lower217  98
    u[11]     primal_lower218  715
    u[11]     primal_lower219  307
    u[11]     primal_lower220  99
    u[11]     primal_lower221  53
    u[11]     primal_lower222  83
    u[11]     primal_lower223  100
    u[11]     primal_lower224  539
    u[11]     primal_lower225  163
    u[11]     primal_lower226  719
    u[11]     primal_lower227  204
    u[11]     primal_lower228  651
    u[11]     primal_lower229  818
    u[11]     primal_lower230  124
    u[11]     primal_lower231  356
    u[11]     primal_lower232  913
    u[11]     primal_lower233  722
    u[11]     primal_lower234  51
    u[11]     primal_lower235  995
    u[11]     primal_lower236  628
    u[11]     primal_lower237  892
    u[11]     primal_lower238  717
    u[11]     primal_lower239  841
    u[11]     primal_lower240  527
    u[11]     primal_lower241  98
    u[11]     primal_lower242  582
    u[11]     primal_lower243  453
    u[11]     primal_lower244  725
    u[11]     primal_lower245  586
    u[11]     primal_lower246  13
    u[11]     primal_lower247  913
    u[11]     primal_lower248  813
    u[11]     primal_lower249  150
    u[11]     primal_lower250  623
    u[11]     primal_lower251  767
    u[11]     primal_lower252  444
    u[11]     primal_lower253  997
    u[11]     primal_lower254  192
    u[11]     primal_lower255  12
    u[11]     primal_lower256  731
    u[11]     primal_lower257  824
    u[11]     primal_lower258  61
    u[11]     primal_lower259  88
    u[11]     primal_lower260  184
    u[11]     primal_lower261  777
    u[11]     primal_lower262  949
    u[11]     primal_lower263  939
    u[11]     primal_lower264  182
    u[11]     primal_lower265  796
    u[11]     primal_lower266  971
    u[11]     primal_lower267  553
    u[11]     primal_lower268  387
    u[11]     primal_lower269  935
    u[11]     primal_lower270  16
    u[11]     primal_lower271  924
    u[11]     primal_lower272  306
    u[11]     primal_lower273  763
    u[11]     primal_lower274  788
    u[11]     primal_lower275  104
    u[11]     primal_lower276  113
    u[11]     primal_lower277  862
    u[11]     primal_lower278  310
    u[11]     primal_lower279  128
    u[11]     primal_lower280  959
    u[11]     primal_lower281  580
    u[11]     primal_lower282  934
    u[11]     primal_lower283  45
    u[11]     primal_lower284  561
    u[11]     primal_lower285  160
    u[11]     primal_lower286  319
    u[11]     primal_lower287  331
    u[11]     primal_lower288  615
    u[11]     primal_lower289  894
    u[11]     primal_lower290  431
    u[11]     primal_lower291  377
    u[11]     primal_lower292  617
    u[11]     primal_lower293  965
    u[11]     primal_lower294  422
    u[11]     primal_lower295  594
    u[11]     primal_lower296  358
    u[11]     primal_lower297  731
    u[11]     primal_lower298  129
    u[11]     primal_lower299  899
    u[11]     primal_lower300  643
    u[11]     primal_lower301  434
    u[11]     primal_lower302  549
    u[11]     primal_lower303  595
    u[11]     primal_lower304  183
    u[11]     primal_lower305  139
    u[11]     primal_lower306  5
    u[11]     primal_lower307  221
    u[11]     primal_lower308  521
    u[11]     primal_lower309  391
    u[11]     primal_lower310  838
    u[11]     primal_lower311  256
    u[11]     primal_lower312  656
    u[11]     primal_lower313  511
    u[11]     primal_lower314  536
    u[11]     primal_lower315  43
    u[11]     primal_lower316  235
    u[11]     primal_lower317  892
    u[11]     primal_lower318  44
    u[11]     primal_lower319  793
    u[11]     primal_lower320  642
    u[11]     primal_lower321  299
    u[11]     primal_lower322  491
    u[11]     primal_lower323  155
    u[11]     primal_lower324  623
    u[11]     primal_lower325  209
    u[11]     primal_lower326  68
    u[11]     primal_lower327  943
    u[11]     primal_lower328  948
    u[11]     primal_lower329  736
    u[11]     primal_lower330  872
    u[11]     primal_lower331  56
    u[11]     primal_lower332  233
    u[11]     primal_lower333  773
    u[11]     primal_lower334  840
    u[11]     primal_lower335  927
    u[11]     primal_lower336  694
    u[11]     primal_lower337  830
    u[11]     primal_lower338  678
    u[11]     primal_lower339  268
    u[11]     primal_lower340  885
    u[11]     primal_lower341  133
    u[11]     primal_lower342  778
    u[11]     primal_lower343  785
    u[11]     primal_lower344  812
    u[11]     primal_lower345  183
    u[11]     primal_lower346  983
    u[11]     primal_lower347  859
    u[11]     primal_lower348  146
    u[11]     primal_lower349  412
    u[11]     primal_lower350  70
    u[11]     primal_lower351  103
    u[11]     primal_lower352  472
    u[11]     primal_lower353  463
    u[11]     primal_lower354  146
    u[11]     primal_lower355  680
    u[11]     primal_lower356  758
    u[11]     primal_lower357  693
    u[11]     primal_lower358  443
    u[11]     primal_lower359  914
    u[11]     primal_lower360  986
    u[11]     primal_lower361  656
    u[11]     primal_lower362  978
    u[11]     primal_lower363  333
    u[11]     primal_lower364  630
    u[11]     primal_lower365  712
    u[11]     primal_lower366  318
    u[11]     primal_lower367  208
    u[11]     primal_lower368  166
    u[11]     primal_lower369  650
    u[11]     primal_lower370  854
    u[11]     primal_lower371  714
    u[11]     primal_lower372  106
    u[11]     primal_lower373  479
    u[11]     primal_lower374  458
    u[11]     primal_lower375  731
    u[11]     primal_lower376  203
    u[11]     primal_lower377  683
    u[11]     primal_lower378  955
    u[11]     primal_lower379  55
    u[11]     primal_lower380  252
    u[11]     primal_lower381  775
    u[11]     primal_lower382  109
    u[11]     primal_lower383  260
    u[11]     primal_lower384  180
    u[11]     primal_lower385  417
    u[11]     primal_lower386  452
    u[11]     primal_lower387  321
    u[11]     primal_lower388  923
    u[11]     primal_lower389  570
    u[11]     primal_lower390  382
    u[11]     primal_lower391  356
    u[11]     primal_lower392  175
    u[11]     primal_lower393  305
    u[11]     primal_lower394  617
    u[11]     primal_lower395  434
    u[11]     primal_lower396  301
    u[11]     primal_lower397  533
    u[11]     primal_lower398  57
    u[11]     primal_lower399  296
    u[11]     primal_lower400  255
    u[11]     primal_lower401  337
    u[11]     primal_lower402  137
    u[11]     primal_lower403  178
    u[11]     primal_lower404  652
    u[11]     primal_lower405  416
    u[11]     primal_lower406  150
    u[11]     primal_lower407  320
    u[11]     primal_lower408  623
    u[11]     primal_lower409  771
    u[11]     primal_lower410  834
    u[11]     primal_lower411  1000
    u[11]     primal_lower412  613
    u[11]     primal_lower413  365
    u[11]     primal_lower414  77
    u[11]     primal_lower415  175
    u[11]     primal_lower416  833
    u[11]     primal_lower417  163
    u[11]     primal_lower418  637
    u[11]     primal_lower419  948
    u[11]     primal_lower420  672
    u[11]     primal_lower421  798
    u[11]     primal_lower422  315
    u[11]     primal_lower423  131
    u[11]     primal_lower424  629
    u[11]     primal_lower425  390
    u[11]     primal_lower426  141
    u[11]     primal_lower427  595
    u[11]     primal_lower428  371
    u[11]     primal_lower429  798
    u[11]     primal_lower430  491
    u[11]     primal_lower431  649
    u[11]     primal_lower432  38
    u[11]     primal_lower433  598
    u[11]     primal_lower434  229
    u[11]     primal_lower435  227
    u[11]     primal_lower436  618
    u[11]     primal_lower437  894
    u[11]     primal_lower438  648
    u[11]     primal_lower439  343
    u[11]     primal_lower440  665
    u[11]     primal_lower441  69
    u[11]     primal_lower442  588
    u[11]     primal_lower443  911
    u[11]     primal_lower444  826
    u[11]     primal_lower445  943
    u[11]     primal_lower446  792
    u[11]     primal_lower447  12
    u[11]     primal_lower448  27
    u[11]     primal_lower449  453
    u[11]     primal_lower450  280
    u[11]     primal_lower451  1000
    u[11]     primal_lower452  51
    u[11]     primal_lower453  146
    u[11]     primal_lower454  762
    u[11]     primal_lower455  336
    u[11]     primal_lower456  799
    u[11]     primal_lower457  757
    u[11]     primal_lower458  416
    u[11]     primal_lower459  971
    u[11]     primal_lower460  529
    u[11]     primal_lower461  354
    u[11]     primal_lower462  79
    u[11]     primal_lower463  946
    u[11]     primal_lower464  338
    u[11]     primal_lower465  333
    u[11]     primal_lower466  438
    u[11]     primal_lower467  92
    u[11]     primal_lower468  60
    u[11]     primal_lower469  201
    u[11]     primal_lower470  453
    u[11]     primal_lower471  716
    u[11]     primal_lower472  401
    u[11]     primal_lower473  505
    u[11]     primal_lower474  88
    u[11]     primal_lower475  91
    u[11]     primal_lower476  500
    u[11]     primal_lower477  35
    u[11]     primal_lower478  421
    u[11]     primal_lower479  321
    u[11]     primal_lower480  542
    u[11]     primal_lower481  467
    u[11]     primal_lower482  402
    u[11]     primal_lower483  700
    u[11]     primal_lower484  150
    u[11]     primal_lower485  378
    u[11]     primal_lower486  208
    u[11]     primal_lower487  661
    u[11]     primal_lower488  48
    u[11]     primal_lower489  95
    u[11]     primal_lower490  229
    u[11]     primal_lower491  611
    u[11]     primal_lower492  20
    u[11]     primal_lower493  884
    u[11]     primal_lower494  877
    u[11]     primal_lower495  39
    u[11]     primal_lower496  743
    u[11]     primal_lower497  684
    u[11]     primal_lower498  476
    u[11]     primal_lower499  905
    u[11]     primal_lower500  271
    u[11]     primal_lower501  554
    u[11]     primal_lower502  947
    u[11]     primal_lower503  498
    u[11]     primal_lower504  643
    u[11]     primal_lower505  591
    u[11]     primal_lower506  216
    u[11]     primal_lower507  293
    u[11]     primal_lower508  500
    u[11]     primal_lower509  970
    u[11]     primal_lower510  762
    u[11]     primal_lower511  980
    u[11]     primal_lower512  523
    u[11]     primal_lower513  872
    u[11]     primal_lower514  504
    u[11]     primal_lower515  24
    u[11]     primal_lower516  186
    u[11]     primal_lower517  216
    u[11]     primal_lower518  867
    u[11]     primal_lower519  38
    u[11]     primal_lower520  752
    u[11]     primal_lower521  203
    u[11]     primal_lower522  893
    u[11]     primal_lower523  572
    u[11]     primal_lower524  680
    u[11]     primal_lower525  901
    u[11]     primal_lower526  763
    u[11]     primal_lower527  574
    u[11]     primal_lower528  640
    u[11]     primal_lower529  900
    u[11]     primal_lower530  897
    u[11]     primal_lower531  982
    u[11]     primal_lower532  490
    u[11]     primal_lower533  971
    u[11]     primal_lower534  410
    u[11]     primal_lower535  761
    u[11]     primal_lower536  402
    u[11]     primal_lower537  53
    u[11]     primal_lower538  22
    u[11]     primal_lower539  358
    u[11]     primal_lower540  193
    u[11]     primal_lower541  683
    u[11]     primal_lower542  208
    u[11]     primal_lower543  616
    u[11]     primal_lower544  469
    u[11]     primal_lower545  668
    u[11]     primal_lower546  369
    u[11]     primal_lower547  689
    u[11]     primal_lower548  164
    u[11]     primal_lower549  365
    u[11]     primal_lower550  277
    u[11]     primal_lower551  424
    u[11]     primal_lower552  162
    u[11]     primal_lower553  910
    u[11]     primal_lower554  628
    u[11]     primal_lower555  57
    u[11]     primal_lower556  111
    u[11]     primal_lower557  97
    u[11]     primal_lower558  286
    u[11]     primal_lower559  90
    u[11]     primal_lower560  544
    u[11]     primal_lower561  357
    u[11]     primal_lower562  319
    u[11]     primal_lower563  104
    u[11]     primal_lower564  93
    u[11]     primal_lower565  452
    u[11]     primal_lower566  582
    u[11]     primal_lower567  461
    u[11]     primal_lower568  111
    u[11]     primal_lower569  954
    u[11]     primal_lower570  790
    u[11]     primal_lower571  720
    u[11]     primal_lower572  517
    u[11]     primal_lower573  646
    u[11]     primal_lower574  477
    u[11]     primal_lower575  858
    u[11]     primal_lower576  654
    u[11]     primal_lower577  109
    u[11]     primal_lower578  4
    u[11]     primal_lower579  18
    u[11]     primal_lower580  703
    u[11]     primal_lower581  417
    u[11]     primal_lower582  635
    u[11]     primal_lower583  695
    u[11]     primal_lower584  548
    u[11]     primal_lower585  970
    u[11]     primal_lower586  416
    u[11]     primal_lower587  583
    u[11]     primal_lower588  861
    u[11]     primal_lower589  798
    u[11]     primal_lower590  715
    u[11]     primal_lower591  383
    u[11]     primal_lower592  547
    u[11]     primal_lower593  953
    u[11]     primal_lower594  467
    u[11]     primal_lower595  920
    u[11]     primal_lower596  175
    u[11]     primal_lower597  436
    u[11]     primal_lower598  502
    u[11]     primal_lower599  649
    u[11]     primal_lower600  706
    u[11]     primal_lower601  104
    u[11]     primal_lower602  633
    u[11]     primal_lower603  168
    u[11]     primal_lower604  200
    u[11]     primal_lower605  526
    u[11]     primal_lower606  540
    u[11]     primal_lower607  226
    u[11]     primal_lower608  201
    u[11]     primal_lower609  656
    u[11]     primal_lower610  600
    u[11]     primal_lower611  811
    u[11]     primal_lower612  479
    u[11]     primal_lower613  521
    u[11]     primal_lower614  628
    u[11]     primal_lower615  597
    u[11]     primal_lower616  719
    u[11]     primal_lower617  625
    u[11]     primal_lower618  592
    u[11]     primal_lower619  641
    u[11]     primal_lower620  411
    u[11]     primal_lower621  951
    u[11]     primal_lower622  116
    u[11]     primal_lower623  222
    u[11]     primal_lower624  39
    u[11]     primal_lower625  245
    u[11]     primal_lower626  338
    u[11]     primal_lower627  683
    u[11]     primal_lower628  809
    u[11]     primal_lower629  873
    u[11]     primal_lower630  445
    u[11]     primal_lower631  346
    u[11]     primal_lower632  800
    u[11]     primal_lower633  218
    u[11]     primal_lower634  152
    u[11]     primal_lower635  439
    u[11]     primal_lower636  986
    u[11]     primal_lower637  421
    u[11]     primal_lower638  889
    u[11]     primal_lower639  816
    u[11]     primal_lower640  348
    u[11]     primal_lower641  858
    u[11]     primal_lower642  617
    u[11]     primal_lower643  777
    u[11]     primal_lower644  554
    u[11]     primal_lower645  18
    u[11]     primal_lower646  351
    u[11]     primal_lower647  541
    u[11]     primal_lower648  426
    u[11]     primal_lower649  25
    u[11]     primal_lower650  822
    u[11]     primal_lower651  989
    u[11]     primal_lower652  534
    u[11]     primal_lower653  364
    u[11]     primal_lower654  861
    u[11]     primal_lower655  629
    u[11]     primal_lower656  985
    u[11]     primal_lower657  435
    u[11]     primal_lower658  429
    u[11]     primal_lower659  770
    u[11]     primal_lower660  798
    u[11]     primal_lower661  415
    u[11]     primal_lower662  539
    u[11]     primal_lower663  615
    u[11]     primal_lower664  755
    u[11]     primal_lower665  417
    u[11]     primal_lower666  491
    u[11]     primal_lower667  158
    u[11]     primal_lower668  875
    u[11]     primal_lower669  129
    u[11]     primal_lower670  641
    u[11]     primal_lower671  922
    u[11]     primal_lower672  79
    u[11]     primal_lower673  996
    u[11]     primal_lower674  612
    u[11]     primal_lower675  510
    u[11]     primal_lower676  20
    u[11]     primal_lower677  475
    u[11]     primal_lower678  722
    u[11]     primal_lower679  503
    u[11]     primal_lower680  25
    u[11]     primal_lower681  473
    u[11]     primal_lower682  423
    u[11]     primal_lower683  588
    u[11]     primal_lower684  547
    u[11]     primal_lower685  930
    u[11]     primal_lower686  442
    u[11]     primal_lower687  782
    u[11]     primal_lower688  101
    u[11]     primal_lower689  355
    u[11]     primal_lower690  590
    u[11]     primal_lower691  739
    u[11]     primal_lower692  244
    u[11]     primal_lower693  372
    u[11]     primal_lower694  38
    u[11]     primal_lower695  906
    u[11]     primal_lower696  570
    u[11]     primal_lower697  987
    u[11]     primal_lower698  911
    u[11]     primal_lower699  480
    u[11]     primal_lower700  723
    u[11]     primal_lower701  181
    u[11]     primal_lower702  488
    u[11]     primal_lower703  626
    u[11]     primal_lower704  677
    u[11]     primal_lower705  130
    u[11]     primal_lower706  301
    u[11]     primal_lower707  381
    u[11]     primal_lower708  84
    u[11]     primal_lower709  208
    u[11]     primal_lower710  990
    u[11]     primal_lower711  792
    u[11]     primal_lower712  823
    u[11]     primal_lower713  863
    u[11]     primal_lower714  284
    u[11]     primal_lower715  374
    u[11]     primal_lower716  28
    u[11]     primal_lower717  942
    u[11]     primal_lower718  716
    u[11]     primal_lower719  458
    u[11]     primal_lower720  370
    u[11]     primal_lower721  564
    u[11]     primal_lower722  201
    u[11]     primal_lower723  403
    u[11]     primal_lower724  946
    u[11]     primal_lower725  219
    u[11]     primal_lower726  55
    u[11]     primal_lower727  753
    u[11]     primal_lower728  681
    u[11]     primal_lower729  110
    u[11]     primal_lower730  432
    u[11]     primal_lower731  403
    u[11]     primal_lower732  845
    u[11]     primal_lower733  989
    u[11]     primal_lower734  524
    u[11]     primal_lower735  574
    u[11]     primal_lower736  722
    u[11]     primal_lower737  182
    u[11]     primal_lower738  390
    u[11]     primal_lower739  925
    u[11]     primal_lower740  741
    u[11]     primal_lower741  9
    u[11]     primal_lower742  50
    u[11]     primal_lower743  123
    u[11]     primal_lower744  525
    u[11]     primal_lower745  966
    u[11]     primal_lower746  387
    u[11]     primal_lower747  188
    u[11]     primal_lower748  893
    u[11]     primal_lower749  162
    u[11]     primal_lower750  835
    u[11]     primal_lower751  810
    u[11]     primal_lower752  116
    u[11]     primal_lower753  135
    u[11]     primal_lower754  107
    u[11]     primal_lower755  944
    u[11]     primal_lower756  753
    u[11]     primal_lower757  943
    u[11]     primal_lower758  931
    u[11]     primal_lower759  338
    u[11]     primal_lower760  577
    u[11]     primal_lower761  361
    u[11]     primal_lower762  972
    u[11]     primal_lower763  61
    u[11]     primal_lower764  207
    u[11]     primal_lower765  897
    u[11]     primal_lower766  7
    u[11]     primal_lower767  747
    u[11]     primal_lower768  80
    u[11]     primal_lower769  400
    u[11]     primal_lower770  462
    u[11]     primal_lower771  763
    u[11]     primal_lower772  494
    u[11]     primal_lower773  501
    u[11]     primal_lower774  109
    u[11]     primal_lower775  827
    u[11]     primal_lower776  966
    u[11]     primal_lower777  921
    u[11]     primal_lower778  602
    u[11]     primal_lower779  967
    u[11]     primal_lower780  172
    u[11]     primal_lower781  988
    u[11]     primal_lower782  34
    u[11]     primal_lower783  947
    u[11]     primal_lower784  908
    u[11]     primal_lower785  330
    u[11]     primal_lower786  170
    u[11]     primal_lower787  819
    u[11]     primal_lower788  381
    u[11]     primal_lower789  22
    u[11]     primal_lower790  604
    u[11]     primal_lower791  834
    u[11]     primal_lower792  844
    u[11]     primal_lower793  727
    u[11]     primal_lower794  95
    u[11]     primal_lower795  303
    u[11]     primal_lower796  922
    u[11]     primal_lower797  739
    u[11]     primal_lower798  426
    u[11]     primal_lower799  344
    u[11]     primal_lower800  609
    u[11]     primal_lower801  420
    u[11]     primal_lower802  960
    u[11]     primal_lower803  552
    u[11]     primal_lower804  682
    u[11]     primal_lower805  359
    u[11]     primal_lower806  389
    u[11]     primal_lower807  380
    u[11]     primal_lower808  864
    u[11]     primal_lower809  947
    u[11]     primal_lower810  471
    u[11]     primal_lower811  970
    u[11]     primal_lower812  175
    u[11]     primal_lower813  465
    u[11]     primal_lower814  886
    u[11]     primal_lower815  105
    u[11]     primal_lower816  815
    u[11]     primal_lower817  662
    u[11]     primal_lower818  149
    u[11]     primal_lower819  221
    u[11]     primal_lower820  268
    u[11]     primal_lower821  35
    u[11]     primal_lower822  984
    u[11]     primal_lower823  819
    u[11]     primal_lower824  218
    u[11]     primal_lower825  844
    u[11]     primal_lower826  401
    u[11]     primal_lower827  682
    u[11]     primal_lower828  217
    u[11]     primal_lower829  989
    u[11]     primal_lower830  490
    u[11]     primal_lower831  537
    u[11]     primal_lower832  916
    u[11]     primal_lower833  780
    u[11]     primal_lower834  888
    u[11]     primal_lower835  247
    u[11]     primal_lower836  225
    u[11]     primal_lower837  420
    u[11]     primal_lower838  358
    u[11]     primal_lower839  122
    u[11]     primal_lower840  313
    u[11]     primal_lower841  743
    u[11]     primal_lower842  355
    u[11]     primal_lower843  996
    u[11]     primal_lower844  724
    u[11]     primal_lower845  809
    u[11]     primal_lower846  89
    u[11]     primal_lower847  553
    u[11]     primal_lower848  535
    u[11]     primal_lower849  648
    u[11]     primal_lower850  794
    u[11]     primal_lower851  143
    u[11]     primal_lower852  742
    u[11]     primal_lower853  768
    u[11]     primal_lower854  745
    u[11]     primal_lower855  539
    u[11]     primal_lower856  448
    u[11]     primal_lower857  114
    u[11]     primal_lower858  409
    u[11]     primal_lower859  239
    u[11]     primal_lower860  795
    u[11]     primal_lower861  677
    u[11]     primal_lower862  677
    u[11]     primal_lower863  466
    u[11]     primal_lower864  955
    u[11]     primal_lower865  516
    u[11]     primal_lower866  948
    u[11]     primal_lower867  656
    u[11]     primal_lower868  638
    u[11]     primal_lower869  623
    u[11]     primal_lower870  235
    u[11]     primal_lower871  123
    u[11]     primal_lower872  456
    u[11]     primal_lower873  876
    u[11]     primal_lower874  487
    u[11]     primal_lower875  541
    u[11]     primal_lower876  877
    u[11]     primal_lower877  261
    u[11]     primal_lower878  206
    u[11]     primal_lower879  448
    u[11]     primal_lower880  508
    u[11]     primal_lower881  628
    u[11]     primal_lower882  312
    u[11]     primal_lower883  689
    u[11]     primal_lower884  391
    u[11]     primal_lower885  213
    u[11]     primal_lower886  178
    u[11]     primal_lower887  73
    u[11]     primal_lower888  471
    u[11]     primal_lower889  767
    u[11]     primal_lower890  792
    u[11]     primal_lower891  224
    u[11]     primal_lower892  14
    u[11]     primal_lower893  6
    u[11]     primal_lower894  561
    u[11]     primal_lower895  931
    u[11]     primal_lower896  315
    u[11]     primal_lower897  313
    u[11]     primal_lower898  930
    u[11]     primal_lower899  996
    u[11]     primal_lower900  364
    u[11]     primal_lower901  588
    u[11]     primal_lower902  847
    u[11]     primal_lower903  441
    u[11]     primal_lower904  40
    u[11]     primal_lower905  297
    u[11]     primal_lower906  942
    u[11]     primal_lower907  975
    u[11]     primal_lower908  854
    u[11]     primal_lower909  410
    u[11]     primal_lower910  378
    u[11]     primal_lower911  833
    u[11]     primal_lower912  82
    u[11]     primal_lower913  472
    u[11]     primal_lower914  407
    u[11]     primal_lower915  237
    u[11]     primal_lower916  75
    u[11]     primal_lower917  380
    u[11]     primal_lower918  533
    u[11]     primal_lower919  363
    u[11]     primal_lower920  114
    u[11]     primal_lower921  582
    u[11]     primal_lower922  107
    u[11]     primal_lower923  114
    u[11]     primal_lower924  7
    u[11]     primal_lower925  863
    u[11]     primal_lower926  40
    u[11]     primal_lower927  542
    u[11]     primal_lower928  279
    u[11]     primal_lower929  466
    u[11]     primal_lower930  537
    u[11]     primal_lower931  756
    u[11]     primal_lower932  525
    u[11]     primal_lower933  624
    u[11]     primal_lower934  274
    u[11]     primal_lower935  987
    u[11]     primal_lower936  582
    u[11]     primal_lower937  350
    u[11]     primal_lower938  908
    u[11]     primal_lower939  95
    u[11]     primal_lower940  630
    u[11]     primal_lower941  555
    u[11]     primal_lower942  219
    u[11]     primal_lower943  899
    u[11]     primal_lower944  573
    u[11]     primal_lower945  580
    u[11]     primal_lower946  37
    u[11]     primal_lower947  345
    u[11]     primal_lower948  18
    u[11]     primal_lower949  599
    u[11]     primal_lower950  691
    u[11]     primal_lower951  499
    u[11]     primal_lower952  790
    u[11]     primal_lower953  953
    u[11]     primal_lower954  456
    u[11]     primal_lower955  574
    u[11]     primal_lower956  704
    u[11]     primal_lower957  429
    u[11]     primal_lower958  868
    u[11]     primal_lower959  496
    u[11]     primal_lower960  349
    u[11]     primal_lower961  555
    u[11]     primal_lower962  705
    u[11]     primal_lower963  711
    u[11]     primal_lower964  755
    u[11]     primal_lower965  747
    u[11]     primal_lower966  219
    u[11]     primal_lower967  106
    u[11]     primal_lower968  768
    u[11]     primal_lower969  9
    u[11]     primal_lower970  610
    u[11]     primal_lower971  882
    u[11]     primal_lower972  845
    u[11]     primal_lower973  616
    u[11]     primal_lower974  651
    u[11]     primal_lower975  112
    u[11]     primal_lower976  127
    u[11]     primal_lower977  640
    u[11]     primal_lower978  815
    u[11]     primal_lower979  849
    u[11]     primal_lower980  795
    u[11]     primal_lower981  719
    u[11]     primal_lower982  842
    u[11]     primal_lower983  138
    u[11]     primal_lower984  775
    u[11]     primal_lower985  166
    u[11]     primal_lower986  816
    u[11]     primal_lower987  331
    u[11]     primal_lower988  441
    u[11]     primal_lower989  559
    u[11]     primal_lower990  418
    u[11]     primal_lower991  524
    u[11]     primal_lower992  444
    u[11]     primal_lower993  203
    u[11]     primal_lower994  161
    u[11]     primal_lower995  587
    u[11]     primal_lower996  531
    u[11]     primal_lower997  926
    u[11]     primal_lower998  83
    u[11]     primal_lower999  83
    u[11]     interdiction[11]  1
    u[11]     mccormick1[11]  -1
    u[11]     mccormick3[11]  1
    u[12]     primal_lower0  980
    u[12]     primal_lower1  176
    u[12]     primal_lower2  544
    u[12]     primal_lower3  706
    u[12]     primal_lower4  597
    u[12]     primal_lower5  229
    u[12]     primal_lower6  878
    u[12]     primal_lower7  889
    u[12]     primal_lower8  671
    u[12]     primal_lower9  605
    u[12]     primal_lower10  908
    u[12]     primal_lower11  717
    u[12]     primal_lower12  884
    u[12]     primal_lower13  766
    u[12]     primal_lower14  358
    u[12]     primal_lower15  627
    u[12]     primal_lower16  737
    u[12]     primal_lower17  99
    u[12]     primal_lower18  980
    u[12]     primal_lower19  35
    u[12]     primal_lower20  489
    u[12]     primal_lower21  284
    u[12]     primal_lower22  407
    u[12]     primal_lower23  807
    u[12]     primal_lower24  131
    u[12]     primal_lower25  372
    u[12]     primal_lower26  753
    u[12]     primal_lower27  433
    u[12]     primal_lower28  992
    u[12]     primal_lower29  477
    u[12]     primal_lower30  967
    u[12]     primal_lower31  817
    u[12]     primal_lower32  454
    u[12]     primal_lower33  65
    u[12]     primal_lower34  638
    u[12]     primal_lower35  709
    u[12]     primal_lower36  409
    u[12]     primal_lower37  994
    u[12]     primal_lower38  961
    u[12]     primal_lower39  366
    u[12]     primal_lower40  997
    u[12]     primal_lower41  263
    u[12]     primal_lower42  852
    u[12]     primal_lower43  49
    u[12]     primal_lower44  806
    u[12]     primal_lower45  633
    u[12]     primal_lower46  892
    u[12]     primal_lower47  387
    u[12]     primal_lower48  509
    u[12]     primal_lower49  830
    u[12]     primal_lower50  28
    u[12]     primal_lower51  980
    u[12]     primal_lower52  957
    u[12]     primal_lower53  663
    u[12]     primal_lower54  960
    u[12]     primal_lower55  828
    u[12]     primal_lower56  126
    u[12]     primal_lower57  756
    u[12]     primal_lower58  558
    u[12]     primal_lower59  185
    u[12]     primal_lower60  577
    u[12]     primal_lower61  293
    u[12]     primal_lower62  720
    u[12]     primal_lower63  873
    u[12]     primal_lower64  509
    u[12]     primal_lower65  529
    u[12]     primal_lower66  486
    u[12]     primal_lower67  925
    u[12]     primal_lower68  224
    u[12]     primal_lower69  494
    u[12]     primal_lower70  853
    u[12]     primal_lower71  358
    u[12]     primal_lower72  822
    u[12]     primal_lower73  27
    u[12]     primal_lower74  598
    u[12]     primal_lower75  984
    u[12]     primal_lower76  29
    u[12]     primal_lower77  434
    u[12]     primal_lower78  574
    u[12]     primal_lower79  432
    u[12]     primal_lower80  479
    u[12]     primal_lower81  384
    u[12]     primal_lower82  335
    u[12]     primal_lower83  873
    u[12]     primal_lower84  502
    u[12]     primal_lower85  906
    u[12]     primal_lower86  415
    u[12]     primal_lower87  824
    u[12]     primal_lower88  582
    u[12]     primal_lower89  10
    u[12]     primal_lower90  211
    u[12]     primal_lower91  975
    u[12]     primal_lower92  825
    u[12]     primal_lower93  749
    u[12]     primal_lower94  595
    u[12]     primal_lower95  327
    u[12]     primal_lower96  422
    u[12]     primal_lower97  514
    u[12]     primal_lower98  928
    u[12]     primal_lower99  727
    u[12]     primal_lower100  285
    u[12]     primal_lower101  658
    u[12]     primal_lower102  121
    u[12]     primal_lower103  475
    u[12]     primal_lower104  590
    u[12]     primal_lower105  875
    u[12]     primal_lower106  157
    u[12]     primal_lower107  529
    u[12]     primal_lower108  188
    u[12]     primal_lower109  938
    u[12]     primal_lower110  725
    u[12]     primal_lower111  304
    u[12]     primal_lower112  364
    u[12]     primal_lower113  215
    u[12]     primal_lower114  375
    u[12]     primal_lower115  220
    u[12]     primal_lower116  603
    u[12]     primal_lower117  785
    u[12]     primal_lower118  518
    u[12]     primal_lower119  811
    u[12]     primal_lower120  699
    u[12]     primal_lower121  946
    u[12]     primal_lower122  706
    u[12]     primal_lower123  527
    u[12]     primal_lower124  204
    u[12]     primal_lower125  719
    u[12]     primal_lower126  317
    u[12]     primal_lower127  618
    u[12]     primal_lower128  512
    u[12]     primal_lower129  755
    u[12]     primal_lower130  553
    u[12]     primal_lower131  966
    u[12]     primal_lower132  702
    u[12]     primal_lower133  775
    u[12]     primal_lower134  192
    u[12]     primal_lower135  209
    u[12]     primal_lower136  948
    u[12]     primal_lower137  951
    u[12]     primal_lower138  947
    u[12]     primal_lower139  997
    u[12]     primal_lower140  954
    u[12]     primal_lower141  110
    u[12]     primal_lower142  572
    u[12]     primal_lower143  472
    u[12]     primal_lower144  103
    u[12]     primal_lower145  542
    u[12]     primal_lower146  153
    u[12]     primal_lower147  996
    u[12]     primal_lower148  141
    u[12]     primal_lower149  442
    u[12]     primal_lower150  9
    u[12]     primal_lower151  525
    u[12]     primal_lower152  494
    u[12]     primal_lower153  803
    u[12]     primal_lower154  498
    u[12]     primal_lower155  554
    u[12]     primal_lower156  376
    u[12]     primal_lower157  675
    u[12]     primal_lower158  431
    u[12]     primal_lower159  772
    u[12]     primal_lower160  600
    u[12]     primal_lower161  722
    u[12]     primal_lower162  488
    u[12]     primal_lower163  411
    u[12]     primal_lower164  53
    u[12]     primal_lower165  170
    u[12]     primal_lower166  119
    u[12]     primal_lower167  893
    u[12]     primal_lower168  530
    u[12]     primal_lower169  154
    u[12]     primal_lower170  706
    u[12]     primal_lower171  228
    u[12]     primal_lower172  318
    u[12]     primal_lower173  194
    u[12]     primal_lower174  751
    u[12]     primal_lower175  38
    u[12]     primal_lower176  778
    u[12]     primal_lower177  487
    u[12]     primal_lower178  339
    u[12]     primal_lower179  930
    u[12]     primal_lower180  810
    u[12]     primal_lower181  932
    u[12]     primal_lower182  511
    u[12]     primal_lower183  315
    u[12]     primal_lower184  275
    u[12]     primal_lower185  345
    u[12]     primal_lower186  733
    u[12]     primal_lower187  64
    u[12]     primal_lower188  938
    u[12]     primal_lower189  161
    u[12]     primal_lower190  49
    u[12]     primal_lower191  381
    u[12]     primal_lower192  871
    u[12]     primal_lower193  31
    u[12]     primal_lower194  905
    u[12]     primal_lower195  420
    u[12]     primal_lower196  634
    u[12]     primal_lower197  464
    u[12]     primal_lower198  167
    u[12]     primal_lower199  471
    u[12]     primal_lower200  125
    u[12]     primal_lower201  763
    u[12]     primal_lower202  292
    u[12]     primal_lower203  988
    u[12]     primal_lower204  613
    u[12]     primal_lower205  803
    u[12]     primal_lower206  954
    u[12]     primal_lower207  177
    u[12]     primal_lower208  641
    u[12]     primal_lower209  830
    u[12]     primal_lower210  68
    u[12]     primal_lower211  450
    u[12]     primal_lower212  223
    u[12]     primal_lower213  345
    u[12]     primal_lower214  416
    u[12]     primal_lower215  973
    u[12]     primal_lower216  150
    u[12]     primal_lower217  331
    u[12]     primal_lower218  872
    u[12]     primal_lower219  556
    u[12]     primal_lower220  16
    u[12]     primal_lower221  990
    u[12]     primal_lower222  996
    u[12]     primal_lower223  957
    u[12]     primal_lower224  484
    u[12]     primal_lower225  352
    u[12]     primal_lower226  160
    u[12]     primal_lower227  261
    u[12]     primal_lower228  180
    u[12]     primal_lower229  555
    u[12]     primal_lower230  81
    u[12]     primal_lower231  437
    u[12]     primal_lower232  398
    u[12]     primal_lower233  883
    u[12]     primal_lower234  284
    u[12]     primal_lower235  12
    u[12]     primal_lower236  209
    u[12]     primal_lower237  153
    u[12]     primal_lower238  306
    u[12]     primal_lower239  778
    u[12]     primal_lower240  544
    u[12]     primal_lower241  723
    u[12]     primal_lower242  643
    u[12]     primal_lower243  490
    u[12]     primal_lower244  530
    u[12]     primal_lower245  343
    u[12]     primal_lower246  222
    u[12]     primal_lower247  998
    u[12]     primal_lower248  266
    u[12]     primal_lower249  563
    u[12]     primal_lower250  892
    u[12]     primal_lower251  220
    u[12]     primal_lower252  569
    u[12]     primal_lower253  854
    u[12]     primal_lower254  549
    u[12]     primal_lower255  345
    u[12]     primal_lower256  840
    u[12]     primal_lower257  881
    u[12]     primal_lower258  770
    u[12]     primal_lower259  905
    u[12]     primal_lower260  465
    u[12]     primal_lower261  190
    u[12]     primal_lower262  2
    u[12]     primal_lower263  80
    u[12]     primal_lower264  187
    u[12]     primal_lower265  441
    u[12]     primal_lower266  596
    u[12]     primal_lower267  334
    u[12]     primal_lower268  272
    u[12]     primal_lower269  964
    u[12]     primal_lower270  673
    u[12]     primal_lower271  29
    u[12]     primal_lower272  499
    u[12]     primal_lower273  520
    u[12]     primal_lower274  737
    u[12]     primal_lower275  73
    u[12]     primal_lower276  966
    u[12]     primal_lower277  227
    u[12]     primal_lower278  459
    u[12]     primal_lower279  777
    u[12]     primal_lower280  512
    u[12]     primal_lower281  129
    u[12]     primal_lower282  831
    u[12]     primal_lower283  42
    u[12]     primal_lower284  662
    u[12]     primal_lower285  161
    u[12]     primal_lower286  372
    u[12]     primal_lower287  196
    u[12]     primal_lower288  740
    u[12]     primal_lower289  579
    u[12]     primal_lower290  452
    u[12]     primal_lower291  102
    u[12]     primal_lower292  322
    u[12]     primal_lower293  690
    u[12]     primal_lower294  183
    u[12]     primal_lower295  603
    u[12]     primal_lower296  983
    u[12]     primal_lower297  532
    u[12]     primal_lower298  242
    u[12]     primal_lower299  300
    u[12]     primal_lower300  928
    u[12]     primal_lower301  407
    u[12]     primal_lower302  206
    u[12]     primal_lower303  836
    u[12]     primal_lower304  664
    u[12]     primal_lower305  980
    u[12]     primal_lower306  414
    u[12]     primal_lower307  978
    u[12]     primal_lower308  330
    u[12]     primal_lower309  692
    u[12]     primal_lower310  459
    u[12]     primal_lower311  253
    u[12]     primal_lower312  845
    u[12]     primal_lower313  864
    u[12]     primal_lower314  205
    u[12]     primal_lower315  660
    u[12]     primal_lower316  644
    u[12]     primal_lower317  673
    u[12]     primal_lower318  349
    u[12]     primal_lower319  974
    u[12]     primal_lower320  603
    u[12]     primal_lower321  352
    u[12]     primal_lower322  500
    u[12]     primal_lower323  728
    u[12]     primal_lower324  940
    u[12]     primal_lower325  474
    u[12]     primal_lower326  549
    u[12]     primal_lower327  768
    u[12]     primal_lower328  317
    u[12]     primal_lower329  445
    u[12]     primal_lower330  261
    u[12]     primal_lower331  781
    u[12]     primal_lower332  474
    u[12]     primal_lower333  602
    u[12]     primal_lower334  953
    u[12]     primal_lower335  352
    u[12]     primal_lower336  855
    u[12]     primal_lower337  407
    u[12]     primal_lower338  251
    u[12]     primal_lower339  429
    u[12]     primal_lower340  666
    u[12]     primal_lower341  738
    u[12]     primal_lower342  727
    u[12]     primal_lower343  838
    u[12]     primal_lower344  693
    u[12]     primal_lower345  756
    u[12]     primal_lower346  264
    u[12]     primal_lower347  64
    u[12]     primal_lower348  535
    u[12]     primal_lower349  277
    u[12]     primal_lower350  899
    u[12]     primal_lower351  696
    u[12]     primal_lower352  845
    u[12]     primal_lower353  544
    u[12]     primal_lower354  391
    u[12]     primal_lower355  781
    u[12]     primal_lower356  279
    u[12]     primal_lower357  2
    u[12]     primal_lower358  924
    u[12]     primal_lower359  55
    u[12]     primal_lower360  99
    u[12]     primal_lower361  613
    u[12]     primal_lower362  375
    u[12]     primal_lower363  774
    u[12]     primal_lower364  515
    u[12]     primal_lower365  733
    u[12]     primal_lower366  283
    u[12]     primal_lower367  29
    u[12]     primal_lower368  179
    u[12]     primal_lower369  591
    u[12]     primal_lower370  215
    u[12]     primal_lower371  343
    u[12]     primal_lower372  943
    u[12]     primal_lower373  244
    u[12]     primal_lower374  91
    u[12]     primal_lower375  472
    u[12]     primal_lower376  448
    u[12]     primal_lower377  400
    u[12]     primal_lower378  456
    u[12]     primal_lower379  552
    u[12]     primal_lower380  77
    u[12]     primal_lower381  760
    u[12]     primal_lower382  426
    u[12]     primal_lower383  853
    u[12]     primal_lower384  633
    u[12]     primal_lower385  522
    u[12]     primal_lower386  861
    u[12]     primal_lower387  402
    u[12]     primal_lower388  532
    u[12]     primal_lower389  323
    u[12]     primal_lower390  283
    u[12]     primal_lower391  745
    u[12]     primal_lower392  180
    u[12]     primal_lower393  870
    u[12]     primal_lower394  738
    u[12]     primal_lower395  167
    u[12]     primal_lower396  438
    u[12]     primal_lower397  334
    u[12]     primal_lower398  602
    u[12]     primal_lower399  705
    u[12]     primal_lower400  548
    u[12]     primal_lower401  414
    u[12]     primal_lower402  874
    u[12]     primal_lower403  859
    u[12]     primal_lower404  589
    u[12]     primal_lower405  401
    u[12]     primal_lower406  403
    u[12]     primal_lower407  161
    u[12]     primal_lower408  696
    u[12]     primal_lower409  812
    u[12]     primal_lower410  587
    u[12]     primal_lower411  561
    u[12]     primal_lower412  530
    u[12]     primal_lower413  178
    u[12]     primal_lower414  810
    u[12]     primal_lower415  436
    u[12]     primal_lower416  50
    u[12]     primal_lower417  880
    u[12]     primal_lower418  14
    u[12]     primal_lower419  917
    u[12]     primal_lower420  493
    u[12]     primal_lower421  63
    u[12]     primal_lower422  608
    u[12]     primal_lower423  672
    u[12]     primal_lower424  582
    u[12]     primal_lower425  219
    u[12]     primal_lower426  158
    u[12]     primal_lower427  8
    u[12]     primal_lower428  956
    u[12]     primal_lower429  523
    u[12]     primal_lower430  876
    u[12]     primal_lower431  454
    u[12]     primal_lower432  423
    u[12]     primal_lower433  959
    u[12]     primal_lower434  566
    u[12]     primal_lower435  764
    u[12]     primal_lower436  295
    u[12]     primal_lower437  551
    u[12]     primal_lower438  53
    u[12]     primal_lower439  620
    u[12]     primal_lower440  946
    u[12]     primal_lower441  18
    u[12]     primal_lower442  945
    u[12]     primal_lower443  52
    u[12]     primal_lower444  651
    u[12]     primal_lower445  752
    u[12]     primal_lower446  977
    u[12]     primal_lower447  193
    u[12]     primal_lower448  52
    u[12]     primal_lower449  866
    u[12]     primal_lower450  37
    u[12]     primal_lower451  673
    u[12]     primal_lower452  968
    u[12]     primal_lower453  983
    u[12]     primal_lower454  471
    u[12]     primal_lower455  101
    u[12]     primal_lower456  256
    u[12]     primal_lower457  950
    u[12]     primal_lower458  481
    u[12]     primal_lower459  212
    u[12]     primal_lower460  422
    u[12]     primal_lower461  787
    u[12]     primal_lower462  692
    u[12]     primal_lower463  411
    u[12]     primal_lower464  363
    u[12]     primal_lower465  294
    u[12]     primal_lower466  379
    u[12]     primal_lower467  449
    u[12]     primal_lower468  689
    u[12]     primal_lower469  842
    u[12]     primal_lower470  174
    u[12]     primal_lower471  677
    u[12]     primal_lower472  374
    u[12]     primal_lower473  50
    u[12]     primal_lower474  165
    u[12]     primal_lower475  608
    u[12]     primal_lower476  941
    u[12]     primal_lower477  200
    u[12]     primal_lower478  6
    u[12]     primal_lower479  714
    u[12]     primal_lower480  867
    u[12]     primal_lower481  836
    u[12]     primal_lower482  375
    u[12]     primal_lower483  977
    u[12]     primal_lower484  63
    u[12]     primal_lower485  875
    u[12]     primal_lower486  365
    u[12]     primal_lower487  982
    u[12]     primal_lower488  69
    u[12]     primal_lower489  660
    u[12]     primal_lower490  786
    u[12]     primal_lower491  116
    u[12]     primal_lower492  821
    u[12]     primal_lower493  741
    u[12]     primal_lower494  90
    u[12]     primal_lower495  44
    u[12]     primal_lower496  4
    u[12]     primal_lower497  21
    u[12]     primal_lower498  633
    u[12]     primal_lower499  546
    u[12]     primal_lower500  136
    u[12]     primal_lower501  879
    u[12]     primal_lower502  516
    u[12]     primal_lower503  671
    u[12]     primal_lower504  976
    u[12]     primal_lower505  152
    u[12]     primal_lower506  89
    u[12]     primal_lower507  42
    u[12]     primal_lower508  365
    u[12]     primal_lower509  831
    u[12]     primal_lower510  87
    u[12]     primal_lower511  781
    u[12]     primal_lower512  220
    u[12]     primal_lower513  657
    u[12]     primal_lower514  361
    u[12]     primal_lower515  505
    u[12]     primal_lower516  807
    u[12]     primal_lower517  261
    u[12]     primal_lower518  84
    u[12]     primal_lower519  519
    u[12]     primal_lower520  401
    u[12]     primal_lower521  364
    u[12]     primal_lower522  702
    u[12]     primal_lower523  637
    u[12]     primal_lower524  125
    u[12]     primal_lower525  726
    u[12]     primal_lower526  860
    u[12]     primal_lower527  3
    u[12]     primal_lower528  437
    u[12]     primal_lower529  797
    u[12]     primal_lower530  290
    u[12]     primal_lower531  243
    u[12]     primal_lower532  763
    u[12]     primal_lower533  540
    u[12]     primal_lower534  587
    u[12]     primal_lower535  602
    u[12]     primal_lower536  859
    u[12]     primal_lower537  918
    u[12]     primal_lower538  979
    u[12]     primal_lower539  615
    u[12]     primal_lower540  490
    u[12]     primal_lower541  420
    u[12]     primal_lower542  949
    u[12]     primal_lower543  781
    u[12]     primal_lower544  430
    u[12]     primal_lower545  297
    u[12]     primal_lower546  434
    u[12]     primal_lower547  202
    u[12]     primal_lower548  757
    u[12]     primal_lower549  758
    u[12]     primal_lower550  866
    u[12]     primal_lower551  737
    u[12]     primal_lower552  671
    u[12]     primal_lower553  379
    u[12]     primal_lower554  325
    u[12]     primal_lower555  934
    u[12]     primal_lower556  308
    u[12]     primal_lower557  862
    u[12]     primal_lower558  127
    u[12]     primal_lower559  147
    u[12]     primal_lower560  217
    u[12]     primal_lower561  702
    u[12]     primal_lower562  536
    u[12]     primal_lower563  761
    u[12]     primal_lower564  114
    u[12]     primal_lower565  773
    u[12]     primal_lower566  863
    u[12]     primal_lower567  34
    u[12]     primal_lower568  612
    u[12]     primal_lower569  395
    u[12]     primal_lower570  891
    u[12]     primal_lower571  945
    u[12]     primal_lower572  90
    u[12]     primal_lower573  795
    u[12]     primal_lower574  222
    u[12]     primal_lower575  959
    u[12]     primal_lower576  947
    u[12]     primal_lower577  458
    u[12]     primal_lower578  321
    u[12]     primal_lower579  943
    u[12]     primal_lower580  204
    u[12]     primal_lower581  14
    u[12]     primal_lower582  676
    u[12]     primal_lower583  396
    u[12]     primal_lower584  737
    u[12]     primal_lower585  599
    u[12]     primal_lower586  309
    u[12]     primal_lower587  864
    u[12]     primal_lower588  754
    u[12]     primal_lower589  283
    u[12]     primal_lower590  36
    u[12]     primal_lower591  320
    u[12]     primal_lower592  188
    u[12]     primal_lower593  374
    u[12]     primal_lower594  492
    u[12]     primal_lower595  985
    u[12]     primal_lower596  880
    u[12]     primal_lower597  197
    u[12]     primal_lower598  467
    u[12]     primal_lower599  454
    u[12]     primal_lower600  515
    u[12]     primal_lower601  517
    u[12]     primal_lower602  586
    u[12]     primal_lower603  505
    u[12]     primal_lower604  581
    u[12]     primal_lower605  183
    u[12]     primal_lower606  877
    u[12]     primal_lower607  135
    u[12]     primal_lower608  362
    u[12]     primal_lower609  453
    u[12]     primal_lower610  941
    u[12]     primal_lower611  88
    u[12]     primal_lower612  956
    u[12]     primal_lower613  726
    u[12]     primal_lower614  261
    u[12]     primal_lower615  122
    u[12]     primal_lower616  932
    u[12]     primal_lower617  362
    u[12]     primal_lower618  425
    u[12]     primal_lower619  966
    u[12]     primal_lower620  560
    u[12]     primal_lower621  676
    u[12]     primal_lower622  941
    u[12]     primal_lower623  167
    u[12]     primal_lower624  412
    u[12]     primal_lower625  70
    u[12]     primal_lower626  227
    u[12]     primal_lower627  884
    u[12]     primal_lower628  570
    u[12]     primal_lower629  374
    u[12]     primal_lower630  430
    u[12]     primal_lower631  535
    u[12]     primal_lower632  25
    u[12]     primal_lower633  83
    u[12]     primal_lower634  137
    u[12]     primal_lower635  160
    u[12]     primal_lower636  623
    u[12]     primal_lower637  714
    u[12]     primal_lower638  490
    u[12]     primal_lower639  961
    u[12]     primal_lower640  49
    u[12]     primal_lower641  675
    u[12]     primal_lower642  414
    u[12]     primal_lower643  578
    u[12]     primal_lower644  19
    u[12]     primal_lower645  179
    u[12]     primal_lower646  284
    u[12]     primal_lower647  574
    u[12]     primal_lower648  383
    u[12]     primal_lower649  706
    u[12]     primal_lower650  175
    u[12]     primal_lower651  658
    u[12]     primal_lower652  339
    u[12]     primal_lower653  621
    u[12]     primal_lower654  462
    u[12]     primal_lower655  418
    u[12]     primal_lower656  526
    u[12]     primal_lower657  464
    u[12]     primal_lower658  110
    u[12]     primal_lower659  179
    u[12]     primal_lower660  435
    u[12]     primal_lower661  8
    u[12]     primal_lower662  220
    u[12]     primal_lower663  580
    u[12]     primal_lower664  896
    u[12]     primal_lower665  358
    u[12]     primal_lower666  120
    u[12]     primal_lower667  375
    u[12]     primal_lower668  96
    u[12]     primal_lower669  910
    u[12]     primal_lower670  298
    u[12]     primal_lower671  915
    u[12]     primal_lower672  168
    u[12]     primal_lower673  85
    u[12]     primal_lower674  885
    u[12]     primal_lower675  363
    u[12]     primal_lower676  317
    u[12]     primal_lower677  308
    u[12]     primal_lower678  59
    u[12]     primal_lower679  428
    u[12]     primal_lower680  502
    u[12]     primal_lower681  342
    u[12]     primal_lower682  308
    u[12]     primal_lower683  9
    u[12]     primal_lower684  200
    u[12]     primal_lower685  63
    u[12]     primal_lower686  791
    u[12]     primal_lower687  619
    u[12]     primal_lower688  894
    u[12]     primal_lower689  576
    u[12]     primal_lower690  407
    u[12]     primal_lower691  104
    u[12]     primal_lower692  333
    u[12]     primal_lower693  249
    u[12]     primal_lower694  515
    u[12]     primal_lower695  723
    u[12]     primal_lower696  703
    u[12]     primal_lower697  532
    u[12]     primal_lower698  56
    u[12]     primal_lower699  205
    u[12]     primal_lower700  164
    u[12]     primal_lower701  806
    u[12]     primal_lower702  441
    u[12]     primal_lower703  91
    u[12]     primal_lower704  862
    u[12]     primal_lower705  711
    u[12]     primal_lower706  754
    u[12]     primal_lower707  986
    u[12]     primal_lower708  377
    u[12]     primal_lower709  381
    u[12]     primal_lower710  827
    u[12]     primal_lower711  5
    u[12]     primal_lower712  452
    u[12]     primal_lower713  752
    u[12]     primal_lower714  709
    u[12]     primal_lower715  599
    u[12]     primal_lower716  385
    u[12]     primal_lower717  299
    u[12]     primal_lower718  765
    u[12]     primal_lower719  627
    u[12]     primal_lower720  331
    u[12]     primal_lower721  617
    u[12]     primal_lower722  190
    u[12]     primal_lower723  688
    u[12]     primal_lower724  591
    u[12]     primal_lower725  728
    u[12]     primal_lower726  252
    u[12]     primal_lower727  966
    u[12]     primal_lower728  406
    u[12]     primal_lower729  163
    u[12]     primal_lower730  321
    u[12]     primal_lower731  556
    u[12]     primal_lower732  802
    u[12]     primal_lower733  198
    u[12]     primal_lower734  353
    u[12]     primal_lower735  339
    u[12]     primal_lower736  195
    u[12]     primal_lower737  343
    u[12]     primal_lower738  307
    u[12]     primal_lower739  314
    u[12]     primal_lower740  570
    u[12]     primal_lower741  186
    u[12]     primal_lower742  871
    u[12]     primal_lower743  332
    u[12]     primal_lower744  54
    u[12]     primal_lower745  483
    u[12]     primal_lower746  660
    u[12]     primal_lower747  905
    u[12]     primal_lower748  298
    u[12]     primal_lower749  175
    u[12]     primal_lower750  404
    u[12]     primal_lower751  959
    u[12]     primal_lower752  253
    u[12]     primal_lower753  932
    u[12]     primal_lower754  900
    u[12]     primal_lower755  69
    u[12]     primal_lower756  638
    u[12]     primal_lower757  524
    u[12]     primal_lower758  924
    u[12]     primal_lower759  451
    u[12]     primal_lower760  306
    u[12]     primal_lower761  74
    u[12]     primal_lower762  913
    u[12]     primal_lower763  854
    u[12]     primal_lower764  732
    u[12]     primal_lower765  978
    u[12]     primal_lower766  184
    u[12]     primal_lower767  812
    u[12]     primal_lower768  957
    u[12]     primal_lower769  301
    u[12]     primal_lower770  823
    u[12]     primal_lower771  600
    u[12]     primal_lower772  139
    u[12]     primal_lower773  314
    u[12]     primal_lower774  346
    u[12]     primal_lower775  808
    u[12]     primal_lower776  391
    u[12]     primal_lower777  574
    u[12]     primal_lower778  695
    u[12]     primal_lower779  780
    u[12]     primal_lower780  149
    u[12]     primal_lower781  661
    u[12]     primal_lower782  803
    u[12]     primal_lower783  308
    u[12]     primal_lower784  485
    u[12]     primal_lower785  511
    u[12]     primal_lower786  735
    u[12]     primal_lower787  168
    u[12]     primal_lower788  54
    u[12]     primal_lower789  535
    u[12]     primal_lower790  429
    u[12]     primal_lower791  119
    u[12]     primal_lower792  581
    u[12]     primal_lower793  260
    u[12]     primal_lower794  520
    u[12]     primal_lower795  708
    u[12]     primal_lower796  163
    u[12]     primal_lower797  4
    u[12]     primal_lower798  615
    u[12]     primal_lower799  889
    u[12]     primal_lower800  194
    u[12]     primal_lower801  237
    u[12]     primal_lower802  533
    u[12]     primal_lower803  93
    u[12]     primal_lower804  871
    u[12]     primal_lower805  980
    u[12]     primal_lower806  434
    u[12]     primal_lower807  37
    u[12]     primal_lower808  389
    u[12]     primal_lower809  692
    u[12]     primal_lower810  284
    u[12]     primal_lower811  491
    u[12]     primal_lower812  32
    u[12]     primal_lower813  430
    u[12]     primal_lower814  843
    u[12]     primal_lower815  706
    u[12]     primal_lower816  44
    u[12]     primal_lower817  295
    u[12]     primal_lower818  118
    u[12]     primal_lower819  746
    u[12]     primal_lower820  173
    u[12]     primal_lower821  288
    u[12]     primal_lower822  297
    u[12]     primal_lower823  728
    u[12]     primal_lower824  91
    u[12]     primal_lower825  433
    u[12]     primal_lower826  742
    u[12]     primal_lower827  535
    u[12]     primal_lower828  230
    u[12]     primal_lower829  490
    u[12]     primal_lower830  339
    u[12]     primal_lower831  70
    u[12]     primal_lower832  673
    u[12]     primal_lower833  237
    u[12]     primal_lower834  405
    u[12]     primal_lower835  396
    u[12]     primal_lower836  270
    u[12]     primal_lower837  1
    u[12]     primal_lower838  239
    u[12]     primal_lower839  383
    u[12]     primal_lower840  278
    u[12]     primal_lower841  164
    u[12]     primal_lower842  196
    u[12]     primal_lower843  901
    u[12]     primal_lower844  293
    u[12]     primal_lower845  954
    u[12]     primal_lower846  806
    u[12]     primal_lower847  794
    u[12]     primal_lower848  424
    u[12]     primal_lower849  421
    u[12]     primal_lower850  919
    u[12]     primal_lower851  4
    u[12]     primal_lower852  983
    u[12]     primal_lower853  81
    u[12]     primal_lower854  398
    u[12]     primal_lower855  548
    u[12]     primal_lower856  797
    u[12]     primal_lower857  191
    u[12]     primal_lower858  70
    u[12]     primal_lower859  356
    u[12]     primal_lower860  404
    u[12]     primal_lower861  806
    u[12]     primal_lower862  722
    u[12]     primal_lower863  779
    u[12]     primal_lower864  84
    u[12]     primal_lower865  137
    u[12]     primal_lower866  921
    u[12]     primal_lower867  1
    u[12]     primal_lower868  83
    u[12]     primal_lower869  540
    u[12]     primal_lower870  228
    u[12]     primal_lower871  552
    u[12]     primal_lower872  885
    u[12]     primal_lower873  545
    u[12]     primal_lower874  60
    u[12]     primal_lower875  990
    u[12]     primal_lower876  246
    u[12]     primal_lower877  822
    u[12]     primal_lower878  511
    u[12]     primal_lower879  193
    u[12]     primal_lower880  313
    u[12]     primal_lower881  721
    u[12]     primal_lower882  945
    u[12]     primal_lower883  938
    u[12]     primal_lower884  876
    u[12]     primal_lower885  822
    u[12]     primal_lower886  671
    u[12]     primal_lower887  718
    u[12]     primal_lower888  156
    u[12]     primal_lower889  380
    u[12]     primal_lower890  657
    u[12]     primal_lower891  501
    u[12]     primal_lower892  139
    u[12]     primal_lower893  959
    u[12]     primal_lower894  374
    u[12]     primal_lower895  36
    u[12]     primal_lower896  868
    u[12]     primal_lower897  670
    u[12]     primal_lower898  175
    u[12]     primal_lower899  653
    u[12]     primal_lower900  373
    u[12]     primal_lower901  229
    u[12]     primal_lower902  892
    u[12]     primal_lower903  862
    u[12]     primal_lower904  677
    u[12]     primal_lower905  838
    u[12]     primal_lower906  91
    u[12]     primal_lower907  148
    u[12]     primal_lower908  239
    u[12]     primal_lower909  31
    u[12]     primal_lower910  635
    u[12]     primal_lower911  66
    u[12]     primal_lower912  975
    u[12]     primal_lower913  345
    u[12]     primal_lower914  544
    u[12]     primal_lower915  526
    u[12]     primal_lower916  188
    u[12]     primal_lower917  901
    u[12]     primal_lower918  842
    u[12]     primal_lower919  580
    u[12]     primal_lower920  199
    u[12]     primal_lower921  775
    u[12]     primal_lower922  272
    u[12]     primal_lower923  987
    u[12]     primal_lower924  168
    u[12]     primal_lower925  36
    u[12]     primal_lower926  513
    u[12]     primal_lower927  123
    u[12]     primal_lower928  308
    u[12]     primal_lower929  727
    u[12]     primal_lower930  894
    u[12]     primal_lower931  81
    u[12]     primal_lower932  318
    u[12]     primal_lower933  993
    u[12]     primal_lower934  427
    u[12]     primal_lower935  624
    u[12]     primal_lower936  243
    u[12]     primal_lower937  651
    u[12]     primal_lower938  193
    u[12]     primal_lower939  424
    u[12]     primal_lower940  883
    u[12]     primal_lower941  916
    u[12]     primal_lower942  796
    u[12]     primal_lower943  652
    u[12]     primal_lower944  582
    u[12]     primal_lower945  745
    u[12]     primal_lower946  466
    u[12]     primal_lower947  202
    u[12]     primal_lower948  771
    u[12]     primal_lower949  592
    u[12]     primal_lower950  960
    u[12]     primal_lower951  972
    u[12]     primal_lower952  899
    u[12]     primal_lower953  162
    u[12]     primal_lower954  361
    u[12]     primal_lower955  239
    u[12]     primal_lower956  581
    u[12]     primal_lower957  258
    u[12]     primal_lower958  933
    u[12]     primal_lower959  5
    u[12]     primal_lower960  966
    u[12]     primal_lower961  84
    u[12]     primal_lower962  62
    u[12]     primal_lower963  524
    u[12]     primal_lower964  476
    u[12]     primal_lower965  756
    u[12]     primal_lower966  504
    u[12]     primal_lower967  111
    u[12]     primal_lower968  329
    u[12]     primal_lower969  294
    u[12]     primal_lower970  335
    u[12]     primal_lower971  95
    u[12]     primal_lower972  946
    u[12]     primal_lower973  933
    u[12]     primal_lower974  648
    u[12]     primal_lower975  745
    u[12]     primal_lower976  352
    u[12]     primal_lower977  501
    u[12]     primal_lower978  288
    u[12]     primal_lower979  742
    u[12]     primal_lower980  492
    u[12]     primal_lower981  856
    u[12]     primal_lower982  247
    u[12]     primal_lower983  43
    u[12]     primal_lower984  160
    u[12]     primal_lower985  751
    u[12]     primal_lower986  913
    u[12]     primal_lower987  52
    u[12]     primal_lower988  182
    u[12]     primal_lower989  512
    u[12]     primal_lower990  503
    u[12]     primal_lower991  185
    u[12]     primal_lower992  229
    u[12]     primal_lower993  640
    u[12]     primal_lower994  766
    u[12]     primal_lower995  528
    u[12]     primal_lower996  920
    u[12]     primal_lower997  963
    u[12]     primal_lower998  40
    u[12]     primal_lower999  512
    u[12]     interdiction[12]  1
    u[12]     mccormick1[12]  -1
    u[12]     mccormick3[12]  1
    u[13]     primal_lower0  440
    u[13]     primal_lower1  468
    u[13]     primal_lower2  568
    u[13]     primal_lower3  362
    u[13]     primal_lower4  529
    u[13]     primal_lower5  345
    u[13]     primal_lower6  374
    u[13]     primal_lower7  565
    u[13]     primal_lower8  455
    u[13]     primal_lower9  793
    u[13]     primal_lower10  744
    u[13]     primal_lower11  349
    u[13]     primal_lower12  284
    u[13]     primal_lower13  582
    u[13]     primal_lower14  770
    u[13]     primal_lower15  127
    u[13]     primal_lower16  585
    u[13]     primal_lower17  491
    u[13]     primal_lower18  104
    u[13]     primal_lower19  323
    u[13]     primal_lower20  69
    u[13]     primal_lower21  416
    u[13]     primal_lower22  227
    u[13]     primal_lower23  879
    u[13]     primal_lower24  103
    u[13]     primal_lower25  64
    u[13]     primal_lower26  677
    u[13]     primal_lower27  101
    u[13]     primal_lower28  468
    u[13]     primal_lower29  321
    u[13]     primal_lower30  475
    u[13]     primal_lower31  193
    u[13]     primal_lower32  902
    u[13]     primal_lower33  517
    u[13]     primal_lower34  182
    u[13]     primal_lower35  929
    u[13]     primal_lower36  913
    u[13]     primal_lower37  398
    u[13]     primal_lower38  809
    u[13]     primal_lower39  862
    u[13]     primal_lower40  745
    u[13]     primal_lower41  939
    u[13]     primal_lower42  696
    u[13]     primal_lower43  697
    u[13]     primal_lower44  622
    u[13]     primal_lower45  369
    u[13]     primal_lower46  564
    u[13]     primal_lower47  779
    u[13]     primal_lower48  257
    u[13]     primal_lower49  242
    u[13]     primal_lower50  376
    u[13]     primal_lower51  316
    u[13]     primal_lower52  837
    u[13]     primal_lower53  987
    u[13]     primal_lower54  472
    u[13]     primal_lower55  76
    u[13]     primal_lower56  266
    u[13]     primal_lower57  868
    u[13]     primal_lower58  986
    u[13]     primal_lower59  257
    u[13]     primal_lower60  165
    u[13]     primal_lower61  337
    u[13]     primal_lower62  876
    u[13]     primal_lower63  965
    u[13]     primal_lower64  313
    u[13]     primal_lower65  49
    u[13]     primal_lower66  318
    u[13]     primal_lower67  809
    u[13]     primal_lower68  240
    u[13]     primal_lower69  46
    u[13]     primal_lower70  889
    u[13]     primal_lower71  142
    u[13]     primal_lower72  754
    u[13]     primal_lower73  443
    u[13]     primal_lower74  482
    u[13]     primal_lower75  692
    u[13]     primal_lower76  353
    u[13]     primal_lower77  878
    u[13]     primal_lower78  378
    u[13]     primal_lower79  236
    u[13]     primal_lower80  783
    u[13]     primal_lower81  688
    u[13]     primal_lower82  91
    u[13]     primal_lower83  721
    u[13]     primal_lower84  242
    u[13]     primal_lower85  926
    u[13]     primal_lower86  563
    u[13]     primal_lower87  896
    u[13]     primal_lower88  590
    u[13]     primal_lower89  610
    u[13]     primal_lower90  451
    u[13]     primal_lower91  47
    u[13]     primal_lower92  137
    u[13]     primal_lower93  593
    u[13]     primal_lower94  319
    u[13]     primal_lower95  979
    u[13]     primal_lower96  26
    u[13]     primal_lower97  402
    u[13]     primal_lower98  528
    u[13]     primal_lower99  291
    u[13]     primal_lower100  685
    u[13]     primal_lower101  930
    u[13]     primal_lower102  313
    u[13]     primal_lower103  891
    u[13]     primal_lower104  770
    u[13]     primal_lower105  615
    u[13]     primal_lower106  453
    u[13]     primal_lower107  609
    u[13]     primal_lower108  440
    u[13]     primal_lower109  526
    u[13]     primal_lower110  809
    u[13]     primal_lower111  536
    u[13]     primal_lower112  880
    u[13]     primal_lower113  383
    u[13]     primal_lower114  871
    u[13]     primal_lower115  280
    u[13]     primal_lower116  303
    u[13]     primal_lower117  141
    u[13]     primal_lower118  718
    u[13]     primal_lower119  611
    u[13]     primal_lower120  823
    u[13]     primal_lower121  74
    u[13]     primal_lower122  850
    u[13]     primal_lower123  859
    u[13]     primal_lower124  204
    u[13]     primal_lower125  131
    u[13]     primal_lower126  813
    u[13]     primal_lower127  986
    u[13]     primal_lower128  744
    u[13]     primal_lower129  335
    u[13]     primal_lower130  649
    u[13]     primal_lower131  590
    u[13]     primal_lower132  794
    u[13]     primal_lower133  759
    u[13]     primal_lower134  784
    u[13]     primal_lower135  761
    u[13]     primal_lower136  436
    u[13]     primal_lower137  543
    u[13]     primal_lower138  91
    u[13]     primal_lower139  733
    u[13]     primal_lower140  150
    u[13]     primal_lower141  386
    u[13]     primal_lower142  936
    u[13]     primal_lower143  648
    u[13]     primal_lower144  887
    u[13]     primal_lower145  826
    u[13]     primal_lower146  529
    u[13]     primal_lower147  484
    u[13]     primal_lower148  649
    u[13]     primal_lower149  118
    u[13]     primal_lower150  885
    u[13]     primal_lower151  117
    u[13]     primal_lower152  478
    u[13]     primal_lower153  843
    u[13]     primal_lower154  190
    u[13]     primal_lower155  806
    u[13]     primal_lower156  360
    u[13]     primal_lower157  351
    u[13]     primal_lower158  723
    u[13]     primal_lower159  664
    u[13]     primal_lower160  316
    u[13]     primal_lower161  646
    u[13]     primal_lower162  600
    u[13]     primal_lower163  843
    u[13]     primal_lower164  457
    u[13]     primal_lower165  910
    u[13]     primal_lower166  903
    u[13]     primal_lower167  593
    u[13]     primal_lower168  234
    u[13]     primal_lower169  730
    u[13]     primal_lower170  978
    u[13]     primal_lower171  648
    u[13]     primal_lower172  834
    u[13]     primal_lower173  582
    u[13]     primal_lower174  719
    u[13]     primal_lower175  670
    u[13]     primal_lower176  406
    u[13]     primal_lower177  559
    u[13]     primal_lower178  475
    u[13]     primal_lower179  690
    u[13]     primal_lower180  166
    u[13]     primal_lower181  564
    u[13]     primal_lower182  75
    u[13]     primal_lower183  567
    u[13]     primal_lower184  495
    u[13]     primal_lower185  245
    u[13]     primal_lower186  853
    u[13]     primal_lower187  272
    u[13]     primal_lower188  114
    u[13]     primal_lower189  473
    u[13]     primal_lower190  685
    u[13]     primal_lower191  753
    u[13]     primal_lower192  903
    u[13]     primal_lower193  115
    u[13]     primal_lower194  573
    u[13]     primal_lower195  372
    u[13]     primal_lower196  922
    u[13]     primal_lower197  284
    u[13]     primal_lower198  835
    u[13]     primal_lower199  555
    u[13]     primal_lower200  421
    u[13]     primal_lower201  215
    u[13]     primal_lower202  676
    u[13]     primal_lower203  824
    u[13]     primal_lower204  589
    u[13]     primal_lower205  843
    u[13]     primal_lower206  178
    u[13]     primal_lower207  661
    u[13]     primal_lower208  317
    u[13]     primal_lower209  594
    u[13]     primal_lower210  752
    u[13]     primal_lower211  410
    u[13]     primal_lower212  891
    u[13]     primal_lower213  341
    u[13]     primal_lower214  228
    u[13]     primal_lower215  625
    u[13]     primal_lower216  262
    u[13]     primal_lower217  483
    u[13]     primal_lower218  108
    u[13]     primal_lower219  668
    u[13]     primal_lower220  532
    u[13]     primal_lower221  630
    u[13]     primal_lower222  812
    u[13]     primal_lower223  861
    u[13]     primal_lower224  116
    u[13]     primal_lower225  252
    u[13]     primal_lower226  672
    u[13]     primal_lower227  709
    u[13]     primal_lower228  324
    u[13]     primal_lower229  979
    u[13]     primal_lower230  133
    u[13]     primal_lower231  365
    u[13]     primal_lower232  474
    u[13]     primal_lower233  363
    u[13]     primal_lower234  572
    u[13]     primal_lower235  532
    u[13]     primal_lower236  469
    u[13]     primal_lower237  877
    u[13]     primal_lower238  990
    u[13]     primal_lower239  546
    u[13]     primal_lower240  232
    u[13]     primal_lower241  155
    u[13]     primal_lower242  575
    u[13]     primal_lower243  310
    u[13]     primal_lower244  638
    u[13]     primal_lower245  195
    u[13]     primal_lower246  678
    u[13]     primal_lower247  362
    u[13]     primal_lower248  998
    u[13]     primal_lower249  479
    u[13]     primal_lower250  736
    u[13]     primal_lower251  200
    u[13]     primal_lower252  565
    u[13]     primal_lower253  158
    u[13]     primal_lower254  17
    u[13]     primal_lower255  117
    u[13]     primal_lower256  516
    u[13]     primal_lower257  265
    u[13]     primal_lower258  678
    u[13]     primal_lower259  657
    u[13]     primal_lower260  553
    u[13]     primal_lower261  418
    u[13]     primal_lower262  734
    u[13]     primal_lower263  404
    u[13]     primal_lower264  767
    u[13]     primal_lower265  261
    u[13]     primal_lower266  548
    u[13]     primal_lower267  898
    u[13]     primal_lower268  44
    u[13]     primal_lower269  456
    u[13]     primal_lower270  457
    u[13]     primal_lower271  765
    u[13]     primal_lower272  163
    u[13]     primal_lower273  988
    u[13]     primal_lower274  517
    u[13]     primal_lower275  1
    u[13]     primal_lower276  386
    u[13]     primal_lower277  679
    u[13]     primal_lower278  903
    u[13]     primal_lower279  585
    u[13]     primal_lower280  912
    u[13]     primal_lower281  517
    u[13]     primal_lower282  239
    u[13]     primal_lower283  62
    u[13]     primal_lower284  186
    u[13]     primal_lower285  921
    u[13]     primal_lower286  680
    u[13]     primal_lower287  580
    u[13]     primal_lower288  632
    u[13]     primal_lower289  983
    u[13]     primal_lower290  816
    u[13]     primal_lower291  386
    u[13]     primal_lower292  330
    u[13]     primal_lower293  382
    u[13]     primal_lower294  975
    u[13]     primal_lower295  451
    u[13]     primal_lower296  423
    u[13]     primal_lower297  4
    u[13]     primal_lower298  578
    u[13]     primal_lower299  108
    u[13]     primal_lower300  36
    u[13]     primal_lower301  683
    u[13]     primal_lower302  414
    u[13]     primal_lower303  740
    u[13]     primal_lower304  216
    u[13]     primal_lower305  756
    u[13]     primal_lower306  958
    u[13]     primal_lower307  790
    u[13]     primal_lower308  362
    u[13]     primal_lower309  904
    u[13]     primal_lower310  135
    u[13]     primal_lower311  225
    u[13]     primal_lower312  345
    u[13]     primal_lower313  168
    u[13]     primal_lower314  441
    u[13]     primal_lower315  4
    u[13]     primal_lower316  124
    u[13]     primal_lower317  589
    u[13]     primal_lower318  733
    u[13]     primal_lower319  338
    u[13]     primal_lower320  227
    u[13]     primal_lower321  932
    u[13]     primal_lower322  892
    u[13]     primal_lower323  492
    u[13]     primal_lower324  288
    u[13]     primal_lower325  466
    u[13]     primal_lower326  229
    u[13]     primal_lower327  80
    u[13]     primal_lower328  181
    u[13]     primal_lower329  609
    u[13]     primal_lower330  329
    u[13]     primal_lower331  849
    u[13]     primal_lower332  186
    u[13]     primal_lower333  622
    u[13]     primal_lower334  217
    u[13]     primal_lower335  344
    u[13]     primal_lower336  927
    u[13]     primal_lower337  103
    u[13]     primal_lower338  23
    u[13]     primal_lower339  493
    u[13]     primal_lower340  206
    u[13]     primal_lower341  742
    u[13]     primal_lower342  427
    u[13]     primal_lower343  642
    u[13]     primal_lower344  461
    u[13]     primal_lower345  736
    u[13]     primal_lower346  48
    u[13]     primal_lower347  404
    u[13]     primal_lower348  955
    u[13]     primal_lower349  861
    u[13]     primal_lower350  447
    u[13]     primal_lower351  432
    u[13]     primal_lower352  729
    u[13]     primal_lower353  856
    u[13]     primal_lower354  11
    u[13]     primal_lower355  297
    u[13]     primal_lower356  407
    u[13]     primal_lower357  550
    u[13]     primal_lower358  220
    u[13]     primal_lower359  203
    u[13]     primal_lower360  155
    u[13]     primal_lower361  641
    u[13]     primal_lower362  515
    u[13]     primal_lower363  878
    u[13]     primal_lower364  383
    u[13]     primal_lower365  89
    u[13]     primal_lower366  839
    u[13]     primal_lower367  857
    u[13]     primal_lower368  583
    u[13]     primal_lower369  491
    u[13]     primal_lower370  423
    u[13]     primal_lower371  347
    u[13]     primal_lower372  787
    u[13]     primal_lower373  640
    u[13]     primal_lower374  147
    u[13]     primal_lower375  996
    u[13]     primal_lower376  916
    u[13]     primal_lower377  820
    u[13]     primal_lower378  556
    u[13]     primal_lower379  240
    u[13]     primal_lower380  525
    u[13]     primal_lower381  24
    u[13]     primal_lower382  334
    u[13]     primal_lower383  477
    u[13]     primal_lower384  933
    u[13]     primal_lower385  858
    u[13]     primal_lower386  253
    u[13]     primal_lower387  882
    u[13]     primal_lower388  340
    u[13]     primal_lower389  475
    u[13]     primal_lower390  215
    u[13]     primal_lower391  845
    u[13]     primal_lower392  720
    u[13]     primal_lower393  186
    u[13]     primal_lower394  66
    u[13]     primal_lower395  731
    u[13]     primal_lower396  790
    u[13]     primal_lower397  206
    u[13]     primal_lower398  226
    u[13]     primal_lower399  657
    u[13]     primal_lower400  280
    u[13]     primal_lower401  826
    u[13]     primal_lower402  586
    u[13]     primal_lower403  539
    u[13]     primal_lower404  325
    u[13]     primal_lower405  585
    u[13]     primal_lower406  319
    u[13]     primal_lower407  817
    u[13]     primal_lower408  976
    u[13]     primal_lower409  484
    u[13]     primal_lower410  11
    u[13]     primal_lower411  441
    u[13]     primal_lower412  486
    u[13]     primal_lower413  526
    u[13]     primal_lower414  294
    u[13]     primal_lower415  888
    u[13]     primal_lower416  810
    u[13]     primal_lower417  404
    u[13]     primal_lower418  510
    u[13]     primal_lower419  69
    u[13]     primal_lower420  481
    u[13]     primal_lower421  575
    u[13]     primal_lower422  700
    u[13]     primal_lower423  444
    u[13]     primal_lower424  750
    u[13]     primal_lower425  135
    u[13]     primal_lower426  470
    u[13]     primal_lower427  244
    u[13]     primal_lower428  156
    u[13]     primal_lower429  775
    u[13]     primal_lower430  12
    u[13]     primal_lower431  66
    u[13]     primal_lower432  591
    u[13]     primal_lower433  543
    u[13]     primal_lower434  262
    u[13]     primal_lower435  4
    u[13]     primal_lower436  579
    u[13]     primal_lower437  231
    u[13]     primal_lower438  841
    u[13]     primal_lower439  728
    u[13]     primal_lower440  554
    u[13]     primal_lower441  790
    u[13]     primal_lower442  13
    u[13]     primal_lower443  160
    u[13]     primal_lower444  899
    u[13]     primal_lower445  864
    u[13]     primal_lower446  433
    u[13]     primal_lower447  925
    u[13]     primal_lower448  340
    u[13]     primal_lower449  270
    u[13]     primal_lower450  793
    u[13]     primal_lower451  49
    u[13]     primal_lower452  204
    u[13]     primal_lower453  459
    u[13]     primal_lower454  659
    u[13]     primal_lower455  217
    u[13]     primal_lower456  584
    u[13]     primal_lower457  582
    u[13]     primal_lower458  569
    u[13]     primal_lower459  652
    u[13]     primal_lower460  602
    u[13]     primal_lower461  299
    u[13]     primal_lower462  536
    u[13]     primal_lower463  787
    u[13]     primal_lower464  595
    u[13]     primal_lower465  782
    u[13]     primal_lower466  879
    u[13]     primal_lower467  877
    u[13]     primal_lower468  85
    u[13]     primal_lower469  930
    u[13]     primal_lower470  862
    u[13]     primal_lower471  461
    u[13]     primal_lower472  90
    u[13]     primal_lower473  602
    u[13]     primal_lower474  185
    u[13]     primal_lower475  956
    u[13]     primal_lower476  13
    u[13]     primal_lower477  572
    u[13]     primal_lower478  678
    u[13]     primal_lower479  234
    u[13]     primal_lower480  447
    u[13]     primal_lower481  516
    u[13]     primal_lower482  507
    u[13]     primal_lower483  165
    u[13]     primal_lower484  471
    u[13]     primal_lower485  779
    u[13]     primal_lower486  201
    u[13]     primal_lower487  798
    u[13]     primal_lower488  329
    u[13]     primal_lower489  104
    u[13]     primal_lower490  510
    u[13]     primal_lower491  836
    u[13]     primal_lower492  365
    u[13]     primal_lower493  509
    u[13]     primal_lower494  998
    u[13]     primal_lower495  536
    u[13]     primal_lower496  328
    u[13]     primal_lower497  213
    u[13]     primal_lower498  701
    u[13]     primal_lower499  218
    u[13]     primal_lower500  968
    u[13]     primal_lower501  875
    u[13]     primal_lower502  844
    u[13]     primal_lower503  195
    u[13]     primal_lower504  588
    u[13]     primal_lower505  672
    u[13]     primal_lower506  841
    u[13]     primal_lower507  54
    u[13]     primal_lower508  717
    u[13]     primal_lower509  931
    u[13]     primal_lower510  763
    u[13]     primal_lower511  501
    u[13]     primal_lower512  572
    u[13]     primal_lower513  681
    u[13]     primal_lower514  873
    u[13]     primal_lower515  169
    u[13]     primal_lower516  995
    u[13]     primal_lower517  345
    u[13]     primal_lower518  180
    u[13]     primal_lower519  791
    u[13]     primal_lower520  481
    u[13]     primal_lower521  836
    u[13]     primal_lower522  534
    u[13]     primal_lower523  165
    u[13]     primal_lower524  825
    u[13]     primal_lower525  214
    u[13]     primal_lower526  348
    u[13]     primal_lower527  599
    u[13]     primal_lower528  49
    u[13]     primal_lower529  341
    u[13]     primal_lower530  138
    u[13]     primal_lower531  735
    u[13]     primal_lower532  179
    u[13]     primal_lower533  556
    u[13]     primal_lower534  19
    u[13]     primal_lower535  650
    u[13]     primal_lower536  283
    u[13]     primal_lower537  422
    u[13]     primal_lower538  655
    u[13]     primal_lower539  79
    u[13]     primal_lower540  346
    u[13]     primal_lower541  244
    u[13]     primal_lower542  873
    u[13]     primal_lower543  521
    u[13]     primal_lower544  630
    u[13]     primal_lower545  357
    u[13]     primal_lower546  658
    u[13]     primal_lower547  442
    u[13]     primal_lower548  965
    u[13]     primal_lower549  102
    u[13]     primal_lower550  934
    u[13]     primal_lower551  617
    u[13]     primal_lower552  107
    u[13]     primal_lower553  647
    u[13]     primal_lower554  469
    u[13]     primal_lower555  962
    u[13]     primal_lower556  576
    u[13]     primal_lower557  810
    u[13]     primal_lower558  111
    u[13]     primal_lower559  803
    u[13]     primal_lower560  585
    u[13]     primal_lower561  390
    u[13]     primal_lower562  856
    u[13]     primal_lower563  313
    u[13]     primal_lower564  238
    u[13]     primal_lower565  829
    u[13]     primal_lower566  743
    u[13]     primal_lower567  894
    u[13]     primal_lower568  488
    u[13]     primal_lower569  691
    u[13]     primal_lower570  239
    u[13]     primal_lower571  601
    u[13]     primal_lower572  46
    u[13]     primal_lower573  479
    u[13]     primal_lower574  134
    u[13]     primal_lower575  11
    u[13]     primal_lower576  391
    u[13]     primal_lower577  766
    u[13]     primal_lower578  245
    u[13]     primal_lower579  691
    u[13]     primal_lower580  608
    u[13]     primal_lower581  90
    u[13]     primal_lower582  636
    u[13]     primal_lower583  224
    u[13]     primal_lower584  741
    u[13]     primal_lower585  227
    u[13]     primal_lower586  145
    u[13]     primal_lower587  664
    u[13]     primal_lower588  910
    u[13]     primal_lower589  295
    u[13]     primal_lower590  756
    u[13]     primal_lower591  744
    u[13]     primal_lower592  860
    u[13]     primal_lower593  378
    u[13]     primal_lower594  396
    u[13]     primal_lower595  25
    u[13]     primal_lower596  488
    u[13]     primal_lower597  597
    u[13]     primal_lower598  15
    u[13]     primal_lower599  66
    u[13]     primal_lower600  651
    u[13]     primal_lower601  489
    u[13]     primal_lower602  874
    u[13]     primal_lower603  729
    u[13]     primal_lower604  473
    u[13]     primal_lower605  215
    u[13]     primal_lower606  709
    u[13]     primal_lower607  27
    u[13]     primal_lower608  834
    u[13]     primal_lower609  673
    u[13]     primal_lower610  81
    u[13]     primal_lower611  620
    u[13]     primal_lower612  944
    u[13]     primal_lower613  826
    u[13]     primal_lower614  701
    u[13]     primal_lower615  190
    u[13]     primal_lower616  64
    u[13]     primal_lower617  826
    u[13]     primal_lower618  737
    u[13]     primal_lower619  618
    u[13]     primal_lower620  268
    u[13]     primal_lower621  760
    u[13]     primal_lower622  341
    u[13]     primal_lower623  511
    u[13]     primal_lower624  56
    u[13]     primal_lower625  950
    u[13]     primal_lower626  619
    u[13]     primal_lower627  124
    u[13]     primal_lower628  658
    u[13]     primal_lower629  162
    u[13]     primal_lower630  910
    u[13]     primal_lower631  11
    u[13]     primal_lower632  297
    u[13]     primal_lower633  595
    u[13]     primal_lower634  209
    u[13]     primal_lower635  240
    u[13]     primal_lower636  819
    u[13]     primal_lower637  302
    u[13]     primal_lower638  194
    u[13]     primal_lower639  937
    u[13]     primal_lower640  877
    u[13]     primal_lower641  491
    u[13]     primal_lower642  258
    u[13]     primal_lower643  994
    u[13]     primal_lower644  723
    u[13]     primal_lower645  75
    u[13]     primal_lower646  696
    u[13]     primal_lower647  70
    u[13]     primal_lower648  3
    u[13]     primal_lower649  26
    u[13]     primal_lower650  615
    u[13]     primal_lower651  670
    u[13]     primal_lower652  223
    u[13]     primal_lower653  205
    u[13]     primal_lower654  950
    u[13]     primal_lower655  102
    u[13]     primal_lower656  506
    u[13]     primal_lower657  788
    u[13]     primal_lower658  374
    u[13]     primal_lower659  83
    u[13]     primal_lower660  15
    u[13]     primal_lower661  992
    u[13]     primal_lower662  980
    u[13]     primal_lower663  664
    u[13]     primal_lower664  228
    u[13]     primal_lower665  210
    u[13]     primal_lower666  756
    u[13]     primal_lower667  879
    u[13]     primal_lower668  436
    u[13]     primal_lower669  994
    u[13]     primal_lower670  394
    u[13]     primal_lower671  819
    u[13]     primal_lower672  64
    u[13]     primal_lower673  253
    u[13]     primal_lower674  549
    u[13]     primal_lower675  159
    u[13]     primal_lower676  677
    u[13]     primal_lower677  556
    u[13]     primal_lower678  547
    u[13]     primal_lower679  320
    u[13]     primal_lower680  410
    u[13]     primal_lower681  154
    u[13]     primal_lower682  752
    u[13]     primal_lower683  973
    u[13]     primal_lower684  204
    u[13]     primal_lower685  51
    u[13]     primal_lower686  299
    u[13]     primal_lower687  639
    u[13]     primal_lower688  206
    u[13]     primal_lower689  20
    u[13]     primal_lower690  327
    u[13]     primal_lower691  340
    u[13]     primal_lower692  573
    u[13]     primal_lower693  533
    u[13]     primal_lower694  111
    u[13]     primal_lower695  819
    u[13]     primal_lower696  691
    u[13]     primal_lower697  716
    u[13]     primal_lower698  32
    u[13]     primal_lower699  753
    u[13]     primal_lower700  604
    u[13]     primal_lower701  630
    u[13]     primal_lower702  857
    u[13]     primal_lower703  763
    u[13]     primal_lower704  446
    u[13]     primal_lower705  139
    u[13]     primal_lower706  238
    u[13]     primal_lower707  966
    u[13]     primal_lower708  949
    u[13]     primal_lower709  417
    u[13]     primal_lower710  527
    u[13]     primal_lower711  185
    u[13]     primal_lower712  872
    u[13]     primal_lower713  80
    u[13]     primal_lower714  253
    u[13]     primal_lower715  863
    u[13]     primal_lower716  925
    u[13]     primal_lower717  407
    u[13]     primal_lower718  885
    u[13]     primal_lower719  571
    u[13]     primal_lower720  195
    u[13]     primal_lower721  581
    u[13]     primal_lower722  218
    u[13]     primal_lower723  780
    u[13]     primal_lower724  731
    u[13]     primal_lower725  868
    u[13]     primal_lower726  88
    u[13]     primal_lower727  434
    u[13]     primal_lower728  258
    u[13]     primal_lower729  711
    u[13]     primal_lower730  601
    u[13]     primal_lower731  980
    u[13]     primal_lower732  54
    u[13]     primal_lower733  966
    u[13]     primal_lower734  789
    u[13]     primal_lower735  543
    u[13]     primal_lower736  523
    u[13]     primal_lower737  167
    u[13]     primal_lower738  895
    u[13]     primal_lower739  702
    u[13]     primal_lower740  446
    u[13]     primal_lower741  122
    u[13]     primal_lower742  923
    u[13]     primal_lower743  620
    u[13]     primal_lower744  166
    u[13]     primal_lower745  279
    u[13]     primal_lower746  620
    u[13]     primal_lower747  725
    u[13]     primal_lower748  550
    u[13]     primal_lower749  459
    u[13]     primal_lower750  708
    u[13]     primal_lower751  571
    u[13]     primal_lower752  29
    u[13]     primal_lower753  336
    u[13]     primal_lower754  332
    u[13]     primal_lower755  233
    u[13]     primal_lower756  866
    u[13]     primal_lower757  256
    u[13]     primal_lower758  396
    u[13]     primal_lower759  547
    u[13]     primal_lower760  866
    u[13]     primal_lower761  34
    u[13]     primal_lower762  917
    u[13]     primal_lower763  342
    u[13]     primal_lower764  464
    u[13]     primal_lower765  450
    u[13]     primal_lower766  784
    u[13]     primal_lower767  764
    u[13]     primal_lower768  89
    u[13]     primal_lower769  769
    u[13]     primal_lower770  695
    u[13]     primal_lower771  972
    u[13]     primal_lower772  391
    u[13]     primal_lower773  374
    u[13]     primal_lower774  350
    u[13]     primal_lower775  300
    u[13]     primal_lower776  759
    u[13]     primal_lower777  378
    u[13]     primal_lower778  691
    u[13]     primal_lower779  336
    u[13]     primal_lower780  357
    u[13]     primal_lower781  765
    u[13]     primal_lower782  27
    u[13]     primal_lower783  324
    u[13]     primal_lower784  869
    u[13]     primal_lower785  419
    u[13]     primal_lower786  451
    u[13]     primal_lower787  516
    u[13]     primal_lower788  606
    u[13]     primal_lower789  167
    u[13]     primal_lower790  389
    u[13]     primal_lower791  259
    u[13]     primal_lower792  885
    u[13]     primal_lower793  656
    u[13]     primal_lower794  368
    u[13]     primal_lower795  24
    u[13]     primal_lower796  739
    u[13]     primal_lower797  44
    u[13]     primal_lower798  179
    u[13]     primal_lower799  625
    u[13]     primal_lower800  482
    u[13]     primal_lower801  773
    u[13]     primal_lower802  145
    u[13]     primal_lower803  833
    u[13]     primal_lower804  251
    u[13]     primal_lower805  664
    u[13]     primal_lower806  14
    u[13]     primal_lower807  277
    u[13]     primal_lower808  841
    u[13]     primal_lower809  220
    u[13]     primal_lower810  536
    u[13]     primal_lower811  491
    u[13]     primal_lower812  872
    u[13]     primal_lower813  194
    u[13]     primal_lower814  807
    u[13]     primal_lower815  402
    u[13]     primal_lower816  600
    u[13]     primal_lower817  71
    u[13]     primal_lower818  382
    u[13]     primal_lower819  86
    u[13]     primal_lower820  325
    u[13]     primal_lower821  332
    u[13]     primal_lower822  897
    u[13]     primal_lower823  596
    u[13]     primal_lower824  371
    u[13]     primal_lower825  261
    u[13]     primal_lower826  770
    u[13]     primal_lower827  907
    u[13]     primal_lower828  26
    u[13]     primal_lower829  262
    u[13]     primal_lower830  811
    u[13]     primal_lower831  354
    u[13]     primal_lower832  309
    u[13]     primal_lower833  725
    u[13]     primal_lower834  113
    u[13]     primal_lower835  176
    u[13]     primal_lower836  922
    u[13]     primal_lower837  389
    u[13]     primal_lower838  927
    u[13]     primal_lower839  515
    u[13]     primal_lower840  794
    u[13]     primal_lower841  296
    u[13]     primal_lower842  300
    u[13]     primal_lower843  629
    u[13]     primal_lower844  253
    u[13]     primal_lower845  554
    u[13]     primal_lower846  362
    u[13]     primal_lower847  210
    u[13]     primal_lower848  160
    u[13]     primal_lower849  553
    u[13]     primal_lower850  763
    u[13]     primal_lower851  600
    u[13]     primal_lower852  95
    u[13]     primal_lower853  353
    u[13]     primal_lower854  194
    u[13]     primal_lower855  884
    u[13]     primal_lower856  457
    u[13]     primal_lower857  235
    u[13]     primal_lower858  394
    u[13]     primal_lower859  280
    u[13]     primal_lower860  652
    u[13]     primal_lower861  454
    u[13]     primal_lower862  262
    u[13]     primal_lower863  675
    u[13]     primal_lower864  612
    u[13]     primal_lower865  109
    u[13]     primal_lower866  637
    u[13]     primal_lower867  745
    u[13]     primal_lower868  959
    u[13]     primal_lower869  576
    u[13]     primal_lower870  796
    u[13]     primal_lower871  372
    u[13]     primal_lower872  97
    u[13]     primal_lower873  21
    u[13]     primal_lower874  800
    u[13]     primal_lower875  734
    u[13]     primal_lower876  398
    u[13]     primal_lower877  558
    u[13]     primal_lower878  631
    u[13]     primal_lower879  809
    u[13]     primal_lower880  173
    u[13]     primal_lower881  405
    u[13]     primal_lower882  209
    u[13]     primal_lower883  498
    u[13]     primal_lower884  864
    u[13]     primal_lower885  782
    u[13]     primal_lower886  707
    u[13]     primal_lower887  338
    u[13]     primal_lower888  1000
    u[13]     primal_lower889  168
    u[13]     primal_lower890  497
    u[13]     primal_lower891  209
    u[13]     primal_lower892  935
    u[13]     primal_lower893  935
    u[13]     primal_lower894  986
    u[13]     primal_lower895  340
    u[13]     primal_lower896  76
    u[13]     primal_lower897  466
    u[13]     primal_lower898  995
    u[13]     primal_lower899  709
    u[13]     primal_lower900  285
    u[13]     primal_lower901  613
    u[13]     primal_lower902  816
    u[13]     primal_lower903  618
    u[13]     primal_lower904  273
    u[13]     primal_lower905  874
    u[13]     primal_lower906  887
    u[13]     primal_lower907  736
    u[13]     primal_lower908  415
    u[13]     primal_lower909  507
    u[13]     primal_lower910  827
    u[13]     primal_lower911  26
    u[13]     primal_lower912  499
    u[13]     primal_lower913  721
    u[13]     primal_lower914  200
    u[13]     primal_lower915  366
    u[13]     primal_lower916  92
    u[13]     primal_lower917  965
    u[13]     primal_lower918  462
    u[13]     primal_lower919  916
    u[13]     primal_lower920  675
    u[13]     primal_lower921  983
    u[13]     primal_lower922  612
    u[13]     primal_lower923  699
    u[13]     primal_lower924  568
    u[13]     primal_lower925  600
    u[13]     primal_lower926  545
    u[13]     primal_lower927  951
    u[13]     primal_lower928  856
    u[13]     primal_lower929  251
    u[13]     primal_lower930  170
    u[13]     primal_lower931  797
    u[13]     primal_lower932  302
    u[13]     primal_lower933  33
    u[13]     primal_lower934  179
    u[13]     primal_lower935  236
    u[13]     primal_lower936  463
    u[13]     primal_lower937  959
    u[13]     primal_lower938  493
    u[13]     primal_lower939  168
    u[13]     primal_lower940  903
    u[13]     primal_lower941  404
    u[13]     primal_lower942  316
    u[13]     primal_lower943  476
    u[13]     primal_lower944  590
    u[13]     primal_lower945  621
    u[13]     primal_lower946  46
    u[13]     primal_lower947  426
    u[13]     primal_lower948  187
    u[13]     primal_lower949  280
    u[13]     primal_lower950  812
    u[13]     primal_lower951  932
    u[13]     primal_lower952  15
    u[13]     primal_lower953  66
    u[13]     primal_lower954  433
    u[13]     primal_lower955  983
    u[13]     primal_lower956  985
    u[13]     primal_lower957  886
    u[13]     primal_lower958  909
    u[13]     primal_lower959  417
    u[13]     primal_lower960  214
    u[13]     primal_lower961  340
    u[13]     primal_lower962  194
    u[13]     primal_lower963  456
    u[13]     primal_lower964  732
    u[13]     primal_lower965  772
    u[13]     primal_lower966  940
    u[13]     primal_lower967  531
    u[13]     primal_lower968  273
    u[13]     primal_lower969  858
    u[13]     primal_lower970  475
    u[13]     primal_lower971  43
    u[13]     primal_lower972  806
    u[13]     primal_lower973  49
    u[13]     primal_lower974  996
    u[13]     primal_lower975  217
    u[13]     primal_lower976  368
    u[13]     primal_lower977  817
    u[13]     primal_lower978  424
    u[13]     primal_lower979  626
    u[13]     primal_lower980  604
    u[13]     primal_lower981  64
    u[13]     primal_lower982  107
    u[13]     primal_lower983  603
    u[13]     primal_lower984  136
    u[13]     primal_lower985  719
    u[13]     primal_lower986  385
    u[13]     primal_lower987  636
    u[13]     primal_lower988  554
    u[13]     primal_lower989  640
    u[13]     primal_lower990  75
    u[13]     primal_lower991  381
    u[13]     primal_lower992  53
    u[13]     primal_lower993  508
    u[13]     primal_lower994  650
    u[13]     primal_lower995  428
    u[13]     primal_lower996  444
    u[13]     primal_lower997  319
    u[13]     primal_lower998  188
    u[13]     primal_lower999  36
    u[13]     interdiction[13]  1
    u[13]     mccormick1[13]  -1
    u[13]     mccormick3[13]  1
    u[14]     primal_lower0  532
    u[14]     primal_lower1  112
    u[14]     primal_lower2  585
    u[14]     primal_lower3  771
    u[14]     primal_lower4  373
    u[14]     primal_lower5  229
    u[14]     primal_lower6  583
    u[14]     primal_lower7  697
    u[14]     primal_lower8  48
    u[14]     primal_lower9  197
    u[14]     primal_lower10  772
    u[14]     primal_lower11  918
    u[14]     primal_lower12  37
    u[14]     primal_lower13  975
    u[14]     primal_lower14  790
    u[14]     primal_lower15  731
    u[14]     primal_lower16  514
    u[14]     primal_lower17  692
    u[14]     primal_lower18  588
    u[14]     primal_lower19  52
    u[14]     primal_lower20  393
    u[14]     primal_lower21  252
    u[14]     primal_lower22  711
    u[14]     primal_lower23  288
    u[14]     primal_lower24  819
    u[14]     primal_lower25  364
    u[14]     primal_lower26  753
    u[14]     primal_lower27  281
    u[14]     primal_lower28  904
    u[14]     primal_lower29  133
    u[14]     primal_lower30  319
    u[14]     primal_lower31  858
    u[14]     primal_lower32  431
    u[14]     primal_lower33  729
    u[14]     primal_lower34  559
    u[14]     primal_lower35  629
    u[14]     primal_lower36  58
    u[14]     primal_lower37  354
    u[14]     primal_lower38  274
    u[14]     primal_lower39  159
    u[14]     primal_lower40  949
    u[14]     primal_lower41  215
    u[14]     primal_lower42  764
    u[14]     primal_lower43  330
    u[14]     primal_lower44  415
    u[14]     primal_lower45  162
    u[14]     primal_lower46  133
    u[14]     primal_lower47  548
    u[14]     primal_lower48  373
    u[14]     primal_lower49  582
    u[14]     primal_lower50  124
    u[14]     primal_lower51  461
    u[14]     primal_lower52  294
    u[14]     primal_lower53  951
    u[14]     primal_lower54  833
    u[14]     primal_lower55  597
    u[14]     primal_lower56  126
    u[14]     primal_lower57  997
    u[14]     primal_lower58  806
    u[14]     primal_lower59  354
    u[14]     primal_lower60  881
    u[14]     primal_lower61  357
    u[14]     primal_lower62  992
    u[14]     primal_lower63  945
    u[14]     primal_lower64  397
    u[14]     primal_lower65  2
    u[14]     primal_lower66  615
    u[14]     primal_lower67  861
    u[14]     primal_lower68  273
    u[14]     primal_lower69  279
    u[14]     primal_lower70  397
    u[14]     primal_lower71  903
    u[14]     primal_lower72  246
    u[14]     primal_lower73  172
    u[14]     primal_lower74  870
    u[14]     primal_lower75  432
    u[14]     primal_lower76  77
    u[14]     primal_lower77  882
    u[14]     primal_lower78  126
    u[14]     primal_lower79  568
    u[14]     primal_lower80  584
    u[14]     primal_lower81  361
    u[14]     primal_lower82  407
    u[14]     primal_lower83  810
    u[14]     primal_lower84  14
    u[14]     primal_lower85  754
    u[14]     primal_lower86  23
    u[14]     primal_lower87  377
    u[14]     primal_lower88  175
    u[14]     primal_lower89  195
    u[14]     primal_lower90  788
    u[14]     primal_lower91  824
    u[14]     primal_lower92  818
    u[14]     primal_lower93  341
    u[14]     primal_lower94  387
    u[14]     primal_lower95  991
    u[14]     primal_lower96  214
    u[14]     primal_lower97  555
    u[14]     primal_lower98  377
    u[14]     primal_lower99  375
    u[14]     primal_lower100  646
    u[14]     primal_lower101  995
    u[14]     primal_lower102  578
    u[14]     primal_lower103  500
    u[14]     primal_lower104  638
    u[14]     primal_lower105  283
    u[14]     primal_lower106  526
    u[14]     primal_lower107  650
    u[14]     primal_lower108  268
    u[14]     primal_lower109  858
    u[14]     primal_lower110  301
    u[14]     primal_lower111  993
    u[14]     primal_lower112  460
    u[14]     primal_lower113  792
    u[14]     primal_lower114  664
    u[14]     primal_lower115  316
    u[14]     primal_lower116  907
    u[14]     primal_lower117  937
    u[14]     primal_lower118  695
    u[14]     primal_lower119  132
    u[14]     primal_lower120  683
    u[14]     primal_lower121  43
    u[14]     primal_lower122  315
    u[14]     primal_lower123  871
    u[14]     primal_lower124  893
    u[14]     primal_lower125  767
    u[14]     primal_lower126  22
    u[14]     primal_lower127  555
    u[14]     primal_lower128  777
    u[14]     primal_lower129  147
    u[14]     primal_lower130  930
    u[14]     primal_lower131  559
    u[14]     primal_lower132  166
    u[14]     primal_lower133  320
    u[14]     primal_lower134  361
    u[14]     primal_lower135  282
    u[14]     primal_lower136  437
    u[14]     primal_lower137  704
    u[14]     primal_lower138  780
    u[14]     primal_lower139  734
    u[14]     primal_lower140  290
    u[14]     primal_lower141  646
    u[14]     primal_lower142  220
    u[14]     primal_lower143  313
    u[14]     primal_lower144  400
    u[14]     primal_lower145  214
    u[14]     primal_lower146  546
    u[14]     primal_lower147  77
    u[14]     primal_lower148  309
    u[14]     primal_lower149  2
    u[14]     primal_lower150  561
    u[14]     primal_lower151  806
    u[14]     primal_lower152  223
    u[14]     primal_lower153  876
    u[14]     primal_lower154  522
    u[14]     primal_lower155  394
    u[14]     primal_lower156  457
    u[14]     primal_lower157  75
    u[14]     primal_lower158  423
    u[14]     primal_lower159  884
    u[14]     primal_lower160  128
    u[14]     primal_lower161  818
    u[14]     primal_lower162  473
    u[14]     primal_lower163  508
    u[14]     primal_lower164  629
    u[14]     primal_lower165  226
    u[14]     primal_lower166  184
    u[14]     primal_lower167  893
    u[14]     primal_lower168  35
    u[14]     primal_lower169  203
    u[14]     primal_lower170  827
    u[14]     primal_lower171  164
    u[14]     primal_lower172  566
    u[14]     primal_lower173  450
    u[14]     primal_lower174  848
    u[14]     primal_lower175  263
    u[14]     primal_lower176  882
    u[14]     primal_lower177  56
    u[14]     primal_lower178  476
    u[14]     primal_lower179  555
    u[14]     primal_lower180  418
    u[14]     primal_lower181  789
    u[14]     primal_lower182  7
    u[14]     primal_lower183  675
    u[14]     primal_lower184  339
    u[14]     primal_lower185  545
    u[14]     primal_lower186  670
    u[14]     primal_lower187  321
    u[14]     primal_lower188  459
    u[14]     primal_lower189  506
    u[14]     primal_lower190  865
    u[14]     primal_lower191  549
    u[14]     primal_lower192  984
    u[14]     primal_lower193  879
    u[14]     primal_lower194  73
    u[14]     primal_lower195  69
    u[14]     primal_lower196  443
    u[14]     primal_lower197  48
    u[14]     primal_lower198  335
    u[14]     primal_lower199  431
    u[14]     primal_lower200  286
    u[14]     primal_lower201  835
    u[14]     primal_lower202  109
    u[14]     primal_lower203  844
    u[14]     primal_lower204  214
    u[14]     primal_lower205  876
    u[14]     primal_lower206  51
    u[14]     primal_lower207  745
    u[14]     primal_lower208  281
    u[14]     primal_lower209  150
    u[14]     primal_lower210  508
    u[14]     primal_lower211  587
    u[14]     primal_lower212  559
    u[14]     primal_lower213  545
    u[14]     primal_lower214  192
    u[14]     primal_lower215  773
    u[14]     primal_lower216  847
    u[14]     primal_lower217  324
    u[14]     primal_lower218  448
    u[14]     primal_lower219  605
    u[14]     primal_lower220  864
    u[14]     primal_lower221  839
    u[14]     primal_lower222  997
    u[14]     primal_lower223  782
    u[14]     primal_lower224  653
    u[14]     primal_lower225  688
    u[14]     primal_lower226  225
    u[14]     primal_lower227  798
    u[14]     primal_lower228  45
    u[14]     primal_lower229  788
    u[14]     primal_lower230  753
    u[14]     primal_lower231  478
    u[14]     primal_lower232  286
    u[14]     primal_lower233  108
    u[14]     primal_lower234  909
    u[14]     primal_lower235  237
    u[14]     primal_lower236  89
    u[14]     primal_lower237  705
    u[14]     primal_lower238  114
    u[14]     primal_lower239  75
    u[14]     primal_lower240  641
    u[14]     primal_lower241  348
    u[14]     primal_lower242  651
    u[14]     primal_lower243  26
    u[14]     primal_lower244  410
    u[14]     primal_lower245  799
    u[14]     primal_lower246  879
    u[14]     primal_lower247  926
    u[14]     primal_lower248  674
    u[14]     primal_lower249  955
    u[14]     primal_lower250  396
    u[14]     primal_lower251  804
    u[14]     primal_lower252  113
    u[14]     primal_lower253  599
    u[14]     primal_lower254  701
    u[14]     primal_lower255  33
    u[14]     primal_lower256  368
    u[14]     primal_lower257  554
    u[14]     primal_lower258  410
    u[14]     primal_lower259  242
    u[14]     primal_lower260  442
    u[14]     primal_lower261  526
    u[14]     primal_lower262  474
    u[14]     primal_lower263  960
    u[14]     primal_lower264  691
    u[14]     primal_lower265  697
    u[14]     primal_lower266  613
    u[14]     primal_lower267  158
    u[14]     primal_lower268  720
    u[14]     primal_lower269  644
    u[14]     primal_lower270  794
    u[14]     primal_lower271  974
    u[14]     primal_lower272  508
    u[14]     primal_lower273  704
    u[14]     primal_lower274  161
    u[14]     primal_lower275  98
    u[14]     primal_lower276  94
    u[14]     primal_lower277  427
    u[14]     primal_lower278  979
    u[14]     primal_lower279  362
    u[14]     primal_lower280  265
    u[14]     primal_lower281  721
    u[14]     primal_lower282  272
    u[14]     primal_lower283  50
    u[14]     primal_lower284  670
    u[14]     primal_lower285  882
    u[14]     primal_lower286  420
    u[14]     primal_lower287  445
    u[14]     primal_lower288  836
    u[14]     primal_lower289  91
    u[14]     primal_lower290  708
    u[14]     primal_lower291  470
    u[14]     primal_lower292  875
    u[14]     primal_lower293  850
    u[14]     primal_lower294  688
    u[14]     primal_lower295  348
    u[14]     primal_lower296  536
    u[14]     primal_lower297  53
    u[14]     primal_lower298  531
    u[14]     primal_lower299  229
    u[14]     primal_lower300  968
    u[14]     primal_lower301  335
    u[14]     primal_lower302  879
    u[14]     primal_lower303  637
    u[14]     primal_lower304  177
    u[14]     primal_lower305  429
    u[14]     primal_lower306  991
    u[14]     primal_lower307  194
    u[14]     primal_lower308  563
    u[14]     primal_lower309  324
    u[14]     primal_lower310  899
    u[14]     primal_lower311  77
    u[14]     primal_lower312  845
    u[14]     primal_lower313  545
    u[14]     primal_lower314  893
    u[14]     primal_lower315  445
    u[14]     primal_lower316  581
    u[14]     primal_lower317  465
    u[14]     primal_lower318  830
    u[14]     primal_lower319  78
    u[14]     primal_lower320  644
    u[14]     primal_lower321  984
    u[14]     primal_lower322  301
    u[14]     primal_lower323  32
    u[14]     primal_lower324  660
    u[14]     primal_lower325  139
    u[14]     primal_lower326  382
    u[14]     primal_lower327  97
    u[14]     primal_lower328  726
    u[14]     primal_lower329  597
    u[14]     primal_lower330  469
    u[14]     primal_lower331  285
    u[14]     primal_lower332  411
    u[14]     primal_lower333  306
    u[14]     primal_lower334  530
    u[14]     primal_lower335  689
    u[14]     primal_lower336  120
    u[14]     primal_lower337  256
    u[14]     primal_lower338  115
    u[14]     primal_lower339  6
    u[14]     primal_lower340  650
    u[14]     primal_lower341  170
    u[14]     primal_lower342  295
    u[14]     primal_lower343  326
    u[14]     primal_lower344  854
    u[14]     primal_lower345  212
    u[14]     primal_lower346  985
    u[14]     primal_lower347  992
    u[14]     primal_lower348  239
    u[14]     primal_lower349  174
    u[14]     primal_lower350  131
    u[14]     primal_lower351  529
    u[14]     primal_lower352  789
    u[14]     primal_lower353  721
    u[14]     primal_lower354  903
    u[14]     primal_lower355  853
    u[14]     primal_lower356  488
    u[14]     primal_lower357  746
    u[14]     primal_lower358  453
    u[14]     primal_lower359  159
    u[14]     primal_lower360  556
    u[14]     primal_lower361  157
    u[14]     primal_lower362  175
    u[14]     primal_lower363  503
    u[14]     primal_lower364  315
    u[14]     primal_lower365  397
    u[14]     primal_lower366  867
    u[14]     primal_lower367  509
    u[14]     primal_lower368  787
    u[14]     primal_lower369  215
    u[14]     primal_lower370  576
    u[14]     primal_lower371  15
    u[14]     primal_lower372  471
    u[14]     primal_lower373  300
    u[14]     primal_lower374  164
    u[14]     primal_lower375  280
    u[14]     primal_lower376  216
    u[14]     primal_lower377  384
    u[14]     primal_lower378  576
    u[14]     primal_lower379  33
    u[14]     primal_lower380  670
    u[14]     primal_lower381  897
    u[14]     primal_lower382  138
    u[14]     primal_lower383  806
    u[14]     primal_lower384  969
    u[14]     primal_lower385  323
    u[14]     primal_lower386  278
    u[14]     primal_lower387  619
    u[14]     primal_lower388  189
    u[14]     primal_lower389  124
    u[14]     primal_lower390  595
    u[14]     primal_lower391  65
    u[14]     primal_lower392  12
    u[14]     primal_lower393  214
    u[14]     primal_lower394  91
    u[14]     primal_lower395  119
    u[14]     primal_lower396  647
    u[14]     primal_lower397  839
    u[14]     primal_lower398  339
    u[14]     primal_lower399  682
    u[14]     primal_lower400  884
    u[14]     primal_lower401  822
    u[14]     primal_lower402  331
    u[14]     primal_lower403  476
    u[14]     primal_lower404  230
    u[14]     primal_lower405  962
    u[14]     primal_lower406  3
    u[14]     primal_lower407  858
    u[14]     primal_lower408  905
    u[14]     primal_lower409  61
    u[14]     primal_lower410  836
    u[14]     primal_lower411  674
    u[14]     primal_lower412  194
    u[14]     primal_lower413  266
    u[14]     primal_lower414  930
    u[14]     primal_lower415  36
    u[14]     primal_lower416  259
    u[14]     primal_lower417  784
    u[14]     primal_lower418  879
    u[14]     primal_lower419  366
    u[14]     primal_lower420  533
    u[14]     primal_lower421  256
    u[14]     primal_lower422  248
    u[14]     primal_lower423  216
    u[14]     primal_lower424  223
    u[14]     primal_lower425  875
    u[14]     primal_lower426  263
    u[14]     primal_lower427  552
    u[14]     primal_lower428  693
    u[14]     primal_lower429  651
    u[14]     primal_lower430  189
    u[14]     primal_lower431  670
    u[14]     primal_lower432  768
    u[14]     primal_lower433  688
    u[14]     primal_lower434  903
    u[14]     primal_lower435  93
    u[14]     primal_lower436  103
    u[14]     primal_lower437  320
    u[14]     primal_lower438  765
    u[14]     primal_lower439  428
    u[14]     primal_lower440  987
    u[14]     primal_lower441  850
    u[14]     primal_lower442  81
    u[14]     primal_lower443  972
    u[14]     primal_lower444  556
    u[14]     primal_lower445  289
    u[14]     primal_lower446  514
    u[14]     primal_lower447  553
    u[14]     primal_lower448  949
    u[14]     primal_lower449  450
    u[14]     primal_lower450  413
    u[14]     primal_lower451  554
    u[14]     primal_lower452  112
    u[14]     primal_lower453  207
    u[14]     primal_lower454  839
    u[14]     primal_lower455  517
    u[14]     primal_lower456  161
    u[14]     primal_lower457  183
    u[14]     primal_lower458  842
    u[14]     primal_lower459  253
    u[14]     primal_lower460  294
    u[14]     primal_lower461  340
    u[14]     primal_lower462  812
    u[14]     primal_lower463  908
    u[14]     primal_lower464  268
    u[14]     primal_lower465  71
    u[14]     primal_lower466  315
    u[14]     primal_lower467  545
    u[14]     primal_lower468  193
    u[14]     primal_lower469  203
    u[14]     primal_lower470  775
    u[14]     primal_lower471  502
    u[14]     primal_lower472  622
    u[14]     primal_lower473  827
    u[14]     primal_lower474  805
    u[14]     primal_lower475  680
    u[14]     primal_lower476  838
    u[14]     primal_lower477  472
    u[14]     primal_lower478  191
    u[14]     primal_lower479  435
    u[14]     primal_lower480  459
    u[14]     primal_lower481  125
    u[14]     primal_lower482  959
    u[14]     primal_lower483  617
    u[14]     primal_lower484  232
    u[14]     primal_lower485  964
    u[14]     primal_lower486  605
    u[14]     primal_lower487  151
    u[14]     primal_lower488  277
    u[14]     primal_lower489  196
    u[14]     primal_lower490  274
    u[14]     primal_lower491  509
    u[14]     primal_lower492  54
    u[14]     primal_lower493  686
    u[14]     primal_lower494  450
    u[14]     primal_lower495  908
    u[14]     primal_lower496  788
    u[14]     primal_lower497  206
    u[14]     primal_lower498  241
    u[14]     primal_lower499  115
    u[14]     primal_lower500  81
    u[14]     primal_lower501  207
    u[14]     primal_lower502  461
    u[14]     primal_lower503  559
    u[14]     primal_lower504  232
    u[14]     primal_lower505  433
    u[14]     primal_lower506  986
    u[14]     primal_lower507  26
    u[14]     primal_lower508  526
    u[14]     primal_lower509  783
    u[14]     primal_lower510  479
    u[14]     primal_lower511  126
    u[14]     primal_lower512  725
    u[14]     primal_lower513  338
    u[14]     primal_lower514  442
    u[14]     primal_lower515  154
    u[14]     primal_lower516  719
    u[14]     primal_lower517  901
    u[14]     primal_lower518  189
    u[14]     primal_lower519  648
    u[14]     primal_lower520  746
    u[14]     primal_lower521  709
    u[14]     primal_lower522  791
    u[14]     primal_lower523  630
    u[14]     primal_lower524  469
    u[14]     primal_lower525  615
    u[14]     primal_lower526  973
    u[14]     primal_lower527  187
    u[14]     primal_lower528  773
    u[14]     primal_lower529  14
    u[14]     primal_lower530  11
    u[14]     primal_lower531  803
    u[14]     primal_lower532  164
    u[14]     primal_lower533  13
    u[14]     primal_lower534  52
    u[14]     primal_lower535  67
    u[14]     primal_lower536  236
    u[14]     primal_lower537  239
    u[14]     primal_lower538  907
    u[14]     primal_lower539  120
    u[14]     primal_lower540  811
    u[14]     primal_lower541  365
    u[14]     primal_lower542  437
    u[14]     primal_lower543  173
    u[14]     primal_lower544  231
    u[14]     primal_lower545  145
    u[14]     primal_lower546  427
    u[14]     primal_lower547  91
    u[14]     primal_lower548  438
    u[14]     primal_lower549  663
    u[14]     primal_lower550  506
    u[14]     primal_lower551  410
    u[14]     primal_lower552  775
    u[14]     primal_lower553  395
    u[14]     primal_lower554  654
    u[14]     primal_lower555  502
    u[14]     primal_lower556  20
    u[14]     primal_lower557  310
    u[14]     primal_lower558  600
    u[14]     primal_lower559  12
    u[14]     primal_lower560  754
    u[14]     primal_lower561  983
    u[14]     primal_lower562  737
    u[14]     primal_lower563  338
    u[14]     primal_lower564  946
    u[14]     primal_lower565  870
    u[14]     primal_lower566  568
    u[14]     primal_lower567  418
    u[14]     primal_lower568  308
    u[14]     primal_lower569  940
    u[14]     primal_lower570  715
    u[14]     primal_lower571  490
    u[14]     primal_lower572  450
    u[14]     primal_lower573  995
    u[14]     primal_lower574  311
    u[14]     primal_lower575  303
    u[14]     primal_lower576  555
    u[14]     primal_lower577  946
    u[14]     primal_lower578  401
    u[14]     primal_lower579  471
    u[14]     primal_lower580  76
    u[14]     primal_lower581  574
    u[14]     primal_lower582  901
    u[14]     primal_lower583  324
    u[14]     primal_lower584  865
    u[14]     primal_lower585  903
    u[14]     primal_lower586  381
    u[14]     primal_lower587  113
    u[14]     primal_lower588  978
    u[14]     primal_lower589  491
    u[14]     primal_lower590  437
    u[14]     primal_lower591  585
    u[14]     primal_lower592  189
    u[14]     primal_lower593  758
    u[14]     primal_lower594  557
    u[14]     primal_lower595  258
    u[14]     primal_lower596  569
    u[14]     primal_lower597  182
    u[14]     primal_lower598  587
    u[14]     primal_lower599  670
    u[14]     primal_lower600  828
    u[14]     primal_lower601  85
    u[14]     primal_lower602  611
    u[14]     primal_lower603  802
    u[14]     primal_lower604  997
    u[14]     primal_lower605  824
    u[14]     primal_lower606  222
    u[14]     primal_lower607  799
    u[14]     primal_lower608  963
    u[14]     primal_lower609  13
    u[14]     primal_lower610  885
    u[14]     primal_lower611  976
    u[14]     primal_lower612  820
    u[14]     primal_lower613  230
    u[14]     primal_lower614  390
    u[14]     primal_lower615  122
    u[14]     primal_lower616  972
    u[14]     primal_lower617  555
    u[14]     primal_lower618  514
    u[14]     primal_lower619  14
    u[14]     primal_lower620  472
    u[14]     primal_lower621  356
    u[14]     primal_lower622  566
    u[14]     primal_lower623  856
    u[14]     primal_lower624  804
    u[14]     primal_lower625  855
    u[14]     primal_lower626  596
    u[14]     primal_lower627  797
    u[14]     primal_lower628  611
    u[14]     primal_lower629  302
    u[14]     primal_lower630  959
    u[14]     primal_lower631  263
    u[14]     primal_lower632  618
    u[14]     primal_lower633  396
    u[14]     primal_lower634  522
    u[14]     primal_lower635  281
    u[14]     primal_lower636  615
    u[14]     primal_lower637  674
    u[14]     primal_lower638  595
    u[14]     primal_lower639  786
    u[14]     primal_lower640  1
    u[14]     primal_lower641  460
    u[14]     primal_lower642  958
    u[14]     primal_lower643  923
    u[14]     primal_lower644  916
    u[14]     primal_lower645  388
    u[14]     primal_lower646  172
    u[14]     primal_lower647  943
    u[14]     primal_lower648  511
    u[14]     primal_lower649  635
    u[14]     primal_lower650  864
    u[14]     primal_lower651  314
    u[14]     primal_lower652  11
    u[14]     primal_lower653  254
    u[14]     primal_lower654  607
    u[14]     primal_lower655  234
    u[14]     primal_lower656  190
    u[14]     primal_lower657  672
    u[14]     primal_lower658  431
    u[14]     primal_lower659  412
    u[14]     primal_lower660  107
    u[14]     primal_lower661  393
    u[14]     primal_lower662  157
    u[14]     primal_lower663  692
    u[14]     primal_lower664  240
    u[14]     primal_lower665  142
    u[14]     primal_lower666  240
    u[14]     primal_lower667  880
    u[14]     primal_lower668  40
    u[14]     primal_lower669  734
    u[14]     primal_lower670  619
    u[14]     primal_lower671  404
    u[14]     primal_lower672  753
    u[14]     primal_lower673  142
    u[14]     primal_lower674  774
    u[14]     primal_lower675  75
    u[14]     primal_lower676  102
    u[14]     primal_lower677  973
    u[14]     primal_lower678  60
    u[14]     primal_lower679  804
    u[14]     primal_lower680  662
    u[14]     primal_lower681  574
    u[14]     primal_lower682  724
    u[14]     primal_lower683  345
    u[14]     primal_lower684  152
    u[14]     primal_lower685  927
    u[14]     primal_lower686  583
    u[14]     primal_lower687  203
    u[14]     primal_lower688  255
    u[14]     primal_lower689  440
    u[14]     primal_lower690  960
    u[14]     primal_lower691  216
    u[14]     primal_lower692  46
    u[14]     primal_lower693  209
    u[14]     primal_lower694  611
    u[14]     primal_lower695  212
    u[14]     primal_lower696  447
    u[14]     primal_lower697  917
    u[14]     primal_lower698  9
    u[14]     primal_lower699  517
    u[14]     primal_lower700  613
    u[14]     primal_lower701  631
    u[14]     primal_lower702  322
    u[14]     primal_lower703  220
    u[14]     primal_lower704  719
    u[14]     primal_lower705  999
    u[14]     primal_lower706  898
    u[14]     primal_lower707  42
    u[14]     primal_lower708  57
    u[14]     primal_lower709  413
    u[14]     primal_lower710  475
    u[14]     primal_lower711  285
    u[14]     primal_lower712  732
    u[14]     primal_lower713  129
    u[14]     primal_lower714  742
    u[14]     primal_lower715  504
    u[14]     primal_lower716  745
    u[14]     primal_lower717  83
    u[14]     primal_lower718  102
    u[14]     primal_lower719  332
    u[14]     primal_lower720  380
    u[14]     primal_lower721  241
    u[14]     primal_lower722  310
    u[14]     primal_lower723  320
    u[14]     primal_lower724  351
    u[14]     primal_lower725  952
    u[14]     primal_lower726  44
    u[14]     primal_lower727  94
    u[14]     primal_lower728  974
    u[14]     primal_lower729  139
    u[14]     primal_lower730  82
    u[14]     primal_lower731  93
    u[14]     primal_lower732  810
    u[14]     primal_lower733  519
    u[14]     primal_lower734  289
    u[14]     primal_lower735  523
    u[14]     primal_lower736  924
    u[14]     primal_lower737  344
    u[14]     primal_lower738  419
    u[14]     primal_lower739  154
    u[14]     primal_lower740  930
    u[14]     primal_lower741  875
    u[14]     primal_lower742  31
    u[14]     primal_lower743  741
    u[14]     primal_lower744  991
    u[14]     primal_lower745  587
    u[14]     primal_lower746  117
    u[14]     primal_lower747  289
    u[14]     primal_lower748  586
    u[14]     primal_lower749  399
    u[14]     primal_lower750  853
    u[14]     primal_lower751  143
    u[14]     primal_lower752  326
    u[14]     primal_lower753  676
    u[14]     primal_lower754  389
    u[14]     primal_lower755  85
    u[14]     primal_lower756  470
    u[14]     primal_lower757  36
    u[14]     primal_lower758  965
    u[14]     primal_lower759  812
    u[14]     primal_lower760  467
    u[14]     primal_lower761  459
    u[14]     primal_lower762  601
    u[14]     primal_lower763  327
    u[14]     primal_lower764  12
    u[14]     primal_lower765  251
    u[14]     primal_lower766  993
    u[14]     primal_lower767  789
    u[14]     primal_lower768  453
    u[14]     primal_lower769  477
    u[14]     primal_lower770  720
    u[14]     primal_lower771  776
    u[14]     primal_lower772  939
    u[14]     primal_lower773  234
    u[14]     primal_lower774  66
    u[14]     primal_lower775  208
    u[14]     primal_lower776  744
    u[14]     primal_lower777  126
    u[14]     primal_lower778  79
    u[14]     primal_lower779  140
    u[14]     primal_lower780  350
    u[14]     primal_lower781  750
    u[14]     primal_lower782  604
    u[14]     primal_lower783  53
    u[14]     primal_lower784  742
    u[14]     primal_lower785  551
    u[14]     primal_lower786  791
    u[14]     primal_lower787  936
    u[14]     primal_lower788  343
    u[14]     primal_lower789  728
    u[14]     primal_lower790  790
    u[14]     primal_lower791  367
    u[14]     primal_lower792  894
    u[14]     primal_lower793  84
    u[14]     primal_lower794  33
    u[14]     primal_lower795  324
    u[14]     primal_lower796  92
    u[14]     primal_lower797  901
    u[14]     primal_lower798  255
    u[14]     primal_lower799  970
    u[14]     primal_lower800  699
    u[14]     primal_lower801  734
    u[14]     primal_lower802  245
    u[14]     primal_lower803  397
    u[14]     primal_lower804  143
    u[14]     primal_lower805  236
    u[14]     primal_lower806  610
    u[14]     primal_lower807  798
    u[14]     primal_lower808  317
    u[14]     primal_lower809  413
    u[14]     primal_lower810  740
    u[14]     primal_lower811  252
    u[14]     primal_lower812  241
    u[14]     primal_lower813  38
    u[14]     primal_lower814  747
    u[14]     primal_lower815  747
    u[14]     primal_lower816  148
    u[14]     primal_lower817  512
    u[14]     primal_lower818  823
    u[14]     primal_lower819  506
    u[14]     primal_lower820  982
    u[14]     primal_lower821  16
    u[14]     primal_lower822  938
    u[14]     primal_lower823  248
    u[14]     primal_lower824  868
    u[14]     primal_lower825  713
    u[14]     primal_lower826  174
    u[14]     primal_lower827  47
    u[14]     primal_lower828  830
    u[14]     primal_lower829  834
    u[14]     primal_lower830  612
    u[14]     primal_lower831  230
    u[14]     primal_lower832  545
    u[14]     primal_lower833  734
    u[14]     primal_lower834  341
    u[14]     primal_lower835  324
    u[14]     primal_lower836  462
    u[14]     primal_lower837  817
    u[14]     primal_lower838  696
    u[14]     primal_lower839  351
    u[14]     primal_lower840  934
    u[14]     primal_lower841  932
    u[14]     primal_lower842  525
    u[14]     primal_lower843  854
    u[14]     primal_lower844  686
    u[14]     primal_lower845  971
    u[14]     primal_lower846  734
    u[14]     primal_lower847  99
    u[14]     primal_lower848  129
    u[14]     primal_lower849  853
    u[14]     primal_lower850  623
    u[14]     primal_lower851  300
    u[14]     primal_lower852  808
    u[14]     primal_lower853  650
    u[14]     primal_lower854  366
    u[14]     primal_lower855  917
    u[14]     primal_lower856  253
    u[14]     primal_lower857  47
    u[14]     primal_lower858  822
    u[14]     primal_lower859  692
    u[14]     primal_lower860  445
    u[14]     primal_lower861  927
    u[14]     primal_lower862  874
    u[14]     primal_lower863  892
    u[14]     primal_lower864  325
    u[14]     primal_lower865  465
    u[14]     primal_lower866  665
    u[14]     primal_lower867  498
    u[14]     primal_lower868  987
    u[14]     primal_lower869  252
    u[14]     primal_lower870  605
    u[14]     primal_lower871  512
    u[14]     primal_lower872  149
    u[14]     primal_lower873  209
    u[14]     primal_lower874  716
    u[14]     primal_lower875  55
    u[14]     primal_lower876  103
    u[14]     primal_lower877  495
    u[14]     primal_lower878  40
    u[14]     primal_lower879  122
    u[14]     primal_lower880  577
    u[14]     primal_lower881  377
    u[14]     primal_lower882  138
    u[14]     primal_lower883  595
    u[14]     primal_lower884  940
    u[14]     primal_lower885  199
    u[14]     primal_lower886  15
    u[14]     primal_lower887  894
    u[14]     primal_lower888  404
    u[14]     primal_lower889  756
    u[14]     primal_lower890  418
    u[14]     primal_lower891  5
    u[14]     primal_lower892  507
    u[14]     primal_lower893  40
    u[14]     primal_lower894  790
    u[14]     primal_lower895  789
    u[14]     primal_lower896  445
    u[14]     primal_lower897  766
    u[14]     primal_lower898  751
    u[14]     primal_lower899  166
    u[14]     primal_lower900  566
    u[14]     primal_lower901  126
    u[14]     primal_lower902  100
    u[14]     primal_lower903  174
    u[14]     primal_lower904  501
    u[14]     primal_lower905  54
    u[14]     primal_lower906  675
    u[14]     primal_lower907  580
    u[14]     primal_lower908  48
    u[14]     primal_lower909  39
    u[14]     primal_lower910  748
    u[14]     primal_lower911  67
    u[14]     primal_lower912  7
    u[14]     primal_lower913  874
    u[14]     primal_lower914  73
    u[14]     primal_lower915  463
    u[14]     primal_lower916  109
    u[14]     primal_lower917  990
    u[14]     primal_lower918  90
    u[14]     primal_lower919  965
    u[14]     primal_lower920  383
    u[14]     primal_lower921  24
    u[14]     primal_lower922  776
    u[14]     primal_lower923  84
    u[14]     primal_lower924  185
    u[14]     primal_lower925  972
    u[14]     primal_lower926  58
    u[14]     primal_lower927  619
    u[14]     primal_lower928  940
    u[14]     primal_lower929  591
    u[14]     primal_lower930  278
    u[14]     primal_lower931  809
    u[14]     primal_lower932  487
    u[14]     primal_lower933  458
    u[14]     primal_lower934  804
    u[14]     primal_lower935  952
    u[14]     primal_lower936  291
    u[14]     primal_lower937  579
    u[14]     primal_lower938  225
    u[14]     primal_lower939  153
    u[14]     primal_lower940  211
    u[14]     primal_lower941  197
    u[14]     primal_lower942  61
    u[14]     primal_lower943  133
    u[14]     primal_lower944  175
    u[14]     primal_lower945  361
    u[14]     primal_lower946  850
    u[14]     primal_lower947  467
    u[14]     primal_lower948  556
    u[14]     primal_lower949  473
    u[14]     primal_lower950  584
    u[14]     primal_lower951  957
    u[14]     primal_lower952  187
    u[14]     primal_lower953  515
    u[14]     primal_lower954  90
    u[14]     primal_lower955  912
    u[14]     primal_lower956  837
    u[14]     primal_lower957  66
    u[14]     primal_lower958  254
    u[14]     primal_lower959  13
    u[14]     primal_lower960  639
    u[14]     primal_lower961  621
    u[14]     primal_lower962  622
    u[14]     primal_lower963  252
    u[14]     primal_lower964  533
    u[14]     primal_lower965  189
    u[14]     primal_lower966  544
    u[14]     primal_lower967  87
    u[14]     primal_lower968  338
    u[14]     primal_lower969  526
    u[14]     primal_lower970  543
    u[14]     primal_lower971  383
    u[14]     primal_lower972  146
    u[14]     primal_lower973  981
    u[14]     primal_lower974  312
    u[14]     primal_lower975  178
    u[14]     primal_lower976  177
    u[14]     primal_lower977  37
    u[14]     primal_lower978  209
    u[14]     primal_lower979  174
    u[14]     primal_lower980  989
    u[14]     primal_lower981  537
    u[14]     primal_lower982  543
    u[14]     primal_lower983  956
    u[14]     primal_lower984  65
    u[14]     primal_lower985  848
    u[14]     primal_lower986  522
    u[14]     primal_lower987  301
    u[14]     primal_lower988  270
    u[14]     primal_lower989  753
    u[14]     primal_lower990  23
    u[14]     primal_lower991  617
    u[14]     primal_lower992  478
    u[14]     primal_lower993  976
    u[14]     primal_lower994  22
    u[14]     primal_lower995  232
    u[14]     primal_lower996  416
    u[14]     primal_lower997  611
    u[14]     primal_lower998  816
    u[14]     primal_lower999  720
    u[14]     interdiction[14]  1
    u[14]     mccormick1[14]  -1
    u[14]     mccormick3[14]  1
    u[15]     primal_lower0  480
    u[15]     primal_lower1  700
    u[15]     primal_lower2  529
    u[15]     primal_lower3  883
    u[15]     primal_lower4  153
    u[15]     primal_lower5  249
    u[15]     primal_lower6  679
    u[15]     primal_lower7  301
    u[15]     primal_lower8  792
    u[15]     primal_lower9  537
    u[15]     primal_lower10  96
    u[15]     primal_lower11  406
    u[15]     primal_lower12  77
    u[15]     primal_lower13  255
    u[15]     primal_lower14  42
    u[15]     primal_lower15  159
    u[15]     primal_lower16  562
    u[15]     primal_lower17  36
    u[15]     primal_lower18  264
    u[15]     primal_lower19  892
    u[15]     primal_lower20  637
    u[15]     primal_lower21  776
    u[15]     primal_lower22  923
    u[15]     primal_lower23  928
    u[15]     primal_lower24  423
    u[15]     primal_lower25  848
    u[15]     primal_lower26  469
    u[15]     primal_lower27  741
    u[15]     primal_lower28  588
    u[15]     primal_lower29  65
    u[15]     primal_lower30  171
    u[15]     primal_lower31  282
    u[15]     primal_lower32  687
    u[15]     primal_lower33  221
    u[15]     primal_lower34  143
    u[15]     primal_lower35  409
    u[15]     primal_lower36  282
    u[15]     primal_lower37  342
    u[15]     primal_lower38  578
    u[15]     primal_lower39  527
    u[15]     primal_lower40  609
    u[15]     primal_lower41  3
    u[15]     primal_lower42  504
    u[15]     primal_lower43  394
    u[15]     primal_lower44  343
    u[15]     primal_lower45  258
    u[15]     primal_lower46  637
    u[15]     primal_lower47  500
    u[15]     primal_lower48  761
    u[15]     primal_lower49  354
    u[15]     primal_lower50  360
    u[15]     primal_lower51  885
    u[15]     primal_lower52  502
    u[15]     primal_lower53  627
    u[15]     primal_lower54  817
    u[15]     primal_lower55  301
    u[15]     primal_lower56  794
    u[15]     primal_lower57  669
    u[15]     primal_lower58  202
    u[15]     primal_lower59  714
    u[15]     primal_lower60  997
    u[15]     primal_lower61  305
    u[15]     primal_lower62  220
    u[15]     primal_lower63  869
    u[15]     primal_lower64  633
    u[15]     primal_lower65  650
    u[15]     primal_lower66  431
    u[15]     primal_lower67  345
    u[15]     primal_lower68  193
    u[15]     primal_lower69  895
    u[15]     primal_lower70  569
    u[15]     primal_lower71  711
    u[15]     primal_lower72  578
    u[15]     primal_lower73  948
    u[15]     primal_lower74  530
    u[15]     primal_lower75  764
    u[15]     primal_lower76  793
    u[15]     primal_lower77  894
    u[15]     primal_lower78  338
    u[15]     primal_lower79  52
    u[15]     primal_lower80  88
    u[15]     primal_lower81  17
    u[15]     primal_lower82  11
    u[15]     primal_lower83  786
    u[15]     primal_lower84  370
    u[15]     primal_lower85  166
    u[15]     primal_lower86  163
    u[15]     primal_lower87  9
    u[15]     primal_lower88  983
    u[15]     primal_lower89  875
    u[15]     primal_lower90  844
    u[15]     primal_lower91  512
    u[15]     primal_lower92  298
    u[15]     primal_lower93  569
    u[15]     primal_lower94  135
    u[15]     primal_lower95  971
    u[15]     primal_lower96  10
    u[15]     primal_lower97  403
    u[15]     primal_lower98  281
    u[15]     primal_lower99  899
    u[15]     primal_lower100  950
    u[15]     primal_lower101  931
    u[15]     primal_lower102  410
    u[15]     primal_lower103  844
    u[15]     primal_lower104  418
    u[15]     primal_lower105  279
    u[15]     primal_lower106  86
    u[15]     primal_lower107  258
    u[15]     primal_lower108  608
    u[15]     primal_lower109  646
    u[15]     primal_lower110  241
    u[15]     primal_lower111  177
    u[15]     primal_lower112  280
    u[15]     primal_lower113  320
    u[15]     primal_lower114  608
    u[15]     primal_lower115  832
    u[15]     primal_lower116  175
    u[15]     primal_lower117  437
    u[15]     primal_lower118  399
    u[15]     primal_lower119  316
    u[15]     primal_lower120  543
    u[15]     primal_lower121  507
    u[15]     primal_lower122  771
    u[15]     primal_lower123  51
    u[15]     primal_lower124  549
    u[15]     primal_lower125  747
    u[15]     primal_lower126  222
    u[15]     primal_lower127  507
    u[15]     primal_lower128  521
    u[15]     primal_lower129  271
    u[15]     primal_lower130  106
    u[15]     primal_lower131  63
    u[15]     primal_lower132  938
    u[15]     primal_lower133  496
    u[15]     primal_lower134  353
    u[15]     primal_lower135  834
    u[15]     primal_lower136  5
    u[15]     primal_lower137  584
    u[15]     primal_lower138  596
    u[15]     primal_lower139  758
    u[15]     primal_lower140  958
    u[15]     primal_lower141  98
    u[15]     primal_lower142  280
    u[15]     primal_lower143  753
    u[15]     primal_lower144  208
    u[15]     primal_lower145  162
    u[15]     primal_lower146  314
    u[15]     primal_lower147  629
    u[15]     primal_lower148  817
    u[15]     primal_lower149  662
    u[15]     primal_lower150  405
    u[15]     primal_lower151  230
    u[15]     primal_lower152  639
    u[15]     primal_lower153  332
    u[15]     primal_lower154  926
    u[15]     primal_lower155  774
    u[15]     primal_lower156  425
    u[15]     primal_lower157  815
    u[15]     primal_lower158  67
    u[15]     primal_lower159  688
    u[15]     primal_lower160  812
    u[15]     primal_lower161  846
    u[15]     primal_lower162  633
    u[15]     primal_lower163  228
    u[15]     primal_lower164  849
    u[15]     primal_lower165  870
    u[15]     primal_lower166  552
    u[15]     primal_lower167  249
    u[15]     primal_lower168  931
    u[15]     primal_lower169  139
    u[15]     primal_lower170  499
    u[15]     primal_lower171  392
    u[15]     primal_lower172  322
    u[15]     primal_lower173  238
    u[15]     primal_lower174  512
    u[15]     primal_lower175  23
    u[15]     primal_lower176  526
    u[15]     primal_lower177  720
    u[15]     primal_lower178  220
    u[15]     primal_lower179  939
    u[15]     primal_lower180  190
    u[15]     primal_lower181  877
    u[15]     primal_lower182  747
    u[15]     primal_lower183  615
    u[15]     primal_lower184  191
    u[15]     primal_lower185  989
    u[15]     primal_lower186  366
    u[15]     primal_lower187  281
    u[15]     primal_lower188  3
    u[15]     primal_lower189  330
    u[15]     primal_lower190  613
    u[15]     primal_lower191  529
    u[15]     primal_lower192  992
    u[15]     primal_lower193  715
    u[15]     primal_lower194  53
    u[15]     primal_lower195  397
    u[15]     primal_lower196  155
    u[15]     primal_lower197  764
    u[15]     primal_lower198  163
    u[15]     primal_lower199  611
    u[15]     primal_lower200  726
    u[15]     primal_lower201  79
    u[15]     primal_lower202  589
    u[15]     primal_lower203  888
    u[15]     primal_lower204  270
    u[15]     primal_lower205  332
    u[15]     primal_lower206  571
    u[15]     primal_lower207  765
    u[15]     primal_lower208  925
    u[15]     primal_lower209  922
    u[15]     primal_lower210  528
    u[15]     primal_lower211  795
    u[15]     primal_lower212  595
    u[15]     primal_lower213  517
    u[15]     primal_lower214  492
    u[15]     primal_lower215  873
    u[15]     primal_lower216  799
    u[15]     primal_lower217  900
    u[15]     primal_lower218  828
    u[15]     primal_lower219  805
    u[15]     primal_lower220  124
    u[15]     primal_lower221  103
    u[15]     primal_lower222  333
    u[15]     primal_lower223  190
    u[15]     primal_lower224  117
    u[15]     primal_lower225  732
    u[15]     primal_lower226  489
    u[15]     primal_lower227  622
    u[15]     primal_lower228  693
    u[15]     primal_lower229  476
    u[15]     primal_lower230  557
    u[15]     primal_lower231  654
    u[15]     primal_lower232  722
    u[15]     primal_lower233  708
    u[15]     primal_lower234  389
    u[15]     primal_lower235  845
    u[15]     primal_lower236  597
    u[15]     primal_lower237  437
    u[15]     primal_lower238  86
    u[15]     primal_lower239  155
    u[15]     primal_lower240  313
    u[15]     primal_lower241  764
    u[15]     primal_lower242  247
    u[15]     primal_lower243  62
    u[15]     primal_lower244  870
    u[15]     primal_lower245  19
    u[15]     primal_lower246  919
    u[15]     primal_lower247  634
    u[15]     primal_lower248  358
    u[15]     primal_lower249  775
    u[15]     primal_lower250  400
    u[15]     primal_lower251  272
    u[15]     primal_lower252  397
    u[15]     primal_lower253  607
    u[15]     primal_lower254  313
    u[15]     primal_lower255  261
    u[15]     primal_lower256  52
    u[15]     primal_lower257  514
    u[15]     primal_lower258  62
    u[15]     primal_lower259  810
    u[15]     primal_lower260  802
    u[15]     primal_lower261  722
    u[15]     primal_lower262  446
    u[15]     primal_lower263  572
    u[15]     primal_lower264  631
    u[15]     primal_lower265  757
    u[15]     primal_lower266  709
    u[15]     primal_lower267  890
    u[15]     primal_lower268  940
    u[15]     primal_lower269  472
    u[15]     primal_lower270  458
    u[15]     primal_lower271  926
    u[15]     primal_lower272  788
    u[15]     primal_lower273  492
    u[15]     primal_lower274  429
    u[15]     primal_lower275  290
    u[15]     primal_lower276  226
    u[15]     primal_lower277  663
    u[15]     primal_lower278  567
    u[15]     primal_lower279  130
    u[15]     primal_lower280  41
    u[15]     primal_lower281  533
    u[15]     primal_lower282  832
    u[15]     primal_lower283  390
    u[15]     primal_lower284  594
    u[15]     primal_lower285  426
    u[15]     primal_lower286  600
    u[15]     primal_lower287  261
    u[15]     primal_lower288  464
    u[15]     primal_lower289  871
    u[15]     primal_lower290  400
    u[15]     primal_lower291  74
    u[15]     primal_lower292  411
    u[15]     primal_lower293  390
    u[15]     primal_lower294  840
    u[15]     primal_lower295  140
    u[15]     primal_lower296  272
    u[15]     primal_lower297  693
    u[15]     primal_lower298  51
    u[15]     primal_lower299  357
    u[15]     primal_lower300  396
    u[15]     primal_lower301  163
    u[15]     primal_lower302  567
    u[15]     primal_lower303  109
    u[15]     primal_lower304  9
    u[15]     primal_lower305  333
    u[15]     primal_lower306  263
    u[15]     primal_lower307  70
    u[15]     primal_lower308  827
    u[15]     primal_lower309  624
    u[15]     primal_lower310  607
    u[15]     primal_lower311  913
    u[15]     primal_lower312  977
    u[15]     primal_lower313  1
    u[15]     primal_lower314  705
    u[15]     primal_lower315  517
    u[15]     primal_lower316  685
    u[15]     primal_lower317  701
    u[15]     primal_lower318  566
    u[15]     primal_lower319  946
    u[15]     primal_lower320  748
    u[15]     primal_lower321  868
    u[15]     primal_lower322  773
    u[15]     primal_lower323  668
    u[15]     primal_lower324  568
    u[15]     primal_lower325  683
    u[15]     primal_lower326  990
    u[15]     primal_lower327  321
    u[15]     primal_lower328  254
    u[15]     primal_lower329  569
    u[15]     primal_lower330  113
    u[15]     primal_lower331  129
    u[15]     primal_lower332  475
    u[15]     primal_lower333  302
    u[15]     primal_lower334  682
    u[15]     primal_lower335  57
    u[15]     primal_lower336  688
    u[15]     primal_lower337  192
    u[15]     primal_lower338  599
    u[15]     primal_lower339  686
    u[15]     primal_lower340  838
    u[15]     primal_lower341  366
    u[15]     primal_lower342  467
    u[15]     primal_lower343  250
    u[15]     primal_lower344  710
    u[15]     primal_lower345  688
    u[15]     primal_lower346  49
    u[15]     primal_lower347  660
    u[15]     primal_lower348  547
    u[15]     primal_lower349  14
    u[15]     primal_lower350  775
    u[15]     primal_lower351  241
    u[15]     primal_lower352  417
    u[15]     primal_lower353  577
    u[15]     primal_lower354  875
    u[15]     primal_lower355  361
    u[15]     primal_lower356  384
    u[15]     primal_lower357  710
    u[15]     primal_lower358  933
    u[15]     primal_lower359  867
    u[15]     primal_lower360  820
    u[15]     primal_lower361  25
    u[15]     primal_lower362  427
    u[15]     primal_lower363  975
    u[15]     primal_lower364  39
    u[15]     primal_lower365  473
    u[15]     primal_lower366  271
    u[15]     primal_lower367  393
    u[15]     primal_lower368  871
    u[15]     primal_lower369  755
    u[15]     primal_lower370  784
    u[15]     primal_lower371  499
    u[15]     primal_lower372  315
    u[15]     primal_lower373  736
    u[15]     primal_lower374  148
    u[15]     primal_lower375  876
    u[15]     primal_lower376  180
    u[15]     primal_lower377  444
    u[15]     primal_lower378  300
    u[15]     primal_lower379  985
    u[15]     primal_lower380  638
    u[15]     primal_lower381  481
    u[15]     primal_lower382  358
    u[15]     primal_lower383  790
    u[15]     primal_lower384  381
    u[15]     primal_lower385  171
    u[15]     primal_lower386  614
    u[15]     primal_lower387  179
    u[15]     primal_lower388  909
    u[15]     primal_lower389  228
    u[15]     primal_lower390  7
    u[15]     primal_lower391  829
    u[15]     primal_lower392  984
    u[15]     primal_lower393  722
    u[15]     primal_lower394  731
    u[15]     primal_lower395  987
    u[15]     primal_lower396  815
    u[15]     primal_lower397  39
    u[15]     primal_lower398  203
    u[15]     primal_lower399  514
    u[15]     primal_lower400  816
    u[15]     primal_lower401  338
    u[15]     primal_lower402  339
    u[15]     primal_lower403  860
    u[15]     primal_lower404  30
    u[15]     primal_lower405  746
    u[15]     primal_lower406  55
    u[15]     primal_lower407  386
    u[15]     primal_lower408  809
    u[15]     primal_lower409  517
    u[15]     primal_lower410  700
    u[15]     primal_lower411  778
    u[15]     primal_lower412  526
    u[15]     primal_lower413  318
    u[15]     primal_lower414  918
    u[15]     primal_lower415  400
    u[15]     primal_lower416  955
    u[15]     primal_lower417  604
    u[15]     primal_lower418  95
    u[15]     primal_lower419  166
    u[15]     primal_lower420  161
    u[15]     primal_lower421  616
    u[15]     primal_lower422  220
    u[15]     primal_lower423  76
    u[15]     primal_lower424  31
    u[15]     primal_lower425  71
    u[15]     primal_lower426  983
    u[15]     primal_lower427  244
    u[15]     primal_lower428  821
    u[15]     primal_lower429  95
    u[15]     primal_lower430  181
    u[15]     primal_lower431  74
    u[15]     primal_lower432  800
    u[15]     primal_lower433  608
    u[15]     primal_lower434  423
    u[15]     primal_lower435  205
    u[15]     primal_lower436  139
    u[15]     primal_lower437  792
    u[15]     primal_lower438  369
    u[15]     primal_lower439  192
    u[15]     primal_lower440  419
    u[15]     primal_lower441  502
    u[15]     primal_lower442  821
    u[15]     primal_lower443  552
    u[15]     primal_lower444  636
    u[15]     primal_lower445  273
    u[15]     primal_lower446  754
    u[15]     primal_lower447  981
    u[15]     primal_lower448  837
    u[15]     primal_lower449  654
    u[15]     primal_lower450  209
    u[15]     primal_lower451  330
    u[15]     primal_lower452  156
    u[15]     primal_lower453  179
    u[15]     primal_lower454  923
    u[15]     primal_lower455  697
    u[15]     primal_lower456  81
    u[15]     primal_lower457  503
    u[15]     primal_lower458  202
    u[15]     primal_lower459  669
    u[15]     primal_lower460  970
    u[15]     primal_lower461  716
    u[15]     primal_lower462  592
    u[15]     primal_lower463  84
    u[15]     primal_lower464  820
    u[15]     primal_lower465  431
    u[15]     primal_lower466  591
    u[15]     primal_lower467  261
    u[15]     primal_lower468  149
    u[15]     primal_lower469  987
    u[15]     primal_lower470  255
    u[15]     primal_lower471  854
    u[15]     primal_lower472  130
    u[15]     primal_lower473  603
    u[15]     primal_lower474  617
    u[15]     primal_lower475  932
    u[15]     primal_lower476  678
    u[15]     primal_lower477  756
    u[15]     primal_lower478  455
    u[15]     primal_lower479  179
    u[15]     primal_lower480  423
    u[15]     primal_lower481  853
    u[15]     primal_lower482  779
    u[15]     primal_lower483  261
    u[15]     primal_lower484  384
    u[15]     primal_lower485  596
    u[15]     primal_lower486  73
    u[15]     primal_lower487  599
    u[15]     primal_lower488  977
    u[15]     primal_lower489  440
    u[15]     primal_lower490  726
    u[15]     primal_lower491  549
    u[15]     primal_lower492  62
    u[15]     primal_lower493  470
    u[15]     primal_lower494  134
    u[15]     primal_lower495  400
    u[15]     primal_lower496  984
    u[15]     primal_lower497  686
    u[15]     primal_lower498  285
    u[15]     primal_lower499  939
    u[15]     primal_lower500  665
    u[15]     primal_lower501  267
    u[15]     primal_lower502  461
    u[15]     primal_lower503  947
    u[15]     primal_lower504  756
    u[15]     primal_lower505  601
    u[15]     primal_lower506  658
    u[15]     primal_lower507  878
    u[15]     primal_lower508  438
    u[15]     primal_lower509  819
    u[15]     primal_lower510  883
    u[15]     primal_lower511  198
    u[15]     primal_lower512  941
    u[15]     primal_lower513  802
    u[15]     primal_lower514  362
    u[15]     primal_lower515  794
    u[15]     primal_lower516  147
    u[15]     primal_lower517  601
    u[15]     primal_lower518  197
    u[15]     primal_lower519  304
    u[15]     primal_lower520  570
    u[15]     primal_lower521  109
    u[15]     primal_lower522  639
    u[15]     primal_lower523  110
    u[15]     primal_lower524  857
    u[15]     primal_lower525  791
    u[15]     primal_lower526  405
    u[15]     primal_lower527  135
    u[15]     primal_lower528  129
    u[15]     primal_lower529  374
    u[15]     primal_lower530  59
    u[15]     primal_lower531  527
    u[15]     primal_lower532  172
    u[15]     primal_lower533  933
    u[15]     primal_lower534  348
    u[15]     primal_lower535  107
    u[15]     primal_lower536  148
    u[15]     primal_lower537  279
    u[15]     primal_lower538  623
    u[15]     primal_lower539  496
    u[15]     primal_lower540  379
    u[15]     primal_lower541  533
    u[15]     primal_lower542  937
    u[15]     primal_lower543  617
    u[15]     primal_lower544  799
    u[15]     primal_lower545  605
    u[15]     primal_lower546  691
    u[15]     primal_lower547  627
    u[15]     primal_lower548  262
    u[15]     primal_lower549  375
    u[15]     primal_lower550  574
    u[15]     primal_lower551  90
    u[15]     primal_lower552  123
    u[15]     primal_lower553  551
    u[15]     primal_lower554  190
    u[15]     primal_lower555  834
    u[15]     primal_lower556  840
    u[15]     primal_lower557  154
    u[15]     primal_lower558  928
    u[15]     primal_lower559  652
    u[15]     primal_lower560  634
    u[15]     primal_lower561  943
    u[15]     primal_lower562  553
    u[15]     primal_lower563  74
    u[15]     primal_lower564  822
    u[15]     primal_lower565  742
    u[15]     primal_lower566  976
    u[15]     primal_lower567  670
    u[15]     primal_lower568  616
    u[15]     primal_lower569  700
    u[15]     primal_lower570  399
    u[15]     primal_lower571  42
    u[15]     primal_lower572  494
    u[15]     primal_lower573  479
    u[15]     primal_lower574  215
    u[15]     primal_lower575  67
    u[15]     primal_lower576  223
    u[15]     primal_lower577  454
    u[15]     primal_lower578  109
    u[15]     primal_lower579  979
    u[15]     primal_lower580  488
    u[15]     primal_lower581  930
    u[15]     primal_lower582  341
    u[15]     primal_lower583  48
    u[15]     primal_lower584  629
    u[15]     primal_lower585  867
    u[15]     primal_lower586  833
    u[15]     primal_lower587  401
    u[15]     primal_lower588  110
    u[15]     primal_lower589  703
    u[15]     primal_lower590  757
    u[15]     primal_lower591  577
    u[15]     primal_lower592  637
    u[15]     primal_lower593  178
    u[15]     primal_lower594  349
    u[15]     primal_lower595  650
    u[15]     primal_lower596  225
    u[15]     primal_lower597  158
    u[15]     primal_lower598  415
    u[15]     primal_lower599  74
    u[15]     primal_lower600  396
    u[15]     primal_lower601  881
    u[15]     primal_lower602  587
    u[15]     primal_lower603  402
    u[15]     primal_lower604  289
    u[15]     primal_lower605  528
    u[15]     primal_lower606  214
    u[15]     primal_lower607  331
    u[15]     primal_lower608  443
    u[15]     primal_lower609  305
    u[15]     primal_lower610  401
    u[15]     primal_lower611  732
    u[15]     primal_lower612  200
    u[15]     primal_lower613  274
    u[15]     primal_lower614  782
    u[15]     primal_lower615  678
    u[15]     primal_lower616  344
    u[15]     primal_lower617  795
    u[15]     primal_lower618  298
    u[15]     primal_lower619  458
    u[15]     primal_lower620  76
    u[15]     primal_lower621  72
    u[15]     primal_lower622  54
    u[15]     primal_lower623  728
    u[15]     primal_lower624  576
    u[15]     primal_lower625  775
    u[15]     primal_lower626  588
    u[15]     primal_lower627  221
    u[15]     primal_lower628  403
    u[15]     primal_lower629  314
    u[15]     primal_lower630  7
    u[15]     primal_lower631  419
    u[15]     primal_lower632  586
    u[15]     primal_lower633  908
    u[15]     primal_lower634  90
    u[15]     primal_lower635  745
    u[15]     primal_lower636  675
    u[15]     primal_lower637  902
    u[15]     primal_lower638  35
    u[15]     primal_lower639  306
    u[15]     primal_lower640  133
    u[15]     primal_lower641  388
    u[15]     primal_lower642  82
    u[15]     primal_lower643  779
    u[15]     primal_lower644  324
    u[15]     primal_lower645  756
    u[15]     primal_lower646  984
    u[15]     primal_lower647  871
    u[15]     primal_lower648  11
    u[15]     primal_lower649  667
    u[15]     primal_lower650  984
    u[15]     primal_lower651  86
    u[15]     primal_lower652  79
    u[15]     primal_lower653  718
    u[15]     primal_lower654  15
    u[15]     primal_lower655  294
    u[15]     primal_lower656  938
    u[15]     primal_lower657  364
    u[15]     primal_lower658  247
    u[15]     primal_lower659  268
    u[15]     primal_lower660  7
    u[15]     primal_lower661  649
    u[15]     primal_lower662  69
    u[15]     primal_lower663  744
    u[15]     primal_lower664  428
    u[15]     primal_lower665  434
    u[15]     primal_lower666  132
    u[15]     primal_lower667  448
    u[15]     primal_lower668  884
    u[15]     primal_lower669  770
    u[15]     primal_lower670  739
    u[15]     primal_lower671  492
    u[15]     primal_lower672  737
    u[15]     primal_lower673  102
    u[15]     primal_lower674  246
    u[15]     primal_lower675  943
    u[15]     primal_lower676  654
    u[15]     primal_lower677  421
    u[15]     primal_lower678  668
    u[15]     primal_lower679  120
    u[15]     primal_lower680  394
    u[15]     primal_lower681  434
    u[15]     primal_lower682  64
    u[15]     primal_lower683  229
    u[15]     primal_lower684  668
    u[15]     primal_lower685  411
    u[15]     primal_lower686  51
    u[15]     primal_lower687  247
    u[15]     primal_lower688  207
    u[15]     primal_lower689  44
    u[15]     primal_lower690  584
    u[15]     primal_lower691  572
    u[15]     primal_lower692  390
    u[15]     primal_lower693  373
    u[15]     primal_lower694  479
    u[15]     primal_lower695  356
    u[15]     primal_lower696  443
    u[15]     primal_lower697  645
    u[15]     primal_lower698  569
    u[15]     primal_lower699  441
    u[15]     primal_lower700  45
    u[15]     primal_lower701  991
    u[15]     primal_lower702  682
    u[15]     primal_lower703  764
    u[15]     primal_lower704  543
    u[15]     primal_lower705  371
    u[15]     primal_lower706  622
    u[15]     primal_lower707  630
    u[15]     primal_lower708  781
    u[15]     primal_lower709  121
    u[15]     primal_lower710  55
    u[15]     primal_lower711  25
    u[15]     primal_lower712  272
    u[15]     primal_lower713  409
    u[15]     primal_lower714  718
    u[15]     primal_lower715  584
    u[15]     primal_lower716  117
    u[15]     primal_lower717  575
    u[15]     primal_lower718  726
    u[15]     primal_lower719  684
    u[15]     primal_lower720  988
    u[15]     primal_lower721  765
    u[15]     primal_lower722  74
    u[15]     primal_lower723  204
    u[15]     primal_lower724  635
    u[15]     primal_lower725  404
    u[15]     primal_lower726  800
    u[15]     primal_lower727  586
    u[15]     primal_lower728  194
    u[15]     primal_lower729  743
    u[15]     primal_lower730  426
    u[15]     primal_lower731  21
    u[15]     primal_lower732  342
    u[15]     primal_lower733  447
    u[15]     primal_lower734  581
    u[15]     primal_lower735  999
    u[15]     primal_lower736  708
    u[15]     primal_lower737  952
    u[15]     primal_lower738  159
    u[15]     primal_lower739  62
    u[15]     primal_lower740  918
    u[15]     primal_lower741  267
    u[15]     primal_lower742  411
    u[15]     primal_lower743  149
    u[15]     primal_lower744  471
    u[15]     primal_lower745  767
    u[15]     primal_lower746  805
    u[15]     primal_lower747  533
    u[15]     primal_lower748  534
    u[15]     primal_lower749  315
    u[15]     primal_lower750  757
    u[15]     primal_lower751  675
    u[15]     primal_lower752  462
    u[15]     primal_lower753  40
    u[15]     primal_lower754  429
    u[15]     primal_lower755  505
    u[15]     primal_lower756  346
    u[15]     primal_lower757  128
    u[15]     primal_lower758  21
    u[15]     primal_lower759  908
    u[15]     primal_lower760  411
    u[15]     primal_lower761  675
    u[15]     primal_lower762  941
    u[15]     primal_lower763  343
    u[15]     primal_lower764  608
    u[15]     primal_lower765  651
    u[15]     primal_lower766  385
    u[15]     primal_lower767  917
    u[15]     primal_lower768  97
    u[15]     primal_lower769  73
    u[15]     primal_lower770  240
    u[15]     primal_lower771  948
    u[15]     primal_lower772  495
    u[15]     primal_lower773  494
    u[15]     primal_lower774  902
    u[15]     primal_lower775  956
    u[15]     primal_lower776  280
    u[15]     primal_lower777  338
    u[15]     primal_lower778  283
    u[15]     primal_lower779  144
    u[15]     primal_lower780  590
    u[15]     primal_lower781  702
    u[15]     primal_lower782  68
    u[15]     primal_lower783  381
    u[15]     primal_lower784  846
    u[15]     primal_lower785  611
    u[15]     primal_lower786  971
    u[15]     primal_lower787  844
    u[15]     primal_lower788  863
    u[15]     primal_lower789  224
    u[15]     primal_lower790  510
    u[15]     primal_lower791  187
    u[15]     primal_lower792  614
    u[15]     primal_lower793  80
    u[15]     primal_lower794  809
    u[15]     primal_lower795  336
    u[15]     primal_lower796  492
    u[15]     primal_lower797  261
    u[15]     primal_lower798  747
    u[15]     primal_lower799  498
    u[15]     primal_lower800  123
    u[15]     primal_lower801  758
    u[15]     primal_lower802  321
    u[15]     primal_lower803  97
    u[15]     primal_lower804  115
    u[15]     primal_lower805  872
    u[15]     primal_lower806  326
    u[15]     primal_lower807  390
    u[15]     primal_lower808  241
    u[15]     primal_lower809  421
    u[15]     primal_lower810  992
    u[15]     primal_lower811  332
    u[15]     primal_lower812  505
    u[15]     primal_lower813  866
    u[15]     primal_lower814  447
    u[15]     primal_lower815  539
    u[15]     primal_lower816  112
    u[15]     primal_lower817  24
    u[15]     primal_lower818  919
    u[15]     primal_lower819  118
    u[15]     primal_lower820  270
    u[15]     primal_lower821  844
    u[15]     primal_lower822  794
    u[15]     primal_lower823  844
    u[15]     primal_lower824  540
    u[15]     primal_lower825  925
    u[15]     primal_lower826  314
    u[15]     primal_lower827  243
    u[15]     primal_lower828  930
    u[15]     primal_lower829  758
    u[15]     primal_lower830  436
    u[15]     primal_lower831  714
    u[15]     primal_lower832  493
    u[15]     primal_lower833  590
    u[15]     primal_lower834  297
    u[15]     primal_lower835  880
    u[15]     primal_lower836  130
    u[15]     primal_lower837  981
    u[15]     primal_lower838  904
    u[15]     primal_lower839  451
    u[15]     primal_lower840  290
    u[15]     primal_lower841  896
    u[15]     primal_lower842  53
    u[15]     primal_lower843  726
    u[15]     primal_lower844  94
    u[15]     primal_lower845  443
    u[15]     primal_lower846  498
    u[15]     primal_lower847  795
    u[15]     primal_lower848  793
    u[15]     primal_lower849  545
    u[15]     primal_lower850  819
    u[15]     primal_lower851  544
    u[15]     primal_lower852  896
    u[15]     primal_lower853  882
    u[15]     primal_lower854  514
    u[15]     primal_lower855  525
    u[15]     primal_lower856  265
    u[15]     primal_lower857  971
    u[15]     primal_lower858  234
    u[15]     primal_lower859  680
    u[15]     primal_lower860  613
    u[15]     primal_lower861  959
    u[15]     primal_lower862  270
    u[15]     primal_lower863  428
    u[15]     primal_lower864  941
    u[15]     primal_lower865  429
    u[15]     primal_lower866  565
    u[15]     primal_lower867  298
    u[15]     primal_lower868  327
    u[15]     primal_lower869  488
    u[15]     primal_lower870  357
    u[15]     primal_lower871  420
    u[15]     primal_lower872  825
    u[15]     primal_lower873  757
    u[15]     primal_lower874  808
    u[15]     primal_lower875  415
    u[15]     primal_lower876  647
    u[15]     primal_lower877  127
    u[15]     primal_lower878  288
    u[15]     primal_lower879  954
    u[15]     primal_lower880  725
    u[15]     primal_lower881  421
    u[15]     primal_lower882  10
    u[15]     primal_lower883  579
    u[15]     primal_lower884  216
    u[15]     primal_lower885  519
    u[15]     primal_lower886  251
    u[15]     primal_lower887  498
    u[15]     primal_lower888  176
    u[15]     primal_lower889  184
    u[15]     primal_lower890  930
    u[15]     primal_lower891  625
    u[15]     primal_lower892  63
    u[15]     primal_lower893  640
    u[15]     primal_lower894  90
    u[15]     primal_lower895  789
    u[15]     primal_lower896  869
    u[15]     primal_lower897  962
    u[15]     primal_lower898  179
    u[15]     primal_lower899  726
    u[15]     primal_lower900  910
    u[15]     primal_lower901  742
    u[15]     primal_lower902  96
    u[15]     primal_lower903  442
    u[15]     primal_lower904  865
    u[15]     primal_lower905  154
    u[15]     primal_lower906  303
    u[15]     primal_lower907  792
    u[15]     primal_lower908  656
    u[15]     primal_lower909  939
    u[15]     primal_lower910  228
    u[15]     primal_lower911  3
    u[15]     primal_lower912  811
    u[15]     primal_lower913  26
    u[15]     primal_lower914  497
    u[15]     primal_lower915  167
    u[15]     primal_lower916  677
    u[15]     primal_lower917  942
    u[15]     primal_lower918  846
    u[15]     primal_lower919  749
    u[15]     primal_lower920  387
    u[15]     primal_lower921  888
    u[15]     primal_lower922  196
    u[15]     primal_lower923  748
    u[15]     primal_lower924  337
    u[15]     primal_lower925  88
    u[15]     primal_lower926  554
    u[15]     primal_lower927  55
    u[15]     primal_lower928  240
    u[15]     primal_lower929  243
    u[15]     primal_lower930  754
    u[15]     primal_lower931  477
    u[15]     primal_lower932  519
    u[15]     primal_lower933  186
    u[15]     primal_lower934  492
    u[15]     primal_lower935  324
    u[15]     primal_lower936  967
    u[15]     primal_lower937  519
    u[15]     primal_lower938  293
    u[15]     primal_lower939  305
    u[15]     primal_lower940  215
    u[15]     primal_lower941  837
    u[15]     primal_lower942  637
    u[15]     primal_lower943  277
    u[15]     primal_lower944  983
    u[15]     primal_lower945  493
    u[15]     primal_lower946  686
    u[15]     primal_lower947  139
    u[15]     primal_lower948  844
    u[15]     primal_lower949  73
    u[15]     primal_lower950  100
    u[15]     primal_lower951  341
    u[15]     primal_lower952  223
    u[15]     primal_lower953  323
    u[15]     primal_lower954  970
    u[15]     primal_lower955  912
    u[15]     primal_lower956  537
    u[15]     primal_lower957  510
    u[15]     primal_lower958  342
    u[15]     primal_lower959  929
    u[15]     primal_lower960  327
    u[15]     primal_lower961  381
    u[15]     primal_lower962  698
    u[15]     primal_lower963  776
    u[15]     primal_lower964  709
    u[15]     primal_lower965  141
    u[15]     primal_lower966  276
    u[15]     primal_lower967  859
    u[15]     primal_lower968  882
    u[15]     primal_lower969  994
    u[15]     primal_lower970  395
    u[15]     primal_lower971  115
    u[15]     primal_lower972  14
    u[15]     primal_lower973  113
    u[15]     primal_lower974  964
    u[15]     primal_lower975  498
    u[15]     primal_lower976  745
    u[15]     primal_lower977  345
    u[15]     primal_lower978  305
    u[15]     primal_lower979  482
    u[15]     primal_lower980  701
    u[15]     primal_lower981  937
    u[15]     primal_lower982  667
    u[15]     primal_lower983  124
    u[15]     primal_lower984  569
    u[15]     primal_lower985  512
    u[15]     primal_lower986  138
    u[15]     primal_lower987  589
    u[15]     primal_lower988  266
    u[15]     primal_lower989  481
    u[15]     primal_lower990  723
    u[15]     primal_lower991  445
    u[15]     primal_lower992  134
    u[15]     primal_lower993  188
    u[15]     primal_lower994  978
    u[15]     primal_lower995  852
    u[15]     primal_lower996  636
    u[15]     primal_lower997  359
    u[15]     primal_lower998  644
    u[15]     primal_lower999  772
    u[15]     interdiction[15]  1
    u[15]     mccormick1[15]  -1
    u[15]     mccormick3[15]  1
    u[16]     primal_lower0  173
    u[16]     primal_lower1  281
    u[16]     primal_lower2  241
    u[16]     primal_lower3  739
    u[16]     primal_lower4  726
    u[16]     primal_lower5  758
    u[16]     primal_lower6  303
    u[16]     primal_lower7  10
    u[16]     primal_lower8  152
    u[16]     primal_lower9  974
    u[16]     primal_lower10  733
    u[16]     primal_lower11  990
    u[16]     primal_lower12  805
    u[16]     primal_lower13  999
    u[16]     primal_lower14  655
    u[16]     primal_lower15  236
    u[16]     primal_lower16  722
    u[16]     primal_lower17  668
    u[16]     primal_lower18  653
    u[16]     primal_lower19  28
    u[16]     primal_lower20  834
    u[16]     primal_lower21  749
    u[16]     primal_lower22  104
    u[16]     primal_lower23  552
    u[16]     primal_lower24  124
    u[16]     primal_lower25  661
    u[16]     primal_lower26  882
    u[16]     primal_lower27  258
    u[16]     primal_lower28  337
    u[16]     primal_lower29  958
    u[16]     primal_lower30  288
    u[16]     primal_lower31  18
    u[16]     primal_lower32  719
    u[16]     primal_lower33  778
    u[16]     primal_lower34  951
    u[16]     primal_lower35  214
    u[16]     primal_lower36  26
    u[16]     primal_lower37  107
    u[16]     primal_lower38  538
    u[16]     primal_lower39  247
    u[16]     primal_lower40  838
    u[16]     primal_lower41  544
    u[16]     primal_lower42  237
    u[16]     primal_lower43  954
    u[16]     primal_lower44  375
    u[16]     primal_lower45  562
    u[16]     primal_lower46  181
    u[16]     primal_lower47  324
    u[16]     primal_lower48  894
    u[16]     primal_lower49  111
    u[16]     primal_lower50  701
    u[16]     primal_lower51  445
    u[16]     primal_lower52  110
    u[16]     primal_lower53  480
    u[16]     primal_lower54  273
    u[16]     primal_lower55  693
    u[16]     primal_lower56  495
    u[16]     primal_lower57  21
    u[16]     primal_lower58  231
    u[16]     primal_lower59  706
    u[16]     primal_lower60  954
    u[16]     primal_lower61  718
    u[16]     primal_lower62  745
    u[16]     primal_lower63  962
    u[16]     primal_lower64  126
    u[16]     primal_lower65  466
    u[16]     primal_lower66  279
    u[16]     primal_lower67  862
    u[16]     primal_lower68  297
    u[16]     primal_lower69  863
    u[16]     primal_lower70  814
    u[16]     primal_lower71  31
    u[16]     primal_lower72  63
    u[16]     primal_lower73  972
    u[16]     primal_lower74  575
    u[16]     primal_lower75  665
    u[16]     primal_lower76  590
    u[16]     primal_lower77  395
    u[16]     primal_lower78  351
    u[16]     primal_lower79  25
    u[16]     primal_lower80  856
    u[16]     primal_lower81  1
    u[16]     primal_lower82  760
    u[16]     primal_lower83  722
    u[16]     primal_lower84  39
    u[16]     primal_lower85  683
    u[16]     primal_lower86  904
    u[16]     primal_lower87  593
    u[16]     primal_lower88  423
    u[16]     primal_lower89  235
    u[16]     primal_lower90  508
    u[16]     primal_lower91  504
    u[16]     primal_lower92  842
    u[16]     primal_lower93  734
    u[16]     primal_lower94  924
    u[16]     primal_lower95  760
    u[16]     primal_lower96  943
    u[16]     primal_lower97  267
    u[16]     primal_lower98  969
    u[16]     primal_lower99  888
    u[16]     primal_lower100  742
    u[16]     primal_lower101  107
    u[16]     primal_lower102  698
    u[16]     primal_lower103  380
    u[16]     primal_lower104  695
    u[16]     primal_lower105  636
    u[16]     primal_lower106  6
    u[16]     primal_lower107  594
    u[16]     primal_lower108  989
    u[16]     primal_lower109  291
    u[16]     primal_lower110  326
    u[16]     primal_lower111  505
    u[16]     primal_lower112  525
    u[16]     primal_lower113  152
    u[16]     primal_lower114  416
    u[16]     primal_lower115  909
    u[16]     primal_lower116  76
    u[16]     primal_lower117  306
    u[16]     primal_lower118  551
    u[16]     primal_lower119  444
    u[16]     primal_lower120  484
    u[16]     primal_lower121  691
    u[16]     primal_lower122  731
    u[16]     primal_lower123  40
    u[16]     primal_lower124  709
    u[16]     primal_lower125  768
    u[16]     primal_lower126  286
    u[16]     primal_lower127  555
    u[16]     primal_lower128  801
    u[16]     primal_lower129  92
    u[16]     primal_lower130  602
    u[16]     primal_lower131  679
    u[16]     primal_lower132  135
    u[16]     primal_lower133  568
    u[16]     primal_lower134  793
    u[16]     primal_lower135  50
    u[16]     primal_lower136  965
    u[16]     primal_lower137  160
    u[16]     primal_lower138  332
    u[16]     primal_lower139  574
    u[16]     primal_lower140  611
    u[16]     primal_lower141  607
    u[16]     primal_lower142  573
    u[16]     primal_lower143  1
    u[16]     primal_lower144  232
    u[16]     primal_lower145  55
    u[16]     primal_lower146  698
    u[16]     primal_lower147  957
    u[16]     primal_lower148  758
    u[16]     primal_lower149  987
    u[16]     primal_lower150  498
    u[16]     primal_lower151  598
    u[16]     primal_lower152  175
    u[16]     primal_lower153  332
    u[16]     primal_lower154  915
    u[16]     primal_lower155  907
    u[16]     primal_lower156  569
    u[16]     primal_lower157  940
    u[16]     primal_lower158  856
    u[16]     primal_lower159  189
    u[16]     primal_lower160  329
    u[16]     primal_lower161  675
    u[16]     primal_lower162  473
    u[16]     primal_lower163  796
    u[16]     primal_lower164  590
    u[16]     primal_lower165  3
    u[16]     primal_lower166  528
    u[16]     primal_lower167  862
    u[16]     primal_lower168  259
    u[16]     primal_lower169  195
    u[16]     primal_lower170  323
    u[16]     primal_lower171  509
    u[16]     primal_lower172  439
    u[16]     primal_lower173  467
    u[16]     primal_lower174  336
    u[16]     primal_lower175  535
    u[16]     primal_lower176  771
    u[16]     primal_lower177  528
    u[16]     primal_lower178  508
    u[16]     primal_lower179  683
    u[16]     primal_lower180  995
    u[16]     primal_lower181  189
    u[16]     primal_lower182  912
    u[16]     primal_lower183  404
    u[16]     primal_lower184  4
    u[16]     primal_lower185  610
    u[16]     primal_lower186  830
    u[16]     primal_lower187  993
    u[16]     primal_lower188  131
    u[16]     primal_lower189  522
    u[16]     primal_lower190  530
    u[16]     primal_lower191  462
    u[16]     primal_lower192  896
    u[16]     primal_lower193  184
    u[16]     primal_lower194  714
    u[16]     primal_lower195  757
    u[16]     primal_lower196  123
    u[16]     primal_lower197  681
    u[16]     primal_lower198  968
    u[16]     primal_lower199  720
    u[16]     primal_lower200  54
    u[16]     primal_lower201  924
    u[16]     primal_lower202  909
    u[16]     primal_lower203  869
    u[16]     primal_lower204  798
    u[16]     primal_lower205  332
    u[16]     primal_lower206  99
    u[16]     primal_lower207  666
    u[16]     primal_lower208  114
    u[16]     primal_lower209  335
    u[16]     primal_lower210  565
    u[16]     primal_lower211  947
    u[16]     primal_lower212  832
    u[16]     primal_lower213  402
    u[16]     primal_lower214  129
    u[16]     primal_lower215  910
    u[16]     primal_lower216  663
    u[16]     primal_lower217  372
    u[16]     primal_lower218  97
    u[16]     primal_lower219  373
    u[16]     primal_lower220  809
    u[16]     primal_lower221  879
    u[16]     primal_lower222  141
    u[16]     primal_lower223  574
    u[16]     primal_lower224  813
    u[16]     primal_lower225  905
    u[16]     primal_lower226  921
    u[16]     primal_lower227  334
    u[16]     primal_lower228  317
    u[16]     primal_lower229  884
    u[16]     primal_lower230  698
    u[16]     primal_lower231  110
    u[16]     primal_lower232  703
    u[16]     primal_lower233  148
    u[16]     primal_lower234  277
    u[16]     primal_lower235  413
    u[16]     primal_lower236  786
    u[16]     primal_lower237  258
    u[16]     primal_lower238  547
    u[16]     primal_lower239  979
    u[16]     primal_lower240  721
    u[16]     primal_lower241  172
    u[16]     primal_lower242  844
    u[16]     primal_lower243  307
    u[16]     primal_lower244  83
    u[16]     primal_lower245  392
    u[16]     primal_lower246  71
    u[16]     primal_lower247  943
    u[16]     primal_lower248  875
    u[16]     primal_lower249  972
    u[16]     primal_lower250  805
    u[16]     primal_lower251  213
    u[16]     primal_lower252  186
    u[16]     primal_lower253  583
    u[16]     primal_lower254  174
    u[16]     primal_lower255  826
    u[16]     primal_lower256  825
    u[16]     primal_lower257  258
    u[16]     primal_lower258  187
    u[16]     primal_lower259  882
    u[16]     primal_lower260  450
    u[16]     primal_lower261  655
    u[16]     primal_lower262  683
    u[16]     primal_lower263  457
    u[16]     primal_lower264  204
    u[16]     primal_lower265  154
    u[16]     primal_lower266  133
    u[16]     primal_lower267  599
    u[16]     primal_lower268  921
    u[16]     primal_lower269  709
    u[16]     primal_lower270  250
    u[16]     primal_lower271  718
    u[16]     primal_lower272  524
    u[16]     primal_lower273  289
    u[16]     primal_lower274  706
    u[16]     primal_lower275  322
    u[16]     primal_lower276  479
    u[16]     primal_lower277  956
    u[16]     primal_lower278  828
    u[16]     primal_lower279  762
    u[16]     primal_lower280  369
    u[16]     primal_lower281  242
    u[16]     primal_lower282  376
    u[16]     primal_lower283  683
    u[16]     primal_lower284  879
    u[16]     primal_lower285  538
    u[16]     primal_lower286  469
    u[16]     primal_lower287  477
    u[16]     primal_lower288  269
    u[16]     primal_lower289  36
    u[16]     primal_lower290  869
    u[16]     primal_lower291  327
    u[16]     primal_lower292  683
    u[16]     primal_lower293  779
    u[16]     primal_lower294  736
    u[16]     primal_lower295  44
    u[16]     primal_lower296  640
    u[16]     primal_lower297  221
    u[16]     primal_lower298  475
    u[16]     primal_lower299  501
    u[16]     primal_lower300  145
    u[16]     primal_lower301  72
    u[16]     primal_lower302  319
    u[16]     primal_lower303  453
    u[16]     primal_lower304  689
    u[16]     primal_lower305  93
    u[16]     primal_lower306  359
    u[16]     primal_lower307  691
    u[16]     primal_lower308  571
    u[16]     primal_lower309  837
    u[16]     primal_lower310  996
    u[16]     primal_lower311  958
    u[16]     primal_lower312  310
    u[16]     primal_lower313  105
    u[16]     primal_lower314  902
    u[16]     primal_lower315  981
    u[16]     primal_lower316  869
    u[16]     primal_lower317  346
    u[16]     primal_lower318  518
    u[16]     primal_lower319  639
    u[16]     primal_lower320  436
    u[16]     primal_lower321  89
    u[16]     primal_lower322  573
    u[16]     primal_lower323  609
    u[16]     primal_lower324  885
    u[16]     primal_lower325  51
    u[16]     primal_lower326  934
    u[16]     primal_lower327  233
    u[16]     primal_lower328  998
    u[16]     primal_lower329  822
    u[16]     primal_lower330  590
    u[16]     primal_lower331  486
    u[16]     primal_lower332  987
    u[16]     primal_lower333  955
    u[16]     primal_lower334  106
    u[16]     primal_lower335  185
    u[16]     primal_lower336  768
    u[16]     primal_lower337  344
    u[16]     primal_lower338  492
    u[16]     primal_lower339  838
    u[16]     primal_lower340  395
    u[16]     primal_lower341  251
    u[16]     primal_lower342  40
    u[16]     primal_lower343  735
    u[16]     primal_lower344  230
    u[16]     primal_lower345  181
    u[16]     primal_lower346  697
    u[16]     primal_lower347  313
    u[16]     primal_lower348  336
    u[16]     primal_lower349  142
    u[16]     primal_lower350  940
    u[16]     primal_lower351  913
    u[16]     primal_lower352  502
    u[16]     primal_lower353  673
    u[16]     primal_lower354  664
    u[16]     primal_lower355  726
    u[16]     primal_lower356  496
    u[16]     primal_lower357  635
    u[16]     primal_lower358  53
    u[16]     primal_lower359  312
    u[16]     primal_lower360  148
    u[16]     primal_lower361  6
    u[16]     primal_lower362  968
    u[16]     primal_lower363  79
    u[16]     primal_lower364  860
    u[16]     primal_lower365  670
    u[16]     primal_lower366  172
    u[16]     primal_lower367  262
    u[16]     primal_lower368  876
    u[16]     primal_lower369  376
    u[16]     primal_lower370  904
    u[16]     primal_lower371  864
    u[16]     primal_lower372  88
    u[16]     primal_lower373  733
    u[16]     primal_lower374  500
    u[16]     primal_lower375  561
    u[16]     primal_lower376  801
    u[16]     primal_lower377  689
    u[16]     primal_lower378  97
    u[16]     primal_lower379  369
    u[16]     primal_lower380  310
    u[16]     primal_lower381  497
    u[16]     primal_lower382  859
    u[16]     primal_lower383  430
    u[16]     primal_lower384  194
    u[16]     primal_lower385  931
    u[16]     primal_lower386  910
    u[16]     primal_lower387  299
    u[16]     primal_lower388  741
    u[16]     primal_lower389  724
    u[16]     primal_lower390  220
    u[16]     primal_lower391  138
    u[16]     primal_lower392  773
    u[16]     primal_lower393  695
    u[16]     primal_lower394  507
    u[16]     primal_lower395  616
    u[16]     primal_lower396  631
    u[16]     primal_lower397  375
    u[16]     primal_lower398  499
    u[16]     primal_lower399  346
    u[16]     primal_lower400  789
    u[16]     primal_lower401  295
    u[16]     primal_lower402  923
    u[16]     primal_lower403  212
    u[16]     primal_lower404  990
    u[16]     primal_lower405  562
    u[16]     primal_lower406  668
    u[16]     primal_lower407  410
    u[16]     primal_lower408  945
    u[16]     primal_lower409  13
    u[16]     primal_lower410  804
    u[16]     primal_lower411  178
    u[16]     primal_lower412  835
    u[16]     primal_lower413  867
    u[16]     primal_lower414  587
    u[16]     primal_lower415  861
    u[16]     primal_lower416  419
    u[16]     primal_lower417  145
    u[16]     primal_lower418  303
    u[16]     primal_lower419  238
    u[16]     primal_lower420  102
    u[16]     primal_lower421  744
    u[16]     primal_lower422  833
    u[16]     primal_lower423  113
    u[16]     primal_lower424  7
    u[16]     primal_lower425  644
    u[16]     primal_lower426  455
    u[16]     primal_lower427  97
    u[16]     primal_lower428  181
    u[16]     primal_lower429  924
    u[16]     primal_lower430  221
    u[16]     primal_lower431  231
    u[16]     primal_lower432  672
    u[16]     primal_lower433  440
    u[16]     primal_lower434  679
    u[16]     primal_lower435  485
    u[16]     primal_lower436  712
    u[16]     primal_lower437  64
    u[16]     primal_lower438  230
    u[16]     primal_lower439  965
    u[16]     primal_lower440  91
    u[16]     primal_lower441  507
    u[16]     primal_lower442  626
    u[16]     primal_lower443  77
    u[16]     primal_lower444  380
    u[16]     primal_lower445  601
    u[16]     primal_lower446  826
    u[16]     primal_lower447  194
    u[16]     primal_lower448  37
    u[16]     primal_lower449  723
    u[16]     primal_lower450  550
    u[16]     primal_lower451  594
    u[16]     primal_lower452  529
    u[16]     primal_lower453  752
    u[16]     primal_lower454  296
    u[16]     primal_lower455  406
    u[16]     primal_lower456  305
    u[16]     primal_lower457  975
    u[16]     primal_lower458  714
    u[16]     primal_lower459  5
    u[16]     primal_lower460  775
    u[16]     primal_lower461  740
    u[16]     primal_lower462  933
    u[16]     primal_lower463  308
    u[16]     primal_lower464  212
    u[16]     primal_lower465  167
    u[16]     primal_lower466  148
    u[16]     primal_lower467  794
    u[16]     primal_lower468  42
    u[16]     primal_lower469  275
    u[16]     primal_lower470  799
    u[16]     primal_lower471  670
    u[16]     primal_lower472  415
    u[16]     primal_lower473  715
    u[16]     primal_lower474  262
    u[16]     primal_lower475  625
    u[16]     primal_lower476  454
    u[16]     primal_lower477  281
    u[16]     primal_lower478  367
    u[16]     primal_lower479  427
    u[16]     primal_lower480  180
    u[16]     primal_lower481  877
    u[16]     primal_lower482  600
    u[16]     primal_lower483  802
    u[16]     primal_lower484  616
    u[16]     primal_lower485  308
    u[16]     primal_lower486  502
    u[16]     primal_lower487  975
    u[16]     primal_lower488  366
    u[16]     primal_lower489  85
    u[16]     primal_lower490  403
    u[16]     primal_lower491  637
    u[16]     primal_lower492  782
    u[16]     primal_lower493  446
    u[16]     primal_lower494  987
    u[16]     primal_lower495  877
    u[16]     primal_lower496  933
    u[16]     primal_lower497  846
    u[16]     primal_lower498  250
    u[16]     primal_lower499  723
    u[16]     primal_lower500  433
    u[16]     primal_lower501  464
    u[16]     primal_lower502  45
    u[16]     primal_lower503  496
    u[16]     primal_lower504  225
    u[16]     primal_lower505  865
    u[16]     primal_lower506  682
    u[16]     primal_lower507  347
    u[16]     primal_lower508  758
    u[16]     primal_lower509  824
    u[16]     primal_lower510  168
    u[16]     primal_lower511  926
    u[16]     primal_lower512  589
    u[16]     primal_lower513  490
    u[16]     primal_lower514  178
    u[16]     primal_lower515  74
    u[16]     primal_lower516  976
    u[16]     primal_lower517  518
    u[16]     primal_lower518  989
    u[16]     primal_lower519  264
    u[16]     primal_lower520  210
    u[16]     primal_lower521  269
    u[16]     primal_lower522  223
    u[16]     primal_lower523  278
    u[16]     primal_lower524  878
    u[16]     primal_lower525  279
    u[16]     primal_lower526  149
    u[16]     primal_lower527  916
    u[16]     primal_lower528  414
    u[16]     primal_lower529  286
    u[16]     primal_lower530  923
    u[16]     primal_lower531  780
    u[16]     primal_lower532  812
    u[16]     primal_lower533  93
    u[16]     primal_lower534  172
    u[16]     primal_lower535  443
    u[16]     primal_lower536  612
    u[16]     primal_lower537  207
    u[16]     primal_lower538  892
    u[16]     primal_lower539  664
    u[16]     primal_lower540  939
    u[16]     primal_lower541  941
    u[16]     primal_lower542  110
    u[16]     primal_lower543  302
    u[16]     primal_lower544  543
    u[16]     primal_lower545  10
    u[16]     primal_lower546  427
    u[16]     primal_lower547  115
    u[16]     primal_lower548  390
    u[16]     primal_lower549  95
    u[16]     primal_lower550  235
    u[16]     primal_lower551  746
    u[16]     primal_lower552  848
    u[16]     primal_lower553  980
    u[16]     primal_lower554  486
    u[16]     primal_lower555  551
    u[16]     primal_lower556  205
    u[16]     primal_lower557  559
    u[16]     primal_lower558  320
    u[16]     primal_lower559  244
    u[16]     primal_lower560  618
    u[16]     primal_lower561  343
    u[16]     primal_lower562  393
    u[16]     primal_lower563  866
    u[16]     primal_lower564  555
    u[16]     primal_lower565  798
    u[16]     primal_lower566  808
    u[16]     primal_lower567  451
    u[16]     primal_lower568  181
    u[16]     primal_lower569  764
    u[16]     primal_lower570  956
    u[16]     primal_lower571  242
    u[16]     primal_lower572  75
    u[16]     primal_lower573  44
    u[16]     primal_lower574  815
    u[16]     primal_lower575  864
    u[16]     primal_lower576  580
    u[16]     primal_lower577  931
    u[16]     primal_lower578  770
    u[16]     primal_lower579  104
    u[16]     primal_lower580  533
    u[16]     primal_lower581  807
    u[16]     primal_lower582  637
    u[16]     primal_lower583  341
    u[16]     primal_lower584  506
    u[16]     primal_lower585  328
    u[16]     primal_lower586  638
    u[16]     primal_lower587  241
    u[16]     primal_lower588  763
    u[16]     primal_lower589  948
    u[16]     primal_lower590  693
    u[16]     primal_lower591  577
    u[16]     primal_lower592  261
    u[16]     primal_lower593  847
    u[16]     primal_lower594  157
    u[16]     primal_lower595  450
    u[16]     primal_lower596  89
    u[16]     primal_lower597  926
    u[16]     primal_lower598  828
    u[16]     primal_lower599  231
    u[16]     primal_lower600  660
    u[16]     primal_lower601  118
    u[16]     primal_lower602  907
    u[16]     primal_lower603  202
    u[16]     primal_lower604  902
    u[16]     primal_lower605  272
    u[16]     primal_lower606  854
    u[16]     primal_lower607  848
    u[16]     primal_lower608  363
    u[16]     primal_lower609  702
    u[16]     primal_lower610  758
    u[16]     primal_lower611  33
    u[16]     primal_lower612  197
    u[16]     primal_lower613  807
    u[16]     primal_lower614  966
    u[16]     primal_lower615  747
    u[16]     primal_lower616  997
    u[16]     primal_lower617  803
    u[16]     primal_lower618  682
    u[16]     primal_lower619  647
    u[16]     primal_lower620  201
    u[16]     primal_lower621  397
    u[16]     primal_lower622  414
    u[16]     primal_lower623  872
    u[16]     primal_lower624  333
    u[16]     primal_lower625  359
    u[16]     primal_lower626  20
    u[16]     primal_lower627  221
    u[16]     primal_lower628  243
    u[16]     primal_lower629  999
    u[16]     primal_lower630  607
    u[16]     primal_lower631  568
    u[16]     primal_lower632  994
    u[16]     primal_lower633  820
    u[16]     primal_lower634  714
    u[16]     primal_lower635  609
    u[16]     primal_lower636  96
    u[16]     primal_lower637  731
    u[16]     primal_lower638  691
    u[16]     primal_lower639  322
    u[16]     primal_lower640  170
    u[16]     primal_lower641  372
    u[16]     primal_lower642  799
    u[16]     primal_lower643  75
    u[16]     primal_lower644  756
    u[16]     primal_lower645  700
    u[16]     primal_lower646  813
    u[16]     primal_lower647  543
    u[16]     primal_lower648  16
    u[16]     primal_lower649  219
    u[16]     primal_lower650  280
    u[16]     primal_lower651  451
    u[16]     primal_lower652  996
    u[16]     primal_lower653  662
    u[16]     primal_lower654  119
    u[16]     primal_lower655  411
    u[16]     primal_lower656  71
    u[16]     primal_lower657  545
    u[16]     primal_lower658  343
    u[16]     primal_lower659  36
    u[16]     primal_lower660  292
    u[16]     primal_lower661  521
    u[16]     primal_lower662  245
    u[16]     primal_lower663  965
    u[16]     primal_lower664  801
    u[16]     primal_lower665  527
    u[16]     primal_lower666  305
    u[16]     primal_lower667  976
    u[16]     primal_lower668  41
    u[16]     primal_lower669  95
    u[16]     primal_lower670  27
    u[16]     primal_lower671  876
    u[16]     primal_lower672  177
    u[16]     primal_lower673  894
    u[16]     primal_lower674  326
    u[16]     primal_lower675  844
    u[16]     primal_lower676  134
    u[16]     primal_lower677  21
    u[16]     primal_lower678  84
    u[16]     primal_lower679  893
    u[16]     primal_lower680  215
    u[16]     primal_lower681  479
    u[16]     primal_lower682  917
    u[16]     primal_lower683  146
    u[16]     primal_lower684  601
    u[16]     primal_lower685  120
    u[16]     primal_lower686  912
    u[16]     primal_lower687  964
    u[16]     primal_lower688  295
    u[16]     primal_lower689  497
    u[16]     primal_lower690  144
    u[16]     primal_lower691  337
    u[16]     primal_lower692  118
    u[16]     primal_lower693  818
    u[16]     primal_lower694  164
    u[16]     primal_lower695  652
    u[16]     primal_lower696  752
    u[16]     primal_lower697  789
    u[16]     primal_lower698  177
    u[16]     primal_lower699  798
    u[16]     primal_lower700  13
    u[16]     primal_lower701  935
    u[16]     primal_lower702  106
    u[16]     primal_lower703  84
    u[16]     primal_lower704  71
    u[16]     primal_lower705  48
    u[16]     primal_lower706  947
    u[16]     primal_lower707  291
    u[16]     primal_lower708  602
    u[16]     primal_lower709  134
    u[16]     primal_lower710  668
    u[16]     primal_lower711  798
    u[16]     primal_lower712  101
    u[16]     primal_lower713  897
    u[16]     primal_lower714  694
    u[16]     primal_lower715  256
    u[16]     primal_lower716  226
    u[16]     primal_lower717  228
    u[16]     primal_lower718  974
    u[16]     primal_lower719  972
    u[16]     primal_lower720  164
    u[16]     primal_lower721  602
    u[16]     primal_lower722  287
    u[16]     primal_lower723  969
    u[16]     primal_lower724  912
    u[16]     primal_lower725  657
    u[16]     primal_lower726  61
    u[16]     primal_lower727  375
    u[16]     primal_lower728  743
    u[16]     primal_lower729  100
    u[16]     primal_lower730  634
    u[16]     primal_lower731  629
    u[16]     primal_lower732  995
    u[16]     primal_lower733  23
    u[16]     primal_lower734  922
    u[16]     primal_lower735  588
    u[16]     primal_lower736  276
    u[16]     primal_lower737  648
    u[16]     primal_lower738  276
    u[16]     primal_lower739  203
    u[16]     primal_lower740  483
    u[16]     primal_lower741  907
    u[16]     primal_lower742  80
    u[16]     primal_lower743  493
    u[16]     primal_lower744  231
    u[16]     primal_lower745  580
    u[16]     primal_lower746  341
    u[16]     primal_lower747  186
    u[16]     primal_lower748  363
    u[16]     primal_lower749  976
    u[16]     primal_lower750  717
    u[16]     primal_lower751  992
    u[16]     primal_lower752  870
    u[16]     primal_lower753  725
    u[16]     primal_lower754  293
    u[16]     primal_lower755  350
    u[16]     primal_lower756  807
    u[16]     primal_lower757  485
    u[16]     primal_lower758  733
    u[16]     primal_lower759  844
    u[16]     primal_lower760  563
    u[16]     primal_lower761  699
    u[16]     primal_lower762  882
    u[16]     primal_lower763  631
    u[16]     primal_lower764  5
    u[16]     primal_lower765  467
    u[16]     primal_lower766  481
    u[16]     primal_lower767  77
    u[16]     primal_lower768  686
    u[16]     primal_lower769  310
    u[16]     primal_lower770  872
    u[16]     primal_lower771  249
    u[16]     primal_lower772  28
    u[16]     primal_lower773  243
    u[16]     primal_lower774  707
    u[16]     primal_lower775  825
    u[16]     primal_lower776  88
    u[16]     primal_lower777  351
    u[16]     primal_lower778  248
    u[16]     primal_lower779  317
    u[16]     primal_lower780  710
    u[16]     primal_lower781  830
    u[16]     primal_lower782  380
    u[16]     primal_lower783  853
    u[16]     primal_lower784  294
    u[16]     primal_lower785  800
    u[16]     primal_lower786  752
    u[16]     primal_lower787  897
    u[16]     primal_lower788  103
    u[16]     primal_lower789  96
    u[16]     primal_lower790  486
    u[16]     primal_lower791  232
    u[16]     primal_lower792  30
    u[16]     primal_lower793  29
    u[16]     primal_lower794  33
    u[16]     primal_lower795  485
    u[16]     primal_lower796  812
    u[16]     primal_lower797  365
    u[16]     primal_lower798  800
    u[16]     primal_lower799  298
    u[16]     primal_lower800  363
    u[16]     primal_lower801  678
    u[16]     primal_lower802  622
    u[16]     primal_lower803  710
    u[16]     primal_lower804  456
    u[16]     primal_lower805  781
    u[16]     primal_lower806  323
    u[16]     primal_lower807  38
    u[16]     primal_lower808  358
    u[16]     primal_lower809  981
    u[16]     primal_lower810  197
    u[16]     primal_lower811  204
    u[16]     primal_lower812  721
    u[16]     primal_lower813  399
    u[16]     primal_lower814  324
    u[16]     primal_lower815  491
    u[16]     primal_lower816  669
    u[16]     primal_lower817  536
    u[16]     primal_lower818  991
    u[16]     primal_lower819  195
    u[16]     primal_lower820  750
    u[16]     primal_lower821  913
    u[16]     primal_lower822  954
    u[16]     primal_lower823  961
    u[16]     primal_lower824  300
    u[16]     primal_lower825  66
    u[16]     primal_lower826  911
    u[16]     primal_lower827  216
    u[16]     primal_lower828  687
    u[16]     primal_lower829  187
    u[16]     primal_lower830  836
    u[16]     primal_lower831  375
    u[16]     primal_lower832  282
    u[16]     primal_lower833  782
    u[16]     primal_lower834  254
    u[16]     primal_lower835  253
    u[16]     primal_lower836  375
    u[16]     primal_lower837  82
    u[16]     primal_lower838  248
    u[16]     primal_lower839  248
    u[16]     primal_lower840  839
    u[16]     primal_lower841  237
    u[16]     primal_lower842  413
    u[16]     primal_lower843  998
    u[16]     primal_lower844  486
    u[16]     primal_lower845  371
    u[16]     primal_lower846  719
    u[16]     primal_lower847  19
    u[16]     primal_lower848  105
    u[16]     primal_lower849  494
    u[16]     primal_lower850  592
    u[16]     primal_lower851  629
    u[16]     primal_lower852  680
    u[16]     primal_lower853  826
    u[16]     primal_lower854  639
    u[16]     primal_lower855  333
    u[16]     primal_lower856  678
    u[16]     primal_lower857  736
    u[16]     primal_lower858  903
    u[16]     primal_lower859  757
    u[16]     primal_lower860  229
    u[16]     primal_lower861  31
    u[16]     primal_lower862  259
    u[16]     primal_lower863  508
    u[16]     primal_lower864  301
    u[16]     primal_lower865  866
    u[16]     primal_lower866  98
    u[16]     primal_lower867  754
    u[16]     primal_lower868  116
    u[16]     primal_lower869  501
    u[16]     primal_lower870  477
    u[16]     primal_lower871  465
    u[16]     primal_lower872  254
    u[16]     primal_lower873  314
    u[16]     primal_lower874  405
    u[16]     primal_lower875  263
    u[16]     primal_lower876  623
    u[16]     primal_lower877  167
    u[16]     primal_lower878  368
    u[16]     primal_lower879  578
    u[16]     primal_lower880  522
    u[16]     primal_lower881  394
    u[16]     primal_lower882  458
    u[16]     primal_lower883  547
    u[16]     primal_lower884  253
    u[16]     primal_lower885  775
    u[16]     primal_lower886  696
    u[16]     primal_lower887  951
    u[16]     primal_lower888  965
    u[16]     primal_lower889  517
    u[16]     primal_lower890  218
    u[16]     primal_lower891  686
    u[16]     primal_lower892  60
    u[16]     primal_lower893  224
    u[16]     primal_lower894  287
    u[16]     primal_lower895  477
    u[16]     primal_lower896  541
    u[16]     primal_lower897  447
    u[16]     primal_lower898  864
    u[16]     primal_lower899  62
    u[16]     primal_lower900  534
    u[16]     primal_lower901  782
    u[16]     primal_lower902  725
    u[16]     primal_lower903  919
    u[16]     primal_lower904  374
    u[16]     primal_lower905  679
    u[16]     primal_lower906  844
    u[16]     primal_lower907  717
    u[16]     primal_lower908  16
    u[16]     primal_lower909  968
    u[16]     primal_lower910  852
    u[16]     primal_lower911  51
    u[16]     primal_lower912  224
    u[16]     primal_lower913  338
    u[16]     primal_lower914  337
    u[16]     primal_lower915  215
    u[16]     primal_lower916  429
    u[16]     primal_lower917  326
    u[16]     primal_lower918  691
    u[16]     primal_lower919  253
    u[16]     primal_lower920  888
    u[16]     primal_lower921  176
    u[16]     primal_lower922  609
    u[16]     primal_lower923  396
    u[16]     primal_lower924  849
    u[16]     primal_lower925  389
    u[16]     primal_lower926  402
    u[16]     primal_lower927  596
    u[16]     primal_lower928  269
    u[16]     primal_lower929  328
    u[16]     primal_lower930  439
    u[16]     primal_lower931  402
    u[16]     primal_lower932  799
    u[16]     primal_lower933  874
    u[16]     primal_lower934  684
    u[16]     primal_lower935  281
    u[16]     primal_lower936  84
    u[16]     primal_lower937  316
    u[16]     primal_lower938  658
    u[16]     primal_lower939  249
    u[16]     primal_lower940  124
    u[16]     primal_lower941  821
    u[16]     primal_lower942  469
    u[16]     primal_lower943  181
    u[16]     primal_lower944  423
    u[16]     primal_lower945  114
    u[16]     primal_lower946  275
    u[16]     primal_lower947  187
    u[16]     primal_lower948  460
    u[16]     primal_lower949  937
    u[16]     primal_lower950  465
    u[16]     primal_lower951  717
    u[16]     primal_lower952  628
    u[16]     primal_lower953  27
    u[16]     primal_lower954  306
    u[16]     primal_lower955  512
    u[16]     primal_lower956  134
    u[16]     primal_lower957  875
    u[16]     primal_lower958  598
    u[16]     primal_lower959  742
    u[16]     primal_lower960  823
    u[16]     primal_lower961  797
    u[16]     primal_lower962  287
    u[16]     primal_lower963  853
    u[16]     primal_lower964  117
    u[16]     primal_lower965  37
    u[16]     primal_lower966  833
    u[16]     primal_lower967  872
    u[16]     primal_lower968  762
    u[16]     primal_lower969  31
    u[16]     primal_lower970  176
    u[16]     primal_lower971  512
    u[16]     primal_lower972  667
    u[16]     primal_lower973  454
    u[16]     primal_lower974  225
    u[16]     primal_lower975  514
    u[16]     primal_lower976  649
    u[16]     primal_lower977  934
    u[16]     primal_lower978  225
    u[16]     primal_lower979  999
    u[16]     primal_lower980  861
    u[16]     primal_lower981  697
    u[16]     primal_lower982  552
    u[16]     primal_lower983  372
    u[16]     primal_lower984  257
    u[16]     primal_lower985  336
    u[16]     primal_lower986  242
    u[16]     primal_lower987  805
    u[16]     primal_lower988  527
    u[16]     primal_lower989  673
    u[16]     primal_lower990  632
    u[16]     primal_lower991  658
    u[16]     primal_lower992  462
    u[16]     primal_lower993  177
    u[16]     primal_lower994  303
    u[16]     primal_lower995  473
    u[16]     primal_lower996  745
    u[16]     primal_lower997  812
    u[16]     primal_lower998  177
    u[16]     primal_lower999  129
    u[16]     interdiction[16]  1
    u[16]     mccormick1[16]  -1
    u[16]     mccormick3[16]  1
    u[17]     primal_lower0  556
    u[17]     primal_lower1  856
    u[17]     primal_lower2  708
    u[17]     primal_lower3  46
    u[17]     primal_lower4  813
    u[17]     primal_lower5  261
    u[17]     primal_lower6  370
    u[17]     primal_lower7  577
    u[17]     primal_lower8  315
    u[17]     primal_lower9  693
    u[17]     primal_lower10  204
    u[17]     primal_lower11  681
    u[17]     primal_lower12  240
    u[17]     primal_lower13  890
    u[17]     primal_lower14  966
    u[17]     primal_lower15  835
    u[17]     primal_lower16  29
    u[17]     primal_lower17  927
    u[17]     primal_lower18  868
    u[17]     primal_lower19  863
    u[17]     primal_lower20  505
    u[17]     primal_lower21  884
    u[17]     primal_lower22  247
    u[17]     primal_lower23  667
    u[17]     primal_lower24  331
    u[17]     primal_lower25  588
    u[17]     primal_lower26  753
    u[17]     primal_lower27  449
    u[17]     primal_lower28  504
    u[17]     primal_lower29  285
    u[17]     primal_lower30  711
    u[17]     primal_lower31  925
    u[17]     primal_lower32  682
    u[17]     primal_lower33  57
    u[17]     primal_lower34  762
    u[17]     primal_lower35  933
    u[17]     primal_lower36  5
    u[17]     primal_lower37  202
    u[17]     primal_lower38  445
    u[17]     primal_lower39  330
    u[17]     primal_lower40  109
    u[17]     primal_lower41  159
    u[17]     primal_lower42  676
    u[17]     primal_lower43  149
    u[17]     primal_lower44  346
    u[17]     primal_lower45  405
    u[17]     primal_lower46  376
    u[17]     primal_lower47  311
    u[17]     primal_lower48  957
    u[17]     primal_lower49  598
    u[17]     primal_lower50  996
    u[17]     primal_lower51  456
    u[17]     primal_lower52  817
    u[17]     primal_lower53  911
    u[17]     primal_lower54  948
    u[17]     primal_lower55  424
    u[17]     primal_lower56  982
    u[17]     primal_lower57  792
    u[17]     primal_lower58  142
    u[17]     primal_lower59  589
    u[17]     primal_lower60  769
    u[17]     primal_lower61  685
    u[17]     primal_lower62  360
    u[17]     primal_lower63  601
    u[17]     primal_lower64  109
    u[17]     primal_lower65  77
    u[17]     primal_lower66  770
    u[17]     primal_lower67  189
    u[17]     primal_lower68  276
    u[17]     primal_lower69  466
    u[17]     primal_lower70  589
    u[17]     primal_lower71  890
    u[17]     primal_lower72  470
    u[17]     primal_lower73  375
    u[17]     primal_lower74  158
    u[17]     primal_lower75  344
    u[17]     primal_lower76  589
    u[17]     primal_lower77  10
    u[17]     primal_lower78  798
    u[17]     primal_lower79  968
    u[17]     primal_lower80  227
    u[17]     primal_lower81  708
    u[17]     primal_lower82  71
    u[17]     primal_lower83  917
    u[17]     primal_lower84  382
    u[17]     primal_lower85  330
    u[17]     primal_lower86  343
    u[17]     primal_lower87  804
    u[17]     primal_lower88  794
    u[17]     primal_lower89  846
    u[17]     primal_lower90  743
    u[17]     primal_lower91  299
    u[17]     primal_lower92  613
    u[17]     primal_lower93  493
    u[17]     primal_lower94  99
    u[17]     primal_lower95  31
    u[17]     primal_lower96  654
    u[17]     primal_lower97  446
    u[17]     primal_lower98  20
    u[17]     primal_lower99  15
    u[17]     primal_lower100  193
    u[17]     primal_lower101  582
    u[17]     primal_lower102  597
    u[17]     primal_lower103  831
    u[17]     primal_lower104  214
    u[17]     primal_lower105  379
    u[17]     primal_lower106  833
    u[17]     primal_lower107  13
    u[17]     primal_lower108  84
    u[17]     primal_lower109  314
    u[17]     primal_lower110  69
    u[17]     primal_lower111  196
    u[17]     primal_lower112  92
    u[17]     primal_lower113  643
    u[17]     primal_lower114  43
    u[17]     primal_lower115  68
    u[17]     primal_lower116  251
    u[17]     primal_lower117  545
    u[17]     primal_lower118  258
    u[17]     primal_lower119  727
    u[17]     primal_lower120  187
    u[17]     primal_lower121  190
    u[17]     primal_lower122  526
    u[17]     primal_lower123  279
    u[17]     primal_lower124  424
    u[17]     primal_lower125  751
    u[17]     primal_lower126  209
    u[17]     primal_lower127  814
    u[17]     primal_lower128  716
    u[17]     primal_lower129  771
    u[17]     primal_lower130  653
    u[17]     primal_lower131  314
    u[17]     primal_lower132  246
    u[17]     primal_lower133  715
    u[17]     primal_lower134  828
    u[17]     primal_lower135  45
    u[17]     primal_lower136  504
    u[17]     primal_lower137  843
    u[17]     primal_lower138  559
    u[17]     primal_lower139  929
    u[17]     primal_lower140  234
    u[17]     primal_lower141  798
    u[17]     primal_lower142  580
    u[17]     primal_lower143  108
    u[17]     primal_lower144  299
    u[17]     primal_lower145  38
    u[17]     primal_lower146  429
    u[17]     primal_lower147  864
    u[17]     primal_lower148  93
    u[17]     primal_lower149  418
    u[17]     primal_lower150  737
    u[17]     primal_lower151  417
    u[17]     primal_lower152  274
    u[17]     primal_lower153  631
    u[17]     primal_lower154  850
    u[17]     primal_lower155  762
    u[17]     primal_lower156  676
    u[17]     primal_lower157  979
    u[17]     primal_lower158  687
    u[17]     primal_lower159  36
    u[17]     primal_lower160  784
    u[17]     primal_lower161  10
    u[17]     primal_lower162  460
    u[17]     primal_lower163  511
    u[17]     primal_lower164  189
    u[17]     primal_lower165  426
    u[17]     primal_lower166  627
    u[17]     primal_lower167  357
    u[17]     primal_lower168  974
    u[17]     primal_lower169  886
    u[17]     primal_lower170  702
    u[17]     primal_lower171  132
    u[17]     primal_lower172  694
    u[17]     primal_lower173  458
    u[17]     primal_lower174  315
    u[17]     primal_lower175  10
    u[17]     primal_lower176  266
    u[17]     primal_lower177  387
    u[17]     primal_lower178  783
    u[17]     primal_lower179  78
    u[17]     primal_lower180  346
    u[17]     primal_lower181  864
    u[17]     primal_lower182  263
    u[17]     primal_lower183  499
    u[17]     primal_lower184  35
    u[17]     primal_lower185  233
    u[17]     primal_lower186  969
    u[17]     primal_lower187  308
    u[17]     primal_lower188  990
    u[17]     primal_lower189  117
    u[17]     primal_lower190  625
    u[17]     primal_lower191  885
    u[17]     primal_lower192  803
    u[17]     primal_lower193  743
    u[17]     primal_lower194  81
    u[17]     primal_lower195  952
    u[17]     primal_lower196  670
    u[17]     primal_lower197  272
    u[17]     primal_lower198  231
    u[17]     primal_lower199  583
    u[17]     primal_lower200  89
    u[17]     primal_lower201  499
    u[17]     primal_lower202  536
    u[17]     primal_lower203  308
    u[17]     primal_lower204  529
    u[17]     primal_lower205  631
    u[17]     primal_lower206  22
    u[17]     primal_lower207  961
    u[17]     primal_lower208  33
    u[17]     primal_lower209  38
    u[17]     primal_lower210  572
    u[17]     primal_lower211  38
    u[17]     primal_lower212  207
    u[17]     primal_lower213  353
    u[17]     primal_lower214  656
    u[17]     primal_lower215  997
    u[17]     primal_lower216  234
    u[17]     primal_lower217  679
    u[17]     primal_lower218  376
    u[17]     primal_lower219  128
    u[17]     primal_lower220  896
    u[17]     primal_lower221  954
    u[17]     primal_lower222  248
    u[17]     primal_lower223  569
    u[17]     primal_lower224  360
    u[17]     primal_lower225  744
    u[17]     primal_lower226  612
    u[17]     primal_lower227  769
    u[17]     primal_lower228  880
    u[17]     primal_lower229  999
    u[17]     primal_lower230  769
    u[17]     primal_lower231  769
    u[17]     primal_lower232  734
    u[17]     primal_lower233  799
    u[17]     primal_lower234  752
    u[17]     primal_lower235  336
    u[17]     primal_lower236  505
    u[17]     primal_lower237  537
    u[17]     primal_lower238  594
    u[17]     primal_lower239  686
    u[17]     primal_lower240  828
    u[17]     primal_lower241  127
    u[17]     primal_lower242  971
    u[17]     primal_lower243  74
    u[17]     primal_lower244  994
    u[17]     primal_lower245  855
    u[17]     primal_lower246  378
    u[17]     primal_lower247  814
    u[17]     primal_lower248  602
    u[17]     primal_lower249  547
    u[17]     primal_lower250  132
    u[17]     primal_lower251  164
    u[17]     primal_lower252  9
    u[17]     primal_lower253  138
    u[17]     primal_lower254  877
    u[17]     primal_lower255  865
    u[17]     primal_lower256  696
    u[17]     primal_lower257  717
    u[17]     primal_lower258  570
    u[17]     primal_lower259  541
    u[17]     primal_lower260  629
    u[17]     primal_lower261  246
    u[17]     primal_lower262  538
    u[17]     primal_lower263  672
    u[17]     primal_lower264  707
    u[17]     primal_lower265  953
    u[17]     primal_lower266  488
    u[17]     primal_lower267  918
    u[17]     primal_lower268  752
    u[17]     primal_lower269  236
    u[17]     primal_lower270  277
    u[17]     primal_lower271  481
    u[17]     primal_lower272  23
    u[17]     primal_lower273  856
    u[17]     primal_lower274  649
    u[17]     primal_lower275  5
    u[17]     primal_lower276  742
    u[17]     primal_lower277  227
    u[17]     primal_lower278  483
    u[17]     primal_lower279  277
    u[17]     primal_lower280  812
    u[17]     primal_lower281  769
    u[17]     primal_lower282  243
    u[17]     primal_lower283  218
    u[17]     primal_lower284  598
    u[17]     primal_lower285  485
    u[17]     primal_lower286  196
    u[17]     primal_lower287  104
    u[17]     primal_lower288  244
    u[17]     primal_lower289  403
    u[17]     primal_lower290  20
    u[17]     primal_lower291  198
    u[17]     primal_lower292  278
    u[17]     primal_lower293  714
    u[17]     primal_lower294  659
    u[17]     primal_lower295  863
    u[17]     primal_lower296  795
    u[17]     primal_lower297  576
    u[17]     primal_lower298  846
    u[17]     primal_lower299  752
    u[17]     primal_lower300  224
    u[17]     primal_lower301  807
    u[17]     primal_lower302  138
    u[17]     primal_lower303  144
    u[17]     primal_lower304  300
    u[17]     primal_lower305  760
    u[17]     primal_lower306  106
    u[17]     primal_lower307  778
    u[17]     primal_lower308  934
    u[17]     primal_lower309  300
    u[17]     primal_lower310  795
    u[17]     primal_lower311  805
    u[17]     primal_lower312  741
    u[17]     primal_lower313  4
    u[17]     primal_lower314  965
    u[17]     primal_lower315  432
    u[17]     primal_lower316  488
    u[17]     primal_lower317  633
    u[17]     primal_lower318  321
    u[17]     primal_lower319  926
    u[17]     primal_lower320  615
    u[17]     primal_lower321  616
    u[17]     primal_lower322  120
    u[17]     primal_lower323  424
    u[17]     primal_lower324  468
    u[17]     primal_lower325  174
    u[17]     primal_lower326  705
    u[17]     primal_lower327  828
    u[17]     primal_lower328  801
    u[17]     primal_lower329  669
    u[17]     primal_lower330  589
    u[17]     primal_lower331  293
    u[17]     primal_lower332  206
    u[17]     primal_lower333  570
    u[17]     primal_lower334  373
    u[17]     primal_lower335  940
    u[17]     primal_lower336  787
    u[17]     primal_lower337  195
    u[17]     primal_lower338  587
    u[17]     primal_lower339  297
    u[17]     primal_lower340  882
    u[17]     primal_lower341  898
    u[17]     primal_lower342  639
    u[17]     primal_lower343  862
    u[17]     primal_lower344  881
    u[17]     primal_lower345  436
    u[17]     primal_lower346  420
    u[17]     primal_lower347  616
    u[17]     primal_lower348  567
    u[17]     primal_lower349  617
    u[17]     primal_lower350  267
    u[17]     primal_lower351  892
    u[17]     primal_lower352  325
    u[17]     primal_lower353  932
    u[17]     primal_lower354  423
    u[17]     primal_lower355  613
    u[17]     primal_lower356  779
    u[17]     primal_lower357  450
    u[17]     primal_lower358  272
    u[17]     primal_lower359  607
    u[17]     primal_lower360  239
    u[17]     primal_lower361  261
    u[17]     primal_lower362  631
    u[17]     primal_lower363  778
    u[17]     primal_lower364  771
    u[17]     primal_lower365  445
    u[17]     primal_lower366  387
    u[17]     primal_lower367  613
    u[17]     primal_lower368  211
    u[17]     primal_lower369  55
    u[17]     primal_lower370  803
    u[17]     primal_lower371  455
    u[17]     primal_lower372  167
    u[17]     primal_lower373  644
    u[17]     primal_lower374  575
    u[17]     primal_lower375  216
    u[17]     primal_lower376  608
    u[17]     primal_lower377  832
    u[17]     primal_lower378  576
    u[17]     primal_lower379  684
    u[17]     primal_lower380  569
    u[17]     primal_lower381  508
    u[17]     primal_lower382  402
    u[17]     primal_lower383  505
    u[17]     primal_lower384  329
    u[17]     primal_lower385  478
    u[17]     primal_lower386  665
    u[17]     primal_lower387  502
    u[17]     primal_lower388  264
    u[17]     primal_lower389  15
    u[17]     primal_lower390  475
    u[17]     primal_lower391  681
    u[17]     primal_lower392  644
    u[17]     primal_lower393  934
    u[17]     primal_lower394  406
    u[17]     primal_lower395  855
    u[17]     primal_lower396  234
    u[17]     primal_lower397  626
    u[17]     primal_lower398  806
    u[17]     primal_lower399  421
    u[17]     primal_lower400  284
    u[17]     primal_lower401  990
    u[17]     primal_lower402  638
    u[17]     primal_lower403  975
    u[17]     primal_lower404  641
    u[17]     primal_lower405  213
    u[17]     primal_lower406  579
    u[17]     primal_lower407  61
    u[17]     primal_lower408  140
    u[17]     primal_lower409  512
    u[17]     primal_lower410  983
    u[17]     primal_lower411  501
    u[17]     primal_lower412  154
    u[17]     primal_lower413  490
    u[17]     primal_lower414  714
    u[17]     primal_lower415  420
    u[17]     primal_lower416  590
    u[17]     primal_lower417  504
    u[17]     primal_lower418  258
    u[17]     primal_lower419  73
    u[17]     primal_lower420  437
    u[17]     primal_lower421  179
    u[17]     primal_lower422  536
    u[17]     primal_lower423  896
    u[17]     primal_lower424  130
    u[17]     primal_lower425  379
    u[17]     primal_lower426  202
    u[17]     primal_lower427  264
    u[17]     primal_lower428  944
    u[17]     primal_lower429  779
    u[17]     primal_lower430  864
    u[17]     primal_lower431  894
    u[17]     primal_lower432  731
    u[17]     primal_lower433  251
    u[17]     primal_lower434  594
    u[17]     primal_lower435  584
    u[17]     primal_lower436  303
    u[17]     primal_lower437  427
    u[17]     primal_lower438  293
    u[17]     primal_lower439  724
    u[17]     primal_lower440  462
    u[17]     primal_lower441  266
    u[17]     primal_lower442  393
    u[17]     primal_lower443  660
    u[17]     primal_lower444  79
    u[17]     primal_lower445  4
    u[17]     primal_lower446  605
    u[17]     primal_lower447  249
    u[17]     primal_lower448  240
    u[17]     primal_lower449  26
    u[17]     primal_lower450  61
    u[17]     primal_lower451  941
    u[17]     primal_lower452  808
    u[17]     primal_lower453  31
    u[17]     primal_lower454  719
    u[17]     primal_lower455  37
    u[17]     primal_lower456  956
    u[17]     primal_lower457  2
    u[17]     primal_lower458  197
    u[17]     primal_lower459  392
    u[17]     primal_lower460  342
    u[17]     primal_lower461  375
    u[17]     primal_lower462  708
    u[17]     primal_lower463  31
    u[17]     primal_lower464  135
    u[17]     primal_lower465  874
    u[17]     primal_lower466  99
    u[17]     primal_lower467  257
    u[17]     primal_lower468  425
    u[17]     primal_lower469  694
    u[17]     primal_lower470  810
    u[17]     primal_lower471  65
    u[17]     primal_lower472  214
    u[17]     primal_lower473  838
    u[17]     primal_lower474  693
    u[17]     primal_lower475  752
    u[17]     primal_lower476  593
    u[17]     primal_lower477  648
    u[17]     primal_lower478  186
    u[17]     primal_lower479  278
    u[17]     primal_lower480  619
    u[17]     primal_lower481  848
    u[17]     primal_lower482  375
    u[17]     primal_lower483  57
    u[17]     primal_lower484  755
    u[17]     primal_lower485  551
    u[17]     primal_lower486  373
    u[17]     primal_lower487  642
    u[17]     primal_lower488  829
    u[17]     primal_lower489  820
    u[17]     primal_lower490  50
    u[17]     primal_lower491  928
    u[17]     primal_lower492  49
    u[17]     primal_lower493  193
    u[17]     primal_lower494  898
    u[17]     primal_lower495  100
    u[17]     primal_lower496  356
    u[17]     primal_lower497  377
    u[17]     primal_lower498  777
    u[17]     primal_lower499  486
    u[17]     primal_lower500  660
    u[17]     primal_lower501  471
    u[17]     primal_lower502  472
    u[17]     primal_lower503  831
    u[17]     primal_lower504  560
    u[17]     primal_lower505  964
    u[17]     primal_lower506  981
    u[17]     primal_lower507  914
    u[17]     primal_lower508  881
    u[17]     primal_lower509  487
    u[17]     primal_lower510  623
    u[17]     primal_lower511  185
    u[17]     primal_lower512  88
    u[17]     primal_lower513  517
    u[17]     primal_lower514  141
    u[17]     primal_lower515  533
    u[17]     primal_lower516  31
    u[17]     primal_lower517  101
    u[17]     primal_lower518  984
    u[17]     primal_lower519  539
    u[17]     primal_lower520  29
    u[17]     primal_lower521  944
    u[17]     primal_lower522  762
    u[17]     primal_lower523  441
    u[17]     primal_lower524  109
    u[17]     primal_lower525  810
    u[17]     primal_lower526  976
    u[17]     primal_lower527  19
    u[17]     primal_lower528  325
    u[17]     primal_lower529  161
    u[17]     primal_lower530  438
    u[17]     primal_lower531  955
    u[17]     primal_lower532  263
    u[17]     primal_lower533  680
    u[17]     primal_lower534  47
    u[17]     primal_lower535  358
    u[17]     primal_lower536  759
    u[17]     primal_lower537  322
    u[17]     primal_lower538  499
    u[17]     primal_lower539  211
    u[17]     primal_lower540  358
    u[17]     primal_lower541  824
    u[17]     primal_lower542  629
    u[17]     primal_lower543  909
    u[17]     primal_lower544  730
    u[17]     primal_lower545  17
    u[17]     primal_lower546  270
    u[17]     primal_lower547  270
    u[17]     primal_lower548  825
    u[17]     primal_lower549  258
    u[17]     primal_lower550  98
    u[17]     primal_lower551  37
    u[17]     primal_lower552  207
    u[17]     primal_lower553  787
    u[17]     primal_lower554  673
    u[17]     primal_lower555  590
    u[17]     primal_lower556  396
    u[17]     primal_lower557  438
    u[17]     primal_lower558  787
    u[17]     primal_lower559  455
    u[17]     primal_lower560  861
    u[17]     primal_lower561  178
    u[17]     primal_lower562  332
    u[17]     primal_lower563  541
    u[17]     primal_lower564  794
    u[17]     primal_lower565  209
    u[17]     primal_lower566  299
    u[17]     primal_lower567  218
    u[17]     primal_lower568  508
    u[17]     primal_lower569  95
    u[17]     primal_lower570  299
    u[17]     primal_lower571  117
    u[17]     primal_lower572  554
    u[17]     primal_lower573  555
    u[17]     primal_lower574  178
    u[17]     primal_lower575  295
    u[17]     primal_lower576  443
    u[17]     primal_lower577  50
    u[17]     primal_lower578  817
    u[17]     primal_lower579  47
    u[17]     primal_lower580  444
    u[17]     primal_lower581  110
    u[17]     primal_lower582  848
    u[17]     primal_lower583  860
    u[17]     primal_lower584  897
    u[17]     primal_lower585  7
    u[17]     primal_lower586  397
    u[17]     primal_lower587  788
    u[17]     primal_lower588  306
    u[17]     primal_lower589  139
    u[17]     primal_lower590  824
    u[17]     primal_lower591  956
    u[17]     primal_lower592  664
    u[17]     primal_lower593  438
    u[17]     primal_lower594  736
    u[17]     primal_lower595  869
    u[17]     primal_lower596  204
    u[17]     primal_lower597  665
    u[17]     primal_lower598  331
    u[17]     primal_lower599  894
    u[17]     primal_lower600  559
    u[17]     primal_lower601  109
    u[17]     primal_lower602  550
    u[17]     primal_lower603  469
    u[17]     primal_lower604  277
    u[17]     primal_lower605  227
    u[17]     primal_lower606  297
    u[17]     primal_lower607  495
    u[17]     primal_lower608  790
    u[17]     primal_lower609  485
    u[17]     primal_lower610  733
    u[17]     primal_lower611  848
    u[17]     primal_lower612  356
    u[17]     primal_lower613  390
    u[17]     primal_lower614  513
    u[17]     primal_lower615  738
    u[17]     primal_lower616  812
    u[17]     primal_lower617  534
    u[17]     primal_lower618  229
    u[17]     primal_lower619  246
    u[17]     primal_lower620  72
    u[17]     primal_lower621  708
    u[17]     primal_lower622  25
    u[17]     primal_lower623  875
    u[17]     primal_lower624  580
    u[17]     primal_lower625  626
    u[17]     primal_lower626  343
    u[17]     primal_lower627  904
    u[17]     primal_lower628  966
    u[17]     primal_lower629  382
    u[17]     primal_lower630  698
    u[17]     primal_lower631  527
    u[17]     primal_lower632  829
    u[17]     primal_lower633  471
    u[17]     primal_lower634  229
    u[17]     primal_lower635  804
    u[17]     primal_lower636  327
    u[17]     primal_lower637  418
    u[17]     primal_lower638  518
    u[17]     primal_lower639  813
    u[17]     primal_lower640  729
    u[17]     primal_lower641  159
    u[17]     primal_lower642  798
    u[17]     primal_lower643  822
    u[17]     primal_lower644  935
    u[17]     primal_lower645  7
    u[17]     primal_lower646  852
    u[17]     primal_lower647  658
    u[17]     primal_lower648  759
    u[17]     primal_lower649  358
    u[17]     primal_lower650  899
    u[17]     primal_lower651  98
    u[17]     primal_lower652  795
    u[17]     primal_lower653  785
    u[17]     primal_lower654  506
    u[17]     primal_lower655  490
    u[17]     primal_lower656  838
    u[17]     primal_lower657  296
    u[17]     primal_lower658  618
    u[17]     primal_lower659  503
    u[17]     primal_lower660  443
    u[17]     primal_lower661  276
    u[17]     primal_lower662  424
    u[17]     primal_lower663  276
    u[17]     primal_lower664  728
    u[17]     primal_lower665  30
    u[17]     primal_lower666  16
    u[17]     primal_lower667  299
    u[17]     primal_lower668  408
    u[17]     primal_lower669  78
    u[17]     primal_lower670  14
    u[17]     primal_lower671  199
    u[17]     primal_lower672  620
    u[17]     primal_lower673  265
    u[17]     primal_lower674  801
    u[17]     primal_lower675  251
    u[17]     primal_lower676  777
    u[17]     primal_lower677  672
    u[17]     primal_lower678  591
    u[17]     primal_lower679  820
    u[17]     primal_lower680  734
    u[17]     primal_lower681  542
    u[17]     primal_lower682  988
    u[17]     primal_lower683  553
    u[17]     primal_lower684  816
    u[17]     primal_lower685  415
    u[17]     primal_lower686  175
    u[17]     primal_lower687  947
    u[17]     primal_lower688  90
    u[17]     primal_lower689  80
    u[17]     primal_lower690  443
    u[17]     primal_lower691  696
    u[17]     primal_lower692  457
    u[17]     primal_lower693  905
    u[17]     primal_lower694  59
    u[17]     primal_lower695  439
    u[17]     primal_lower696  631
    u[17]     primal_lower697  352
    u[17]     primal_lower698  332
    u[17]     primal_lower699  941
    u[17]     primal_lower700  32
    u[17]     primal_lower701  602
    u[17]     primal_lower702  173
    u[17]     primal_lower703  231
    u[17]     primal_lower704  818
    u[17]     primal_lower705  599
    u[17]     primal_lower706  498
    u[17]     primal_lower707  34
    u[17]     primal_lower708  353
    u[17]     primal_lower709  197
    u[17]     primal_lower710  99
    u[17]     primal_lower711  581
    u[17]     primal_lower712  980
    u[17]     primal_lower713  580
    u[17]     primal_lower714  393
    u[17]     primal_lower715  147
    u[17]     primal_lower716  9
    u[17]     primal_lower717  587
    u[17]     primal_lower718  521
    u[17]     primal_lower719  975
    u[17]     primal_lower720  407
    u[17]     primal_lower721  73
    u[17]     primal_lower722  990
    u[17]     primal_lower723  640
    u[17]     primal_lower724  623
    u[17]     primal_lower725  512
    u[17]     primal_lower726  372
    u[17]     primal_lower727  398
    u[17]     primal_lower728  150
    u[17]     primal_lower729  571
    u[17]     primal_lower730  181
    u[17]     primal_lower731  1000
    u[17]     primal_lower732  306
    u[17]     primal_lower733  170
    u[17]     primal_lower734  81
    u[17]     primal_lower735  163
    u[17]     primal_lower736  383
    u[17]     primal_lower737  683
    u[17]     primal_lower738  523
    u[17]     primal_lower739  970
    u[17]     primal_lower740  138
    u[17]     primal_lower741  310
    u[17]     primal_lower742  527
    u[17]     primal_lower743  872
    u[17]     primal_lower744  802
    u[17]     primal_lower745  571
    u[17]     primal_lower746  520
    u[17]     primal_lower747  681
    u[17]     primal_lower748  362
    u[17]     primal_lower749  791
    u[17]     primal_lower750  824
    u[17]     primal_lower751  231
    u[17]     primal_lower752  297
    u[17]     primal_lower753  476
    u[17]     primal_lower754  472
    u[17]     primal_lower755  949
    u[17]     primal_lower756  990
    u[17]     primal_lower757  204
    u[17]     primal_lower758  104
    u[17]     primal_lower759  471
    u[17]     primal_lower760  782
    u[17]     primal_lower761  78
    u[17]     primal_lower762  433
    u[17]     primal_lower763  34
    u[17]     primal_lower764  484
    u[17]     primal_lower765  166
    u[17]     primal_lower766  468
    u[17]     primal_lower767  480
    u[17]     primal_lower768  805
    u[17]     primal_lower769  901
    u[17]     primal_lower770  395
    u[17]     primal_lower771  840
    u[17]     primal_lower772  963
    u[17]     primal_lower773  346
    u[17]     primal_lower774  418
    u[17]     primal_lower775  56
    u[17]     primal_lower776  435
    u[17]     primal_lower777  798
    u[17]     primal_lower778  271
    u[17]     primal_lower779  12
    u[17]     primal_lower780  353
    u[17]     primal_lower781  777
    u[17]     primal_lower782  719
    u[17]     primal_lower783  168
    u[17]     primal_lower784  449
    u[17]     primal_lower785  207
    u[17]     primal_lower786  951
    u[17]     primal_lower787  104
    u[17]     primal_lower788  866
    u[17]     primal_lower789  395
    u[17]     primal_lower790  921
    u[17]     primal_lower791  231
    u[17]     primal_lower792  169
    u[17]     primal_lower793  972
    u[17]     primal_lower794  36
    u[17]     primal_lower795  4
    u[17]     primal_lower796  311
    u[17]     primal_lower797  400
    u[17]     primal_lower798  359
    u[17]     primal_lower799  805
    u[17]     primal_lower800  70
    u[17]     primal_lower801  505
    u[17]     primal_lower802  997
    u[17]     primal_lower803  285
    u[17]     primal_lower804  911
    u[17]     primal_lower805  804
    u[17]     primal_lower806  874
    u[17]     primal_lower807  361
    u[17]     primal_lower808  157
    u[17]     primal_lower809  264
    u[17]     primal_lower810  756
    u[17]     primal_lower811  47
    u[17]     primal_lower812  820
    u[17]     primal_lower813  606
    u[17]     primal_lower814  643
    u[17]     primal_lower815  206
    u[17]     primal_lower816  316
    u[17]     primal_lower817  907
    u[17]     primal_lower818  282
    u[17]     primal_lower819  490
    u[17]     primal_lower820  521
    u[17]     primal_lower821  792
    u[17]     primal_lower822  229
    u[17]     primal_lower823  800
    u[17]     primal_lower824  823
    u[17]     primal_lower825  545
    u[17]     primal_lower826  486
    u[17]     primal_lower827  151
    u[17]     primal_lower828  134
    u[17]     primal_lower829  658
    u[17]     primal_lower830  471
    u[17]     primal_lower831  646
    u[17]     primal_lower832  665
    u[17]     primal_lower833  849
    u[17]     primal_lower834  893
    u[17]     primal_lower835  396
    u[17]     primal_lower836  6
    u[17]     primal_lower837  545
    u[17]     primal_lower838  259
    u[17]     primal_lower839  39
    u[17]     primal_lower840  478
    u[17]     primal_lower841  324
    u[17]     primal_lower842  136
    u[17]     primal_lower843  1
    u[17]     primal_lower844  33
    u[17]     primal_lower845  870
    u[17]     primal_lower846  54
    u[17]     primal_lower847  6
    u[17]     primal_lower848  924
    u[17]     primal_lower849  773
    u[17]     primal_lower850  87
    u[17]     primal_lower851  68
    u[17]     primal_lower852  171
    u[17]     primal_lower853  853
    u[17]     primal_lower854  766
    u[17]     primal_lower855  520
    u[17]     primal_lower856  765
    u[17]     primal_lower857  551
    u[17]     primal_lower858  854
    u[17]     primal_lower859  524
    u[17]     primal_lower860  152
    u[17]     primal_lower861  10
    u[17]     primal_lower862  666
    u[17]     primal_lower863  863
    u[17]     primal_lower864  792
    u[17]     primal_lower865  33
    u[17]     primal_lower866  873
    u[17]     primal_lower867  717
    u[17]     primal_lower868  91
    u[17]     primal_lower869  164
    u[17]     primal_lower870  744
    u[17]     primal_lower871  40
    u[17]     primal_lower872  165
    u[17]     primal_lower873  345
    u[17]     primal_lower874  388
    u[17]     primal_lower875  90
    u[17]     primal_lower876  874
    u[17]     primal_lower877  962
    u[17]     primal_lower878  35
    u[17]     primal_lower879  693
    u[17]     primal_lower880  937
    u[17]     primal_lower881  441
    u[17]     primal_lower882  709
    u[17]     primal_lower883  334
    u[17]     primal_lower884  252
    u[17]     primal_lower885  210
    u[17]     primal_lower886  543
    u[17]     primal_lower887  262
    u[17]     primal_lower888  436
    u[17]     primal_lower889  132
    u[17]     primal_lower890  669
    u[17]     primal_lower891  325
    u[17]     primal_lower892  403
    u[17]     primal_lower893  851
    u[17]     primal_lower894  790
    u[17]     primal_lower895  424
    u[17]     primal_lower896  672
    u[17]     primal_lower897  734
    u[17]     primal_lower898  735
    u[17]     primal_lower899  889
    u[17]     primal_lower900  481
    u[17]     primal_lower901  1
    u[17]     primal_lower902  604
    u[17]     primal_lower903  334
    u[17]     primal_lower904  989
    u[17]     primal_lower905  414
    u[17]     primal_lower906  283
    u[17]     primal_lower907  556
    u[17]     primal_lower908  787
    u[17]     primal_lower909  343
    u[17]     primal_lower910  791
    u[17]     primal_lower911  222
    u[17]     primal_lower912  783
    u[17]     primal_lower913  533
    u[17]     primal_lower914  924
    u[17]     primal_lower915  482
    u[17]     primal_lower916  976
    u[17]     primal_lower917  689
    u[17]     primal_lower918  890
    u[17]     primal_lower919  504
    u[17]     primal_lower920  23
    u[17]     primal_lower921  963
    u[17]     primal_lower922  944
    u[17]     primal_lower923  399
    u[17]     primal_lower924  644
    u[17]     primal_lower925  908
    u[17]     primal_lower926  29
    u[17]     primal_lower927  83
    u[17]     primal_lower928  364
    u[17]     primal_lower929  47
    u[17]     primal_lower930  854
    u[17]     primal_lower931  841
    u[17]     primal_lower932  738
    u[17]     primal_lower933  581
    u[17]     primal_lower934  207
    u[17]     primal_lower935  488
    u[17]     primal_lower936  243
    u[17]     primal_lower937  963
    u[17]     primal_lower938  681
    u[17]     primal_lower939  228
    u[17]     primal_lower940  251
    u[17]     primal_lower941  760
    u[17]     primal_lower942  344
    u[17]     primal_lower943  336
    u[17]     primal_lower944  794
    u[17]     primal_lower945  673
    u[17]     primal_lower946  426
    u[17]     primal_lower947  758
    u[17]     primal_lower948  927
    u[17]     primal_lower949  140
    u[17]     primal_lower950  800
    u[17]     primal_lower951  944
    u[17]     primal_lower952  459
    u[17]     primal_lower953  934
    u[17]     primal_lower954  885
    u[17]     primal_lower955  979
    u[17]     primal_lower956  557
    u[17]     primal_lower957  562
    u[17]     primal_lower958  857
    u[17]     primal_lower959  133
    u[17]     primal_lower960  226
    u[17]     primal_lower961  80
    u[17]     primal_lower962  950
    u[17]     primal_lower963  460
    u[17]     primal_lower964  608
    u[17]     primal_lower965  672
    u[17]     primal_lower966  384
    u[17]     primal_lower967  295
    u[17]     primal_lower968  965
    u[17]     primal_lower969  270
    u[17]     primal_lower970  415
    u[17]     primal_lower971  999
    u[17]     primal_lower972  450
    u[17]     primal_lower973  405
    u[17]     primal_lower974  160
    u[17]     primal_lower975  605
    u[17]     primal_lower976  692
    u[17]     primal_lower977  485
    u[17]     primal_lower978  748
    u[17]     primal_lower979  142
    u[17]     primal_lower980  488
    u[17]     primal_lower981  980
    u[17]     primal_lower982  439
    u[17]     primal_lower983  239
    u[17]     primal_lower984  428
    u[17]     primal_lower985  315
    u[17]     primal_lower986  477
    u[17]     primal_lower987  960
    u[17]     primal_lower988  270
    u[17]     primal_lower989  100
    u[17]     primal_lower990  855
    u[17]     primal_lower991  641
    u[17]     primal_lower992  65
    u[17]     primal_lower993  32
    u[17]     primal_lower994  30
    u[17]     primal_lower995  280
    u[17]     primal_lower996  720
    u[17]     primal_lower997  803
    u[17]     primal_lower998  432
    u[17]     primal_lower999  864
    u[17]     interdiction[17]  1
    u[17]     mccormick1[17]  -1
    u[17]     mccormick3[17]  1
    u[18]     primal_lower0  889
    u[18]     primal_lower1  229
    u[18]     primal_lower2  197
    u[18]     primal_lower3  39
    u[18]     primal_lower4  858
    u[18]     primal_lower5  906
    u[18]     primal_lower6  291
    u[18]     primal_lower7  438
    u[18]     primal_lower8  972
    u[18]     primal_lower9  162
    u[18]     primal_lower10  1
    u[18]     primal_lower11  874
    u[18]     primal_lower12  721
    u[18]     primal_lower13  355
    u[18]     primal_lower14  579
    u[18]     primal_lower15  376
    u[18]     primal_lower16  910
    u[18]     primal_lower17  720
    u[18]     primal_lower18  817
    u[18]     primal_lower19  296
    u[18]     primal_lower20  742
    u[18]     primal_lower21  561
    u[18]     primal_lower22  20
    u[18]     primal_lower23  852
    u[18]     primal_lower24  536
    u[18]     primal_lower25  449
    u[18]     primal_lower26  990
    u[18]     primal_lower27  358
    u[18]     primal_lower28  717
    u[18]     primal_lower29  698
    u[18]     primal_lower30  820
    u[18]     primal_lower31  454
    u[18]     primal_lower32  507
    u[18]     primal_lower33  390
    u[18]     primal_lower34  803
    u[18]     primal_lower35  434
    u[18]     primal_lower36  742
    u[18]     primal_lower37  687
    u[18]     primal_lower38  822
    u[18]     primal_lower39  259
    u[18]     primal_lower40  674
    u[18]     primal_lower41  508
    u[18]     primal_lower42  857
    u[18]     primal_lower43  926
    u[18]     primal_lower44  115
    u[18]     primal_lower45  558
    u[18]     primal_lower46  89
    u[18]     primal_lower47  744
    u[18]     primal_lower48  706
    u[18]     primal_lower49  947
    u[18]     primal_lower50  777
    u[18]     primal_lower51  337
    u[18]     primal_lower52  770
    u[18]     primal_lower53  556
    u[18]     primal_lower54  661
    u[18]     primal_lower55  217
    u[18]     primal_lower56  11
    u[18]     primal_lower57  545
    u[18]     primal_lower58  811
    u[18]     primal_lower59  614
    u[18]     primal_lower60  374
    u[18]     primal_lower61  714
    u[18]     primal_lower62  509
    u[18]     primal_lower63  478
    u[18]     primal_lower64  994
    u[18]     primal_lower65  454
    u[18]     primal_lower66  611
    u[18]     primal_lower67  666
    u[18]     primal_lower68  997
    u[18]     primal_lower69  531
    u[18]     primal_lower70  90
    u[18]     primal_lower71  555
    u[18]     primal_lower72  955
    u[18]     primal_lower73  136
    u[18]     primal_lower74  971
    u[18]     primal_lower75  821
    u[18]     primal_lower76  730
    u[18]     primal_lower77  951
    u[18]     primal_lower78  147
    u[18]     primal_lower79  981
    u[18]     primal_lower80  828
    u[18]     primal_lower81  941
    u[18]     primal_lower82  796
    u[18]     primal_lower83  598
    u[18]     primal_lower84  827
    u[18]     primal_lower85  415
    u[18]     primal_lower86  676
    u[18]     primal_lower87  541
    u[18]     primal_lower88  251
    u[18]     primal_lower89  279
    u[18]     primal_lower90  960
    u[18]     primal_lower91  596
    u[18]     primal_lower92  846
    u[18]     primal_lower93  362
    u[18]     primal_lower94  912
    u[18]     primal_lower95  828
    u[18]     primal_lower96  643
    u[18]     primal_lower97  799
    u[18]     primal_lower98  437
    u[18]     primal_lower99  500
    u[18]     primal_lower100  554
    u[18]     primal_lower101  431
    u[18]     primal_lower102  342
    u[18]     primal_lower103  248
    u[18]     primal_lower104  579
    u[18]     primal_lower105  664
    u[18]     primal_lower106  210
    u[18]     primal_lower107  214
    u[18]     primal_lower108  865
    u[18]     primal_lower109  351
    u[18]     primal_lower110  82
    u[18]     primal_lower111  261
    u[18]     primal_lower112  225
    u[18]     primal_lower113  252
    u[18]     primal_lower114  52
    u[18]     primal_lower115  825
    u[18]     primal_lower116  432
    u[18]     primal_lower117  974
    u[18]     primal_lower118  235
    u[18]     primal_lower119  976
    u[18]     primal_lower120  264
    u[18]     primal_lower121  335
    u[18]     primal_lower122  351
    u[18]     primal_lower123  892
    u[18]     primal_lower124  273
    u[18]     primal_lower125  460
    u[18]     primal_lower126  610
    u[18]     primal_lower127  719
    u[18]     primal_lower128  669
    u[18]     primal_lower129  928
    u[18]     primal_lower130  806
    u[18]     primal_lower131  251
    u[18]     primal_lower132  323
    u[18]     primal_lower133  12
    u[18]     primal_lower134  85
    u[18]     primal_lower135  14
    u[18]     primal_lower136  521
    u[18]     primal_lower137  196
    u[18]     primal_lower138  144
    u[18]     primal_lower139  506
    u[18]     primal_lower140  495
    u[18]     primal_lower141  459
    u[18]     primal_lower142  489
    u[18]     primal_lower143  621
    u[18]     primal_lower144  580
    u[18]     primal_lower145  283
    u[18]     primal_lower146  38
    u[18]     primal_lower147  985
    u[18]     primal_lower148  42
    u[18]     primal_lower149  559
    u[18]     primal_lower150  982
    u[18]     primal_lower151  66
    u[18]     primal_lower152  555
    u[18]     primal_lower153  296
    u[18]     primal_lower154  111
    u[18]     primal_lower155  231
    u[18]     primal_lower156  693
    u[18]     primal_lower157  360
    u[18]     primal_lower158  108
    u[18]     primal_lower159  313
    u[18]     primal_lower160  893
    u[18]     primal_lower161  23
    u[18]     primal_lower162  813
    u[18]     primal_lower163  712
    u[18]     primal_lower164  458
    u[18]     primal_lower165  399
    u[18]     primal_lower166  180
    u[18]     primal_lower167  778
    u[18]     primal_lower168  375
    u[18]     primal_lower169  487
    u[18]     primal_lower170  991
    u[18]     primal_lower171  297
    u[18]     primal_lower172  987
    u[18]     primal_lower173  199
    u[18]     primal_lower174  324
    u[18]     primal_lower175  187
    u[18]     primal_lower176  975
    u[18]     primal_lower177  724
    u[18]     primal_lower178  680
    u[18]     primal_lower179  407
    u[18]     primal_lower180  463
    u[18]     primal_lower181  185
    u[18]     primal_lower182  196
    u[18]     primal_lower183  664
    u[18]     primal_lower184  504
    u[18]     primal_lower185  846
    u[18]     primal_lower186  786
    u[18]     primal_lower187  861
    u[18]     primal_lower188  703
    u[18]     primal_lower189  430
    u[18]     primal_lower190  622
    u[18]     primal_lower191  890
    u[18]     primal_lower192  108
    u[18]     primal_lower193  932
    u[18]     primal_lower194  726
    u[18]     primal_lower195  505
    u[18]     primal_lower196  559
    u[18]     primal_lower197  373
    u[18]     primal_lower198  76
    u[18]     primal_lower199  340
    u[18]     primal_lower200  154
    u[18]     primal_lower201  184
    u[18]     primal_lower202  641
    u[18]     primal_lower203  521
    u[18]     primal_lower204  434
    u[18]     primal_lower205  296
    u[18]     primal_lower206  183
    u[18]     primal_lower207  462
    u[18]     primal_lower208  174
    u[18]     primal_lower209  355
    u[18]     primal_lower210  705
    u[18]     primal_lower211  455
    u[18]     primal_lower212  436
    u[18]     primal_lower213  798
    u[18]     primal_lower214  693
    u[18]     primal_lower215  322
    u[18]     primal_lower216  907
    u[18]     primal_lower217  408
    u[18]     primal_lower218  317
    u[18]     primal_lower219  937
    u[18]     primal_lower220  685
    u[18]     primal_lower221  843
    u[18]     primal_lower222  937
    u[18]     primal_lower223  146
    u[18]     primal_lower224  977
    u[18]     primal_lower225  509
    u[18]     primal_lower226  461
    u[18]     primal_lower227  274
    u[18]     primal_lower228  41
    u[18]     primal_lower229  984
    u[18]     primal_lower230  222
    u[18]     primal_lower231  914
    u[18]     primal_lower232  75
    u[18]     primal_lower233  56
    u[18]     primal_lower234  889
    u[18]     primal_lower235  129
    u[18]     primal_lower236  926
    u[18]     primal_lower237  182
    u[18]     primal_lower238  895
    u[18]     primal_lower239  239
    u[18]     primal_lower240  125
    u[18]     primal_lower241  40
    u[18]     primal_lower242  1000
    u[18]     primal_lower243  951
    u[18]     primal_lower244  903
    u[18]     primal_lower245  548
    u[18]     primal_lower246  819
    u[18]     primal_lower247  619
    u[18]     primal_lower248  111
    u[18]     primal_lower249  48
    u[18]     primal_lower250  617
    u[18]     primal_lower251  353
    u[18]     primal_lower252  998
    u[18]     primal_lower253  987
    u[18]     primal_lower254  682
    u[18]     primal_lower255  206
    u[18]     primal_lower256  693
    u[18]     primal_lower257  686
    u[18]     primal_lower258  55
    u[18]     primal_lower259  702
    u[18]     primal_lower260  270
    u[18]     primal_lower261  811
    u[18]     primal_lower262  439
    u[18]     primal_lower263  797
    u[18]     primal_lower264  632
    u[18]     primal_lower265  302
    u[18]     primal_lower266  145
    u[18]     primal_lower267  467
    u[18]     primal_lower268  349
    u[18]     primal_lower269  881
    u[18]     primal_lower270  390
    u[18]     primal_lower271  562
    u[18]     primal_lower272  840
    u[18]     primal_lower273  37
    u[18]     primal_lower274  462
    u[18]     primal_lower275  62
    u[18]     primal_lower276  851
    u[18]     primal_lower277  656
    u[18]     primal_lower278  248
    u[18]     primal_lower279  910
    u[18]     primal_lower280  69
    u[18]     primal_lower281  854
    u[18]     primal_lower282  180
    u[18]     primal_lower283  103
    u[18]     primal_lower284  587
    u[18]     primal_lower285  982
    u[18]     primal_lower286  497
    u[18]     primal_lower287  521
    u[18]     primal_lower288  353
    u[18]     primal_lower289  864
    u[18]     primal_lower290  209
    u[18]     primal_lower291  875
    u[18]     primal_lower292  351
    u[18]     primal_lower293  351
    u[18]     primal_lower294  316
    u[18]     primal_lower295  352
    u[18]     primal_lower296  12
    u[18]     primal_lower297  985
    u[18]     primal_lower298  783
    u[18]     primal_lower299  249
    u[18]     primal_lower300  133
    u[18]     primal_lower301  420
    u[18]     primal_lower302  27
    u[18]     primal_lower303  537
    u[18]     primal_lower304  597
    u[18]     primal_lower305  673
    u[18]     primal_lower306  795
    u[18]     primal_lower307  703
    u[18]     primal_lower308  431
    u[18]     primal_lower309  433
    u[18]     primal_lower310  152
    u[18]     primal_lower311  138
    u[18]     primal_lower312  98
    u[18]     primal_lower313  109
    u[18]     primal_lower314  490
    u[18]     primal_lower315  425
    u[18]     primal_lower316  777
    u[18]     primal_lower317  158
    u[18]     primal_lower318  90
    u[18]     primal_lower319  363
    u[18]     primal_lower320  856
    u[18]     primal_lower321  773
    u[18]     primal_lower322  457
    u[18]     primal_lower323  45
    u[18]     primal_lower324  553
    u[18]     primal_lower325  207
    u[18]     primal_lower326  106
    u[18]     primal_lower327  397
    u[18]     primal_lower328  130
    u[18]     primal_lower329  378
    u[18]     primal_lower330  82
    u[18]     primal_lower331  914
    u[18]     primal_lower332  327
    u[18]     primal_lower333  887
    u[18]     primal_lower334  758
    u[18]     primal_lower335  701
    u[18]     primal_lower336  412
    u[18]     primal_lower337  372
    u[18]     primal_lower338  696
    u[18]     primal_lower339  874
    u[18]     primal_lower340  807
    u[18]     primal_lower341  47
    u[18]     primal_lower342  356
    u[18]     primal_lower343  11
    u[18]     primal_lower344  426
    u[18]     primal_lower345  689
    u[18]     primal_lower346  853
    u[18]     primal_lower347  725
    u[18]     primal_lower348  524
    u[18]     primal_lower349  586
    u[18]     primal_lower350  920
    u[18]     primal_lower351  389
    u[18]     primal_lower352  50
    u[18]     primal_lower353  293
    u[18]     primal_lower354  300
    u[18]     primal_lower355  370
    u[18]     primal_lower356  508
    u[18]     primal_lower357  607
    u[18]     primal_lower358  217
    u[18]     primal_lower359  788
    u[18]     primal_lower360  648
    u[18]     primal_lower361  410
    u[18]     primal_lower362  508
    u[18]     primal_lower363  251
    u[18]     primal_lower364  512
    u[18]     primal_lower365  354
    u[18]     primal_lower366  184
    u[18]     primal_lower367  106
    u[18]     primal_lower368  216
    u[18]     primal_lower369  788
    u[18]     primal_lower370  108
    u[18]     primal_lower371  788
    u[18]     primal_lower372  588
    u[18]     primal_lower373  153
    u[18]     primal_lower374  848
    u[18]     primal_lower375  765
    u[18]     primal_lower376  317
    u[18]     primal_lower377  781
    u[18]     primal_lower378  453
    u[18]     primal_lower379  925
    u[18]     primal_lower380  26
    u[18]     primal_lower381  621
    u[18]     primal_lower382  863
    u[18]     primal_lower383  538
    u[18]     primal_lower384  446
    u[18]     primal_lower385  151
    u[18]     primal_lower386  434
    u[18]     primal_lower387  799
    u[18]     primal_lower388  57
    u[18]     primal_lower389  608
    u[18]     primal_lower390  16
    u[18]     primal_lower391  710
    u[18]     primal_lower392  161
    u[18]     primal_lower393  563
    u[18]     primal_lower394  143
    u[18]     primal_lower395  908
    u[18]     primal_lower396  955
    u[18]     primal_lower397  131
    u[18]     primal_lower398  767
    u[18]     primal_lower399  118
    u[18]     primal_lower400  753
    u[18]     primal_lower401  843
    u[18]     primal_lower402  71
    u[18]     primal_lower403  208
    u[18]     primal_lower404  154
    u[18]     primal_lower405  398
    u[18]     primal_lower406  912
    u[18]     primal_lower407  718
    u[18]     primal_lower408  989
    u[18]     primal_lower409  665
    u[18]     primal_lower410  944
    u[18]     primal_lower411  862
    u[18]     primal_lower412  567
    u[18]     primal_lower413  743
    u[18]     primal_lower414  103
    u[18]     primal_lower415  393
    u[18]     primal_lower416  591
    u[18]     primal_lower417  309
    u[18]     primal_lower418  171
    u[18]     primal_lower419  674
    u[18]     primal_lower420  322
    u[18]     primal_lower421  252
    u[18]     primal_lower422  525
    u[18]     primal_lower423  901
    u[18]     primal_lower424  707
    u[18]     primal_lower425  664
    u[18]     primal_lower426  827
    u[18]     primal_lower427  197
    u[18]     primal_lower428  225
    u[18]     primal_lower429  360
    u[18]     primal_lower430  297
    u[18]     primal_lower431  819
    u[18]     primal_lower432  756
    u[18]     primal_lower433  780
    u[18]     primal_lower434  323
    u[18]     primal_lower435  889
    u[18]     primal_lower436  108
    u[18]     primal_lower437  428
    u[18]     primal_lower438  602
    u[18]     primal_lower439  449
    u[18]     primal_lower440  527
    u[18]     primal_lower441  607
    u[18]     primal_lower442  966
    u[18]     primal_lower443  153
    u[18]     primal_lower444  488
    u[18]     primal_lower445  485
    u[18]     primal_lower446  62
    u[18]     primal_lower447  158
    u[18]     primal_lower448  81
    u[18]     primal_lower449  703
    u[18]     primal_lower450  554
    u[18]     primal_lower451  870
    u[18]     primal_lower452  437
    u[18]     primal_lower453  828
    u[18]     primal_lower454  604
    u[18]     primal_lower455  18
    u[18]     primal_lower456  749
    u[18]     primal_lower457  963
    u[18]     primal_lower458  966
    u[18]     primal_lower459  409
    u[18]     primal_lower460  739
    u[18]     primal_lower461  720
    u[18]     primal_lower462  913
    u[18]     primal_lower463  424
    u[18]     primal_lower464  936
    u[18]     primal_lower465  227
    u[18]     primal_lower466  112
    u[18]     primal_lower467  742
    u[18]     primal_lower468  758
    u[18]     primal_lower469  847
    u[18]     primal_lower470  259
    u[18]     primal_lower471  450
    u[18]     primal_lower472  563
    u[18]     primal_lower473  63
    u[18]     primal_lower474  986
    u[18]     primal_lower475  29
    u[18]     primal_lower476  314
    u[18]     primal_lower477  957
    u[18]     primal_lower478  891
    u[18]     primal_lower479  983
    u[18]     primal_lower480  504
    u[18]     primal_lower481  137
    u[18]     primal_lower482  292
    u[18]     primal_lower483  254
    u[18]     primal_lower484  988
    u[18]     primal_lower485  304
    u[18]     primal_lower486  906
    u[18]     primal_lower487  659
    u[18]     primal_lower488  986
    u[18]     primal_lower489  377
    u[18]     primal_lower490  727
    u[18]     primal_lower491  169
    u[18]     primal_lower492  818
    u[18]     primal_lower493  986
    u[18]     primal_lower494  279
    u[18]     primal_lower495  305
    u[18]     primal_lower496  337
    u[18]     primal_lower497  162
    u[18]     primal_lower498  638
    u[18]     primal_lower499  383
    u[18]     primal_lower500  749
    u[18]     primal_lower501  908
    u[18]     primal_lower502  457
    u[18]     primal_lower503  572
    u[18]     primal_lower504  69
    u[18]     primal_lower505  973
    u[18]     primal_lower506  854
    u[18]     primal_lower507  983
    u[18]     primal_lower508  2
    u[18]     primal_lower509  612
    u[18]     primal_lower510  868
    u[18]     primal_lower511  770
    u[18]     primal_lower512  329
    u[18]     primal_lower513  910
    u[18]     primal_lower514  398
    u[18]     primal_lower515  222
    u[18]     primal_lower516  188
    u[18]     primal_lower517  514
    u[18]     primal_lower518  945
    u[18]     primal_lower519  44
    u[18]     primal_lower520  38
    u[18]     primal_lower521  241
    u[18]     primal_lower522  819
    u[18]     primal_lower523  90
    u[18]     primal_lower524  682
    u[18]     primal_lower525  739
    u[18]     primal_lower526  297
    u[18]     primal_lower527  816
    u[18]     primal_lower528  34
    u[18]     primal_lower529  754
    u[18]     primal_lower530  935
    u[18]     primal_lower531  16
    u[18]     primal_lower532  368
    u[18]     primal_lower533  385
    u[18]     primal_lower534  352
    u[18]     primal_lower535  575
    u[18]     primal_lower536  704
    u[18]     primal_lower537  363
    u[18]     primal_lower538  984
    u[18]     primal_lower539  68
    u[18]     primal_lower540  951
    u[18]     primal_lower541  961
    u[18]     primal_lower542  730
    u[18]     primal_lower543  962
    u[18]     primal_lower544  11
    u[18]     primal_lower545  838
    u[18]     primal_lower546  255
    u[18]     primal_lower547  71
    u[18]     primal_lower548  922
    u[18]     primal_lower549  867
    u[18]     primal_lower550  727
    u[18]     primal_lower551  502
    u[18]     primal_lower552  740
    u[18]     primal_lower553  208
    u[18]     primal_lower554  714
    u[18]     primal_lower555  531
    u[18]     primal_lower556  673
    u[18]     primal_lower557  339
    u[18]     primal_lower558  100
    u[18]     primal_lower559  440
    u[18]     primal_lower560  886
    u[18]     primal_lower561  891
    u[18]     primal_lower562  709
    u[18]     primal_lower563  806
    u[18]     primal_lower564  279
    u[18]     primal_lower565  42
    u[18]     primal_lower566  164
    u[18]     primal_lower567  847
    u[18]     primal_lower568  841
    u[18]     primal_lower569  496
    u[18]     primal_lower570  1000
    u[18]     primal_lower571  414
    u[18]     primal_lower572  255
    u[18]     primal_lower573  952
    u[18]     primal_lower574  315
    u[18]     primal_lower575  620
    u[18]     primal_lower576  216
    u[18]     primal_lower577  303
    u[18]     primal_lower578  286
    u[18]     primal_lower579  636
    u[18]     primal_lower580  609
    u[18]     primal_lower581  123
    u[18]     primal_lower582  881
    u[18]     primal_lower583  657
    u[18]     primal_lower584  958
    u[18]     primal_lower585  924
    u[18]     primal_lower586  738
    u[18]     primal_lower587  733
    u[18]     primal_lower588  887
    u[18]     primal_lower589  776
    u[18]     primal_lower590  649
    u[18]     primal_lower591  765
    u[18]     primal_lower592  817
    u[18]     primal_lower593  659
    u[18]     primal_lower594  249
    u[18]     primal_lower595  126
    u[18]     primal_lower596  189
    u[18]     primal_lower597  138
    u[18]     primal_lower598  408
    u[18]     primal_lower599  819
    u[18]     primal_lower600  224
    u[18]     primal_lower601  98
    u[18]     primal_lower602  999
    u[18]     primal_lower603  982
    u[18]     primal_lower604  498
    u[18]     primal_lower605  436
    u[18]     primal_lower606  370
    u[18]     primal_lower607  804
    u[18]     primal_lower608  823
    u[18]     primal_lower609  274
    u[18]     primal_lower610  578
    u[18]     primal_lower611  29
    u[18]     primal_lower612  705
    u[18]     primal_lower613  795
    u[18]     primal_lower614  58
    u[18]     primal_lower615  695
    u[18]     primal_lower616  473
    u[18]     primal_lower617  607
    u[18]     primal_lower618  198
    u[18]     primal_lower619  755
    u[18]     primal_lower620  917
    u[18]     primal_lower621  337
    u[18]     primal_lower622  170
    u[18]     primal_lower623  308
    u[18]     primal_lower624  233
    u[18]     primal_lower625  483
    u[18]     primal_lower626  608
    u[18]     primal_lower627  265
    u[18]     primal_lower628  375
    u[18]     primal_lower629  819
    u[18]     primal_lower630  699
    u[18]     primal_lower631  620
    u[18]     primal_lower632  790
    u[18]     primal_lower633  448
    u[18]     primal_lower634  958
    u[18]     primal_lower635  437
    u[18]     primal_lower636  60
    u[18]     primal_lower637  247
    u[18]     primal_lower638  615
    u[18]     primal_lower639  462
    u[18]     primal_lower640  766
    u[18]     primal_lower641  720
    u[18]     primal_lower642  867
    u[18]     primal_lower643  935
    u[18]     primal_lower644  432
    u[18]     primal_lower645  520
    u[18]     primal_lower646  441
    u[18]     primal_lower647  667
    u[18]     primal_lower648  500
    u[18]     primal_lower649  967
    u[18]     primal_lower650  156
    u[18]     primal_lower651  839
    u[18]     primal_lower652  400
    u[18]     primal_lower653  970
    u[18]     primal_lower654  971
    u[18]     primal_lower655  375
    u[18]     primal_lower656  203
    u[18]     primal_lower657  749
    u[18]     primal_lower658  291
    u[18]     primal_lower659  832
    u[18]     primal_lower660  896
    u[18]     primal_lower661  5
    u[18]     primal_lower662  657
    u[18]     primal_lower663  409
    u[18]     primal_lower664  765
    u[18]     primal_lower665  819
    u[18]     primal_lower666  349
    u[18]     primal_lower667  460
    u[18]     primal_lower668  685
    u[18]     primal_lower669  611
    u[18]     primal_lower670  927
    u[18]     primal_lower671  64
    u[18]     primal_lower672  309
    u[18]     primal_lower673  946
    u[18]     primal_lower674  210
    u[18]     primal_lower675  824
    u[18]     primal_lower676  754
    u[18]     primal_lower677  289
    u[18]     primal_lower678  912
    u[18]     primal_lower679  25
    u[18]     primal_lower680  595
    u[18]     primal_lower681  555
    u[18]     primal_lower682  193
    u[18]     primal_lower683  814
    u[18]     primal_lower684  341
    u[18]     primal_lower685  940
    u[18]     primal_lower686  372
    u[18]     primal_lower687  480
    u[18]     primal_lower688  59
    u[18]     primal_lower689  21
    u[18]     primal_lower690  60
    u[18]     primal_lower691  317
    u[18]     primal_lower692  466
    u[18]     primal_lower693  870
    u[18]     primal_lower694  848
    u[18]     primal_lower695  968
    u[18]     primal_lower696  148
    u[18]     primal_lower697  889
    u[18]     primal_lower698  349
    u[18]     primal_lower699  962
    u[18]     primal_lower700  753
    u[18]     primal_lower701  331
    u[18]     primal_lower702  870
    u[18]     primal_lower703  800
    u[18]     primal_lower704  571
    u[18]     primal_lower705  284
    u[18]     primal_lower706  647
    u[18]     primal_lower707  175
    u[18]     primal_lower708  46
    u[18]     primal_lower709  818
    u[18]     primal_lower710  440
    u[18]     primal_lower711  498
    u[18]     primal_lower712  497
    u[18]     primal_lower713  325
    u[18]     primal_lower714  434
    u[18]     primal_lower715  444
    u[18]     primal_lower716  254
    u[18]     primal_lower717  136
    u[18]     primal_lower718  842
    u[18]     primal_lower719  704
    u[18]     primal_lower720  408
    u[18]     primal_lower721  870
    u[18]     primal_lower722  595
    u[18]     primal_lower723  45
    u[18]     primal_lower724  908
    u[18]     primal_lower725  877
    u[18]     primal_lower726  193
    u[18]     primal_lower727  827
    u[18]     primal_lower728  379
    u[18]     primal_lower729  688
    u[18]     primal_lower730  926
    u[18]     primal_lower731  265
    u[18]     primal_lower732  495
    u[18]     primal_lower733  83
    u[18]     primal_lower734  30
    u[18]     primal_lower735  40
    u[18]     primal_lower736  240
    u[18]     primal_lower737  948
    u[18]     primal_lower738  128
    u[18]     primal_lower739  383
    u[18]     primal_lower740  759
    u[18]     primal_lower741  895
    u[18]     primal_lower742  492
    u[18]     primal_lower743  449
    u[18]     primal_lower744  787
    u[18]     primal_lower745  200
    u[18]     primal_lower746  281
    u[18]     primal_lower747  966
    u[18]     primal_lower748  167
    u[18]     primal_lower749  732
    u[18]     primal_lower750  601
    u[18]     primal_lower751  380
    u[18]     primal_lower752  426
    u[18]     primal_lower753  41
    u[18]     primal_lower754  769
    u[18]     primal_lower755  938
    u[18]     primal_lower756  115
    u[18]     primal_lower757  497
    u[18]     primal_lower758  833
    u[18]     primal_lower759  400
    u[18]     primal_lower760  343
    u[18]     primal_lower761  111
    u[18]     primal_lower762  598
    u[18]     primal_lower763  819
    u[18]     primal_lower764  193
    u[18]     primal_lower765  679
    u[18]     primal_lower766  597
    u[18]     primal_lower767  353
    u[18]     primal_lower768  962
    u[18]     primal_lower769  322
    u[18]     primal_lower770  996
    u[18]     primal_lower771  605
    u[18]     primal_lower772  216
    u[18]     primal_lower773  527
    u[18]     primal_lower774  295
    u[18]     primal_lower775  997
    u[18]     primal_lower776  108
    u[18]     primal_lower777  147
    u[18]     primal_lower778  660
    u[18]     primal_lower779  41
    u[18]     primal_lower780  770
    u[18]     primal_lower781  538
    u[18]     primal_lower782  128
    u[18]     primal_lower783  577
    u[18]     primal_lower784  874
    u[18]     primal_lower785  484
    u[18]     primal_lower786  540
    u[18]     primal_lower787  621
    u[18]     primal_lower788  219
    u[18]     primal_lower789  948
    u[18]     primal_lower790  706
    u[18]     primal_lower791  444
    u[18]     primal_lower792  330
    u[18]     primal_lower793  753
    u[18]     primal_lower794  421
    u[18]     primal_lower795  201
    u[18]     primal_lower796  472
    u[18]     primal_lower797  329
    u[18]     primal_lower798  116
    u[18]     primal_lower799  622
    u[18]     primal_lower800  247
    u[18]     primal_lower801  850
    u[18]     primal_lower802  250
    u[18]     primal_lower803  386
    u[18]     primal_lower804  252
    u[18]     primal_lower805  385
    u[18]     primal_lower806  711
    u[18]     primal_lower807  738
    u[18]     primal_lower808  18
    u[18]     primal_lower809  313
    u[18]     primal_lower810  889
    u[18]     primal_lower811  112
    u[18]     primal_lower812  237
    u[18]     primal_lower813  803
    u[18]     primal_lower814  392
    u[18]     primal_lower815  703
    u[18]     primal_lower816  809
    u[18]     primal_lower817  412
    u[18]     primal_lower818  91
    u[18]     primal_lower819  15
    u[18]     primal_lower820  642
    u[18]     primal_lower821  421
    u[18]     primal_lower822  214
    u[18]     primal_lower823  213
    u[18]     primal_lower824  344
    u[18]     primal_lower825  910
    u[18]     primal_lower826  579
    u[18]     primal_lower827  452
    u[18]     primal_lower828  643
    u[18]     primal_lower829  71
    u[18]     primal_lower830  752
    u[18]     primal_lower831  819
    u[18]     primal_lower832  278
    u[18]     primal_lower833  874
    u[18]     primal_lower834  122
    u[18]     primal_lower835  489
    u[18]     primal_lower836  283
    u[18]     primal_lower837  966
    u[18]     primal_lower838  316
    u[18]     primal_lower839  92
    u[18]     primal_lower840  323
    u[18]     primal_lower841  281
    u[18]     primal_lower842  833
    u[18]     primal_lower843  266
    u[18]     primal_lower844  826
    u[18]     primal_lower845  111
    u[18]     primal_lower846  715
    u[18]     primal_lower847  143
    u[18]     primal_lower848  821
    u[18]     primal_lower849  530
    u[18]     primal_lower850  524
    u[18]     primal_lower851  809
    u[18]     primal_lower852  156
    u[18]     primal_lower853  54
    u[18]     primal_lower854  387
    u[18]     primal_lower855  633
    u[18]     primal_lower856  994
    u[18]     primal_lower857  212
    u[18]     primal_lower858  579
    u[18]     primal_lower859  849
    u[18]     primal_lower860  313
    u[18]     primal_lower861  811
    u[18]     primal_lower862  975
    u[18]     primal_lower863  968
    u[18]     primal_lower864  161
    u[18]     primal_lower865  110
    u[18]     primal_lower866  302
    u[18]     primal_lower867  414
    u[18]     primal_lower868  24
    u[18]     primal_lower869  673
    u[18]     primal_lower870  409
    u[18]     primal_lower871  693
    u[18]     primal_lower872  762
    u[18]     primal_lower873  838
    u[18]     primal_lower874  193
    u[18]     primal_lower875  107
    u[18]     primal_lower876  595
    u[18]     primal_lower877  51
    u[18]     primal_lower878  100
    u[18]     primal_lower879  822
    u[18]     primal_lower880  982
    u[18]     primal_lower881  814
    u[18]     primal_lower882  958
    u[18]     primal_lower883  751
    u[18]     primal_lower884  185
    u[18]     primal_lower885  739
    u[18]     primal_lower886  68
    u[18]     primal_lower887  803
    u[18]     primal_lower888  385
    u[18]     primal_lower889  297
    u[18]     primal_lower890  174
    u[18]     primal_lower891  242
    u[18]     primal_lower892  816
    u[18]     primal_lower893  44
    u[18]     primal_lower894  299
    u[18]     primal_lower895  913
    u[18]     primal_lower896  217
    u[18]     primal_lower897  955
    u[18]     primal_lower898  212
    u[18]     primal_lower899  858
    u[18]     primal_lower900  370
    u[18]     primal_lower901  714
    u[18]     primal_lower902  185
    u[18]     primal_lower903  195
    u[18]     primal_lower904  210
    u[18]     primal_lower905  819
    u[18]     primal_lower906  256
    u[18]     primal_lower907  273
    u[18]     primal_lower908  724
    u[18]     primal_lower909  388
    u[18]     primal_lower910  792
    u[18]     primal_lower911  311
    u[18]     primal_lower912  100
    u[18]     primal_lower913  182
    u[18]     primal_lower914  677
    u[18]     primal_lower915  587
    u[18]     primal_lower916  721
    u[18]     primal_lower917  338
    u[18]     primal_lower918  823
    u[18]     primal_lower919  593
    u[18]     primal_lower920  36
    u[18]     primal_lower921  700
    u[18]     primal_lower922  325
    u[18]     primal_lower923  688
    u[18]     primal_lower924  685
    u[18]     primal_lower925  417
    u[18]     primal_lower926  638
    u[18]     primal_lower927  808
    u[18]     primal_lower928  553
    u[18]     primal_lower929  836
    u[18]     primal_lower930  155
    u[18]     primal_lower931  246
    u[18]     primal_lower932  107
    u[18]     primal_lower933  22
    u[18]     primal_lower934  760
    u[18]     primal_lower935  981
    u[18]     primal_lower936  352
    u[18]     primal_lower937  536
    u[18]     primal_lower938  230
    u[18]     primal_lower939  133
    u[18]     primal_lower940  248
    u[18]     primal_lower941  465
    u[18]     primal_lower942  729
    u[18]     primal_lower943  769
    u[18]     primal_lower944  251
    u[18]     primal_lower945  118
    u[18]     primal_lower946  767
    u[18]     primal_lower947  447
    u[18]     primal_lower948  168
    u[18]     primal_lower949  685
    u[18]     primal_lower950  589
    u[18]     primal_lower951  609
    u[18]     primal_lower952  896
    u[18]     primal_lower953  239
    u[18]     primal_lower954  158
    u[18]     primal_lower955  700
    u[18]     primal_lower956  90
    u[18]     primal_lower957  143
    u[18]     primal_lower958  658
    u[18]     primal_lower959  306
    u[18]     primal_lower960  419
    u[18]     primal_lower961  497
    u[18]     primal_lower962  875
    u[18]     primal_lower963  905
    u[18]     primal_lower964  345
    u[18]     primal_lower965  593
    u[18]     primal_lower966  85
    u[18]     primal_lower967  620
    u[18]     primal_lower968  462
    u[18]     primal_lower969  707
    u[18]     primal_lower970  844
    u[18]     primal_lower971  332
    u[18]     primal_lower972  719
    u[18]     primal_lower973  274
    u[18]     primal_lower974  885
    u[18]     primal_lower975  686
    u[18]     primal_lower976  885
    u[18]     primal_lower977  882
    u[18]     primal_lower978  709
    u[18]     primal_lower979  555
    u[18]     primal_lower980  777
    u[18]     primal_lower981  453
    u[18]     primal_lower982  740
    u[18]     primal_lower983  760
    u[18]     primal_lower984  77
    u[18]     primal_lower985  324
    u[18]     primal_lower986  526
    u[18]     primal_lower987  297
    u[18]     primal_lower988  275
    u[18]     primal_lower989  405
    u[18]     primal_lower990  612
    u[18]     primal_lower991  70
    u[18]     primal_lower992  146
    u[18]     primal_lower993  893
    u[18]     primal_lower994  811
    u[18]     primal_lower995  957
    u[18]     primal_lower996  973
    u[18]     primal_lower997  936
    u[18]     primal_lower998  517
    u[18]     primal_lower999  525
    u[18]     interdiction[18]  1
    u[18]     mccormick1[18]  -1
    u[18]     mccormick3[18]  1
    u[19]     primal_lower0  818
    u[19]     primal_lower1  662
    u[19]     primal_lower2  802
    u[19]     primal_lower3  908
    u[19]     primal_lower4  563
    u[19]     primal_lower5  723
    u[19]     primal_lower6  56
    u[19]     primal_lower7  231
    u[19]     primal_lower8  17
    u[19]     primal_lower9  299
    u[19]     primal_lower10  58
    u[19]     primal_lower11  583
    u[19]     primal_lower12  238
    u[19]     primal_lower13  848
    u[19]     primal_lower14  500
    u[19]     primal_lower15  585
    u[19]     primal_lower16  139
    u[19]     primal_lower17  485
    u[19]     primal_lower18  394
    u[19]     primal_lower19  789
    u[19]     primal_lower20  687
    u[19]     primal_lower21  610
    u[19]     primal_lower22  661
    u[19]     primal_lower23  65
    u[19]     primal_lower24  593
    u[19]     primal_lower25  602
    u[19]     primal_lower26  775
    u[19]     primal_lower27  183
    u[19]     primal_lower28  534
    u[19]     primal_lower29  35
    u[19]     primal_lower30  941
    u[19]     primal_lower31  99
    u[19]     primal_lower32  680
    u[19]     primal_lower33  55
    u[19]     primal_lower34  680
    u[19]     primal_lower35  643
    u[19]     primal_lower36  387
    u[19]     primal_lower37  648
    u[19]     primal_lower38  171
    u[19]     primal_lower39  712
    u[19]     primal_lower40  811
    u[19]     primal_lower41  549
    u[19]     primal_lower42  954
    u[19]     primal_lower43  299
    u[19]     primal_lower44  592
    u[19]     primal_lower45  515
    u[19]     primal_lower46  750
    u[19]     primal_lower47  373
    u[19]     primal_lower48  155
    u[19]     primal_lower49  524
    u[19]     primal_lower50  602
    u[19]     primal_lower51  726
    u[19]     primal_lower52  223
    u[19]     primal_lower53  221
    u[19]     primal_lower54  954
    u[19]     primal_lower55  22
    u[19]     primal_lower56  724
    u[19]     primal_lower57  526
    u[19]     primal_lower58  148
    u[19]     primal_lower59  27
    u[19]     primal_lower60  783
    u[19]     primal_lower61  875
    u[19]     primal_lower62  734
    u[19]     primal_lower63  623
    u[19]     primal_lower64  707
    u[19]     primal_lower65  355
    u[19]     primal_lower66  560
    u[19]     primal_lower67  339
    u[19]     primal_lower68  618
    u[19]     primal_lower69  176
    u[19]     primal_lower70  603
    u[19]     primal_lower71  560
    u[19]     primal_lower72  620
    u[19]     primal_lower73  565
    u[19]     primal_lower74  308
    u[19]     primal_lower75  62
    u[19]     primal_lower76  395
    u[19]     primal_lower77  808
    u[19]     primal_lower78  212
    u[19]     primal_lower79  686
    u[19]     primal_lower80  17
    u[19]     primal_lower81  354
    u[19]     primal_lower82  725
    u[19]     primal_lower83  195
    u[19]     primal_lower84  44
    u[19]     primal_lower85  392
    u[19]     primal_lower86  533
    u[19]     primal_lower87  490
    u[19]     primal_lower88  992
    u[19]     primal_lower89  300
    u[19]     primal_lower90  733
    u[19]     primal_lower91  721
    u[19]     primal_lower92  419
    u[19]     primal_lower93  379
    u[19]     primal_lower94  729
    u[19]     primal_lower95  829
    u[19]     primal_lower96  404
    u[19]     primal_lower97  492
    u[19]     primal_lower98  562
    u[19]     primal_lower99  557
    u[19]     primal_lower100  863
    u[19]     primal_lower101  972
    u[19]     primal_lower102  35
    u[19]     primal_lower103  53
    u[19]     primal_lower104  852
    u[19]     primal_lower105  865
    u[19]     primal_lower106  159
    u[19]     primal_lower107  755
    u[19]     primal_lower108  58
    u[19]     primal_lower109  88
    u[19]     primal_lower110  547
    u[19]     primal_lower111  538
    u[19]     primal_lower112  146
    u[19]     primal_lower113  945
    u[19]     primal_lower114  649
    u[19]     primal_lower115  890
    u[19]     primal_lower116  593
    u[19]     primal_lower117  743
    u[19]     primal_lower118  560
    u[19]     primal_lower119  301
    u[19]     primal_lower120  345
    u[19]     primal_lower121  292
    u[19]     primal_lower122  940
    u[19]     primal_lower123  629
    u[19]     primal_lower124  758
    u[19]     primal_lower125  229
    u[19]     primal_lower126  455
    u[19]     primal_lower127  516
    u[19]     primal_lower128  362
    u[19]     primal_lower129  753
    u[19]     primal_lower130  603
    u[19]     primal_lower131  336
    u[19]     primal_lower132  924
    u[19]     primal_lower133  937
    u[19]     primal_lower134  66
    u[19]     primal_lower135  755
    u[19]     primal_lower136  734
    u[19]     primal_lower137  185
    u[19]     primal_lower138  53
    u[19]     primal_lower139  823
    u[19]     primal_lower140  168
    u[19]     primal_lower141  396
    u[19]     primal_lower142  938
    u[19]     primal_lower143  874
    u[19]     primal_lower144  297
    u[19]     primal_lower145  948
    u[19]     primal_lower146  643
    u[19]     primal_lower147  622
    u[19]     primal_lower148  67
    u[19]     primal_lower149  392
    u[19]     primal_lower150  207
    u[19]     primal_lower151  375
    u[19]     primal_lower152  312
    u[19]     primal_lower153  293
    u[19]     primal_lower154  72
    u[19]     primal_lower155  40
    u[19]     primal_lower156  754
    u[19]     primal_lower157  785
    u[19]     primal_lower158  157
    u[19]     primal_lower159  130
    u[19]     primal_lower160  134
    u[19]     primal_lower161  968
    u[19]     primal_lower162  106
    u[19]     primal_lower163  501
    u[19]     primal_lower164  915
    u[19]     primal_lower165  872
    u[19]     primal_lower166  929
    u[19]     primal_lower167  923
    u[19]     primal_lower168  964
    u[19]     primal_lower169  220
    u[19]     primal_lower170  628
    u[19]     primal_lower171  802
    u[19]     primal_lower172  932
    u[19]     primal_lower173  680
    u[19]     primal_lower174  513
    u[19]     primal_lower175  376
    u[19]     primal_lower176  80
    u[19]     primal_lower177  297
    u[19]     primal_lower178  893
    u[19]     primal_lower179  348
    u[19]     primal_lower180  80
    u[19]     primal_lower181  334
    u[19]     primal_lower182  245
    u[19]     primal_lower183  601
    u[19]     primal_lower184  113
    u[19]     primal_lower185  455
    u[19]     primal_lower186  903
    u[19]     primal_lower187  874
    u[19]     primal_lower188  428
    u[19]     primal_lower189  963
    u[19]     primal_lower190  239
    u[19]     primal_lower191  427
    u[19]     primal_lower192  105
    u[19]     primal_lower193  933
    u[19]     primal_lower194  15
    u[19]     primal_lower195  446
    u[19]     primal_lower196  740
    u[19]     primal_lower197  254
    u[19]     primal_lower198  541
    u[19]     primal_lower199  933
    u[19]     primal_lower200  559
    u[19]     primal_lower201  209
    u[19]     primal_lower202  438
    u[19]     primal_lower203  546
    u[19]     primal_lower204  247
    u[19]     primal_lower205  293
    u[19]     primal_lower206  340
    u[19]     primal_lower207  119
    u[19]     primal_lower208  279
    u[19]     primal_lower209  108
    u[19]     primal_lower210  194
    u[19]     primal_lower211  876
    u[19]     primal_lower212  109
    u[19]     primal_lower213  167
    u[19]     primal_lower214  902
    u[19]     primal_lower215  555
    u[19]     primal_lower216  312
    u[19]     primal_lower217  949
    u[19]     primal_lower218  398
    u[19]     primal_lower219  614
    u[19]     primal_lower220  470
    u[19]     primal_lower221  992
    u[19]     primal_lower222  350
    u[19]     primal_lower223  503
    u[19]     primal_lower224  422
    u[19]     primal_lower225  294
    u[19]     primal_lower226  866
    u[19]     primal_lower227  31
    u[19]     primal_lower228  214
    u[19]     primal_lower229  5
    u[19]     primal_lower230  95
    u[19]     primal_lower231  823
    u[19]     primal_lower232  820
    u[19]     primal_lower233  189
    u[19]     primal_lower234  814
    u[19]     primal_lower235  566
    u[19]     primal_lower236  975
    u[19]     primal_lower237  287
    u[19]     primal_lower238  800
    u[19]     primal_lower239  700
    u[19]     primal_lower240  378
    u[19]     primal_lower241  357
    u[19]     primal_lower242  353
    u[19]     primal_lower243  192
    u[19]     primal_lower244  928
    u[19]     primal_lower245  349
    u[19]     primal_lower246  352
    u[19]     primal_lower247  556
    u[19]     primal_lower248  720
    u[19]     primal_lower249  129
    u[19]     primal_lower250  698
    u[19]     primal_lower251  58
    u[19]     primal_lower252  623
    u[19]     primal_lower253  88
    u[19]     primal_lower254  27
    u[19]     primal_lower255  767
    u[19]     primal_lower256  398
    u[19]     primal_lower257  803
    u[19]     primal_lower258  464
    u[19]     primal_lower259  83
    u[19]     primal_lower260  739
    u[19]     primal_lower261  28
    u[19]     primal_lower262  944
    u[19]     primal_lower263  326
    u[19]     primal_lower264  417
    u[19]     primal_lower265  935
    u[19]     primal_lower266  246
    u[19]     primal_lower267  844
    u[19]     primal_lower268  774
    u[19]     primal_lower269  738
    u[19]     primal_lower270  691
    u[19]     primal_lower271  423
    u[19]     primal_lower272  573
    u[19]     primal_lower273  662
    u[19]     primal_lower274  575
    u[19]     primal_lower275  283
    u[19]     primal_lower276  852
    u[19]     primal_lower277  897
    u[19]     primal_lower278  801
    u[19]     primal_lower279  491
    u[19]     primal_lower280  786
    u[19]     primal_lower281  175
    u[19]     primal_lower282  177
    u[19]     primal_lower283  256
    u[19]     primal_lower284  316
    u[19]     primal_lower285  67
    u[19]     primal_lower286  898
    u[19]     primal_lower287  126
    u[19]     primal_lower288  298
    u[19]     primal_lower289  217
    u[19]     primal_lower290  706
    u[19]     primal_lower291  756
    u[19]     primal_lower292  588
    u[19]     primal_lower293  696
    u[19]     primal_lower294  57
    u[19]     primal_lower295  525
    u[19]     primal_lower296  177
    u[19]     primal_lower297  966
    u[19]     primal_lower298  484
    u[19]     primal_lower299  22
    u[19]     primal_lower300  510
    u[19]     primal_lower301  77
    u[19]     primal_lower302  400
    u[19]     primal_lower303  46
    u[19]     primal_lower304  738
    u[19]     primal_lower305  558
    u[19]     primal_lower306  224
    u[19]     primal_lower307  576
    u[19]     primal_lower308  204
    u[19]     primal_lower309  330
    u[19]     primal_lower310  241
    u[19]     primal_lower311  267
    u[19]     primal_lower312  571
    u[19]     primal_lower313  98
    u[19]     primal_lower314  899
    u[19]     primal_lower315  230
    u[19]     primal_lower316  326
    u[19]     primal_lower317  247
    u[19]     primal_lower318  607
    u[19]     primal_lower319  868
    u[19]     primal_lower320  357
    u[19]     primal_lower321  30
    u[19]     primal_lower322  534
    u[19]     primal_lower323  902
    u[19]     primal_lower324  626
    u[19]     primal_lower325  732
    u[19]     primal_lower326  783
    u[19]     primal_lower327  250
    u[19]     primal_lower328  575
    u[19]     primal_lower329  699
    u[19]     primal_lower330  891
    u[19]     primal_lower331  955
    u[19]     primal_lower332  436
    u[19]     primal_lower333  256
    u[19]     primal_lower334  707
    u[19]     primal_lower335  482
    u[19]     primal_lower336  721
    u[19]     primal_lower337  801
    u[19]     primal_lower338  129
    u[19]     primal_lower339  831
    u[19]     primal_lower340  120
    u[19]     primal_lower341  344
    u[19]     primal_lower342  709
    u[19]     primal_lower343  988
    u[19]     primal_lower344  575
    u[19]     primal_lower345  370
    u[19]     primal_lower346  922
    u[19]     primal_lower347  6
    u[19]     primal_lower348  365
    u[19]     primal_lower349  959
    u[19]     primal_lower350  553
    u[19]     primal_lower351  922
    u[19]     primal_lower352  83
    u[19]     primal_lower353  370
    u[19]     primal_lower354  141
    u[19]     primal_lower355  827
    u[19]     primal_lower356  793
    u[19]     primal_lower357  936
    u[19]     primal_lower358  766
    u[19]     primal_lower359  21
    u[19]     primal_lower360  61
    u[19]     primal_lower361  907
    u[19]     primal_lower362  517
    u[19]     primal_lower363  328
    u[19]     primal_lower364  809
    u[19]     primal_lower365  291
    u[19]     primal_lower366  449
    u[19]     primal_lower367  667
    u[19]     primal_lower368  961
    u[19]     primal_lower369  349
    u[19]     primal_lower370  105
    u[19]     primal_lower371  765
    u[19]     primal_lower372  397
    u[19]     primal_lower373  194
    u[19]     primal_lower374  149
    u[19]     primal_lower375  710
    u[19]     primal_lower376  894
    u[19]     primal_lower377  382
    u[19]     primal_lower378  638
    u[19]     primal_lower379  98
    u[19]     primal_lower380  319
    u[19]     primal_lower381  482
    u[19]     primal_lower382  200
    u[19]     primal_lower383  175
    u[19]     primal_lower384  783
    u[19]     primal_lower385  508
    u[19]     primal_lower386  647
    u[19]     primal_lower387  652
    u[19]     primal_lower388  390
    u[19]     primal_lower389  229
    u[19]     primal_lower390  265
    u[19]     primal_lower391  175
    u[19]     primal_lower392  906
    u[19]     primal_lower393  556
    u[19]     primal_lower394  780
    u[19]     primal_lower395  557
    u[19]     primal_lower396  336
    u[19]     primal_lower397  888
    u[19]     primal_lower398  564
    u[19]     primal_lower399  291
    u[19]     primal_lower400  562
    u[19]     primal_lower401  492
    u[19]     primal_lower402  116
    u[19]     primal_lower403  965
    u[19]     primal_lower404  423
    u[19]     primal_lower405  19
    u[19]     primal_lower406  577
    u[19]     primal_lower407  659
    u[19]     primal_lower408  506
    u[19]     primal_lower409  494
    u[19]     primal_lower410  837
    u[19]     primal_lower411  83
    u[19]     primal_lower412  88
    u[19]     primal_lower413  40
    u[19]     primal_lower414  768
    u[19]     primal_lower415  754
    u[19]     primal_lower416  348
    u[19]     primal_lower417  302
    u[19]     primal_lower418  112
    u[19]     primal_lower419  311
    u[19]     primal_lower420  659
    u[19]     primal_lower421  953
    u[19]     primal_lower422  54
    u[19]     primal_lower423  798
    u[19]     primal_lower424  720
    u[19]     primal_lower425  865
    u[19]     primal_lower426  920
    u[19]     primal_lower427  454
    u[19]     primal_lower428  886
    u[19]     primal_lower429  809
    u[19]     primal_lower430  806
    u[19]     primal_lower431  508
    u[19]     primal_lower432  153
    u[19]     primal_lower433  633
    u[19]     primal_lower434  176
    u[19]     primal_lower435  702
    u[19]     primal_lower436  405
    u[19]     primal_lower437  33
    u[19]     primal_lower438  771
    u[19]     primal_lower439  2
    u[19]     primal_lower440  284
    u[19]     primal_lower441  160
    u[19]     primal_lower442  775
    u[19]     primal_lower443  858
    u[19]     primal_lower444  429
    u[19]     primal_lower445  730
    u[19]     primal_lower446  675
    u[19]     primal_lower447  495
    u[19]     primal_lower448  446
    u[19]     primal_lower449  736
    u[19]     primal_lower450  251
    u[19]     primal_lower451  707
    u[19]     primal_lower452  710
    u[19]     primal_lower453  829
    u[19]     primal_lower454  493
    u[19]     primal_lower455  579
    u[19]     primal_lower456  170
    u[19]     primal_lower457  552
    u[19]     primal_lower458  987
    u[19]     primal_lower459  310
    u[19]     primal_lower460  964
    u[19]     primal_lower461  621
    u[19]     primal_lower462  210
    u[19]     primal_lower463  605
    u[19]     primal_lower464  381
    u[19]     primal_lower465  96
    u[19]     primal_lower466  441
    u[19]     primal_lower467  527
    u[19]     primal_lower468  871
    u[19]     primal_lower469  676
    u[19]     primal_lower470  560
    u[19]     primal_lower471  679
    u[19]     primal_lower472  428
    u[19]     primal_lower473  380
    u[19]     primal_lower474  723
    u[19]     primal_lower475  878
    u[19]     primal_lower476  447
    u[19]     primal_lower477  182
    u[19]     primal_lower478  512
    u[19]     primal_lower479  668
    u[19]     primal_lower480  841
    u[19]     primal_lower481  646
    u[19]     primal_lower482  53
    u[19]     primal_lower483  791
    u[19]     primal_lower484  545
    u[19]     primal_lower485  765
    u[19]     primal_lower486  483
    u[19]     primal_lower487  968
    u[19]     primal_lower488  123
    u[19]     primal_lower489  938
    u[19]     primal_lower490  704
    u[19]     primal_lower491  294
    u[19]     primal_lower492  743
    u[19]     primal_lower493  231
    u[19]     primal_lower494  656
    u[19]     primal_lower495  994
    u[19]     primal_lower496  634
    u[19]     primal_lower497  927
    u[19]     primal_lower498  919
    u[19]     primal_lower499  44
    u[19]     primal_lower500  634
    u[19]     primal_lower501  805
    u[19]     primal_lower502  574
    u[19]     primal_lower503  597
    u[19]     primal_lower504  438
    u[19]     primal_lower505  994
    u[19]     primal_lower506  27
    u[19]     primal_lower507  560
    u[19]     primal_lower508  919
    u[19]     primal_lower509  901
    u[19]     primal_lower510  749
    u[19]     primal_lower511  119
    u[19]     primal_lower512  926
    u[19]     primal_lower513  771
    u[19]     primal_lower514  3
    u[19]     primal_lower515  811
    u[19]     primal_lower516  37
    u[19]     primal_lower517  435
    u[19]     primal_lower518  46
    u[19]     primal_lower519  641
    u[19]     primal_lower520  35
    u[19]     primal_lower521  310
    u[19]     primal_lower522  104
    u[19]     primal_lower523  343
    u[19]     primal_lower524  523
    u[19]     primal_lower525  952
    u[19]     primal_lower526  566
    u[19]     primal_lower527  441
    u[19]     primal_lower528  851
    u[19]     primal_lower529  55
    u[19]     primal_lower530  876
    u[19]     primal_lower531  113
    u[19]     primal_lower532  365
    u[19]     primal_lower533  270
    u[19]     primal_lower534  301
    u[19]     primal_lower535  428
    u[19]     primal_lower536  949
    u[19]     primal_lower537  688
    u[19]     primal_lower538  497
    u[19]     primal_lower539  185
    u[19]     primal_lower540  60
    u[19]     primal_lower541  990
    u[19]     primal_lower542  891
    u[19]     primal_lower543  227
    u[19]     primal_lower544  584
    u[19]     primal_lower545  103
    u[19]     primal_lower546  660
    u[19]     primal_lower547  28
    u[19]     primal_lower548  887
    u[19]     primal_lower549  640
    u[19]     primal_lower550  80
    u[19]     primal_lower551  883
    u[19]     primal_lower552  581
    u[19]     primal_lower553  1
    u[19]     primal_lower554  207
    u[19]     primal_lower555  700
    u[19]     primal_lower556  450
    u[19]     primal_lower557  100
    u[19]     primal_lower558  537
    u[19]     primal_lower559  277
    u[19]     primal_lower560  891
    u[19]     primal_lower561  536
    u[19]     primal_lower562  922
    u[19]     primal_lower563  843
    u[19]     primal_lower564  584
    u[19]     primal_lower565  823
    u[19]     primal_lower566  353
    u[19]     primal_lower567  808
    u[19]     primal_lower568  418
    u[19]     primal_lower569  997
    u[19]     primal_lower570  945
    u[19]     primal_lower571  539
    u[19]     primal_lower572  512
    u[19]     primal_lower573  57
    u[19]     primal_lower574  192
    u[19]     primal_lower575  613
    u[19]     primal_lower576  457
    u[19]     primal_lower577  48
    u[19]     primal_lower578  919
    u[19]     primal_lower579  685
    u[19]     primal_lower580  722
    u[19]     primal_lower581  812
    u[19]     primal_lower582  198
    u[19]     primal_lower583  18
    u[19]     primal_lower584  551
    u[19]     primal_lower585  237
    u[19]     primal_lower586  107
    u[19]     primal_lower587  826
    u[19]     primal_lower588  240
    u[19]     primal_lower589  865
    u[19]     primal_lower590  806
    u[19]     primal_lower591  594
    u[19]     primal_lower592  782
    u[19]     primal_lower593  996
    u[19]     primal_lower594  166
    u[19]     primal_lower595  139
    u[19]     primal_lower596  602
    u[19]     primal_lower597  887
    u[19]     primal_lower598  697
    u[19]     primal_lower599  508
    u[19]     primal_lower600  925
    u[19]     primal_lower601  467
    u[19]     primal_lower602  84
    u[19]     primal_lower603  403
    u[19]     primal_lower604  347
    u[19]     primal_lower605  961
    u[19]     primal_lower606  303
    u[19]     primal_lower607  685
    u[19]     primal_lower608  636
    u[19]     primal_lower609  163
    u[19]     primal_lower610  987
    u[19]     primal_lower611  974
    u[19]     primal_lower612  554
    u[19]     primal_lower613  884
    u[19]     primal_lower614  759
    u[19]     primal_lower615  368
    u[19]     primal_lower616  10
    u[19]     primal_lower617  172
    u[19]     primal_lower618  163
    u[19]     primal_lower619  292
    u[19]     primal_lower620  118
    u[19]     primal_lower621  866
    u[19]     primal_lower622  599
    u[19]     primal_lower623  177
    u[19]     primal_lower624  490
    u[19]     primal_lower625  384
    u[19]     primal_lower626  629
    u[19]     primal_lower627  702
    u[19]     primal_lower628  988
    u[19]     primal_lower629  332
    u[19]     primal_lower630  880
    u[19]     primal_lower631  109
    u[19]     primal_lower632  323
    u[19]     primal_lower633  845
    u[19]     primal_lower634  139
    u[19]     primal_lower635  730
    u[19]     primal_lower636  213
    u[19]     primal_lower637  208
    u[19]     primal_lower638  220
    u[19]     primal_lower639  51
    u[19]     primal_lower640  287
    u[19]     primal_lower641  981
    u[19]     primal_lower642  628
    u[19]     primal_lower643  628
    u[19]     primal_lower644  413
    u[19]     primal_lower645  13
    u[19]     primal_lower646  906
    u[19]     primal_lower647  536
    u[19]     primal_lower648  229
    u[19]     primal_lower649  484
    u[19]     primal_lower650  33
    u[19]     primal_lower651  552
    u[19]     primal_lower652  977
    u[19]     primal_lower653  415
    u[19]     primal_lower654  752
    u[19]     primal_lower655  120
    u[19]     primal_lower656  444
    u[19]     primal_lower657  526
    u[19]     primal_lower658  408
    u[19]     primal_lower659  709
    u[19]     primal_lower660  561
    u[19]     primal_lower661  330
    u[19]     primal_lower662  102
    u[19]     primal_lower663  554
    u[19]     primal_lower664  78
    u[19]     primal_lower665  100
    u[19]     primal_lower666  790
    u[19]     primal_lower667  113
    u[19]     primal_lower668  838
    u[19]     primal_lower669  52
    u[19]     primal_lower670  916
    u[19]     primal_lower671  509
    u[19]     primal_lower672  58
    u[19]     primal_lower673  935
    u[19]     primal_lower674  447
    u[19]     primal_lower675  649
    u[19]     primal_lower676  303
    u[19]     primal_lower677  342
    u[19]     primal_lower678  453
    u[19]     primal_lower679  442
    u[19]     primal_lower680  620
    u[19]     primal_lower681  308
    u[19]     primal_lower682  762
    u[19]     primal_lower683  223
    u[19]     primal_lower684  638
    u[19]     primal_lower685  53
    u[19]     primal_lower686  141
    u[19]     primal_lower687  105
    u[19]     primal_lower688  720
    u[19]     primal_lower689  758
    u[19]     primal_lower690  969
    u[19]     primal_lower691  766
    u[19]     primal_lower692  639
    u[19]     primal_lower693  191
    u[19]     primal_lower694  785
    u[19]     primal_lower695  933
    u[19]     primal_lower696  309
    u[19]     primal_lower697  206
    u[19]     primal_lower698  522
    u[19]     primal_lower699  747
    u[19]     primal_lower700  422
    u[19]     primal_lower701  864
    u[19]     primal_lower702  203
    u[19]     primal_lower703  869
    u[19]     primal_lower704  720
    u[19]     primal_lower705  53
    u[19]     primal_lower706  968
    u[19]     primal_lower707  296
    u[19]     primal_lower708  903
    u[19]     primal_lower709  3
    u[19]     primal_lower710  49
    u[19]     primal_lower711  859
    u[19]     primal_lower712  258
    u[19]     primal_lower713  738
    u[19]     primal_lower714  655
    u[19]     primal_lower715  433
    u[19]     primal_lower716  71
    u[19]     primal_lower717  209
    u[19]     primal_lower718  503
    u[19]     primal_lower719  781
    u[19]     primal_lower720  957
    u[19]     primal_lower721  303
    u[19]     primal_lower722  756
    u[19]     primal_lower723  542
    u[19]     primal_lower724  61
    u[19]     primal_lower725  718
    u[19]     primal_lower726  514
    u[19]     primal_lower727  708
    u[19]     primal_lower728  756
    u[19]     primal_lower729  753
    u[19]     primal_lower730  819
    u[19]     primal_lower731  798
    u[19]     primal_lower732  184
    u[19]     primal_lower733  656
    u[19]     primal_lower734  487
    u[19]     primal_lower735  665
    u[19]     primal_lower736  205
    u[19]     primal_lower737  969
    u[19]     primal_lower738  113
    u[19]     primal_lower739  680
    u[19]     primal_lower740  232
    u[19]     primal_lower741  948
    u[19]     primal_lower742  213
    u[19]     primal_lower743  470
    u[19]     primal_lower744  1000
    u[19]     primal_lower745  649
    u[19]     primal_lower746  374
    u[19]     primal_lower747  623
    u[19]     primal_lower748  176
    u[19]     primal_lower749  597
    u[19]     primal_lower750  782
    u[19]     primal_lower751  13
    u[19]     primal_lower752  39
    u[19]     primal_lower753  610
    u[19]     primal_lower754  758
    u[19]     primal_lower755  835
    u[19]     primal_lower756  364
    u[19]     primal_lower757  874
    u[19]     primal_lower758  310
    u[19]     primal_lower759  821
    u[19]     primal_lower760  364
    u[19]     primal_lower761  588
    u[19]     primal_lower762  351
    u[19]     primal_lower763  96
    u[19]     primal_lower764  274
    u[19]     primal_lower765  436
    u[19]     primal_lower766  850
    u[19]     primal_lower767  790
    u[19]     primal_lower768  347
    u[19]     primal_lower769  651
    u[19]     primal_lower770  145
    u[19]     primal_lower771  438
    u[19]     primal_lower772  801
    u[19]     primal_lower773  528
    u[19]     primal_lower774  232
    u[19]     primal_lower775  790
    u[19]     primal_lower776  17
    u[19]     primal_lower777  212
    u[19]     primal_lower778  93
    u[19]     primal_lower779  618
    u[19]     primal_lower780  231
    u[19]     primal_lower781  167
    u[19]     primal_lower782  109
    u[19]     primal_lower783  902
    u[19]     primal_lower784  87
    u[19]     primal_lower785  133
    u[19]     primal_lower786  541
    u[19]     primal_lower787  878
    u[19]     primal_lower788  408
    u[19]     primal_lower789  121
    u[19]     primal_lower790  655
    u[19]     primal_lower791  461
    u[19]     primal_lower792  375
    u[19]     primal_lower793  826
    u[19]     primal_lower794  802
    u[19]     primal_lower795  138
    u[19]     primal_lower796  501
    u[19]     primal_lower797  662
    u[19]     primal_lower798  469
    u[19]     primal_lower799  571
    u[19]     primal_lower800  164
    u[19]     primal_lower801  359
    u[19]     primal_lower802  395
    u[19]     primal_lower803  659
    u[19]     primal_lower804  941
    u[19]     primal_lower805  794
    u[19]     primal_lower806  192
    u[19]     primal_lower807  607
    u[19]     primal_lower808  315
    u[19]     primal_lower809  838
    u[19]     primal_lower810  794
    u[19]     primal_lower811  277
    u[19]     primal_lower812  874
    u[19]     primal_lower813  428
    u[19]     primal_lower814  9
    u[19]     primal_lower815  68
    u[19]     primal_lower816  818
    u[19]     primal_lower817  457
    u[19]     primal_lower818  320
    u[19]     primal_lower819  912
    u[19]     primal_lower820  791
    u[19]     primal_lower821  430
    u[19]     primal_lower822  587
    u[19]     primal_lower823  886
    u[19]     primal_lower824  317
    u[19]     primal_lower825  295
    u[19]     primal_lower826  844
    u[19]     primal_lower827  933
    u[19]     primal_lower828  60
    u[19]     primal_lower829  760
    u[19]     primal_lower830  317
    u[19]     primal_lower831  348
    u[19]     primal_lower832  951
    u[19]     primal_lower833  503
    u[19]     primal_lower834  963
    u[19]     primal_lower835  162
    u[19]     primal_lower836  236
    u[19]     primal_lower837  31
    u[19]     primal_lower838  641
    u[19]     primal_lower839  965
    u[19]     primal_lower840  420
    u[19]     primal_lower841  378
    u[19]     primal_lower842  830
    u[19]     primal_lower843  815
    u[19]     primal_lower844  599
    u[19]     primal_lower845  924
    u[19]     primal_lower846  980
    u[19]     primal_lower847  172
    u[19]     primal_lower848  810
    u[19]     primal_lower849  459
    u[19]     primal_lower850  709
    u[19]     primal_lower851  658
    u[19]     primal_lower852  25
    u[19]     primal_lower853  315
    u[19]     primal_lower854  716
    u[19]     primal_lower855  870
    u[19]     primal_lower856  451
    u[19]     primal_lower857  517
    u[19]     primal_lower858  740
    u[19]     primal_lower859  986
    u[19]     primal_lower860  78
    u[19]     primal_lower861  744
    u[19]     primal_lower862  688
    u[19]     primal_lower863  181
    u[19]     primal_lower864  182
    u[19]     primal_lower865  831
    u[19]     primal_lower866  695
    u[19]     primal_lower867  931
    u[19]     primal_lower868  225
    u[19]     primal_lower869  954
    u[19]     primal_lower870  542
    u[19]     primal_lower871  654
    u[19]     primal_lower872  747
    u[19]     primal_lower873  503
    u[19]     primal_lower874  178
    u[19]     primal_lower875  744
    u[19]     primal_lower876  16
    u[19]     primal_lower877  392
    u[19]     primal_lower878  889
    u[19]     primal_lower879  523
    u[19]     primal_lower880  183
    u[19]     primal_lower881  463
    u[19]     primal_lower882  795
    u[19]     primal_lower883  708
    u[19]     primal_lower884  66
    u[19]     primal_lower885  368
    u[19]     primal_lower886  565
    u[19]     primal_lower887  172
    u[19]     primal_lower888  898
    u[19]     primal_lower889  802
    u[19]     primal_lower890  187
    u[19]     primal_lower891  275
    u[19]     primal_lower892  193
    u[19]     primal_lower893  185
    u[19]     primal_lower894  20
    u[19]     primal_lower895  550
    u[19]     primal_lower896  182
    u[19]     primal_lower897  636
    u[19]     primal_lower898  293
    u[19]     primal_lower899  823
    u[19]     primal_lower900  423
    u[19]     primal_lower901  607
    u[19]     primal_lower902  298
    u[19]     primal_lower903  244
    u[19]     primal_lower904  203
    u[19]     primal_lower905  852
    u[19]     primal_lower906  537
    u[19]     primal_lower907  162
    u[19]     primal_lower908  905
    u[19]     primal_lower909  485
    u[19]     primal_lower910  53
    u[19]     primal_lower911  868
    u[19]     primal_lower912  541
    u[19]     primal_lower913  499
    u[19]     primal_lower914  490
    u[19]     primal_lower915  576
    u[19]     primal_lower916  222
    u[19]     primal_lower917  239
    u[19]     primal_lower918  520
    u[19]     primal_lower919  702
    u[19]     primal_lower920  565
    u[19]     primal_lower921  913
    u[19]     primal_lower922  638
    u[19]     primal_lower923  853
    u[19]     primal_lower924  330
    u[19]     primal_lower925  370
    u[19]     primal_lower926  267
    u[19]     primal_lower927  305
    u[19]     primal_lower928  746
    u[19]     primal_lower929  397
    u[19]     primal_lower930  84
    u[19]     primal_lower931  439
    u[19]     primal_lower932  512
    u[19]     primal_lower933  475
    u[19]     primal_lower934  13
    u[19]     primal_lower935  838
    u[19]     primal_lower936  89
    u[19]     primal_lower937  697
    u[19]     primal_lower938  783
    u[19]     primal_lower939  506
    u[19]     primal_lower940  305
    u[19]     primal_lower941  134
    u[19]     primal_lower942  22
    u[19]     primal_lower943  358
    u[19]     primal_lower944  992
    u[19]     primal_lower945  431
    u[19]     primal_lower946  792
    u[19]     primal_lower947  484
    u[19]     primal_lower948  277
    u[19]     primal_lower949  842
    u[19]     primal_lower950  518
    u[19]     primal_lower951  230
    u[19]     primal_lower952  417
    u[19]     primal_lower953  860
    u[19]     primal_lower954  595
    u[19]     primal_lower955  769
    u[19]     primal_lower956  891
    u[19]     primal_lower957  824
    u[19]     primal_lower958  247
    u[19]     primal_lower959  531
    u[19]     primal_lower960  328
    u[19]     primal_lower961  350
    u[19]     primal_lower962  596
    u[19]     primal_lower963  146
    u[19]     primal_lower964  694
    u[19]     primal_lower965  814
    u[19]     primal_lower966  718
    u[19]     primal_lower967  421
    u[19]     primal_lower968  307
    u[19]     primal_lower969  100
    u[19]     primal_lower970  5
    u[19]     primal_lower971  493
    u[19]     primal_lower972  408
    u[19]     primal_lower973  923
    u[19]     primal_lower974  390
    u[19]     primal_lower975  43
    u[19]     primal_lower976  762
    u[19]     primal_lower977  107
    u[19]     primal_lower978  194
    u[19]     primal_lower979  700
    u[19]     primal_lower980  326
    u[19]     primal_lower981  242
    u[19]     primal_lower982  77
    u[19]     primal_lower983  533
    u[19]     primal_lower984  746
    u[19]     primal_lower985  513
    u[19]     primal_lower986  931
    u[19]     primal_lower987  902
    u[19]     primal_lower988  732
    u[19]     primal_lower989  954
    u[19]     primal_lower990  797
    u[19]     primal_lower991  887
    u[19]     primal_lower992  207
    u[19]     primal_lower993  486
    u[19]     primal_lower994  388
    u[19]     primal_lower995  94
    u[19]     primal_lower996  622
    u[19]     primal_lower997  985
    u[19]     primal_lower998  462
    u[19]     primal_lower999  454
    u[19]     interdiction[19]  1
    u[19]     mccormick1[19]  -1
    u[19]     mccormick3[19]  1
    z[0]      primal_upper  18
    z[0]      mccormick1[0]  1
    z[0]      mccormick2[0]  1
    z[0]      mccormick3[0]  -1
    z[1]      primal_upper  27
    z[1]      mccormick1[1]  1
    z[1]      mccormick2[1]  1
    z[1]      mccormick3[1]  -1
    z[2]      primal_upper  52
    z[2]      mccormick1[2]  1
    z[2]      mccormick2[2]  1
    z[2]      mccormick3[2]  -1
    z[3]      primal_upper  78
    z[3]      mccormick1[3]  1
    z[3]      mccormick2[3]  1
    z[3]      mccormick3[3]  -1
    z[4]      primal_upper  70
    z[4]      mccormick1[4]  1
    z[4]      mccormick2[4]  1
    z[4]      mccormick3[4]  -1
    z[5]      primal_upper  37
    z[5]      mccormick1[5]  1
    z[5]      mccormick2[5]  1
    z[5]      mccormick3[5]  -1
    z[6]      primal_upper  6
    z[6]      mccormick1[6]  1
    z[6]      mccormick2[6]  1
    z[6]      mccormick3[6]  -1
    z[7]      primal_upper  23
    z[7]      mccormick1[7]  1
    z[7]      mccormick2[7]  1
    z[7]      mccormick3[7]  -1
    z[8]      primal_upper  17
    z[8]      mccormick1[8]  1
    z[8]      mccormick2[8]  1
    z[8]      mccormick3[8]  -1
    z[9]      primal_upper  54
    z[9]      mccormick1[9]  1
    z[9]      mccormick2[9]  1
    z[9]      mccormick3[9]  -1
    z[10]     primal_upper  51
    z[10]     mccormick1[10]  1
    z[10]     mccormick2[10]  1
    z[10]     mccormick3[10]  -1
    z[11]     primal_upper  4
    z[11]     mccormick1[11]  1
    z[11]     mccormick2[11]  1
    z[11]     mccormick3[11]  -1
    z[12]     primal_upper  58
    z[12]     mccormick1[12]  1
    z[12]     mccormick2[12]  1
    z[12]     mccormick3[12]  -1
    z[13]     primal_upper  67
    z[13]     mccormick1[13]  1
    z[13]     mccormick2[13]  1
    z[13]     mccormick3[13]  -1
    z[14]     primal_upper  46
    z[14]     mccormick1[14]  1
    z[14]     mccormick2[14]  1
    z[14]     mccormick3[14]  -1
    z[15]     primal_upper  14
    z[15]     mccormick1[15]  1
    z[15]     mccormick2[15]  1
    z[15]     mccormick3[15]  -1
    z[16]     primal_upper  41
    z[16]     mccormick1[16]  1
    z[16]     mccormick2[16]  1
    z[16]     mccormick3[16]  -1
    z[17]     primal_upper  38
    z[17]     mccormick1[17]  1
    z[17]     mccormick2[17]  1
    z[17]     mccormick3[17]  -1
    z[18]     primal_upper  46
    z[18]     mccormick1[18]  1
    z[18]     mccormick2[18]  1
    z[18]     mccormick3[18]  -1
    z[19]     primal_upper  37
    z[19]     mccormick1[19]  1
    z[19]     mccormick2[19]  1
    z[19]     mccormick3[19]  -1
    MARKER    'MARKER'                 'INTEND'
RHS
    RHS1      primal_upper  1567
    RHS1      primal_lower0  1958
    RHS1      primal_lower1  4152
    RHS1      primal_lower2  2141
    RHS1      primal_lower3  908
    RHS1      primal_lower4  939
    RHS1      primal_lower5  953
    RHS1      primal_lower6  949
    RHS1      primal_lower7  3284
    RHS1      primal_lower8  3536
    RHS1      primal_lower9  3562
    RHS1      primal_lower10  3666
    RHS1      primal_lower11  6859
    RHS1      primal_lower12  948
    RHS1      primal_lower13  4660
    RHS1      primal_lower14  2585
    RHS1      primal_lower15  2078
    RHS1      primal_lower16  3699
    RHS1      primal_lower17  2110
    RHS1      primal_lower18  1980
    RHS1      primal_lower19  5184
    RHS1      primal_lower20  4535
    RHS1      primal_lower21  884
    RHS1      primal_lower22  1946
    RHS1      primal_lower23  4851
    RHS1      primal_lower24  2467
    RHS1      primal_lower25  848
    RHS1      primal_lower26  5124
    RHS1      primal_lower27  3821
    RHS1      primal_lower28  2311
    RHS1      primal_lower29  4614
    RHS1      primal_lower30  7806
    RHS1      primal_lower31  5452
    RHS1      primal_lower32  902
    RHS1      primal_lower33  3536
    RHS1      primal_lower34  2068
    RHS1      primal_lower35  4352
    RHS1      primal_lower36  1779
    RHS1      primal_lower37  3637
    RHS1      primal_lower38  4524
    RHS1      primal_lower39  5508
    RHS1      primal_lower40  997
    RHS1      primal_lower41  3338
    RHS1      primal_lower42  2500
    RHS1      primal_lower43  3520
    RHS1      primal_lower44  4001
    RHS1      primal_lower45  4315
    RHS1      primal_lower46  940
    RHS1      primal_lower47  980
    RHS1      primal_lower48  2018
    RHS1      primal_lower49  5523
    RHS1      primal_lower50  1905
    RHS1      primal_lower51  3672
    RHS1      primal_lower52  3097
    RHS1      primal_lower53  987
    RHS1      primal_lower54  2519
    RHS1      primal_lower55  4196
    RHS1      primal_lower56  2028
    RHS1      primal_lower57  2204
    RHS1      primal_lower58  1940
    RHS1      primal_lower59  1942
    RHS1      primal_lower60  2139
    RHS1      primal_lower61  4218
    RHS1      primal_lower62  4482
    RHS1      primal_lower63  4784
    RHS1      primal_lower64  7090
    RHS1      primal_lower65  4096
    RHS1      primal_lower66  3710
    RHS1      primal_lower67  3812
    RHS1      primal_lower68  1978
    RHS1      primal_lower69  1973
    RHS1      primal_lower70  1923
    RHS1      primal_lower71  4177
    RHS1      primal_lower72  6738
    RHS1      primal_lower73  972
    RHS1      primal_lower74  2220
    RHS1      primal_lower75  2327
    RHS1      primal_lower76  793
    RHS1      primal_lower77  2180
    RHS1      primal_lower78  4918
    RHS1      primal_lower79  1809
    RHS1      primal_lower80  2145
    RHS1      primal_lower81  1956
    RHS1      primal_lower82  3207
    RHS1      primal_lower83  969
    RHS1      primal_lower84  3516
    RHS1      primal_lower85  6507
    RHS1      primal_lower86  1326
    RHS1      primal_lower87  6813
    RHS1      primal_lower88  2021
    RHS1      primal_lower89  3995
    RHS1      primal_lower90  2531
    RHS1      primal_lower91  2088
    RHS1      primal_lower92  3260
    RHS1      primal_lower93  2366
    RHS1      primal_lower94  4189
    RHS1      primal_lower95  2918
    RHS1      primal_lower96  3714
    RHS1      primal_lower97  5004
    RHS1      primal_lower98  6434
    RHS1      primal_lower99  3796
    RHS1      primal_lower100  957
    RHS1      primal_lower101  4878
    RHS1      primal_lower102  1476
    RHS1      primal_lower103  3414
    RHS1      primal_lower104  881
    RHS1      primal_lower105  2067
    RHS1      primal_lower106  3523
    RHS1      primal_lower107  2044
    RHS1      primal_lower108  989
    RHS1      primal_lower109  7275
    RHS1      primal_lower110  1674
    RHS1      primal_lower111  1856
    RHS1      primal_lower112  880
    RHS1      primal_lower113  6249
    RHS1      primal_lower114  3385
    RHS1      primal_lower115  4408
    RHS1      primal_lower116  5631
    RHS1      primal_lower117  6476
    RHS1      primal_lower118  3908
    RHS1      primal_lower119  4262
    RHS1      primal_lower120  2042
    RHS1      primal_lower121  2108
    RHS1      primal_lower122  2210
    RHS1      primal_lower123  1718
    RHS1      primal_lower124  5800
    RHS1      primal_lower125  6399
    RHS1      primal_lower126  1940
    RHS1      primal_lower127  7312
    RHS1      primal_lower128  6271
    RHS1      primal_lower129  4221
    RHS1      primal_lower130  4201
    RHS1      primal_lower131  6612
    RHS1      primal_lower132  5442
    RHS1      primal_lower133  7075
    RHS1      primal_lower134  985
    RHS1      primal_lower135  1856
    RHS1      primal_lower136  6232
    RHS1      primal_lower137  5899
    RHS1      primal_lower138  947
    RHS1      primal_lower139  4646
    RHS1      primal_lower140  3935
    RHS1      primal_lower141  4842
    RHS1      primal_lower142  989
    RHS1      primal_lower143  3918
    RHS1      primal_lower144  3276
    RHS1      primal_lower145  2102
    RHS1      primal_lower146  975
    RHS1      primal_lower147  996
    RHS1      primal_lower148  2746
    RHS1      primal_lower149  987
    RHS1      primal_lower150  2136
    RHS1      primal_lower151  3609
    RHS1      primal_lower152  3857
    RHS1      primal_lower153  1956
    RHS1      primal_lower154  990
    RHS1      primal_lower155  3720
    RHS1      primal_lower156  1000
    RHS1      primal_lower157  979
    RHS1      primal_lower158  1635
    RHS1      primal_lower159  3989
    RHS1      primal_lower160  977
    RHS1      primal_lower161  7160
    RHS1      primal_lower162  919
    RHS1      primal_lower163  4249
    RHS1      primal_lower164  992
    RHS1      primal_lower165  954
    RHS1      primal_lower166  4160
    RHS1      primal_lower167  2493
    RHS1      primal_lower168  2132
    RHS1      primal_lower169  961
    RHS1      primal_lower170  2045
    RHS1      primal_lower171  1890
    RHS1      primal_lower172  5936
    RHS1      primal_lower173  4063
    RHS1      primal_lower174  2211
    RHS1      primal_lower175  2667
    RHS1      primal_lower176  4613
    RHS1      primal_lower177  4352
    RHS1      primal_lower178  893
    RHS1      primal_lower179  2112
    RHS1      primal_lower180  4990
    RHS1      primal_lower181  3550
    RHS1      primal_lower182  1629
    RHS1      primal_lower183  2013
    RHS1      primal_lower184  3018
    RHS1      primal_lower185  4359
    RHS1      primal_lower186  5411
    RHS1      primal_lower187  2336
    RHS1      primal_lower188  1829
    RHS1      primal_lower189  5337
    RHS1      primal_lower190  6481
    RHS1      primal_lower191  2146
    RHS1      primal_lower192  2398
    RHS1      primal_lower193  6236
    RHS1      primal_lower194  3703
    RHS1      primal_lower195  4091
    RHS1      primal_lower196  3960
    RHS1      primal_lower197  1686
    RHS1      primal_lower198  1776
    RHS1      primal_lower199  4186
    RHS1      primal_lower200  5116
    RHS1      primal_lower201  3840
    RHS1      primal_lower202  3784
    RHS1      primal_lower203  2289
    RHS1      primal_lower204  3849
    RHS1      primal_lower205  932
    RHS1      primal_lower206  4091
    RHS1      primal_lower207  4922
    RHS1      primal_lower208  4077
    RHS1      primal_lower209  1470
    RHS1      primal_lower210  3784
    RHS1      primal_lower211  2245
    RHS1      primal_lower212  891
    RHS1      primal_lower213  6332
    RHS1      primal_lower214  1514
    RHS1      primal_lower215  6366
    RHS1      primal_lower216  3678
    RHS1      primal_lower217  4166
    RHS1      primal_lower218  872
    RHS1      primal_lower219  937
    RHS1      primal_lower220  5859
    RHS1      primal_lower221  2298
    RHS1      primal_lower222  997
    RHS1      primal_lower223  4499
    RHS1      primal_lower224  2186
    RHS1      primal_lower225  3644
    RHS1      primal_lower226  6396
    RHS1      primal_lower227  5913
    RHS1      primal_lower228  1463
    RHS1      primal_lower229  7857
    RHS1      primal_lower230  769
    RHS1      primal_lower231  981
    RHS1      primal_lower232  7064
    RHS1      primal_lower233  1616
    RHS1      primal_lower234  4756
    RHS1      primal_lower235  1796
    RHS1      primal_lower236  3783
    RHS1      primal_lower237  892
    RHS1      primal_lower238  2426
    RHS1      primal_lower239  3716
    RHS1      primal_lower240  2040
    RHS1      primal_lower241  5030
    RHS1      primal_lower242  3735
    RHS1      primal_lower243  3112
    RHS1      primal_lower244  2162
    RHS1      primal_lower245  2440
    RHS1      primal_lower246  4168
    RHS1      primal_lower247  2385
    RHS1      primal_lower248  2153
    RHS1      primal_lower249  4384
    RHS1      primal_lower250  4495
    RHS1      primal_lower251  5389
    RHS1      primal_lower252  3172
    RHS1      primal_lower253  997
    RHS1      primal_lower254  1771
    RHS1      primal_lower255  5233
    RHS1      primal_lower256  2132
    RHS1      primal_lower257  2140
    RHS1      primal_lower258  5826
    RHS1      primal_lower259  977
    RHS1      primal_lower260  4028
    RHS1      primal_lower261  6752
    RHS1      primal_lower262  2470
    RHS1      primal_lower263  2444
    RHS1      primal_lower264  4144
    RHS1      primal_lower265  2222
    RHS1      primal_lower266  3028
    RHS1      primal_lower267  4466
    RHS1      primal_lower268  3820
    RHS1      primal_lower269  964
    RHS1      primal_lower270  4531
    RHS1      primal_lower271  7507
    RHS1      primal_lower272  2100
    RHS1      primal_lower273  4370
    RHS1      primal_lower274  4000
    RHS1      primal_lower275  2518
    RHS1      primal_lower276  1857
    RHS1      primal_lower277  2216
    RHS1      primal_lower278  2418
    RHS1      primal_lower279  1664
    RHS1      primal_lower280  4004
    RHS1      primal_lower281  1909
    RHS1      primal_lower282  934
    RHS1      primal_lower283  1614
    RHS1      primal_lower284  917
    RHS1      primal_lower285  982
    RHS1      primal_lower286  1804
    RHS1      primal_lower287  2558
    RHS1      primal_lower288  1983
    RHS1      primal_lower289  2264
    RHS1      primal_lower290  2058
    RHS1      primal_lower291  945
    RHS1      primal_lower292  2487
    RHS1      primal_lower293  4370
    RHS1      primal_lower294  7027
    RHS1      primal_lower295  1840
    RHS1      primal_lower296  3296
    RHS1      primal_lower297  1768
    RHS1      primal_lower298  3416
    RHS1      primal_lower299  3700
    RHS1      primal_lower300  4018
    RHS1      primal_lower301  915
    RHS1      primal_lower302  1767
    RHS1      primal_lower303  970
    RHS1      primal_lower304  1688
    RHS1      primal_lower305  4126
    RHS1      primal_lower306  1831
    RHS1      primal_lower307  978
    RHS1      primal_lower308  934
    RHS1      primal_lower309  933
    RHS1      primal_lower310  2531
    RHS1      primal_lower311  4119
    RHS1      primal_lower312  977
    RHS1      primal_lower313  1356
    RHS1      primal_lower314  2341
    RHS1      primal_lower315  3268
    RHS1      primal_lower316  2052
    RHS1      primal_lower317  3840
    RHS1      primal_lower318  4246
    RHS1      primal_lower319  2265
    RHS1      primal_lower320  2144
    RHS1      primal_lower321  986
    RHS1      primal_lower322  892
    RHS1      primal_lower323  5403
    RHS1      primal_lower324  4904
    RHS1      primal_lower325  1946
    RHS1      primal_lower326  4425
    RHS1      primal_lower327  5628
    RHS1      primal_lower328  4112
    RHS1      primal_lower329  2085
    RHS1      primal_lower330  911
    RHS1      primal_lower331  6265
    RHS1      primal_lower332  5047
    RHS1      primal_lower333  4399
    RHS1      primal_lower334  2027
    RHS1      primal_lower335  2055
    RHS1      primal_lower336  4464
    RHS1      primal_lower337  1971
    RHS1      primal_lower338  5487
    RHS1      primal_lower339  3782
    RHS1      primal_lower340  2593
    RHS1      primal_lower341  1985
    RHS1      primal_lower342  5598
    RHS1      primal_lower343  3676
    RHS1      primal_lower344  4659
    RHS1      primal_lower345  815
    RHS1      primal_lower346  4424
    RHS1      primal_lower347  3442
    RHS1      primal_lower348  6202
    RHS1      primal_lower349  2115
    RHS1      primal_lower350  2072
    RHS1      primal_lower351  4939
    RHS1      primal_lower352  1758
    RHS1      primal_lower353  2368
    RHS1      primal_lower354  927
    RHS1      primal_lower355  4448
    RHS1      primal_lower356  1856
    RHS1      primal_lower357  990
    RHS1      primal_lower358  4305
    RHS1      primal_lower359  4906
    RHS1      primal_lower360  4419
    RHS1      primal_lower361  1454
    RHS1      primal_lower362  978
    RHS1      primal_lower363  2263
    RHS1      primal_lower364  2474
    RHS1      primal_lower365  982
    RHS1      primal_lower366  956
    RHS1      primal_lower367  5550
    RHS1      primal_lower368  4071
    RHS1      primal_lower369  4125
    RHS1      primal_lower370  6806
    RHS1      primal_lower371  2261
    RHS1      primal_lower372  943
    RHS1      primal_lower373  5106
    RHS1      primal_lower374  1635
    RHS1      primal_lower375  3906
    RHS1      primal_lower376  1396
    RHS1      primal_lower377  975
    RHS1      primal_lower378  955
    RHS1      primal_lower379  3723
    RHS1      primal_lower380  989
    RHS1      primal_lower381  4056
    RHS1      primal_lower382  5178
    RHS1      primal_lower383  6110
    RHS1      primal_lower384  969
    RHS1      primal_lower385  7231
    RHS1      primal_lower386  2544
    RHS1      primal_lower387  2327
    RHS1      primal_lower388  4216
    RHS1      primal_lower389  2177
    RHS1      primal_lower390  1941
    RHS1      primal_lower391  2333
    RHS1      primal_lower392  984
    RHS1      primal_lower393  934
    RHS1      primal_lower394  4664
    RHS1      primal_lower395  4624
    RHS1      primal_lower396  2260
    RHS1      primal_lower397  4593
    RHS1      primal_lower398  1978
    RHS1      primal_lower399  1948
    RHS1      primal_lower400  2210
    RHS1      primal_lower401  2436
    RHS1      primal_lower402  4593
    RHS1      primal_lower403  975
    RHS1      primal_lower404  1649
    RHS1      primal_lower405  962
    RHS1      primal_lower406  3655
    RHS1      primal_lower407  858
    RHS1      primal_lower408  2621
    RHS1      primal_lower409  2028
    RHS1      primal_lower410  7867
    RHS1      primal_lower411  1000
    RHS1      primal_lower412  993
    RHS1      primal_lower413  4620
    RHS1      primal_lower414  3644
    RHS1      primal_lower415  991
    RHS1      primal_lower416  6136
    RHS1      primal_lower417  4995
    RHS1      primal_lower418  1536
    RHS1      primal_lower419  1886
    RHS1      primal_lower420  3693
    RHS1      primal_lower421  1992
    RHS1      primal_lower422  1751
    RHS1      primal_lower423  993
    RHS1      primal_lower424  1754
    RHS1      primal_lower425  5814
    RHS1      primal_lower426  4203
    RHS1      primal_lower427  809
    RHS1      primal_lower428  956
    RHS1      primal_lower429  4845
    RHS1      primal_lower430  6367
    RHS1      primal_lower431  3586
    RHS1      primal_lower432  800
    RHS1      primal_lower433  2054
    RHS1      primal_lower434  5728
    RHS1      primal_lower435  5992
    RHS1      primal_lower436  4786
    RHS1      primal_lower437  3372
    RHS1      primal_lower438  1675
    RHS1      primal_lower439  2260
    RHS1      primal_lower440  987
    RHS1      primal_lower441  2244
    RHS1      primal_lower442  4215
    RHS1      primal_lower443  4367
    RHS1      primal_lower444  935
    RHS1      primal_lower445  3755
    RHS1      primal_lower446  2152
    RHS1      primal_lower447  4575
    RHS1      primal_lower448  6132
    RHS1      primal_lower449  2065
    RHS1      primal_lower450  943
    RHS1      primal_lower451  3779
    RHS1      primal_lower452  1482
    RHS1      primal_lower453  983
    RHS1      primal_lower454  5066
    RHS1      primal_lower455  854
    RHS1      primal_lower456  2272
    RHS1      primal_lower457  975
    RHS1      primal_lower458  6470
    RHS1      primal_lower459  5944
    RHS1      primal_lower460  6915
    RHS1      primal_lower461  4627
    RHS1      primal_lower462  2135
    RHS1      primal_lower463  5875
    RHS1      primal_lower464  5011
    RHS1      primal_lower465  1776
    RHS1      primal_lower466  3367
    RHS1      primal_lower467  6529
    RHS1      primal_lower468  4609
    RHS1      primal_lower469  6885
    RHS1      primal_lower470  1730
    RHS1      primal_lower471  4060
    RHS1      primal_lower472  5269
    RHS1      primal_lower473  3912
    RHS1      primal_lower474  1486
    RHS1      primal_lower475  2591
    RHS1      primal_lower476  1803
    RHS1      primal_lower477  967
    RHS1      primal_lower478  6093
    RHS1      primal_lower479  3560
    RHS1      primal_lower480  867
    RHS1      primal_lower481  6957
    RHS1      primal_lower482  959
    RHS1      primal_lower483  2150
    RHS1      primal_lower484  1819
    RHS1      primal_lower485  4563
    RHS1      primal_lower486  5564
    RHS1      primal_lower487  2445
    RHS1      primal_lower488  1882
    RHS1      primal_lower489  3906
    RHS1      primal_lower490  3548
    RHS1      primal_lower491  3572
    RHS1      primal_lower492  3699
    RHS1      primal_lower493  2174
    RHS1      primal_lower494  4277
    RHS1      primal_lower495  1982
    RHS1      primal_lower496  984
    RHS1      primal_lower497  997
    RHS1      primal_lower498  4480
    RHS1      primal_lower499  4187
    RHS1      primal_lower500  1861
    RHS1      primal_lower501  2355
    RHS1      primal_lower502  4184
    RHS1      primal_lower503  4352
    RHS1      primal_lower504  4028
    RHS1      primal_lower505  4593
    RHS1      primal_lower506  6052
    RHS1      primal_lower507  1649
    RHS1      primal_lower508  6604
    RHS1      primal_lower509  5332
    RHS1      primal_lower510  6486
    RHS1      primal_lower511  4188
    RHS1      primal_lower512  2184
    RHS1      primal_lower513  2232
    RHS1      primal_lower514  2067
    RHS1      primal_lower515  3248
    RHS1      primal_lower516  3687
    RHS1      primal_lower517  2115
    RHS1      primal_lower518  989
    RHS1      primal_lower519  1692
    RHS1      primal_lower520  1729
    RHS1      primal_lower521  1821
    RHS1      primal_lower522  4219
    RHS1      primal_lower523  1436
    RHS1      primal_lower524  7124
    RHS1      primal_lower525  2061
    RHS1      primal_lower526  4542
    RHS1      primal_lower527  6145
    RHS1      primal_lower528  1762
    RHS1      primal_lower529  1729
    RHS1      primal_lower530  984
    RHS1      primal_lower531  1829
    RHS1      primal_lower532  3440
    RHS1      primal_lower533  978
    RHS1      primal_lower534  1355
    RHS1      primal_lower535  3108
    RHS1      primal_lower536  961
    RHS1      primal_lower537  6012
    RHS1      primal_lower538  4340
    RHS1      primal_lower539  1614
    RHS1      primal_lower540  1952
    RHS1      primal_lower541  4792
    RHS1      primal_lower542  4420
    RHS1      primal_lower543  6457
    RHS1      primal_lower544  1824
    RHS1      primal_lower545  1274
    RHS1      primal_lower546  832
    RHS1      primal_lower547  866
    RHS1      primal_lower548  3686
    RHS1      primal_lower549  867
    RHS1      primal_lower550  3634
    RHS1      primal_lower551  3843
    RHS1      primal_lower552  4327
    RHS1      primal_lower553  7110
    RHS1      primal_lower554  947
    RHS1      primal_lower555  1978
    RHS1      primal_lower556  1809
    RHS1      primal_lower557  3394
    RHS1      primal_lower558  5688
    RHS1      primal_lower559  1883
    RHS1      primal_lower560  2036
    RHS1      primal_lower561  983
    RHS1      primal_lower562  922
    RHS1      primal_lower563  5716
    RHS1      primal_lower564  6243
    RHS1      primal_lower565  1851
    RHS1      primal_lower566  4096
    RHS1      primal_lower567  4120
    RHS1      primal_lower568  1940
    RHS1      primal_lower569  997
    RHS1      primal_lower570  2448
    RHS1      primal_lower571  4041
    RHS1      primal_lower572  3762
    RHS1      primal_lower573  4749
    RHS1      primal_lower574  2635
    RHS1      primal_lower575  5430
    RHS1      primal_lower576  948
    RHS1      primal_lower577  2246
    RHS1      primal_lower578  6346
    RHS1      primal_lower579  4000
    RHS1      primal_lower580  983
    RHS1      primal_lower581  4229
    RHS1      primal_lower582  988
    RHS1      primal_lower583  3794
    RHS1      primal_lower584  2704
    RHS1      primal_lower585  3997
    RHS1      primal_lower586  4882
    RHS1      primal_lower587  4315
    RHS1      primal_lower588  5007
    RHS1      primal_lower589  1994
    RHS1      primal_lower590  2253
    RHS1      primal_lower591  2199
    RHS1      primal_lower592  1970
    RHS1      primal_lower593  2306
    RHS1      primal_lower594  1615
    RHS1      primal_lower595  4051
    RHS1      primal_lower596  880
    RHS1      primal_lower597  5688
    RHS1      primal_lower598  1749
    RHS1      primal_lower599  1793
    RHS1      primal_lower600  948
    RHS1      primal_lower601  4010
    RHS1      primal_lower602  4177
    RHS1      primal_lower603  984
    RHS1      primal_lower604  2107
    RHS1      primal_lower605  7051
    RHS1      primal_lower606  947
    RHS1      primal_lower607  931
    RHS1      primal_lower608  4094
    RHS1      primal_lower609  889
    RHS1      primal_lower610  987
    RHS1      primal_lower611  4707
    RHS1      primal_lower612  2177
    RHS1      primal_lower613  945
    RHS1      primal_lower614  3676
    RHS1      primal_lower615  5110
    RHS1      primal_lower616  2306
    RHS1      primal_lower617  2114
    RHS1      primal_lower618  3926
    RHS1      primal_lower619  4495
    RHS1      primal_lower620  3327
    RHS1      primal_lower621  951
    RHS1      primal_lower622  3065
    RHS1      primal_lower623  3843
    RHS1      primal_lower624  1799
    RHS1      primal_lower625  4555
    RHS1      primal_lower626  4022
    RHS1      primal_lower627  904
    RHS1      primal_lower628  1914
    RHS1      primal_lower629  2252
    RHS1      primal_lower630  2127
    RHS1      primal_lower631  770
    RHS1      primal_lower632  7574
    RHS1      primal_lower633  6302
    RHS1      primal_lower634  958
    RHS1      primal_lower635  2061
    RHS1      primal_lower636  1995
    RHS1      primal_lower637  902
    RHS1      primal_lower638  963
    RHS1      primal_lower639  993
    RHS1      primal_lower640  3466
    RHS1      primal_lower641  6340
    RHS1      primal_lower642  2145
    RHS1      primal_lower643  2717
    RHS1      primal_lower644  4390
    RHS1      primal_lower645  793
    RHS1      primal_lower646  4770
    RHS1      primal_lower647  2392
    RHS1      primal_lower648  3453
    RHS1      primal_lower649  987
    RHS1      primal_lower650  4041
    RHS1      primal_lower651  5797
    RHS1      primal_lower652  3728
    RHS1      primal_lower653  5884
    RHS1      primal_lower654  3924
    RHS1      primal_lower655  3464
    RHS1      primal_lower656  4079
    RHS1      primal_lower657  2122
    RHS1      primal_lower658  3089
    RHS1      primal_lower659  1936
    RHS1      primal_lower660  3904
    RHS1      primal_lower661  5301
    RHS1      primal_lower662  5858
    RHS1      primal_lower663  4284
    RHS1      primal_lower664  4098
    RHS1      primal_lower665  977
    RHS1      primal_lower666  3442
    RHS1      primal_lower667  981
    RHS1      primal_lower668  897
    RHS1      primal_lower669  3704
    RHS1      primal_lower670  5940
    RHS1      primal_lower671  6086
    RHS1      primal_lower672  3345
    RHS1      primal_lower673  2200
    RHS1      primal_lower674  2161
    RHS1      primal_lower675  3773
    RHS1      primal_lower676  3315
    RHS1      primal_lower677  1912
    RHS1      primal_lower678  1656
    RHS1      primal_lower679  902
    RHS1      primal_lower680  1953
    RHS1      primal_lower681  3352
    RHS1      primal_lower682  5888
    RHS1      primal_lower683  3575
    RHS1      primal_lower684  1788
    RHS1      primal_lower685  3594
    RHS1      primal_lower686  3866
    RHS1      primal_lower687  2154
    RHS1      primal_lower688  5152
    RHS1      primal_lower689  1481
    RHS1      primal_lower690  3734
    RHS1      primal_lower691  1442
    RHS1      primal_lower692  923
    RHS1      primal_lower693  953
    RHS1      primal_lower694  848
    RHS1      primal_lower695  2260
    RHS1      primal_lower696  6620
    RHS1      primal_lower697  2418
    RHS1      primal_lower698  911
    RHS1      primal_lower699  962
    RHS1      primal_lower700  3979
    RHS1      primal_lower701  4344
    RHS1      primal_lower702  5217
    RHS1      primal_lower703  1745
    RHS1      primal_lower704  942
    RHS1      primal_lower705  1416
    RHS1      primal_lower706  981
    RHS1      primal_lower707  5307
    RHS1      primal_lower708  7172
    RHS1      primal_lower709  1491
    RHS1      primal_lower710  990
    RHS1      primal_lower711  4090
    RHS1      primal_lower712  2442
    RHS1      primal_lower713  6343
    RHS1      primal_lower714  4105
    RHS1      primal_lower715  6552
    RHS1      primal_lower716  3309
    RHS1      primal_lower717  4026
    RHS1      primal_lower718  2561
    RHS1      primal_lower719  987
    RHS1      primal_lower720  3724
    RHS1      primal_lower721  4950
    RHS1      primal_lower722  3836
    RHS1      primal_lower723  2046
    RHS1      primal_lower724  2386
    RHS1      primal_lower725  4792
    RHS1      primal_lower726  5062
    RHS1      primal_lower727  2084
    RHS1      primal_lower728  1910
    RHS1      primal_lower729  1656
    RHS1      primal_lower730  2044
    RHS1      primal_lower731  2023
    RHS1      primal_lower732  1940
    RHS1      primal_lower733  4068
    RHS1      primal_lower734  3546
    RHS1      primal_lower735  999
    RHS1      primal_lower736  1592
    RHS1      primal_lower737  3852
    RHS1      primal_lower738  3540
    RHS1      primal_lower739  2326
    RHS1      primal_lower740  979
    RHS1      primal_lower741  4382
    RHS1      primal_lower742  3236
    RHS1      primal_lower743  4769
    RHS1      primal_lower744  6679
    RHS1      primal_lower745  966
    RHS1      primal_lower746  4276
    RHS1      primal_lower747  2318
    RHS1      primal_lower748  3935
    RHS1      primal_lower749  5818
    RHS1      primal_lower750  6856
    RHS1      primal_lower751  2291
    RHS1      primal_lower752  1971
    RHS1      primal_lower753  3765
    RHS1      primal_lower754  2034
    RHS1      primal_lower755  2174
    RHS1      primal_lower756  2225
    RHS1      primal_lower757  3628
    RHS1      primal_lower758  4030
    RHS1      primal_lower759  4588
    RHS1      primal_lower760  939
    RHS1      primal_lower761  930
    RHS1      primal_lower762  2488
    RHS1      primal_lower763  3848
    RHS1      primal_lower764  3154
    RHS1      primal_lower765  4014
    RHS1      primal_lower766  3585
    RHS1      primal_lower767  922
    RHS1      primal_lower768  6634
    RHS1      primal_lower769  974
    RHS1      primal_lower770  1000
    RHS1      primal_lower771  4866
    RHS1      primal_lower772  963
    RHS1      primal_lower773  1881
    RHS1      primal_lower774  4018
    RHS1      primal_lower775  4639
    RHS1      primal_lower776  3446
    RHS1      primal_lower777  3279
    RHS1      primal_lower778  4537
    RHS1      primal_lower779  6229
    RHS1      primal_lower780  5553
    RHS1      primal_lower781  6772
    RHS1      primal_lower782  3580
    RHS1      primal_lower783  4321
    RHS1      primal_lower784  4230
    RHS1      primal_lower785  922
    RHS1      primal_lower786  7071
    RHS1      primal_lower787  2338
    RHS1      primal_lower788  866
    RHS1      primal_lower789  950
    RHS1      primal_lower790  2188
    RHS1      primal_lower791  2631
    RHS1      primal_lower792  6844
    RHS1      primal_lower793  5230
    RHS1      primal_lower794  1668
    RHS1      primal_lower795  2712
    RHS1      primal_lower796  985
    RHS1      primal_lower797  5748
    RHS1      primal_lower798  882
    RHS1      primal_lower799  4585
    RHS1      primal_lower800  2779
    RHS1      primal_lower801  2340
    RHS1      primal_lower802  4935
    RHS1      primal_lower803  5756
    RHS1      primal_lower804  1792
    RHS1      primal_lower805  2138
    RHS1      primal_lower806  1849
    RHS1      primal_lower807  1721
    RHS1      primal_lower808  5866
    RHS1      primal_lower809  2047
    RHS1      primal_lower810  992
    RHS1      primal_lower811  1942
    RHS1      primal_lower812  990
    RHS1      primal_lower813  4034
    RHS1      primal_lower814  6111
    RHS1      primal_lower815  1997
    RHS1      primal_lower816  927
    RHS1      primal_lower817  991
    RHS1      primal_lower818  991
    RHS1      primal_lower819  3784
    RHS1      primal_lower820  6748
    RHS1      primal_lower821  3996
    RHS1      primal_lower822  984
    RHS1      primal_lower823  2588
    RHS1      primal_lower824  3939
    RHS1      primal_lower825  4669
    RHS1      primal_lower826  4165
    RHS1      primal_lower827  3098
    RHS1      primal_lower828  3980
    RHS1      primal_lower829  3676
    RHS1      primal_lower830  4614
    RHS1      primal_lower831  2231
    RHS1      primal_lower832  1826
    RHS1      primal_lower833  4473
    RHS1      primal_lower834  5972
    RHS1      primal_lower835  983
    RHS1      primal_lower836  3480
    RHS1      primal_lower837  6625
    RHS1      primal_lower838  2105
    RHS1      primal_lower839  965
    RHS1      primal_lower840  1940
    RHS1      primal_lower841  1802
    RHS1      primal_lower842  2138
    RHS1      primal_lower843  4860
    RHS1      primal_lower844  4380
    RHS1      primal_lower845  2208
    RHS1      primal_lower846  1894
    RHS1      primal_lower847  904
    RHS1      primal_lower848  935
    RHS1      primal_lower849  1893
    RHS1      primal_lower850  4746
    RHS1      primal_lower851  1807
    RHS1      primal_lower852  6240
    RHS1      primal_lower853  2222
    RHS1      primal_lower854  2290
    RHS1      primal_lower855  2189
    RHS1      primal_lower856  5066
    RHS1      primal_lower857  5804
    RHS1      primal_lower858  6147
    RHS1      primal_lower859  986
    RHS1      primal_lower860  4622
    RHS1      primal_lower861  959
    RHS1      primal_lower862  4440
    RHS1      primal_lower863  6777
    RHS1      primal_lower864  2055
    RHS1      primal_lower865  3242
    RHS1      primal_lower866  6476
    RHS1      primal_lower867  4844
    RHS1      primal_lower868  1483
    RHS1      primal_lower869  954
    RHS1      primal_lower870  1968
    RHS1      primal_lower871  1916
    RHS1      primal_lower872  1803
    RHS1      primal_lower873  3156
    RHS1      primal_lower874  3845
    RHS1      primal_lower875  3953
    RHS1      primal_lower876  5493
    RHS1      primal_lower877  3992
    RHS1      primal_lower878  4857
    RHS1      primal_lower879  2192
    RHS1      primal_lower880  7134
    RHS1      primal_lower881  5809
    RHS1      primal_lower882  2083
    RHS1      primal_lower883  1911
    RHS1      primal_lower884  987
    RHS1      primal_lower885  1653
    RHS1      primal_lower886  3879
    RHS1      primal_lower887  951
    RHS1      primal_lower888  1000
    RHS1      primal_lower889  3922
    RHS1      primal_lower890  1907
    RHS1      primal_lower891  871
    RHS1      primal_lower892  1811
    RHS1      primal_lower893  989
    RHS1      primal_lower894  6411
    RHS1      primal_lower895  7404
    RHS1      primal_lower896  2074
    RHS1      primal_lower897  4037
    RHS1      primal_lower898  4500
    RHS1      primal_lower899  4467
    RHS1      primal_lower900  1857
    RHS1      primal_lower901  933
    RHS1      primal_lower902  1946
    RHS1      primal_lower903  2001
    RHS1      primal_lower904  5439
    RHS1      primal_lower905  3874
    RHS1      primal_lower906  1728
    RHS1      primal_lower907  4741
    RHS1      primal_lower908  958
    RHS1      primal_lower909  1000
    RHS1      primal_lower910  868
    RHS1      primal_lower911  954
    RHS1      primal_lower912  3815
    RHS1      primal_lower913  3571
    RHS1      primal_lower914  984
    RHS1      primal_lower915  5805
    RHS1      primal_lower916  3598
    RHS1      primal_lower917  5062
    RHS1      primal_lower918  890
    RHS1      primal_lower919  2277
    RHS1      primal_lower920  3328
    RHS1      primal_lower921  4032
    RHS1      primal_lower922  3602
    RHS1      primal_lower923  2001
    RHS1      primal_lower924  1917
    RHS1      primal_lower925  2210
    RHS1      primal_lower926  1660
    RHS1      primal_lower927  1926
    RHS1      primal_lower928  3653
    RHS1      primal_lower929  3424
    RHS1      primal_lower930  894
    RHS1      primal_lower931  1800
    RHS1      primal_lower932  5925
    RHS1      primal_lower933  4064
    RHS1      primal_lower934  2078
    RHS1      primal_lower935  4476
    RHS1      primal_lower936  967
    RHS1      primal_lower937  4461
    RHS1      primal_lower938  2163
    RHS1      primal_lower939  3182
    RHS1      primal_lower940  903
    RHS1      primal_lower941  2098
    RHS1      primal_lower942  3960
    RHS1      primal_lower943  4660
    RHS1      primal_lower944  992
    RHS1      primal_lower945  2022
    RHS1      primal_lower946  2113
    RHS1      primal_lower947  1802
    RHS1      primal_lower948  1940
    RHS1      primal_lower949  2170
    RHS1      primal_lower950  6656
    RHS1      primal_lower951  2090
    RHS1      primal_lower952  5636
    RHS1      primal_lower953  3640
    RHS1      primal_lower954  1987
    RHS1      primal_lower955  2827
    RHS1      primal_lower956  4877
    RHS1      primal_lower957  3890
    RHS1      primal_lower958  933
    RHS1      primal_lower959  3488
    RHS1      primal_lower960  1855
    RHS1      primal_lower961  5426
    RHS1      primal_lower962  4239
    RHS1      primal_lower963  987
    RHS1      primal_lower964  4587
    RHS1      primal_lower965  4392
    RHS1      primal_lower966  2028
    RHS1      primal_lower967  4695
    RHS1      primal_lower968  4022
    RHS1      primal_lower969  994
    RHS1      primal_lower970  888
    RHS1      primal_lower971  1667
    RHS1      primal_lower972  6550
    RHS1      primal_lower973  3975
    RHS1      primal_lower974  4536
    RHS1      primal_lower975  1798
    RHS1      primal_lower976  6237
    RHS1      primal_lower977  4653
    RHS1      primal_lower978  3444
    RHS1      primal_lower979  1910
    RHS1      primal_lower980  2143
    RHS1      primal_lower981  4590
    RHS1      primal_lower982  4256
    RHS1      primal_lower983  3590
    RHS1      primal_lower984  3672
    RHS1      primal_lower985  990
    RHS1      primal_lower986  2046
    RHS1      primal_lower987  3502
    RHS1      primal_lower988  831
    RHS1      primal_lower989  1879
    RHS1      primal_lower990  4205
    RHS1      primal_lower991  887
    RHS1      primal_lower992  3264
    RHS1      primal_lower993  6104
    RHS1      primal_lower994  1791
    RHS1      primal_lower995  957
    RHS1      primal_lower996  6565
    RHS1      primal_lower997  4756
    RHS1      primal_lower998  5830
    RHS1      primal_lower999  5470
    RHS1      interdiction[0]  1
    RHS1      interdiction[1]  1
    RHS1      interdiction[2]  1
    RHS1      interdiction[3]  1
    RHS1      interdiction[4]  1
    RHS1      interdiction[5]  1
    RHS1      interdiction[6]  1
    RHS1      interdiction[7]  1
    RHS1      interdiction[8]  1
    RHS1      interdiction[9]  1
    RHS1      interdiction[10]  1
    RHS1      interdiction[11]  1
    RHS1      interdiction[12]  1
    RHS1      interdiction[13]  1
    RHS1      interdiction[14]  1
    RHS1      interdiction[15]  1
    RHS1      interdiction[16]  1
    RHS1      interdiction[17]  1
    RHS1      interdiction[18]  1
    RHS1      interdiction[19]  1
    RHS1      mccormick3[0]  1
    RHS1      mccormick3[1]  1
    RHS1      mccormick3[2]  1
    RHS1      mccormick3[3]  1
    RHS1      mccormick3[4]  1
    RHS1      mccormick3[5]  1
    RHS1      mccormick3[6]  1
    RHS1      mccormick3[7]  1
    RHS1      mccormick3[8]  1
    RHS1      mccormick3[9]  1
    RHS1      mccormick3[10]  1
    RHS1      mccormick3[11]  1
    RHS1      mccormick3[12]  1
    RHS1      mccormick3[13]  1
    RHS1      mccormick3[14]  1
    RHS1      mccormick3[15]  1
    RHS1      mccormick3[16]  1
    RHS1      mccormick3[17]  1
    RHS1      mccormick3[18]  1
    RHS1      mccormick3[19]  1
BOUNDS
 BV BND1      x[0]    
 BV BND1      x[1]    
 BV BND1      x[2]    
 BV BND1      x[3]    
 BV BND1      x[4]    
 BV BND1      x[5]    
 BV BND1      x[6]    
 BV BND1      x[7]    
 BV BND1      x[8]    
 BV BND1      x[9]    
 BV BND1      x[10]   
 BV BND1      x[11]   
 BV BND1      x[12]   
 BV BND1      x[13]   
 BV BND1      x[14]   
 BV BND1      x[15]   
 BV BND1      x[16]   
 BV BND1      x[17]   
 BV BND1      x[18]   
 BV BND1      x[19]   
 BV BND1      y[0]    
 BV BND1      y[1]    
 BV BND1      y[2]    
 BV BND1      y[3]    
 BV BND1      y[4]    
 BV BND1      y[5]    
 BV BND1      y[6]    
 BV BND1      y[7]    
 BV BND1      y[8]    
 BV BND1      y[9]    
 BV BND1      y[10]   
 BV BND1      y[11]   
 BV BND1      y[12]   
 BV BND1      y[13]   
 BV BND1      y[14]   
 BV BND1      y[15]   
 BV BND1      y[16]   
 BV BND1      y[17]   
 BV BND1      y[18]   
 BV BND1      y[19]   
 BV BND1      u[0]    
 BV BND1      u[1]    
 BV BND1      u[2]    
 BV BND1      u[3]    
 BV BND1      u[4]    
 BV BND1      u[5]    
 BV BND1      u[6]    
 BV BND1      u[7]    
 BV BND1      u[8]    
 BV BND1      u[9]    
 BV BND1      u[10]   
 BV BND1      u[11]   
 BV BND1      u[12]   
 BV BND1      u[13]   
 BV BND1      u[14]   
 BV BND1      u[15]   
 BV BND1      u[16]   
 BV BND1      u[17]   
 BV BND1      u[18]   
 BV BND1      u[19]   
 BV BND1      z[0]    
 BV BND1      z[1]    
 BV BND1      z[2]    
 BV BND1      z[3]    
 BV BND1      z[4]    
 BV BND1      z[5]    
 BV BND1      z[6]    
 BV BND1      z[7]    
 BV BND1      z[8]    
 BV BND1      z[9]    
 BV BND1      z[10]   
 BV BND1      z[11]   
 BV BND1      z[12]   
 BV BND1      z[13]   
 BV BND1      z[14]   
 BV BND1      z[15]   
 BV BND1      z[16]   
 BV BND1      z[17]   
 BV BND1      z[18]   
 BV BND1      z[19]   
ENDATA
