* Signature: 0xeb3015fb616d797b
NAME knapsack_20_100_3
ROWS
 N  OBJ
 L  primal_upper
 L  primal_lower0
 L  primal_lower1
 L  primal_lower2
 L  primal_lower3
 L  primal_lower4
 L  primal_lower5
 L  primal_lower6
 L  primal_lower7
 L  primal_lower8
 L  primal_lower9
 L  primal_lower10
 L  primal_lower11
 L  primal_lower12
 L  primal_lower13
 L  primal_lower14
 L  primal_lower15
 L  primal_lower16
 L  primal_lower17
 L  primal_lower18
 L  primal_lower19
 L  primal_lower20
 L  primal_lower21
 L  primal_lower22
 L  primal_lower23
 L  primal_lower24
 L  primal_lower25
 L  primal_lower26
 L  primal_lower27
 L  primal_lower28
 L  primal_lower29
 L  primal_lower30
 L  primal_lower31
 L  primal_lower32
 L  primal_lower33
 L  primal_lower34
 L  primal_lower35
 L  primal_lower36
 L  primal_lower37
 L  primal_lower38
 L  primal_lower39
 L  primal_lower40
 L  primal_lower41
 L  primal_lower42
 L  primal_lower43
 L  primal_lower44
 L  primal_lower45
 L  primal_lower46
 L  primal_lower47
 L  primal_lower48
 L  primal_lower49
 L  primal_lower50
 L  primal_lower51
 L  primal_lower52
 L  primal_lower53
 L  primal_lower54
 L  primal_lower55
 L  primal_lower56
 L  primal_lower57
 L  primal_lower58
 L  primal_lower59
 L  primal_lower60
 L  primal_lower61
 L  primal_lower62
 L  primal_lower63
 L  primal_lower64
 L  primal_lower65
 L  primal_lower66
 L  primal_lower67
 L  primal_lower68
 L  primal_lower69
 L  primal_lower70
 L  primal_lower71
 L  primal_lower72
 L  primal_lower73
 L  primal_lower74
 L  primal_lower75
 L  primal_lower76
 L  primal_lower77
 L  primal_lower78
 L  primal_lower79
 L  primal_lower80
 L  primal_lower81
 L  primal_lower82
 L  primal_lower83
 L  primal_lower84
 L  primal_lower85
 L  primal_lower86
 L  primal_lower87
 L  primal_lower88
 L  primal_lower89
 L  primal_lower90
 L  primal_lower91
 L  primal_lower92
 L  primal_lower93
 L  primal_lower94
 L  primal_lower95
 L  primal_lower96
 L  primal_lower97
 L  primal_lower98
 L  primal_lower99
 L  interdiction[0]
 L  interdiction[1]
 L  interdiction[2]
 L  interdiction[3]
 L  interdiction[4]
 L  interdiction[5]
 L  interdiction[6]
 L  interdiction[7]
 L  interdiction[8]
 L  interdiction[9]
 L  interdiction[10]
 L  interdiction[11]
 L  interdiction[12]
 L  interdiction[13]
 L  interdiction[14]
 L  interdiction[15]
 L  interdiction[16]
 L  interdiction[17]
 L  interdiction[18]
 L  interdiction[19]
 L  mccormick1[0]
 L  mccormick1[1]
 L  mccormick1[2]
 L  mccormick1[3]
 L  mccormick1[4]
 L  mccormick1[5]
 L  mccormick1[6]
 L  mccormick1[7]
 L  mccormick1[8]
 L  mccormick1[9]
 L  mccormick1[10]
 L  mccormick1[11]
 L  mccormick1[12]
 L  mccormick1[13]
 L  mccormick1[14]
 L  mccormick1[15]
 L  mccormick1[16]
 L  mccormick1[17]
 L  mccormick1[18]
 L  mccormick1[19]
 L  mccormick2[0]
 L  mccormick2[1]
 L  mccormick2[2]
 L  mccormick2[3]
 L  mccormick2[4]
 L  mccormick2[5]
 L  mccormick2[6]
 L  mccormick2[7]
 L  mccormick2[8]
 L  mccormick2[9]
 L  mccormick2[10]
 L  mccormick2[11]
 L  mccormick2[12]
 L  mccormick2[13]
 L  mccormick2[14]
 L  mccormick2[15]
 L  mccormick2[16]
 L  mccormick2[17]
 L  mccormick2[18]
 L  mccormick2[19]
 L  mccormick3[0]
 L  mccormick3[1]
 L  mccormick3[2]
 L  mccormick3[3]
 L  mccormick3[4]
 L  mccormick3[5]
 L  mccormick3[6]
 L  mccormick3[7]
 L  mccormick3[8]
 L  mccormick3[9]
 L  mccormick3[10]
 L  mccormick3[11]
 L  mccormick3[12]
 L  mccormick3[13]
 L  mccormick3[14]
 L  mccormick3[15]
 L  mccormick3[16]
 L  mccormick3[17]
 L  mccormick3[18]
 L  mccormick3[19]
COLUMNS
    MARKER    'MARKER'                 'INTORG'
    x[0]      OBJ       10
    x[0]      interdiction[0]  1
    x[1]      OBJ       10
    x[1]      interdiction[1]  1
    x[2]      OBJ       10
    x[2]      interdiction[2]  1
    x[3]      OBJ       10
    x[3]      interdiction[3]  1
    x[4]      OBJ       10
    x[4]      interdiction[4]  1
    x[5]      OBJ       10
    x[5]      interdiction[5]  1
    x[6]      OBJ       10
    x[6]      interdiction[6]  1
    x[7]      OBJ       10
    x[7]      interdiction[7]  1
    x[8]      OBJ       10
    x[8]      interdiction[8]  1
    x[9]      OBJ       10
    x[9]      interdiction[9]  1
    x[10]     OBJ       10
    x[10]     interdiction[10]  1
    x[11]     OBJ       10
    x[11]     interdiction[11]  1
    x[12]     OBJ       10
    x[12]     interdiction[12]  1
    x[13]     OBJ       10
    x[13]     interdiction[13]  1
    x[14]     OBJ       10
    x[14]     interdiction[14]  1
    x[15]     OBJ       10
    x[15]     interdiction[15]  1
    x[16]     OBJ       10
    x[16]     interdiction[16]  1
    x[17]     OBJ       10
    x[17]     interdiction[17]  1
    x[18]     OBJ       10
    x[18]     interdiction[18]  1
    x[19]     OBJ       10
    x[19]     interdiction[19]  1
    y[0]      OBJ       -270
    y[0]      primal_upper  160
    y[0]      mccormick2[0]  -1
    y[0]      mccormick3[0]  1
    y[1]      OBJ       -799
    y[1]      primal_upper  340
    y[1]      mccormick2[1]  -1
    y[1]      mccormick3[1]  1
    y[2]      OBJ       -200
    y[2]      primal_upper  970
    y[2]      mccormick2[2]  -1
    y[2]      mccormick3[2]  1
    y[3]      OBJ       -316
    y[3]      primal_upper  43
    y[3]      mccormick2[3]  -1
    y[3]      mccormick3[3]  1
    y[4]      OBJ       -730
    y[4]      primal_upper  932
    y[4]      mccormick2[4]  -1
    y[4]      mccormick3[4]  1
    y[5]      OBJ       -129
    y[5]      primal_upper  746
    y[5]      mccormick2[5]  -1
    y[5]      mccormick3[5]  1
    y[6]      OBJ       -66
    y[6]      primal_upper  349
    y[6]      mccormick2[6]  -1
    y[6]      mccormick3[6]  1
    y[7]      OBJ       -772
    y[7]      primal_upper  404
    y[7]      mccormick2[7]  -1
    y[7]      mccormick3[7]  1
    y[8]      OBJ       -839
    y[8]      primal_upper  5
    y[8]      mccormick2[8]  -1
    y[8]      mccormick3[8]  1
    y[9]      OBJ       -171
    y[9]      primal_upper  506
    y[9]      mccormick2[9]  -1
    y[9]      mccormick3[9]  1
    y[10]     OBJ       -735
    y[10]     primal_upper  916
    y[10]     mccormick2[10]  -1
    y[10]     mccormick3[10]  1
    y[11]     OBJ       -755
    y[11]     primal_upper  459
    y[11]     mccormick2[11]  -1
    y[11]     mccormick3[11]  1
    y[12]     OBJ       -355
    y[12]     primal_upper  108
    y[12]     mccormick2[12]  -1
    y[12]     mccormick3[12]  1
    y[13]     OBJ       -26
    y[13]     primal_upper  780
    y[13]     mccormick2[13]  -1
    y[13]     mccormick3[13]  1
    y[14]     OBJ       -487
    y[14]     primal_upper  309
    y[14]     mccormick2[14]  -1
    y[14]     mccormick3[14]  1
    y[15]     OBJ       -164
    y[15]     primal_upper  653
    y[15]     mccormick2[15]  -1
    y[15]     mccormick3[15]  1
    y[16]     OBJ       -886
    y[16]     primal_upper  317
    y[16]     mccormick2[16]  -1
    y[16]     mccormick3[16]  1
    y[17]     OBJ       -330
    y[17]     primal_upper  560
    y[17]     mccormick2[17]  -1
    y[17]     mccormick3[17]  1
    y[18]     OBJ       -627
    y[18]     primal_upper  297
    y[18]     mccormick2[18]  -1
    y[18]     mccormick3[18]  1
    y[19]     OBJ       -746
    y[19]     primal_upper  294
    y[19]     mccormick2[19]  -1
    y[19]     mccormick3[19]  1
    u[0]      primal_lower0  118
    u[0]      primal_lower1  334
    u[0]      primal_lower2  106
    u[0]      primal_lower3  551
    u[0]      primal_lower4  729
    u[0]      primal_lower5  829
    u[0]      primal_lower6  99
    u[0]      primal_lower7  671
    u[0]      primal_lower8  161
    u[0]      primal_lower9  144
    u[0]      primal_lower10  578
    u[0]      primal_lower11  339
    u[0]      primal_lower12  915
    u[0]      primal_lower13  82
    u[0]      primal_lower14  492
    u[0]      primal_lower15  217
    u[0]      primal_lower16  171
    u[0]      primal_lower17  357
    u[0]      primal_lower18  538
    u[0]      primal_lower19  103
    u[0]      primal_lower20  532
    u[0]      primal_lower21  539
    u[0]      primal_lower22  801
    u[0]      primal_lower23  149
    u[0]      primal_lower24  253
    u[0]      primal_lower25  477
    u[0]      primal_lower26  401
    u[0]      primal_lower27  432
    u[0]      primal_lower28  878
    u[0]      primal_lower29  748
    u[0]      primal_lower30  804
    u[0]      primal_lower31  578
    u[0]      primal_lower32  684
    u[0]      primal_lower33  521
    u[0]      primal_lower34  894
    u[0]      primal_lower35  686
    u[0]      primal_lower36  641
    u[0]      primal_lower37  802
    u[0]      primal_lower38  583
    u[0]      primal_lower39  801
    u[0]      primal_lower40  159
    u[0]      primal_lower41  612
    u[0]      primal_lower42  971
    u[0]      primal_lower43  223
    u[0]      primal_lower44  224
    u[0]      primal_lower45  741
    u[0]      primal_lower46  453
    u[0]      primal_lower47  932
    u[0]      primal_lower48  478
    u[0]      primal_lower49  961
    u[0]      primal_lower50  397
    u[0]      primal_lower51  781
    u[0]      primal_lower52  944
    u[0]      primal_lower53  964
    u[0]      primal_lower54  656
    u[0]      primal_lower55  864
    u[0]      primal_lower56  175
    u[0]      primal_lower57  929
    u[0]      primal_lower58  148
    u[0]      primal_lower59  661
    u[0]      primal_lower60  526
    u[0]      primal_lower61  215
    u[0]      primal_lower62  913
    u[0]      primal_lower63  242
    u[0]      primal_lower64  738
    u[0]      primal_lower65  901
    u[0]      primal_lower66  430
    u[0]      primal_lower67  9
    u[0]      primal_lower68  675
    u[0]      primal_lower69  169
    u[0]      primal_lower70  921
    u[0]      primal_lower71  665
    u[0]      primal_lower72  965
    u[0]      primal_lower73  522
    u[0]      primal_lower74  441
    u[0]      primal_lower75  793
    u[0]      primal_lower76  326
    u[0]      primal_lower77  691
    u[0]      primal_lower78  306
    u[0]      primal_lower79  810
    u[0]      primal_lower80  865
    u[0]      primal_lower81  764
    u[0]      primal_lower82  443
    u[0]      primal_lower83  57
    u[0]      primal_lower84  121
    u[0]      primal_lower85  279
    u[0]      primal_lower86  276
    u[0]      primal_lower87  630
    u[0]      primal_lower88  153
    u[0]      primal_lower89  709
    u[0]      primal_lower90  227
    u[0]      primal_lower91  728
    u[0]      primal_lower92  289
    u[0]      primal_lower93  215
    u[0]      primal_lower94  941
    u[0]      primal_lower95  382
    u[0]      primal_lower96  346
    u[0]      primal_lower97  700
    u[0]      primal_lower98  885
    u[0]      primal_lower99  232
    u[0]      interdiction[0]  1
    u[0]      mccormick1[0]  -1
    u[0]      mccormick3[0]  1
    u[1]      primal_lower0  55
    u[1]      primal_lower1  602
    u[1]      primal_lower2  654
    u[1]      primal_lower3  112
    u[1]      primal_lower4  10
    u[1]      primal_lower5  729
    u[1]      primal_lower6  476
    u[1]      primal_lower7  608
    u[1]      primal_lower8  93
    u[1]      primal_lower9  265
    u[1]      primal_lower10  531
    u[1]      primal_lower11  207
    u[1]      primal_lower12  260
    u[1]      primal_lower13  230
    u[1]      primal_lower14  304
    u[1]      primal_lower15  946
    u[1]      primal_lower16  868
    u[1]      primal_lower17  694
    u[1]      primal_lower18  51
    u[1]      primal_lower19  419
    u[1]      primal_lower20  256
    u[1]      primal_lower21  492
    u[1]      primal_lower22  165
    u[1]      primal_lower23  961
    u[1]      primal_lower24  985
    u[1]      primal_lower25  726
    u[1]      primal_lower26  26
    u[1]      primal_lower27  988
    u[1]      primal_lower28  250
    u[1]      primal_lower29  728
    u[1]      primal_lower30  597
    u[1]      primal_lower31  171
    u[1]      primal_lower32  653
    u[1]      primal_lower33  954
    u[1]      primal_lower34  578
    u[1]      primal_lower35  39
    u[1]      primal_lower36  21
    u[1]      primal_lower37  142
    u[1]      primal_lower38  424
    u[1]      primal_lower39  469
    u[1]      primal_lower40  904
    u[1]      primal_lower41  704
    u[1]      primal_lower42  15
    u[1]      primal_lower43  35
    u[1]      primal_lower44  465
    u[1]      primal_lower45  262
    u[1]      primal_lower46  182
    u[1]      primal_lower47  616
    u[1]      primal_lower48  658
    u[1]      primal_lower49  282
    u[1]      primal_lower50  518
    u[1]      primal_lower51  70
    u[1]      primal_lower52  724
    u[1]      primal_lower53  160
    u[1]      primal_lower54  993
    u[1]      primal_lower55  185
    u[1]      primal_lower56  323
    u[1]      primal_lower57  90
    u[1]      primal_lower58  469
    u[1]      primal_lower59  497
    u[1]      primal_lower60  455
    u[1]      primal_lower61  768
    u[1]      primal_lower62  429
    u[1]      primal_lower63  366
    u[1]      primal_lower64  683
    u[1]      primal_lower65  470
    u[1]      primal_lower66  34
    u[1]      primal_lower67  637
    u[1]      primal_lower68  311
    u[1]      primal_lower69  965
    u[1]      primal_lower70  74
    u[1]      primal_lower71  885
    u[1]      primal_lower72  974
    u[1]      primal_lower73  451
    u[1]      primal_lower74  357
    u[1]      primal_lower75  474
    u[1]      primal_lower76  655
    u[1]      primal_lower77  679
    u[1]      primal_lower78  118
    u[1]      primal_lower79  494
    u[1]      primal_lower80  973
    u[1]      primal_lower81  752
    u[1]      primal_lower82  143
    u[1]      primal_lower83  365
    u[1]      primal_lower84  485
    u[1]      primal_lower85  51
    u[1]      primal_lower86  944
    u[1]      primal_lower87  666
    u[1]      primal_lower88  858
    u[1]      primal_lower89  766
    u[1]      primal_lower90  484
    u[1]      primal_lower91  73
    u[1]      primal_lower92  949
    u[1]      primal_lower93  987
    u[1]      primal_lower94  361
    u[1]      primal_lower95  242
    u[1]      primal_lower96  910
    u[1]      primal_lower97  797
    u[1]      primal_lower98  65
    u[1]      primal_lower99  889
    u[1]      interdiction[1]  1
    u[1]      mccormick1[1]  -1
    u[1]      mccormick3[1]  1
    u[2]      primal_lower0  393
    u[2]      primal_lower1  888
    u[2]      primal_lower2  380
    u[2]      primal_lower3  362
    u[2]      primal_lower4  828
    u[2]      primal_lower5  167
    u[2]      primal_lower6  46
    u[2]      primal_lower7  202
    u[2]      primal_lower8  307
    u[2]      primal_lower9  739
    u[2]      primal_lower10  877
    u[2]      primal_lower11  949
    u[2]      primal_lower12  78
    u[2]      primal_lower13  620
    u[2]      primal_lower14  974
    u[2]      primal_lower15  836
    u[2]      primal_lower16  294
    u[2]      primal_lower17  760
    u[2]      primal_lower18  549
    u[2]      primal_lower19  273
    u[2]      primal_lower20  822
    u[2]      primal_lower21  502
    u[2]      primal_lower22  395
    u[2]      primal_lower23  303
    u[2]      primal_lower24  751
    u[2]      primal_lower25  392
    u[2]      primal_lower26  700
    u[2]      primal_lower27  306
    u[2]      primal_lower28  344
    u[2]      primal_lower29  342
    u[2]      primal_lower30  479
    u[2]      primal_lower31  637
    u[2]      primal_lower32  487
    u[2]      primal_lower33  84
    u[2]      primal_lower34  864
    u[2]      primal_lower35  49
    u[2]      primal_lower36  715
    u[2]      primal_lower37  140
    u[2]      primal_lower38  418
    u[2]      primal_lower39  211
    u[2]      primal_lower40  722
    u[2]      primal_lower41  606
    u[2]      primal_lower42  93
    u[2]      primal_lower43  889
    u[2]      primal_lower44  19
    u[2]      primal_lower45  608
    u[2]      primal_lower46  664
    u[2]      primal_lower47  398
    u[2]      primal_lower48  64
    u[2]      primal_lower49  924
    u[2]      primal_lower50  880
    u[2]      primal_lower51  392
    u[2]      primal_lower52  114
    u[2]      primal_lower53  238
    u[2]      primal_lower54  587
    u[2]      primal_lower55  827
    u[2]      primal_lower56  473
    u[2]      primal_lower57  28
    u[2]      primal_lower58  743
    u[2]      primal_lower59  543
    u[2]      primal_lower60  785
    u[2]      primal_lower61  882
    u[2]      primal_lower62  699
    u[2]      primal_lower63  732
    u[2]      primal_lower64  597
    u[2]      primal_lower65  832
    u[2]      primal_lower66  288
    u[2]      primal_lower67  883
    u[2]      primal_lower68  885
    u[2]      primal_lower69  75
    u[2]      primal_lower70  196
    u[2]      primal_lower71  587
    u[2]      primal_lower72  784
    u[2]      primal_lower73  541
    u[2]      primal_lower74  259
    u[2]      primal_lower75  884
    u[2]      primal_lower76  417
    u[2]      primal_lower77  109
    u[2]      primal_lower78  188
    u[2]      primal_lower79  724
    u[2]      primal_lower80  355
    u[2]      primal_lower81  854
    u[2]      primal_lower82  37
    u[2]      primal_lower83  907
    u[2]      primal_lower84  363
    u[2]      primal_lower85  953
    u[2]      primal_lower86  190
    u[2]      primal_lower87  336
    u[2]      primal_lower88  628
    u[2]      primal_lower89  704
    u[2]      primal_lower90  142
    u[2]      primal_lower91  259
    u[2]      primal_lower92  771
    u[2]      primal_lower93  921
    u[2]      primal_lower94  279
    u[2]      primal_lower95  192
    u[2]      primal_lower96  172
    u[2]      primal_lower97  967
    u[2]      primal_lower98  575
    u[2]      primal_lower99  635
    u[2]      interdiction[2]  1
    u[2]      mccormick1[2]  -1
    u[2]      mccormick3[2]  1
    u[3]      primal_lower0  934
    u[3]      primal_lower1  681
    u[3]      primal_lower2  485
    u[3]      primal_lower3  991
    u[3]      primal_lower4  721
    u[3]      primal_lower5  272
    u[3]      primal_lower6  963
    u[3]      primal_lower7  623
    u[3]      primal_lower8  532
    u[3]      primal_lower9  584
    u[3]      primal_lower10  234
    u[3]      primal_lower11  718
    u[3]      primal_lower12  915
    u[3]      primal_lower13  181
    u[3]      primal_lower14  575
    u[3]      primal_lower15  601
    u[3]      primal_lower16  939
    u[3]      primal_lower17  85
    u[3]      primal_lower18  658
    u[3]      primal_lower19  634
    u[3]      primal_lower20  111
    u[3]      primal_lower21  299
    u[3]      primal_lower22  188
    u[3]      primal_lower23  936
    u[3]      primal_lower24  328
    u[3]      primal_lower25  749
    u[3]      primal_lower26  665
    u[3]      primal_lower27  659
    u[3]      primal_lower28  921
    u[3]      primal_lower29  487
    u[3]      primal_lower30  148
    u[3]      primal_lower31  714
    u[3]      primal_lower32  820
    u[3]      primal_lower33  209
    u[3]      primal_lower34  97
    u[3]      primal_lower35  790
    u[3]      primal_lower36  196
    u[3]      primal_lower37  53
    u[3]      primal_lower38  503
    u[3]      primal_lower39  364
    u[3]      primal_lower40  671
    u[3]      primal_lower41  623
    u[3]      primal_lower42  270
    u[3]      primal_lower43  330
    u[3]      primal_lower44  104
    u[3]      primal_lower45  189
    u[3]      primal_lower46  381
    u[3]      primal_lower47  359
    u[3]      primal_lower48  81
    u[3]      primal_lower49  777
    u[3]      primal_lower50  693
    u[3]      primal_lower51  853
    u[3]      primal_lower52  147
    u[3]      primal_lower53  919
    u[3]      primal_lower54  992
    u[3]      primal_lower55  320
    u[3]      primal_lower56  514
    u[3]      primal_lower57  329
    u[3]      primal_lower58  764
    u[3]      primal_lower59  368
    u[3]      primal_lower60  966
    u[3]      primal_lower61  415
    u[3]      primal_lower62  900
    u[3]      primal_lower63  309
    u[3]      primal_lower64  954
    u[3]      primal_lower65  901
    u[3]      primal_lower66  985
    u[3]      primal_lower67  20
    u[3]      primal_lower68  382
    u[3]      primal_lower69  796
    u[3]      primal_lower70  193
    u[3]      primal_lower71  468
    u[3]      primal_lower72  861
    u[3]      primal_lower73  842
    u[3]      primal_lower74  908
    u[3]      primal_lower75  89
    u[3]      primal_lower76  886
    u[3]      primal_lower77  958
    u[3]      primal_lower78  261
    u[3]      primal_lower79  685
    u[3]      primal_lower80  132
    u[3]      primal_lower81  679
    u[3]      primal_lower82  254
    u[3]      primal_lower83  236
    u[3]      primal_lower84  572
    u[3]      primal_lower85  458
    u[3]      primal_lower86  535
    u[3]      primal_lower87  89
    u[3]      primal_lower88  345
    u[3]      primal_lower89  757
    u[3]      primal_lower90  499
    u[3]      primal_lower91  120
    u[3]      primal_lower92  524
    u[3]      primal_lower93  658
    u[3]      primal_lower94  176
    u[3]      primal_lower95  721
    u[3]      primal_lower96  333
    u[3]      primal_lower97  76
    u[3]      primal_lower98  520
    u[3]      primal_lower99  864
    u[3]      interdiction[3]  1
    u[3]      mccormick1[3]  -1
    u[3]      mccormick3[3]  1
    u[4]      primal_lower0  683
    u[4]      primal_lower1  818
    u[4]      primal_lower2  582
    u[4]      primal_lower3  988
    u[4]      primal_lower4  454
    u[4]      primal_lower5  513
    u[4]      primal_lower6  136
    u[4]      primal_lower7  884
    u[4]      primal_lower8  469
    u[4]      primal_lower9  925
    u[4]      primal_lower10  911
    u[4]      primal_lower11  135
    u[4]      primal_lower12  696
    u[4]      primal_lower13  318
    u[4]      primal_lower14  376
    u[4]      primal_lower15  110
    u[4]      primal_lower16  616
    u[4]      primal_lower17  714
    u[4]      primal_lower18  127
    u[4]      primal_lower19  523
    u[4]      primal_lower20  704
    u[4]      primal_lower21  144
    u[4]      primal_lower22  885
    u[4]      primal_lower23  849
    u[4]      primal_lower24  313
    u[4]      primal_lower25  210
    u[4]      primal_lower26  542
    u[4]      primal_lower27  340
    u[4]      primal_lower28  746
    u[4]      primal_lower29  720
    u[4]      primal_lower30  305
    u[4]      primal_lower31  279
    u[4]      primal_lower32  65
    u[4]      primal_lower33  646
    u[4]      primal_lower34  554
    u[4]      primal_lower35  75
    u[4]      primal_lower36  117
    u[4]      primal_lower37  502
    u[4]      primal_lower38  4
    u[4]      primal_lower39  341
    u[4]      primal_lower40  628
    u[4]      primal_lower41  760
    u[4]      primal_lower42  7
    u[4]      primal_lower43  107
    u[4]      primal_lower44  349
    u[4]      primal_lower45  762
    u[4]      primal_lower46  66
    u[4]      primal_lower47  960
    u[4]      primal_lower48  610
    u[4]      primal_lower49  366
    u[4]      primal_lower50  98
    u[4]      primal_lower51  658
    u[4]      primal_lower52  836
    u[4]      primal_lower53  312
    u[4]      primal_lower54  189
    u[4]      primal_lower55  173
    u[4]      primal_lower56  779
    u[4]      primal_lower57  38
    u[4]      primal_lower58  913
    u[4]      primal_lower59  281
    u[4]      primal_lower60  219
    u[4]      primal_lower61  44
    u[4]      primal_lower62  125
    u[4]      primal_lower63  830
    u[4]      primal_lower64  367
    u[4]      primal_lower65  42
    u[4]      primal_lower66  538
    u[4]      primal_lower67  957
    u[4]      primal_lower68  679
    u[4]      primal_lower69  925
    u[4]      primal_lower70  150
    u[4]      primal_lower71  37
    u[4]      primal_lower72  578
    u[4]      primal_lower73  487
    u[4]      primal_lower74  989
    u[4]      primal_lower75  110
    u[4]      primal_lower76  891
    u[4]      primal_lower77  367
    u[4]      primal_lower78  190
    u[4]      primal_lower79  110
    u[4]      primal_lower80  877
    u[4]      primal_lower81  72
    u[4]      primal_lower82  967
    u[4]      primal_lower83  229
    u[4]      primal_lower84  285
    u[4]      primal_lower85  475
    u[4]      primal_lower86  360
    u[4]      primal_lower87  778
    u[4]      primal_lower88  30
    u[4]      primal_lower89  978
    u[4]      primal_lower90  208
    u[4]      primal_lower91  957
    u[4]      primal_lower92  853
    u[4]      primal_lower93  595
    u[4]      primal_lower94  833
    u[4]      primal_lower95  378
    u[4]      primal_lower96  950
    u[4]      primal_lower97  297
    u[4]      primal_lower98  17
    u[4]      primal_lower99  269
    u[4]      interdiction[4]  1
    u[4]      mccormick1[4]  -1
    u[4]      mccormick3[4]  1
    u[5]      primal_lower0  596
    u[5]      primal_lower1  224
    u[5]      primal_lower2  764
    u[5]      primal_lower3  117
    u[5]      primal_lower4  847
    u[5]      primal_lower5  767
    u[5]      primal_lower6  73
    u[5]      primal_lower7  581
    u[5]      primal_lower8  395
    u[5]      primal_lower9  510
    u[5]      primal_lower10  1000
    u[5]      primal_lower11  5
    u[5]      primal_lower12  673
    u[5]      primal_lower13  316
    u[5]      primal_lower14  822
    u[5]      primal_lower15  631
    u[5]      primal_lower16  577
    u[5]      primal_lower17  131
    u[5]      primal_lower18  840
    u[5]      primal_lower19  185
    u[5]      primal_lower20  206
    u[5]      primal_lower21  81
    u[5]      primal_lower22  339
    u[5]      primal_lower23  79
    u[5]      primal_lower24  375
    u[5]      primal_lower25  595
    u[5]      primal_lower26  127
    u[5]      primal_lower27  570
    u[5]      primal_lower28  88
    u[5]      primal_lower29  542
    u[5]      primal_lower30  170
    u[5]      primal_lower31  208
    u[5]      primal_lower32  362
    u[5]      primal_lower33  735
    u[5]      primal_lower34  536
    u[5]      primal_lower35  764
    u[5]      primal_lower36  27
    u[5]      primal_lower37  388
    u[5]      primal_lower38  821
    u[5]      primal_lower39  67
    u[5]      primal_lower40  245
    u[5]      primal_lower41  950
    u[5]      primal_lower42  453
    u[5]      primal_lower43  193
    u[5]      primal_lower44  486
    u[5]      primal_lower45  515
    u[5]      primal_lower46  795
    u[5]      primal_lower47  38
    u[5]      primal_lower48  880
    u[5]      primal_lower49  959
    u[5]      primal_lower50  291
    u[5]      primal_lower51  987
    u[5]      primal_lower52  794
    u[5]      primal_lower53  14
    u[5]      primal_lower54  110
    u[5]      primal_lower55  262
    u[5]      primal_lower56  585
    u[5]      primal_lower57  799
    u[5]      primal_lower58  618
    u[5]      primal_lower59  815
    u[5]      primal_lower60  172
    u[5]      primal_lower61  429
    u[5]      primal_lower62  899
    u[5]      primal_lower63  948
    u[5]      primal_lower64  640
    u[5]      primal_lower65  115
    u[5]      primal_lower66  928
    u[5]      primal_lower67  203
    u[5]      primal_lower68  741
    u[5]      primal_lower69  347
    u[5]      primal_lower70  127
    u[5]      primal_lower71  107
    u[5]      primal_lower72  979
    u[5]      primal_lower73  744
    u[5]      primal_lower74  827
    u[5]      primal_lower75  143
    u[5]      primal_lower76  684
    u[5]      primal_lower77  565
    u[5]      primal_lower78  580
    u[5]      primal_lower79  540
    u[5]      primal_lower80  931
    u[5]      primal_lower81  262
    u[5]      primal_lower82  293
    u[5]      primal_lower83  11
    u[5]      primal_lower84  307
    u[5]      primal_lower85  865
    u[5]      primal_lower86  510
    u[5]      primal_lower87  920
    u[5]      primal_lower88  519
    u[5]      primal_lower89  627
    u[5]      primal_lower90  993
    u[5]      primal_lower91  14
    u[5]      primal_lower92  531
    u[5]      primal_lower93  633
    u[5]      primal_lower94  991
    u[5]      primal_lower95  672
    u[5]      primal_lower96  852
    u[5]      primal_lower97  626
    u[5]      primal_lower98  663
    u[5]      primal_lower99  94
    u[5]      interdiction[5]  1
    u[5]      mccormick1[5]  -1
    u[5]      mccormick3[5]  1
    u[6]      primal_lower0  372
    u[6]      primal_lower1  963
    u[6]      primal_lower2  607
    u[6]      primal_lower3  669
    u[6]      primal_lower4  999
    u[6]      primal_lower5  794
    u[6]      primal_lower6  1
    u[6]      primal_lower7  493
    u[6]      primal_lower8  958
    u[6]      primal_lower9  310
    u[6]      primal_lower10  736
    u[6]      primal_lower11  656
    u[6]      primal_lower12  409
    u[6]      primal_lower13  615
    u[6]      primal_lower14  57
    u[6]      primal_lower15  919
    u[6]      primal_lower16  49
    u[6]      primal_lower17  451
    u[6]      primal_lower18  872
    u[6]      primal_lower19  988
    u[6]      primal_lower20  665
    u[6]      primal_lower21  9
    u[6]      primal_lower22  838
    u[6]      primal_lower23  98
    u[6]      primal_lower24  370
    u[6]      primal_lower25  219
    u[6]      primal_lower26  983
    u[6]      primal_lower27  581
    u[6]      primal_lower28  339
    u[6]      primal_lower29  25
    u[6]      primal_lower30  626
    u[6]      primal_lower31  512
    u[6]      primal_lower32  426
    u[6]      primal_lower33  543
    u[6]      primal_lower34  227
    u[6]      primal_lower35  140
    u[6]      primal_lower36  342
    u[6]      primal_lower37  919
    u[6]      primal_lower38  501
    u[6]      primal_lower39  774
    u[6]      primal_lower40  221
    u[6]      primal_lower41  585
    u[6]      primal_lower42  624
    u[6]      primal_lower43  884
    u[6]      primal_lower44  358
    u[6]      primal_lower45  931
    u[6]      primal_lower46  155
    u[6]      primal_lower47  89
    u[6]      primal_lower48  683
    u[6]      primal_lower49  215
    u[6]      primal_lower50  259
    u[6]      primal_lower51  875
    u[6]      primal_lower52  357
    u[6]      primal_lower53  929
    u[6]      primal_lower54  950
    u[6]      primal_lower55  342
    u[6]      primal_lower56  428
    u[6]      primal_lower57  647
    u[6]      primal_lower58  290
    u[6]      primal_lower59  146
    u[6]      primal_lower60  804
    u[6]      primal_lower61  845
    u[6]      primal_lower62  30
    u[6]      primal_lower63  383
    u[6]      primal_lower64  144
    u[6]      primal_lower65  403
    u[6]      primal_lower66  603
    u[6]      primal_lower67  390
    u[6]      primal_lower68  744
    u[6]      primal_lower69  934
    u[6]      primal_lower70  7
    u[6]      primal_lower71  798
    u[6]      primal_lower72  803
    u[6]      primal_lower73  744
    u[6]      primal_lower74  790
    u[6]      primal_lower75  167
    u[6]      primal_lower76  724
    u[6]      primal_lower77  864
    u[6]      primal_lower78  847
    u[6]      primal_lower79  591
    u[6]      primal_lower80  174
    u[6]      primal_lower81  977
    u[6]      primal_lower82  736
    u[6]      primal_lower83  486
    u[6]      primal_lower84  710
    u[6]      primal_lower85  676
    u[6]      primal_lower86  857
    u[6]      primal_lower87  875
    u[6]      primal_lower88  615
    u[6]      primal_lower89  427
    u[6]      primal_lower90  801
    u[6]      primal_lower91  334
    u[6]      primal_lower92  366
    u[6]      primal_lower93  740
    u[6]      primal_lower94  746
    u[6]      primal_lower95  907
    u[6]      primal_lower96  959
    u[6]      primal_lower97  450
    u[6]      primal_lower98  386
    u[6]      primal_lower99  766
    u[6]      interdiction[6]  1
    u[6]      mccormick1[6]  -1
    u[6]      mccormick3[6]  1
    u[7]      primal_lower0  926
    u[7]      primal_lower1  562
    u[7]      primal_lower2  102
    u[7]      primal_lower3  591
    u[7]      primal_lower4  681
    u[7]      primal_lower5  681
    u[7]      primal_lower6  723
    u[7]      primal_lower7  983
    u[7]      primal_lower8  957
    u[7]      primal_lower9  152
    u[7]      primal_lower10  634
    u[7]      primal_lower11  367
    u[7]      primal_lower12  851
    u[7]      primal_lower13  646
    u[7]      primal_lower14  944
    u[7]      primal_lower15  401
    u[7]      primal_lower16  883
    u[7]      primal_lower17  781
    u[7]      primal_lower18  810
    u[7]      primal_lower19  683
    u[7]      primal_lower20  488
    u[7]      primal_lower21  707
    u[7]      primal_lower22  941
    u[7]      primal_lower23  857
    u[7]      primal_lower24  113
    u[7]      primal_lower25  733
    u[7]      primal_lower26  553
    u[7]      primal_lower27  628
    u[7]      primal_lower28  682
    u[7]      primal_lower29  480
    u[7]      primal_lower30  684
    u[7]      primal_lower31  90
    u[7]      primal_lower32  700
    u[7]      primal_lower33  585
    u[7]      primal_lower34  402
    u[7]      primal_lower35  38
    u[7]      primal_lower36  101
    u[7]      primal_lower37  206
    u[7]      primal_lower38  663
    u[7]      primal_lower39  229
    u[7]      primal_lower40  135
    u[7]      primal_lower41  808
    u[7]      primal_lower42  183
    u[7]      primal_lower43  59
    u[7]      primal_lower44  328
    u[7]      primal_lower45  765
    u[7]      primal_lower46  485
    u[7]      primal_lower47  632
    u[7]      primal_lower48  154
    u[7]      primal_lower49  225
    u[7]      primal_lower50  165
    u[7]      primal_lower51  893
    u[7]      primal_lower52  300
    u[7]      primal_lower53  784
    u[7]      primal_lower54  320
    u[7]      primal_lower55  80
    u[7]      primal_lower56  59
    u[7]      primal_lower57  945
    u[7]      primal_lower58  444
    u[7]      primal_lower59  969
    u[7]      primal_lower60  358
    u[7]      primal_lower61  15
    u[7]      primal_lower62  877
    u[7]      primal_lower63  926
    u[7]      primal_lower64  674
    u[7]      primal_lower65  949
    u[7]      primal_lower66  122
    u[7]      primal_lower67  725
    u[7]      primal_lower68  303
    u[7]      primal_lower69  701
    u[7]      primal_lower70  977
    u[7]      primal_lower71  565
    u[7]      primal_lower72  109
    u[7]      primal_lower73  626
    u[7]      primal_lower74  525
    u[7]      primal_lower75  649
    u[7]      primal_lower76  870
    u[7]      primal_lower77  407
    u[7]      primal_lower78  422
    u[7]      primal_lower79  150
    u[7]      primal_lower80  581
    u[7]      primal_lower81  912
    u[7]      primal_lower82  487
    u[7]      primal_lower83  485
    u[7]      primal_lower84  85
    u[7]      primal_lower85  419
    u[7]      primal_lower86  352
    u[7]      primal_lower87  986
    u[7]      primal_lower88  929
    u[7]      primal_lower89  197
    u[7]      primal_lower90  427
    u[7]      primal_lower91  632
    u[7]      primal_lower92  877
    u[7]      primal_lower93  75
    u[7]      primal_lower94  721
    u[7]      primal_lower95  658
    u[7]      primal_lower96  790
    u[7]      primal_lower97  116
    u[7]      primal_lower98  393
    u[7]      primal_lower99  672
    u[7]      interdiction[7]  1
    u[7]      mccormick1[7]  -1
    u[7]      mccormick3[7]  1
    u[8]      primal_lower0  404
    u[8]      primal_lower1  483
    u[8]      primal_lower2  239
    u[8]      primal_lower3  133
    u[8]      primal_lower4  647
    u[8]      primal_lower5  346
    u[8]      primal_lower6  353
    u[8]      primal_lower7  853
    u[8]      primal_lower8  238
    u[8]      primal_lower9  398
    u[8]      primal_lower10  608
    u[8]      primal_lower11  1000
    u[8]      primal_lower12  49
    u[8]      primal_lower13  599
    u[8]      primal_lower14  585
    u[8]      primal_lower15  911
    u[8]      primal_lower16  9
    u[8]      primal_lower17  995
    u[8]      primal_lower18  176
    u[8]      primal_lower19  524
    u[8]      primal_lower20  889
    u[8]      primal_lower21  881
    u[8]      primal_lower22  878
    u[8]      primal_lower23  994
    u[8]      primal_lower24  986
    u[8]      primal_lower25  3
    u[8]      primal_lower26  359
    u[8]      primal_lower27  885
    u[8]      primal_lower28  483
    u[8]      primal_lower29  409
    u[8]      primal_lower30  250
    u[8]      primal_lower31  448
    u[8]      primal_lower32  482
    u[8]      primal_lower33  959
    u[8]      primal_lower34  299
    u[8]      primal_lower35  260
    u[8]      primal_lower36  110
    u[8]      primal_lower37  63
    u[8]      primal_lower38  669
    u[8]      primal_lower39  750
    u[8]      primal_lower40  925
    u[8]      primal_lower41  409
    u[8]      primal_lower42  200
    u[8]      primal_lower43  788
    u[8]      primal_lower44  174
    u[8]      primal_lower45  435
    u[8]      primal_lower46  627
    u[8]      primal_lower47  857
    u[8]      primal_lower48  555
    u[8]      primal_lower49  15
    u[8]      primal_lower50  907
    u[8]      primal_lower51  19
    u[8]      primal_lower52  117
    u[8]      primal_lower53  809
    u[8]      primal_lower54  766
    u[8]      primal_lower55  518
    u[8]      primal_lower56  172
    u[8]      primal_lower57  407
    u[8]      primal_lower58  978
    u[8]      primal_lower59  570
    u[8]      primal_lower60  716
    u[8]      primal_lower61  301
    u[8]      primal_lower62  918
    u[8]      primal_lower63  903
    u[8]      primal_lower64  888
    u[8]      primal_lower65  651
    u[8]      primal_lower66  179
    u[8]      primal_lower67  470
    u[8]      primal_lower68  952
    u[8]      primal_lower69  422
    u[8]      primal_lower70  503
    u[8]      primal_lower71  478
    u[8]      primal_lower72  795
    u[8]      primal_lower73  792
    u[8]      primal_lower74  254
    u[8]      primal_lower75  639
    u[8]      primal_lower76  196
    u[8]      primal_lower77  728
    u[8]      primal_lower78  983
    u[8]      primal_lower79  127
    u[8]      primal_lower80  702
    u[8]      primal_lower81  353
    u[8]      primal_lower82  800
    u[8]      primal_lower83  62
    u[8]      primal_lower84  766
    u[8]      primal_lower85  804
    u[8]      primal_lower86  289
    u[8]      primal_lower87  83
    u[8]      primal_lower88  55
    u[8]      primal_lower89  955
    u[8]      primal_lower90  257
    u[8]      primal_lower91  86
    u[8]      primal_lower92  150
    u[8]      primal_lower93  388
    u[8]      primal_lower94  10
    u[8]      primal_lower95  187
    u[8]      primal_lower96  399
    u[8]      primal_lower97  162
    u[8]      primal_lower98  562
    u[8]      primal_lower99  310
    u[8]      interdiction[8]  1
    u[8]      mccormick1[8]  -1
    u[8]      mccormick3[8]  1
    u[9]      primal_lower0  149
    u[9]      primal_lower1  872
    u[9]      primal_lower2  580
    u[9]      primal_lower3  934
    u[9]      primal_lower4  776
    u[9]      primal_lower5  591
    u[9]      primal_lower6  746
    u[9]      primal_lower7  782
    u[9]      primal_lower8  139
    u[9]      primal_lower9  543
    u[9]      primal_lower10  585
    u[9]      primal_lower11  141
    u[9]      primal_lower12  178
    u[9]      primal_lower13  588
    u[9]      primal_lower14  54
    u[9]      primal_lower15  728
    u[9]      primal_lower16  890
    u[9]      primal_lower17  68
    u[9]      primal_lower18  209
    u[9]      primal_lower19  409
    u[9]      primal_lower20  166
    u[9]      primal_lower21  882
    u[9]      primal_lower22  115
    u[9]      primal_lower23  31
    u[9]      primal_lower24  191
    u[9]      primal_lower25  388
    u[9]      primal_lower26  936
    u[9]      primal_lower27  442
    u[9]      primal_lower28  616
    u[9]      primal_lower29  70
    u[9]      primal_lower30  723
    u[9]      primal_lower31  145
    u[9]      primal_lower32  491
    u[9]      primal_lower33  104
    u[9]      primal_lower34  640
    u[9]      primal_lower35  845
    u[9]      primal_lower36  211
    u[9]      primal_lower37  260
    u[9]      primal_lower38  894
    u[9]      primal_lower39  171
    u[9]      primal_lower40  414
    u[9]      primal_lower41  102
    u[9]      primal_lower42  661
    u[9]      primal_lower43  617
    u[9]      primal_lower44  663
    u[9]      primal_lower45  244
    u[9]      primal_lower46  36
    u[9]      primal_lower47  278
    u[9]      primal_lower48  328
    u[9]      primal_lower49  392
    u[9]      primal_lower50  916
    u[9]      primal_lower51  76
    u[9]      primal_lower52  274
    u[9]      primal_lower53  462
    u[9]      primal_lower54  71
    u[9]      primal_lower55  119
    u[9]      primal_lower56  801
    u[9]      primal_lower57  984
    u[9]      primal_lower58  507
    u[9]      primal_lower59  767
    u[9]      primal_lower60  269
    u[9]      primal_lower61  630
    u[9]      primal_lower62  827
    u[9]      primal_lower63  396
    u[9]      primal_lower64  841
    u[9]      primal_lower65  932
    u[9]      primal_lower66  408
    u[9]      primal_lower67  851
    u[9]      primal_lower68  317
    u[9]      primal_lower69  899
    u[9]      primal_lower70  752
    u[9]      primal_lower71  619
    u[9]      primal_lower72  300
    u[9]      primal_lower73  401
    u[9]      primal_lower74  259
    u[9]      primal_lower75  968
    u[9]      primal_lower76  149
    u[9]      primal_lower77  709
    u[9]      primal_lower78  388
    u[9]      primal_lower79  612
    u[9]      primal_lower80  539
    u[9]      primal_lower81  38
    u[9]      primal_lower82  661
    u[9]      primal_lower83  923
    u[9]      primal_lower84  451
    u[9]      primal_lower85  257
    u[9]      primal_lower86  350
    u[9]      primal_lower87  848
    u[9]      primal_lower88  424
    u[9]      primal_lower89  588
    u[9]      primal_lower90  482
    u[9]      primal_lower91  255
    u[9]      primal_lower92  691
    u[9]      primal_lower93  113
    u[9]      primal_lower94  839
    u[9]      primal_lower95  1000
    u[9]      primal_lower96  964
    u[9]      primal_lower97  819
    u[9]      primal_lower98  495
    u[9]      primal_lower99  847
    u[9]      interdiction[9]  1
    u[9]      mccormick1[9]  -1
    u[9]      mccormick3[9]  1
    u[10]     primal_lower0  146
    u[10]     primal_lower1  330
    u[10]     primal_lower2  782
    u[10]     primal_lower3  523
    u[10]     primal_lower4  173
    u[10]     primal_lower5  673
    u[10]     primal_lower6  191
    u[10]     primal_lower7  499
    u[10]     primal_lower8  365
    u[10]     primal_lower9  292
    u[10]     primal_lower10  702
    u[10]     primal_lower11  543
    u[10]     primal_lower12  935
    u[10]     primal_lower13  366
    u[10]     primal_lower14  800
    u[10]     primal_lower15  381
    u[10]     primal_lower16  943
    u[10]     primal_lower17  649
    u[10]     primal_lower18  558
    u[10]     primal_lower19  579
    u[10]     primal_lower20  440
    u[10]     primal_lower21  647
    u[10]     primal_lower22  661
    u[10]     primal_lower23  321
    u[10]     primal_lower24  465
    u[10]     primal_lower25  41
    u[10]     primal_lower26  749
    u[10]     primal_lower27  700
    u[10]     primal_lower28  458
    u[10]     primal_lower29  336
    u[10]     primal_lower30  880
    u[10]     primal_lower31  950
    u[10]     primal_lower32  128
    u[10]     primal_lower33  973
    u[10]     primal_lower34  874
    u[10]     primal_lower35  50
    u[10]     primal_lower36  405
    u[10]     primal_lower37  358
    u[10]     primal_lower38  939
    u[10]     primal_lower39  21
    u[10]     primal_lower40  651
    u[10]     primal_lower41  944
    u[10]     primal_lower42  895
    u[10]     primal_lower43  443
    u[10]     primal_lower44  212
    u[10]     primal_lower45  105
    u[10]     primal_lower46  929
    u[10]     primal_lower47  704
    u[10]     primal_lower48  946
    u[10]     primal_lower49  597
    u[10]     primal_lower50  401
    u[10]     primal_lower51  521
    u[10]     primal_lower52  604
    u[10]     primal_lower53  368
    u[10]     primal_lower54  668
    u[10]     primal_lower55  284
    u[10]     primal_lower56  499
    u[10]     primal_lower57  261
    u[10]     primal_lower58  472
    u[10]     primal_lower59  225
    u[10]     primal_lower60  826
    u[10]     primal_lower61  179
    u[10]     primal_lower62  133
    u[10]     primal_lower63  622
    u[10]     primal_lower64  678
    u[10]     primal_lower65  857
    u[10]     primal_lower66  834
    u[10]     primal_lower67  389
    u[10]     primal_lower68  831
    u[10]     primal_lower69  837
    u[10]     primal_lower70  373
    u[10]     primal_lower71  685
    u[10]     primal_lower72  609
    u[10]     primal_lower73  838
    u[10]     primal_lower74  845
    u[10]     primal_lower75  869
    u[10]     primal_lower76  570
    u[10]     primal_lower77  303
    u[10]     primal_lower78  150
    u[10]     primal_lower79  134
    u[10]     primal_lower80  773
    u[10]     primal_lower81  392
    u[10]     primal_lower82  767
    u[10]     primal_lower83  861
    u[10]     primal_lower84  949
    u[10]     primal_lower85  195
    u[10]     primal_lower86  72
    u[10]     primal_lower87  146
    u[10]     primal_lower88  965
    u[10]     primal_lower89  409
    u[10]     primal_lower90  695
    u[10]     primal_lower91  252
    u[10]     primal_lower92  645
    u[10]     primal_lower93  499
    u[10]     primal_lower94  705
    u[10]     primal_lower95  778
    u[10]     primal_lower96  846
    u[10]     primal_lower97  264
    u[10]     primal_lower98  121
    u[10]     primal_lower99  100
    u[10]     interdiction[10]  1
    u[10]     mccormick1[10]  -1
    u[10]     mccormick3[10]  1
    u[11]     primal_lower0  742
    u[11]     primal_lower1  993
    u[11]     primal_lower2  693
    u[11]     primal_lower3  311
    u[11]     primal_lower4  601
    u[11]     primal_lower5  208
    u[11]     primal_lower6  347
    u[11]     primal_lower7  695
    u[11]     primal_lower8  980
    u[11]     primal_lower9  304
    u[11]     primal_lower10  818
    u[11]     primal_lower11  374
    u[11]     primal_lower12  115
    u[11]     primal_lower13  325
    u[11]     primal_lower14  87
    u[11]     primal_lower15  217
    u[11]     primal_lower16  931
    u[11]     primal_lower17  405
    u[11]     primal_lower18  298
    u[11]     primal_lower19  962
    u[11]     primal_lower20  239
    u[11]     primal_lower21  475
    u[11]     primal_lower22  660
    u[11]     primal_lower23  440
    u[11]     primal_lower24  936
    u[11]     primal_lower25  197
    u[11]     primal_lower26  57
    u[11]     primal_lower27  35
    u[11]     primal_lower28  889
    u[11]     primal_lower29  591
    u[11]     primal_lower30  764
    u[11]     primal_lower31  634
    u[11]     primal_lower32  44
    u[11]     primal_lower33  841
    u[11]     primal_lower34  697
    u[11]     primal_lower35  14
    u[11]     primal_lower36  300
    u[11]     primal_lower37  245
    u[11]     primal_lower38  711
    u[11]     primal_lower39  836
    u[11]     primal_lower40  767
    u[11]     primal_lower41  231
    u[11]     primal_lower42  230
    u[11]     primal_lower43  402
    u[11]     primal_lower44  16
    u[11]     primal_lower45  5
    u[11]     primal_lower46  965
    u[11]     primal_lower47  431
    u[11]     primal_lower48  545
    u[11]     primal_lower49  313
    u[11]     primal_lower50  525
    u[11]     primal_lower51  269
    u[11]     primal_lower52  947
    u[11]     primal_lower53  63
    u[11]     primal_lower54  528
    u[11]     primal_lower55  200
    u[11]     primal_lower56  250
    u[11]     primal_lower57  969
    u[11]     primal_lower58  660
    u[11]     primal_lower59  376
    u[11]     primal_lower60  294
    u[11]     primal_lower61  375
    u[11]     primal_lower62  476
    u[11]     primal_lower63  709
    u[11]     primal_lower64  138
    u[11]     primal_lower65  413
    u[11]     primal_lower66  465
    u[11]     primal_lower67  884
    u[11]     primal_lower68  102
    u[11]     primal_lower69  156
    u[11]     primal_lower70  713
    u[11]     primal_lower71  44
    u[11]     primal_lower72  157
    u[11]     primal_lower73  106
    u[11]     primal_lower74  204
    u[11]     primal_lower75  193
    u[11]     primal_lower76  998
    u[11]     primal_lower77  62
    u[11]     primal_lower78  349
    u[11]     primal_lower79  949
    u[11]     primal_lower80  388
    u[11]     primal_lower81  223
    u[11]     primal_lower82  590
    u[11]     primal_lower83  972
    u[11]     primal_lower84  156
    u[11]     primal_lower85  338
    u[11]     primal_lower86  831
    u[11]     primal_lower87  305
    u[11]     primal_lower88  937
    u[11]     primal_lower89  485
    u[11]     primal_lower90  451
    u[11]     primal_lower91  768
    u[11]     primal_lower92  28
    u[11]     primal_lower93  162
    u[11]     primal_lower94  184
    u[11]     primal_lower95  929
    u[11]     primal_lower96  485
    u[11]     primal_lower97  732
    u[11]     primal_lower98  176
    u[11]     primal_lower99  856
    u[11]     interdiction[11]  1
    u[11]     mccormick1[11]  -1
    u[11]     mccormick3[11]  1
    u[12]     primal_lower0  915
    u[12]     primal_lower1  170
    u[12]     primal_lower2  302
    u[12]     primal_lower3  420
    u[12]     primal_lower4  630
    u[12]     primal_lower5  305
    u[12]     primal_lower6  480
    u[12]     primal_lower7  556
    u[12]     primal_lower8  933
    u[12]     primal_lower9  349
    u[12]     primal_lower10  823
    u[12]     primal_lower11  95
    u[12]     primal_lower12  320
    u[12]     primal_lower13  422
    u[12]     primal_lower14  952
    u[12]     primal_lower15  870
    u[12]     primal_lower16  104
    u[12]     primal_lower17  858
    u[12]     primal_lower18  655
    u[12]     primal_lower19  259
    u[12]     primal_lower20  768
    u[12]     primal_lower21  752
    u[12]     primal_lower22  29
    u[12]     primal_lower23  953
    u[12]     primal_lower24  321
    u[12]     primal_lower25  458
    u[12]     primal_lower26  262
    u[12]     primal_lower27  468
    u[12]     primal_lower28  962
    u[12]     primal_lower29  192
    u[12]     primal_lower30  497
    u[12]     primal_lower31  647
    u[12]     primal_lower32  473
    u[12]     primal_lower33  110
    u[12]     primal_lower34  506
    u[12]     primal_lower35  531
    u[12]     primal_lower36  221
    u[12]     primal_lower37  398
    u[12]     primal_lower38  852
    u[12]     primal_lower39  365
    u[12]     primal_lower40  300
    u[12]     primal_lower41  120
    u[12]     primal_lower42  159
    u[12]     primal_lower43  379
    u[12]     primal_lower44  533
    u[12]     primal_lower45  594
    u[12]     primal_lower46  594
    u[12]     primal_lower47  584
    u[12]     primal_lower48  346
    u[12]     primal_lower49  918
    u[12]     primal_lower50  298
    u[12]     primal_lower51  994
    u[12]     primal_lower52  132
    u[12]     primal_lower53  144
    u[12]     primal_lower54  557
    u[12]     primal_lower55  909
    u[12]     primal_lower56  195
    u[12]     primal_lower57  278
    u[12]     primal_lower58  977
    u[12]     primal_lower59  225
    u[12]     primal_lower60  419
    u[12]     primal_lower61  988
    u[12]     primal_lower62  869
    u[12]     primal_lower63  646
    u[12]     primal_lower64  415
    u[12]     primal_lower65  354
    u[12]     primal_lower66  738
    u[12]     primal_lower67  893
    u[12]     primal_lower68  815
    u[12]     primal_lower69  445
    u[12]     primal_lower70  542
    u[12]     primal_lower71  205
    u[12]     primal_lower72  426
    u[12]     primal_lower73  183
    u[12]     primal_lower74  917
    u[12]     primal_lower75  902
    u[12]     primal_lower76  155
    u[12]     primal_lower77  159
    u[12]     primal_lower78  886
    u[12]     primal_lower79  814
    u[12]     primal_lower80  437
    u[12]     primal_lower81  400
    u[12]     primal_lower82  279
    u[12]     primal_lower83  253
    u[12]     primal_lower84  253
    u[12]     primal_lower85  203
    u[12]     primal_lower86  536
    u[12]     primal_lower87  498
    u[12]     primal_lower88  142
    u[12]     primal_lower89  618
    u[12]     primal_lower90  816
    u[12]     primal_lower91  453
    u[12]     primal_lower92  461
    u[12]     primal_lower93  43
    u[12]     primal_lower94  713
    u[12]     primal_lower95  818
    u[12]     primal_lower96  110
    u[12]     primal_lower97  473
    u[12]     primal_lower98  505
    u[12]     primal_lower99  157
    u[12]     interdiction[12]  1
    u[12]     mccormick1[12]  -1
    u[12]     mccormick3[12]  1
    u[13]     primal_lower0  455
    u[13]     primal_lower1  162
    u[13]     primal_lower2  174
    u[13]     primal_lower3  544
    u[13]     primal_lower4  810
    u[13]     primal_lower5  113
    u[13]     primal_lower6  100
    u[13]     primal_lower7  192
    u[13]     primal_lower8  29
    u[13]     primal_lower9  201
    u[13]     primal_lower10  283
    u[13]     primal_lower11  583
    u[13]     primal_lower12  476
    u[13]     primal_lower13  630
    u[13]     primal_lower14  792
    u[13]     primal_lower15  90
    u[13]     primal_lower16  676
    u[13]     primal_lower17  718
    u[13]     primal_lower18  427
    u[13]     primal_lower19  595
    u[13]     primal_lower20  848
    u[13]     primal_lower21  44
    u[13]     primal_lower22  933
    u[13]     primal_lower23  137
    u[13]     primal_lower24  113
    u[13]     primal_lower25  670
    u[13]     primal_lower26  866
    u[13]     primal_lower27  388
    u[13]     primal_lower28  514
    u[13]     primal_lower29  448
    u[13]     primal_lower30  845
    u[13]     primal_lower31  883
    u[13]     primal_lower32  93
    u[13]     primal_lower33  282
    u[13]     primal_lower34  74
    u[13]     primal_lower35  271
    u[13]     primal_lower36  717
    u[13]     primal_lower37  854
    u[13]     primal_lower38  360
    u[13]     primal_lower39  613
    u[13]     primal_lower40  184
    u[13]     primal_lower41  96
    u[13]     primal_lower42  791
    u[13]     primal_lower43  187
    u[13]     primal_lower44  801
    u[13]     primal_lower45  838
    u[13]     primal_lower46  182
    u[13]     primal_lower47  224
    u[13]     primal_lower48  826
    u[13]     primal_lower49  50
    u[13]     primal_lower50  878
    u[13]     primal_lower51  782
    u[13]     primal_lower52  948
    u[13]     primal_lower53  472
    u[13]     primal_lower54  689
    u[13]     primal_lower55  377
    u[13]     primal_lower56  755
    u[13]     primal_lower57  178
    u[13]     primal_lower58  509
    u[13]     primal_lower59  745
    u[13]     primal_lower60  95
    u[13]     primal_lower61  440
    u[13]     primal_lower62  749
    u[13]     primal_lower63  894
    u[13]     primal_lower64  883
    u[13]     primal_lower65  86
    u[13]     primal_lower66  786
    u[13]     primal_lower67  701
    u[13]     primal_lower68  111
    u[13]     primal_lower69  85
    u[13]     primal_lower70  10
    u[13]     primal_lower71  789
    u[13]     primal_lower72  774
    u[13]     primal_lower73  739
    u[13]     primal_lower74  589
    u[13]     primal_lower75  802
    u[13]     primal_lower76  311
    u[13]     primal_lower77  175
    u[13]     primal_lower78  230
    u[13]     primal_lower79  750
    u[13]     primal_lower80  109
    u[13]     primal_lower81  328
    u[13]     primal_lower82  791
    u[13]     primal_lower83  469
    u[13]     primal_lower84  157
    u[13]     primal_lower85  627
    u[13]     primal_lower86  752
    u[13]     primal_lower87  242
    u[13]     primal_lower88  834
    u[13]     primal_lower89  286
    u[13]     primal_lower90  92
    u[13]     primal_lower91  825
    u[13]     primal_lower92  149
    u[13]     primal_lower93  659
    u[13]     primal_lower94  281
    u[13]     primal_lower95  226
    u[13]     primal_lower96  838
    u[13]     primal_lower97  917
    u[13]     primal_lower98  449
    u[13]     primal_lower99  753
    u[13]     interdiction[13]  1
    u[13]     mccormick1[13]  -1
    u[13]     mccormick3[13]  1
    u[14]     primal_lower0  699
    u[14]     primal_lower1  499
    u[14]     primal_lower2  599
    u[14]     primal_lower3  332
    u[14]     primal_lower4  270
    u[14]     primal_lower5  378
    u[14]     primal_lower6  672
    u[14]     primal_lower7  468
    u[14]     primal_lower8  934
    u[14]     primal_lower9  445
    u[14]     primal_lower10  823
    u[14]     primal_lower11  792
    u[14]     primal_lower12  880
    u[14]     primal_lower13  55
    u[14]     primal_lower14  361
    u[14]     primal_lower15  214
    u[14]     primal_lower16  352
    u[14]     primal_lower17  490
    u[14]     primal_lower18  127
    u[14]     primal_lower19  620
    u[14]     primal_lower20  369
    u[14]     primal_lower21  960
    u[14]     primal_lower22  462
    u[14]     primal_lower23  18
    u[14]     primal_lower24  730
    u[14]     primal_lower25  754
    u[14]     primal_lower26  262
    u[14]     primal_lower27  5
    u[14]     primal_lower28  363
    u[14]     primal_lower29  225
    u[14]     primal_lower30  865
    u[14]     primal_lower31  575
    u[14]     primal_lower32  529
    u[14]     primal_lower33  238
    u[14]     primal_lower34  459
    u[14]     primal_lower35  203
    u[14]     primal_lower36  166
    u[14]     primal_lower37  615
    u[14]     primal_lower38  12
    u[14]     primal_lower39  310
    u[14]     primal_lower40  876
    u[14]     primal_lower41  625
    u[14]     primal_lower42  408
    u[14]     primal_lower43  996
    u[14]     primal_lower44  85
    u[14]     primal_lower45  618
    u[14]     primal_lower46  970
    u[14]     primal_lower47  81
    u[14]     primal_lower48  587
    u[14]     primal_lower49  318
    u[14]     primal_lower50  506
    u[14]     primal_lower51  490
    u[14]     primal_lower52  101
    u[14]     primal_lower53  41
    u[14]     primal_lower54  957
    u[14]     primal_lower55  757
    u[14]     primal_lower56  844
    u[14]     primal_lower57  70
    u[14]     primal_lower58  969
    u[14]     primal_lower59  362
    u[14]     primal_lower60  459
    u[14]     primal_lower61  900
    u[14]     primal_lower62  22
    u[14]     primal_lower63  407
    u[14]     primal_lower64  535
    u[14]     primal_lower65  754
    u[14]     primal_lower66  363
    u[14]     primal_lower67  358
    u[14]     primal_lower68  192
    u[14]     primal_lower69  734
    u[14]     primal_lower70  942
    u[14]     primal_lower71  494
    u[14]     primal_lower72  490
    u[14]     primal_lower73  687
    u[14]     primal_lower74  230
    u[14]     primal_lower75  942
    u[14]     primal_lower76  587
    u[14]     primal_lower77  352
    u[14]     primal_lower78  759
    u[14]     primal_lower79  455
    u[14]     primal_lower80  46
    u[14]     primal_lower81  89
    u[14]     primal_lower82  624
    u[14]     primal_lower83  678
    u[14]     primal_lower84  838
    u[14]     primal_lower85  124
    u[14]     primal_lower86  329
    u[14]     primal_lower87  771
    u[14]     primal_lower88  342
    u[14]     primal_lower89  522
    u[14]     primal_lower90  952
    u[14]     primal_lower91  37
    u[14]     primal_lower92  326
    u[14]     primal_lower93  364
    u[14]     primal_lower94  938
    u[14]     primal_lower95  867
    u[14]     primal_lower96  271
    u[14]     primal_lower97  825
    u[14]     primal_lower98  882
    u[14]     primal_lower99  685
    u[14]     interdiction[14]  1
    u[14]     mccormick1[14]  -1
    u[14]     mccormick3[14]  1
    u[15]     primal_lower0  471
    u[15]     primal_lower1  875
    u[15]     primal_lower2  679
    u[15]     primal_lower3  296
    u[15]     primal_lower4  450
    u[15]     primal_lower5  682
    u[15]     primal_lower6  76
    u[15]     primal_lower7  960
    u[15]     primal_lower8  694
    u[15]     primal_lower9  217
    u[15]     primal_lower10  915
    u[15]     primal_lower11  168
    u[15]     primal_lower12  28
    u[15]     primal_lower13  775
    u[15]     primal_lower14  521
    u[15]     primal_lower15  386
    u[15]     primal_lower16  788
    u[15]     primal_lower17  414
    u[15]     primal_lower18  995
    u[15]     primal_lower19  940
    u[15]     primal_lower20  417
    u[15]     primal_lower21  12
    u[15]     primal_lower22  310
    u[15]     primal_lower23  122
    u[15]     primal_lower24  866
    u[15]     primal_lower25  790
    u[15]     primal_lower26  98
    u[15]     primal_lower27  629
    u[15]     primal_lower28  947
    u[15]     primal_lower29  137
    u[15]     primal_lower30  269
    u[15]     primal_lower31  403
    u[15]     primal_lower32  333
    u[15]     primal_lower33  786
    u[15]     primal_lower34  867
    u[15]     primal_lower35  519
    u[15]     primal_lower36  894
    u[15]     primal_lower37  231
    u[15]     primal_lower38  232
    u[15]     primal_lower39  262
    u[15]     primal_lower40  728
    u[15]     primal_lower41  673
    u[15]     primal_lower42  968
    u[15]     primal_lower43  604
    u[15]     primal_lower44  401
    u[15]     primal_lower45  22
    u[15]     primal_lower46  886
    u[15]     primal_lower47  41
    u[15]     primal_lower48  883
    u[15]     primal_lower49  746
    u[15]     primal_lower50  238
    u[15]     primal_lower51  726
    u[15]     primal_lower52  421
    u[15]     primal_lower53  929
    u[15]     primal_lower54  961
    u[15]     primal_lower55  553
    u[15]     primal_lower56  748
    u[15]     primal_lower57  810
    u[15]     primal_lower58  125
    u[15]     primal_lower59  842
    u[15]     primal_lower60  711
    u[15]     primal_lower61  640
    u[15]     primal_lower62  846
    u[15]     primal_lower63  119
    u[15]     primal_lower64  891
    u[15]     primal_lower65  878
    u[15]     primal_lower66  467
    u[15]     primal_lower67  750
    u[15]     primal_lower68  992
    u[15]     primal_lower69  606
    u[15]     primal_lower70  898
    u[15]     primal_lower71  894
    u[15]     primal_lower72  750
    u[15]     primal_lower73  683
    u[15]     primal_lower74  118
    u[15]     primal_lower75  690
    u[15]     primal_lower76  791
    u[15]     primal_lower77  544
    u[15]     primal_lower78  871
    u[15]     primal_lower79  679
    u[15]     primal_lower80  134
    u[15]     primal_lower81  105
    u[15]     primal_lower82  768
    u[15]     primal_lower83  854
    u[15]     primal_lower84  190
    u[15]     primal_lower85  908
    u[15]     primal_lower86  241
    u[15]     primal_lower87  363
    u[15]     primal_lower88  98
    u[15]     primal_lower89  134
    u[15]     primal_lower90  628
    u[15]     primal_lower91  649
    u[15]     primal_lower92  174
    u[15]     primal_lower93  132
    u[15]     primal_lower94  802
    u[15]     primal_lower95  219
    u[15]     primal_lower96  327
    u[15]     primal_lower97  301
    u[15]     primal_lower98  58
    u[15]     primal_lower99  849
    u[15]     interdiction[15]  1
    u[15]     mccormick1[15]  -1
    u[15]     mccormick3[15]  1
    u[16]     primal_lower0  868
    u[16]     primal_lower1  291
    u[16]     primal_lower2  231
    u[16]     primal_lower3  413
    u[16]     primal_lower4  295
    u[16]     primal_lower5  82
    u[16]     primal_lower6  193
    u[16]     primal_lower7  645
    u[16]     primal_lower8  78
    u[16]     primal_lower9  942
    u[16]     primal_lower10  936
    u[16]     primal_lower11  232
    u[16]     primal_lower12  777
    u[16]     primal_lower13  455
    u[16]     primal_lower14  777
    u[16]     primal_lower15  903
    u[16]     primal_lower16  857
    u[16]     primal_lower17  851
    u[16]     primal_lower18  72
    u[16]     primal_lower19  708
    u[16]     primal_lower20  97
    u[16]     primal_lower21  817
    u[16]     primal_lower22  870
    u[16]     primal_lower23  410
    u[16]     primal_lower24  866
    u[16]     primal_lower25  915
    u[16]     primal_lower26  639
    u[16]     primal_lower27  949
    u[16]     primal_lower28  123
    u[16]     primal_lower29  465
    u[16]     primal_lower30  314
    u[16]     primal_lower31  760
    u[16]     primal_lower32  706
    u[16]     primal_lower33  31
    u[16]     primal_lower34  803
    u[16]     primal_lower35  340
    u[16]     primal_lower36  854
    u[16]     primal_lower37  447
    u[16]     primal_lower38  941
    u[16]     primal_lower39  406
    u[16]     primal_lower40  365
    u[16]     primal_lower41  689
    u[16]     primal_lower42  624
    u[16]     primal_lower43  700
    u[16]     primal_lower44  766
    u[16]     primal_lower45  107
    u[16]     primal_lower46  995
    u[16]     primal_lower47  201
    u[16]     primal_lower48  659
    u[16]     primal_lower49  863
    u[16]     primal_lower50  547
    u[16]     primal_lower51  523
    u[16]     primal_lower52  917
    u[16]     primal_lower53  217
    u[16]     primal_lower54  494
    u[16]     primal_lower55  990
    u[16]     primal_lower56  444
    u[16]     primal_lower57  287
    u[16]     primal_lower58  690
    u[16]     primal_lower59  514
    u[16]     primal_lower60  428
    u[16]     primal_lower61  485
    u[16]     primal_lower62  326
    u[16]     primal_lower63  799
    u[16]     primal_lower64  496
    u[16]     primal_lower65  435
    u[16]     primal_lower66  667
    u[16]     primal_lower67  78
    u[16]     primal_lower68  808
    u[16]     primal_lower69  550
    u[16]     primal_lower70  911
    u[16]     primal_lower71  846
    u[16]     primal_lower72  539
    u[16]     primal_lower73  544
    u[16]     primal_lower74  806
    u[16]     primal_lower75  39
    u[16]     primal_lower76  700
    u[16]     primal_lower77  40
    u[16]     primal_lower78  671
    u[16]     primal_lower79  303
    u[16]     primal_lower80  510
    u[16]     primal_lower81  609
    u[16]     primal_lower82  912
    u[16]     primal_lower83  742
    u[16]     primal_lower84  654
    u[16]     primal_lower85  908
    u[16]     primal_lower86  9
    u[16]     primal_lower87  91
    u[16]     primal_lower88  551
    u[16]     primal_lower89  995
    u[16]     primal_lower90  401
    u[16]     primal_lower91  950
    u[16]     primal_lower92  710
    u[16]     primal_lower93  636
    u[16]     primal_lower94  578
    u[16]     primal_lower95  371
    u[16]     primal_lower96  679
    u[16]     primal_lower97  994
    u[16]     primal_lower98  106
    u[16]     primal_lower99  670
    u[16]     interdiction[16]  1
    u[16]     mccormick1[16]  -1
    u[16]     mccormick3[16]  1
    u[17]     primal_lower0  531
    u[17]     primal_lower1  462
    u[17]     primal_lower2  882
    u[17]     primal_lower3  468
    u[17]     primal_lower4  430
    u[17]     primal_lower5  693
    u[17]     primal_lower6  1000
    u[17]     primal_lower7  828
    u[17]     primal_lower8  681
    u[17]     primal_lower9  365
    u[17]     primal_lower10  503
    u[17]     primal_lower11  259
    u[17]     primal_lower12  168
    u[17]     primal_lower13  322
    u[17]     primal_lower14  716
    u[17]     primal_lower15  6
    u[17]     primal_lower16  576
    u[17]     primal_lower17  922
    u[17]     primal_lower18  567
    u[17]     primal_lower19  175
    u[17]     primal_lower20  84
    u[17]     primal_lower21  776
    u[17]     primal_lower22  9
    u[17]     primal_lower23  661
    u[17]     primal_lower24  461
    u[17]     primal_lower25  170
    u[17]     primal_lower26  878
    u[17]     primal_lower27  256
    u[17]     primal_lower28  70
    u[17]     primal_lower29  948
    u[17]     primal_lower30  857
    u[17]     primal_lower31  719
    u[17]     primal_lower32  489
    u[17]     primal_lower33  662
    u[17]     primal_lower34  654
    u[17]     primal_lower35  971
    u[17]     primal_lower36  777
    u[17]     primal_lower37  914
    u[17]     primal_lower38  748
    u[17]     primal_lower39  505
    u[17]     primal_lower40  148
    u[17]     primal_lower41  972
    u[17]     primal_lower42  483
    u[17]     primal_lower43  47
    u[17]     primal_lower44  813
    u[17]     primal_lower45  962
    u[17]     primal_lower46  906
    u[17]     primal_lower47  820
    u[17]     primal_lower48  478
    u[17]     primal_lower49  158
    u[17]     primal_lower50  554
    u[17]     primal_lower51  354
    u[17]     primal_lower52  376
    u[17]     primal_lower53  300
    u[17]     primal_lower54  853
    u[17]     primal_lower55  373
    u[17]     primal_lower56  887
    u[17]     primal_lower57  390
    u[17]     primal_lower58  1
    u[17]     primal_lower59  557
    u[17]     primal_lower60  339
    u[17]     primal_lower61  916
    u[17]     primal_lower62  49
    u[17]     primal_lower63  138
    u[17]     primal_lower64  711
    u[17]     primal_lower65  610
    u[17]     primal_lower66  198
    u[17]     primal_lower67  809
    u[17]     primal_lower68  387
    u[17]     primal_lower69  969
    u[17]     primal_lower70  126
    u[17]     primal_lower71  177
    u[17]     primal_lower72  466
    u[17]     primal_lower73  119
    u[17]     primal_lower74  849
    u[17]     primal_lower75  430
    u[17]     primal_lower76  259
    u[17]     primal_lower77  827
    u[17]     primal_lower78  242
    u[17]     primal_lower79  898
    u[17]     primal_lower80  553
    u[17]     primal_lower81  844
    u[17]     primal_lower82  123
    u[17]     primal_lower83  553
    u[17]     primal_lower84  665
    u[17]     primal_lower85  167
    u[17]     primal_lower86  196
    u[17]     primal_lower87  342
    u[17]     primal_lower88  990
    u[17]     primal_lower89  698
    u[17]     primal_lower90  904
    u[17]     primal_lower91  325
    u[17]     primal_lower92  1
    u[17]     primal_lower93  959
    u[17]     primal_lower94  933
    u[17]     primal_lower95  982
    u[17]     primal_lower96  434
    u[17]     primal_lower97  897
    u[17]     primal_lower98  741
    u[17]     primal_lower99  285
    u[17]     interdiction[17]  1
    u[17]     mccormick1[17]  -1
    u[17]     mccormick3[17]  1
    u[18]     primal_lower0  304
    u[18]     primal_lower1  583
    u[18]     primal_lower2  75
    u[18]     primal_lower3  129
    u[18]     primal_lower4  243
    u[18]     primal_lower5  446
    u[18]     primal_lower6  709
    u[18]     primal_lower7  601
    u[18]     primal_lower8  890
    u[18]     primal_lower9  930
    u[18]     primal_lower10  356
    u[18]     primal_lower11  612
    u[18]     primal_lower12  861
    u[18]     primal_lower13  427
    u[18]     primal_lower14  717
    u[18]     primal_lower15  611
    u[18]     primal_lower16  389
    u[18]     primal_lower17  303
    u[18]     primal_lower18  212
    u[18]     primal_lower19  472
    u[18]     primal_lower20  589
    u[18]     primal_lower21  325
    u[18]     primal_lower22  866
    u[18]     primal_lower23  286
    u[18]     primal_lower24  518
    u[18]     primal_lower25  255
    u[18]     primal_lower26  507
    u[18]     primal_lower27  473
    u[18]     primal_lower28  743
    u[18]     primal_lower29  13
    u[18]     primal_lower30  638
    u[18]     primal_lower31  220
    u[18]     primal_lower32  46
    u[18]     primal_lower33  195
    u[18]     primal_lower34  455
    u[18]     primal_lower35  376
    u[18]     primal_lower36  490
    u[18]     primal_lower37  459
    u[18]     primal_lower38  881
    u[18]     primal_lower39  834
    u[18]     primal_lower40  729
    u[18]     primal_lower41  317
    u[18]     primal_lower42  700
    u[18]     primal_lower43  680
    u[18]     primal_lower44  866
    u[18]     primal_lower45  583
    u[18]     primal_lower46  63
    u[18]     primal_lower47  909
    u[18]     primal_lower48  535
    u[18]     primal_lower49  291
    u[18]     primal_lower50  927
    u[18]     primal_lower51  927
    u[18]     primal_lower52  721
    u[18]     primal_lower53  173
    u[18]     primal_lower54  218
    u[18]     primal_lower55  474
    u[18]     primal_lower56  952
    u[18]     primal_lower57  275
    u[18]     primal_lower58  734
    u[18]     primal_lower59  830
    u[18]     primal_lower60  392
    u[18]     primal_lower61  377
    u[18]     primal_lower62  450
    u[18]     primal_lower63  291
    u[18]     primal_lower64  124
    u[18]     primal_lower65  527
    u[18]     primal_lower66  359
    u[18]     primal_lower67  34
    u[18]     primal_lower68  148
    u[18]     primal_lower69  522
    u[18]     primal_lower70  115
    u[18]     primal_lower71  866
    u[18]     primal_lower72  103
    u[18]     primal_lower73  100
    u[18]     primal_lower74  578
    u[18]     primal_lower75  931
    u[18]     primal_lower76  720
    u[18]     primal_lower77  748
    u[18]     primal_lower78  851
    u[18]     primal_lower79  707
    u[18]     primal_lower80  410
    u[18]     primal_lower81  565
    u[18]     primal_lower82  556
    u[18]     primal_lower83  666
    u[18]     primal_lower84  874
    u[18]     primal_lower85  992
    u[18]     primal_lower86  445
    u[18]     primal_lower87  271
    u[18]     primal_lower88  963
    u[18]     primal_lower89  791
    u[18]     primal_lower90  861
    u[18]     primal_lower91  610
    u[18]     primal_lower92  194
    u[18]     primal_lower93  952
    u[18]     primal_lower94  870
    u[18]     primal_lower95  231
    u[18]     primal_lower96  907
    u[18]     primal_lower97  526
    u[18]     primal_lower98  6
    u[18]     primal_lower99  378
    u[18]     interdiction[18]  1
    u[18]     mccormick1[18]  -1
    u[18]     mccormick3[18]  1
    u[19]     primal_lower0  913
    u[19]     primal_lower1  20
    u[19]     primal_lower2  288
    u[19]     primal_lower3  970
    u[19]     primal_lower4  172
    u[19]     primal_lower5  891
    u[19]     primal_lower6  334
    u[19]     primal_lower7  762
    u[19]     primal_lower8  815
    u[19]     primal_lower9  587
    u[19]     primal_lower10  117
    u[19]     primal_lower11  401
    u[19]     primal_lower12  286
    u[19]     primal_lower13  944
    u[19]     primal_lower14  386
    u[19]     primal_lower15  844
    u[19]     primal_lower16  190
    u[19]     primal_lower17  432
    u[19]     primal_lower18  373
    u[19]     primal_lower19  909
    u[19]     primal_lower20  386
    u[19]     primal_lower21  718
    u[19]     primal_lower22  271
    u[19]     primal_lower23  875
    u[19]     primal_lower24  555
    u[19]     primal_lower25  760
    u[19]     primal_lower26  660
    u[19]     primal_lower27  358
    u[19]     primal_lower28  788
    u[19]     primal_lower29  450
    u[19]     primal_lower30  159
    u[19]     primal_lower31  149
    u[19]     primal_lower32  495
    u[19]     primal_lower33  644
    u[19]     primal_lower34  124
    u[19]     primal_lower35  985
    u[19]     primal_lower36  143
    u[19]     primal_lower37  152
    u[19]     primal_lower38  106
    u[19]     primal_lower39  935
    u[19]     primal_lower40  834
    u[19]     primal_lower41  2
    u[19]     primal_lower42  257
    u[19]     primal_lower43  909
    u[19]     primal_lower44  275
    u[19]     primal_lower45  512
    u[19]     primal_lower46  400
    u[19]     primal_lower47  266
    u[19]     primal_lower48  852
    u[19]     primal_lower49  204
    u[19]     primal_lower50  904
    u[19]     primal_lower51  928
    u[19]     primal_lower52  830
    u[19]     primal_lower53  82
    u[19]     primal_lower54  515
    u[19]     primal_lower55  115
    u[19]     primal_lower56  645
    u[19]     primal_lower57  276
    u[19]     primal_lower58  487
    u[19]     primal_lower59  643
    u[19]     primal_lower60  497
    u[19]     primal_lower61  842
    u[19]     primal_lower62  823
    u[19]     primal_lower63  560
    u[19]     primal_lower64  413
    u[19]     primal_lower65  544
    u[19]     primal_lower66  60
    u[19]     primal_lower67  503
    u[19]     primal_lower68  953
    u[19]     primal_lower69  743
    u[19]     primal_lower70  764
    u[19]     primal_lower71  383
    u[19]     primal_lower72  608
    u[19]     primal_lower73  917
    u[19]     primal_lower74  743
    u[19]     primal_lower75  988
    u[19]     primal_lower76  865
    u[19]     primal_lower77  537
    u[19]     primal_lower78  552
    u[19]     primal_lower79  224
    u[19]     primal_lower80  999
    u[19]     primal_lower81  122
    u[19]     primal_lower82  73
    u[19]     primal_lower83  447
    u[19]     primal_lower84  727
    u[19]     primal_lower85  829
    u[19]     primal_lower86  170
    u[19]     primal_lower87  100
    u[19]     primal_lower88  676
    u[19]     primal_lower89  920
    u[19]     primal_lower90  270
    u[19]     primal_lower91  195
    u[19]     primal_lower92  655
    u[19]     primal_lower93  661
    u[19]     primal_lower94  923
    u[19]     primal_lower95  868
    u[19]     primal_lower96  288
    u[19]     primal_lower97  183
    u[19]     primal_lower98  339
    u[19]     primal_lower99  947
    u[19]     interdiction[19]  1
    u[19]     mccormick1[19]  -1
    u[19]     mccormick3[19]  1
    z[0]      primal_upper  16
    z[0]      mccormick1[0]  1
    z[0]      mccormick2[0]  1
    z[0]      mccormick3[0]  -1
    z[1]      primal_upper  34
    z[1]      mccormick1[1]  1
    z[1]      mccormick2[1]  1
    z[1]      mccormick3[1]  -1
    z[2]      primal_upper  97
    z[2]      mccormick1[2]  1
    z[2]      mccormick2[2]  1
    z[2]      mccormick3[2]  -1
    z[3]      primal_upper  4
    z[3]      mccormick1[3]  1
    z[3]      mccormick2[3]  1
    z[3]      mccormick3[3]  -1
    z[4]      primal_upper  93
    z[4]      mccormick1[4]  1
    z[4]      mccormick2[4]  1
    z[4]      mccormick3[4]  -1
    z[5]      primal_upper  75
    z[5]      mccormick1[5]  1
    z[5]      mccormick2[5]  1
    z[5]      mccormick3[5]  -1
    z[6]      primal_upper  35
    z[6]      mccormick1[6]  1
    z[6]      mccormick2[6]  1
    z[6]      mccormick3[6]  -1
    z[7]      primal_upper  40
    z[7]      mccormick1[7]  1
    z[7]      mccormick2[7]  1
    z[7]      mccormick3[7]  -1
    z[8]      mccormick1[8]  1
    z[8]      mccormick2[8]  1
    z[8]      mccormick3[8]  -1
    z[9]      primal_upper  51
    z[9]      mccormick1[9]  1
    z[9]      mccormick2[9]  1
    z[9]      mccormick3[9]  -1
    z[10]     primal_upper  92
    z[10]     mccormick1[10]  1
    z[10]     mccormick2[10]  1
    z[10]     mccormick3[10]  -1
    z[11]     primal_upper  46
    z[11]     mccormick1[11]  1
    z[11]     mccormick2[11]  1
    z[11]     mccormick3[11]  -1
    z[12]     primal_upper  11
    z[12]     mccormick1[12]  1
    z[12]     mccormick2[12]  1
    z[12]     mccormick3[12]  -1
    z[13]     primal_upper  78
    z[13]     mccormick1[13]  1
    z[13]     mccormick2[13]  1
    z[13]     mccormick3[13]  -1
    z[14]     primal_upper  31
    z[14]     mccormick1[14]  1
    z[14]     mccormick2[14]  1
    z[14]     mccormick3[14]  -1
    z[15]     primal_upper  65
    z[15]     mccormick1[15]  1
    z[15]     mccormick2[15]  1
    z[15]     mccormick3[15]  -1
    z[16]     primal_upper  32
    z[16]     mccormick1[16]  1
    z[16]     mccormick2[16]  1
    z[16]     mccormick3[16]  -1
    z[17]     primal_upper  56
    z[17]     mccormick1[17]  1
    z[17]     mccormick2[17]  1
    z[17]     mccormick3[17]  -1
    z[18]     primal_upper  30
    z[18]     mccormick1[18]  1
    z[18]     mccormick2[18]  1
    z[18]     mccormick3[18]  -1
    z[19]     primal_upper  29
    z[19]     mccormick1[19]  1
    z[19]     mccormick2[19]  1
    z[19]     mccormick3[19]  -1
    MARKER    'MARKER'                 'INTEND'
RHS
    RHS1      primal_upper  2287
    RHS1      primal_lower0  934
    RHS1      primal_lower1  5406
    RHS1      primal_lower2  2301
    RHS1      primal_lower3  2463
    RHS1      primal_lower4  5383
    RHS1      primal_lower5  5080
    RHS1      primal_lower6  3859
    RHS1      primal_lower7  983
    RHS1      primal_lower8  2662
    RHS1      primal_lower9  942
    RHS1      primal_lower10  1000
    RHS1      primal_lower11  4288
    RHS1      primal_lower12  4935
    RHS1      primal_lower13  2229
    RHS1      primal_lower14  2823
    RHS1      primal_lower15  2705
    RHS1      primal_lower16  943
    RHS1      primal_lower17  2769
    RHS1      primal_lower18  995
    RHS1      primal_lower19  5480
    RHS1      primal_lower20  889
    RHS1      primal_lower21  5031
    RHS1      primal_lower22  941
    RHS1      primal_lower23  2370
    RHS1      primal_lower24  5248
    RHS1      primal_lower25  915
    RHS1      primal_lower26  2567
    RHS1      primal_lower27  2523
    RHS1      primal_lower28  2801
    RHS1      primal_lower29  2089
    RHS1      primal_lower30  2718
    RHS1      primal_lower31  2430
    RHS1      primal_lower32  820
    RHS1      primal_lower33  2525
    RHS1      primal_lower34  5302
    RHS1      primal_lower35  1986
    RHS1      primal_lower36  894
    RHS1      primal_lower37  4074
    RHS1      primal_lower38  941
    RHS1      primal_lower39  4632
    RHS1      primal_lower40  2651
    RHS1      primal_lower41  2707
    RHS1      primal_lower42  4496
    RHS1      primal_lower43  2368
    RHS1      primal_lower44  866
    RHS1      primal_lower45  4899
    RHS1      primal_lower46  2683
    RHS1      primal_lower47  4710
    RHS1      primal_lower48  5574
    RHS1      primal_lower49  4787
    RHS1      primal_lower50  5451
    RHS1      primal_lower51  994
    RHS1      primal_lower52  948
    RHS1      primal_lower53  2095
    RHS1      primal_lower54  6037
    RHS1      primal_lower55  4361
    RHS1      primal_lower56  952
    RHS1      primal_lower57  4495
    RHS1      primal_lower58  978
    RHS1      primal_lower59  969
    RHS1      primal_lower60  2432
    RHS1      primal_lower61  2671
    RHS1      primal_lower62  918
    RHS1      primal_lower63  2805
    RHS1      primal_lower64  2952
    RHS1      primal_lower65  2913
    RHS1      primal_lower66  985
    RHS1      primal_lower67  2636
    RHS1      primal_lower68  5664
    RHS1      primal_lower69  969
    RHS1      primal_lower70  977
    RHS1      primal_lower71  894
    RHS1      primal_lower72  979
    RHS1      primal_lower73  5533
    RHS1      primal_lower74  5744
    RHS1      primal_lower75  988
    RHS1      primal_lower76  998
    RHS1      primal_lower77  4912
    RHS1      primal_lower78  4922
    RHS1      primal_lower79  949
    RHS1      primal_lower80  2622
    RHS1      primal_lower81  4670
    RHS1      primal_lower82  967
    RHS1      primal_lower83  972
    RHS1      primal_lower84  949
    RHS1      primal_lower85  5264
    RHS1      primal_lower86  944
    RHS1      primal_lower87  2335
    RHS1      primal_lower88  2763
    RHS1      primal_lower89  3141
    RHS1      primal_lower90  993
    RHS1      primal_lower91  2130
    RHS1      primal_lower92  949
    RHS1      primal_lower93  2598
    RHS1      primal_lower94  3206
    RHS1      primal_lower95  5814
    RHS1      primal_lower96  2965
    RHS1      primal_lower97  2780
    RHS1      primal_lower98  3972
    RHS1      primal_lower99  947
    RHS1      interdiction[0]  1
    RHS1      interdiction[1]  1
    RHS1      interdiction[2]  1
    RHS1      interdiction[3]  1
    RHS1      interdiction[4]  1
    RHS1      interdiction[5]  1
    RHS1      interdiction[6]  1
    RHS1      interdiction[7]  1
    RHS1      interdiction[8]  1
    RHS1      interdiction[9]  1
    RHS1      interdiction[10]  1
    RHS1      interdiction[11]  1
    RHS1      interdiction[12]  1
    RHS1      interdiction[13]  1
    RHS1      interdiction[14]  1
    RHS1      interdiction[15]  1
    RHS1      interdiction[16]  1
    RHS1      interdiction[17]  1
    RHS1      interdiction[18]  1
    RHS1      interdiction[19]  1
    RHS1      mccormick3[0]  1
    RHS1      mccormick3[1]  1
    RHS1      mccormick3[2]  1
    RHS1      mccormick3[3]  1
    RHS1      mccormick3[4]  1
    RHS1      mccormick3[5]  1
    RHS1      mccormick3[6]  1
    RHS1      mccormick3[7]  1
    RHS1      mccormick3[8]  1
    RHS1      mccormick3[9]  1
    RHS1      mccormick3[10]  1
    RHS1      mccormick3[11]  1
    RHS1      mccormick3[12]  1
    RHS1      mccormick3[13]  1
    RHS1      mccormick3[14]  1
    RHS1      mccormick3[15]  1
    RHS1      mccormick3[16]  1
    RHS1      mccormick3[17]  1
    RHS1      mccormick3[18]  1
    RHS1      mccormick3[19]  1
BOUNDS
 BV BND1      x[0]    
 BV BND1      x[1]    
 BV BND1      x[2]    
 BV BND1      x[3]    
 BV BND1      x[4]    
 BV BND1      x[5]    
 BV BND1      x[6]    
 BV BND1      x[7]    
 BV BND1      x[8]    
 BV BND1      x[9]    
 BV BND1      x[10]   
 BV BND1      x[11]   
 BV BND1      x[12]   
 BV BND1      x[13]   
 BV BND1      x[14]   
 BV BND1      x[15]   
 BV BND1      x[16]   
 BV BND1      x[17]   
 BV BND1      x[18]   
 BV BND1      x[19]   
 BV BND1      y[0]    
 BV BND1      y[1]    
 BV BND1      y[2]    
 BV BND1      y[3]    
 BV BND1      y[4]    
 BV BND1      y[5]    
 BV BND1      y[6]    
 BV BND1      y[7]    
 BV BND1      y[8]    
 BV BND1      y[9]    
 BV BND1      y[10]   
 BV BND1      y[11]   
 BV BND1      y[12]   
 BV BND1      y[13]   
 BV BND1      y[14]   
 BV BND1      y[15]   
 BV BND1      y[16]   
 BV BND1      y[17]   
 BV BND1      y[18]   
 BV BND1      y[19]   
 BV BND1      u[0]    
 BV BND1      u[1]    
 BV BND1      u[2]    
 BV BND1      u[3]    
 BV BND1      u[4]    
 BV BND1      u[5]    
 BV BND1      u[6]    
 BV BND1      u[7]    
 BV BND1      u[8]    
 BV BND1      u[9]    
 BV BND1      u[10]   
 BV BND1      u[11]   
 BV BND1      u[12]   
 BV BND1      u[13]   
 BV BND1      u[14]   
 BV BND1      u[15]   
 BV BND1      u[16]   
 BV BND1      u[17]   
 BV BND1      u[18]   
 BV BND1      u[19]   
 BV BND1      z[0]    
 BV BND1      z[1]    
 BV BND1      z[2]    
 BV BND1      z[3]    
 BV BND1      z[4]    
 BV BND1      z[5]    
 BV BND1      z[6]    
 BV BND1      z[7]    
 BV BND1      z[8]    
 BV BND1      z[9]    
 BV BND1      z[10]   
 BV BND1      z[11]   
 BV BND1      z[12]   
 BV BND1      z[13]   
 BV BND1      z[14]   
 BV BND1      z[15]   
 BV BND1      z[16]   
 BV BND1      z[17]   
 BV BND1      z[18]   
 BV BND1      z[19]   
ENDATA
