\ Model knapsack_40_10_5
\ LP format - for model browsing. Use MPS format to capture full model detail.
\ Signature: 0xcd583f2aa9f42f06
Minimize
  10 x[0] + 10 x[1] + 10 x[2] + 10 x[3] + 10 x[4] + 10 x[5] + 10 x[6]
   + 10 x[7] + 10 x[8] + 10 x[9] + 10 x[10] + 10 x[11] + 10 x[12]
   + 10 x[13] + 10 x[14] + 10 x[15] + 10 x[16] + 10 x[17] + 10 x[18]
   + 10 x[19] + 10 x[20] + 10 x[21] + 10 x[22] + 10 x[23] + 10 x[24]
   + 10 x[25] + 10 x[26] + 10 x[27] + 10 x[28] + 10 x[29] + 10 x[30]
   + 10 x[31] + 10 x[32] + 10 x[33] + 10 x[34] + 10 x[35] + 10 x[36]
   + 10 x[37] + 10 x[38] + 10 x[39] - 379 y[0] - 471 y[1] - 821 y[2]
   - 309 y[3] - 294 y[4] - 834 y[5] - 46 y[6] - 364 y[7] - 51 y[8]
   - 611 y[9] - 676 y[10] - 692 y[11] - 600 y[12] - 539 y[13] - 284 y[14]
   - 677 y[15] - 859 y[16] - 555 y[17] - 647 y[18] - 482 y[19] - 230 y[20]
   - 72 y[21] - 929 y[22] - 745 y[23] - 974 y[24] - 831 y[25] - 765 y[26]
   - 256 y[27] - 703 y[28] - 137 y[29] - 522 y[30] - 881 y[31] - 81 y[32]
   - 488 y[33] - 744 y[34] - 918 y[35] - 342 y[36] - 584 y[37] - 123 y[38]
   - 388 y[39]
Subject To
 primal_upper: 686 y[0] + 599 y[1] + 937 y[2] + 822 y[3] + 419 y[4]
   + 132 y[5] + 676 y[6] + 838 y[7] + 532 y[8] + 429 y[9] + 994 y[10]
   + 446 y[11] + 619 y[12] + 743 y[13] + 419 y[14] + 423 y[15] + 316 y[16]
   + 323 y[17] + 840 y[18] + 89 y[19] + 844 y[20] + 378 y[21] + 211 y[22]
   + 713 y[23] + 523 y[24] + 891 y[25] + 225 y[26] + 226 y[27] + 660 y[28]
   + 442 y[29] + 144 y[30] + 430 y[31] + 226 y[32] + 672 y[33] + 203 y[34]
   + 580 y[35] + 763 y[36] + 463 y[37] + 283 y[38] + 73 y[39] + 69 z[0]
   + 60 z[1] + 94 z[2] + 82 z[3] + 42 z[4] + 13 z[5] + 68 z[6] + 84 z[7]
   + 53 z[8] + 43 z[9] + 99 z[10] + 45 z[11] + 62 z[12] + 74 z[13]
   + 42 z[14] + 42 z[15] + 32 z[16] + 32 z[17] + 84 z[18] + 9 z[19]
   + 84 z[20] + 38 z[21] + 21 z[22] + 71 z[23] + 52 z[24] + 89 z[25]
   + 22 z[26] + 23 z[27] + 66 z[28] + 44 z[29] + 14 z[30] + 43 z[31]
   + 23 z[32] + 67 z[33] + 20 z[34] + 58 z[35] + 76 z[36] + 46 z[37]
   + 28 z[38] + 7 z[39] <= 3372
 primal_lower0: 506 u[0] + 379 u[1] + 173 u[2] + 170 u[3] + 831 u[4]
   + 640 u[5] + 232 u[6] + 306 u[7] + 24 u[8] + 761 u[9] + 198 u[10]
   + 634 u[11] + 719 u[12] + 91 u[13] + 983 u[14] + 227 u[15] + 240 u[16]
   + 351 u[17] + 700 u[18] + 645 u[19] + 536 u[20] + 38 u[21] + 191 u[22]
   + 525 u[23] + 879 u[24] + 503 u[25] + 741 u[26] + 286 u[27] + 944 u[28]
   + 694 u[29] + 692 u[30] + 202 u[31] + 422 u[32] + 356 u[33] + 391 u[34]
   + 120 u[35] + 767 u[36] + 987 u[37] + 375 u[38] + 533 u[39] <= 9496
 primal_lower1: 632 u[0] + 185 u[1] + 139 u[2] + 64 u[3] + 637 u[4]
   + 286 u[5] + 590 u[6] + 304 u[7] + 878 u[8] + 239 u[9] + 780 u[10]
   + 792 u[11] + 413 u[12] + 337 u[13] + 29 u[14] + 521 u[15] + 142 u[16]
   + 357 u[17] + 202 u[18] + 579 u[19] + 902 u[20] + 468 u[21] + 893 u[22]
   + 547 u[23] + 533 u[24] + 693 u[25] + 435 u[26] + 516 u[27] + 62 u[28]
   + 972 u[29] + 554 u[30] + 720 u[31] + 844 u[32] + 946 u[33] + 813 u[34]
   + 838 u[35] + 741 u[36] + 809 u[37] + 885 u[38] + 819 u[39] <= 972
 primal_lower2: 603 u[0] + 940 u[1] + 142 u[2] + 75 u[3] + 48 u[4]
   + 177 u[5] + 537 u[6] + 723 u[7] + 89 u[8] + 818 u[9] + 815 u[10]
   + 939 u[11] + 656 u[12] + 892 u[13] + 272 u[14] + 812 u[15] + 153 u[16]
   + 384 u[17] + 109 u[18] + 854 u[19] + 673 u[20] + 991 u[21] + 520 u[22]
   + 934 u[23] + 376 u[24] + 896 u[25] + 22 u[26] + 607 u[27] + 521 u[28]
   + 319 u[29] + 349 u[30] + 11 u[31] + 327 u[32] + 309 u[33] + 392 u[34]
   + 201 u[35] + 520 u[36] + 996 u[37] + 720 u[38] + 502 u[39] <= 3370
 primal_lower3: 51 u[0] + 671 u[1] + 93 u[2] + 350 u[3] + 839 u[4]
   + 261 u[5] + 776 u[6] + 127 u[7] + 488 u[8] + 453 u[9] + 591 u[10]
   + 638 u[11] + 623 u[12] + 255 u[13] + 192 u[14] + 688 u[15] + 688 u[16]
   + 163 u[17] + 268 u[18] + 521 u[19] + 448 u[20] + 611 u[21] + 127 u[22]
   + 834 u[23] + 816 u[24] + 867 u[25] + 493 u[26] + 891 u[27] + 201 u[28]
   + 938 u[29] + 621 u[30] + 295 u[31] + 751 u[32] + 176 u[33] + 271 u[34]
   + 548 u[35] + 375 u[36] + 960 u[37] + 791 u[38] + 98 u[39] <= 9924
 primal_lower4: 239 u[0] + 624 u[1] + 186 u[2] + 823 u[3] + 708 u[4]
   + 829 u[5] + 573 u[6] + 919 u[7] + 13 u[8] + 942 u[9] + 459 u[10]
   + 951 u[11] + 580 u[12] + 560 u[13] + 476 u[14] + 568 u[15] + 805 u[16]
   + 900 u[17] + 49 u[18] + 570 u[19] + 205 u[20] + 675 u[21] + 860 u[22]
   + 970 u[23] + 892 u[24] + 436 u[25] + 706 u[26] + 691 u[27] + 21 u[28]
   + 587 u[29] + 569 u[30] + 271 u[31] + 275 u[32] + 97 u[33] + 12 u[34]
   + 797 u[35] + 204 u[36] + 536 u[37] + 764 u[38] + 658 u[39] <= 14666
 primal_lower5: 246 u[0] + 962 u[1] + 384 u[2] + u[3] + 530 u[4] + 440 u[5]
   + 867 u[6] + 474 u[7] + 787 u[8] + 312 u[9] + 994 u[10] + 313 u[11]
   + 994 u[12] + 274 u[13] + 899 u[14] + 611 u[15] + 347 u[16] + 150 u[17]
   + 231 u[18] + 788 u[19] + 435 u[20] + 878 u[21] + 42 u[22] + 741 u[23]
   + 435 u[24] + 918 u[25] + 88 u[26] + 230 u[27] + 612 u[28] + 693 u[29]
   + 648 u[30] + 498 u[31] + 874 u[32] + 579 u[33] + 242 u[34] + 767 u[35]
   + 426 u[36] + 283 u[37] + 986 u[38] + 317 u[39] <= 994
 primal_lower6: 879 u[0] + 824 u[1] + 618 u[2] + 407 u[3] + 876 u[4]
   + 997 u[5] + 253 u[6] + 63 u[7] + 45 u[8] + 182 u[9] + 643 u[10]
   + 663 u[11] + 860 u[12] + 360 u[13] + 996 u[14] + 256 u[15] + 221 u[16]
   + 156 u[17] + 273 u[18] + 554 u[19] + 821 u[20] + 419 u[21] + 420 u[22]
   + 714 u[23] + 548 u[24] + 868 u[25] + 282 u[26] + 227 u[27] + 373 u[28]
   + 491 u[29] + 433 u[30] + 271 u[31] + 275 u[32] + 553 u[33] + 188 u[34]
   + 5 u[35] + 220 u[36] + 552 u[37] + 12 u[38] + 682 u[39] <= 9240
 primal_lower7: 465 u[0] + 909 u[1] + 555 u[2] + 140 u[3] + 197 u[4]
   + 307 u[5] + 582 u[6] + 333 u[7] + 286 u[8] + 515 u[9] + 957 u[10]
   + 604 u[11] + 173 u[12] + 221 u[13] + 766 u[14] + 94 u[15] + 398 u[16]
   + 337 u[17] + 474 u[18] + 615 u[19] + 622 u[20] + 681 u[21] + 517 u[22]
   + 72 u[23] + 606 u[24] + 825 u[25] + 147 u[26] + 201 u[27] + 279 u[28]
   + 392 u[29] + 787 u[30] + 589 u[31] + 285 u[32] + 838 u[33] + 757 u[34]
   + 130 u[35] + 541 u[36] + 46 u[37] + 21 u[38] + 176 u[39] <= 5813
 primal_lower8: 315 u[0] + 188 u[1] + 110 u[2] + 251 u[3] + 552 u[4]
   + 361 u[5] + 97 u[6] + 355 u[7] + 945 u[8] + 778 u[9] + 143 u[10]
   + 907 u[11] + 616 u[12] + 84 u[13] + 368 u[14] + 820 u[15] + 529 u[16]
   + 288 u[17] + 157 u[18] + 782 u[19] + 985 u[20] + 911 u[21] + 176 u[22]
   + 318 u[23] + 952 u[24] + 272 u[25] + 358 u[26] + 303 u[27] + 361 u[28]
   + 167 u[29] + 341 u[30] + 811 u[31] + 287 u[32] + 669 u[33] + 688 u[34]
   + 33 u[35] + 664 u[36] + 556 u[37] + 312 u[38] + 806 u[39] <= 985
 primal_lower9: 326 u[0] + 671 u[1] + 25 u[2] + 286 u[3] + 835 u[4]
   + 76 u[5] + 364 u[6] + 822 u[7] + 364 u[8] + 405 u[9] + 290 u[10]
   + 126 u[11] + 523 u[12] + 647 u[13] + 947 u[14] + 231 u[15] + 108 u[16]
   + 651 u[17] + 624 u[18] + 545 u[19] + 580 u[20] + 682 u[21] + 115 u[22]
   + 249 u[23] + 699 u[24] + 467 u[25] + 97 u[26] + 538 u[27] + 4 u[28]
   + 370 u[29] + 112 u[30] + 198 u[31] + 106 u[32] + 560 u[33] + 739 u[34]
   + 484 u[35] + 115 u[36] + 495 u[37] + 843 u[38] + 193 u[39] <= 2752
 interdiction[0]: x[0] + u[0] <= 1
 interdiction[1]: x[1] + u[1] <= 1
 interdiction[2]: x[2] + u[2] <= 1
 interdiction[3]: x[3] + u[3] <= 1
 interdiction[4]: x[4] + u[4] <= 1
 interdiction[5]: x[5] + u[5] <= 1
 interdiction[6]: x[6] + u[6] <= 1
 interdiction[7]: x[7] + u[7] <= 1
 interdiction[8]: x[8] + u[8] <= 1
 interdiction[9]: x[9] + u[9] <= 1
 interdiction[10]: x[10] + u[10] <= 1
 interdiction[11]: x[11] + u[11] <= 1
 interdiction[12]: x[12] + u[12] <= 1
 interdiction[13]: x[13] + u[13] <= 1
 interdiction[14]: x[14] + u[14] <= 1
 interdiction[15]: x[15] + u[15] <= 1
 interdiction[16]: x[16] + u[16] <= 1
 interdiction[17]: x[17] + u[17] <= 1
 interdiction[18]: x[18] + u[18] <= 1
 interdiction[19]: x[19] + u[19] <= 1
 interdiction[20]: x[20] + u[20] <= 1
 interdiction[21]: x[21] + u[21] <= 1
 interdiction[22]: x[22] + u[22] <= 1
 interdiction[23]: x[23] + u[23] <= 1
 interdiction[24]: x[24] + u[24] <= 1
 interdiction[25]: x[25] + u[25] <= 1
 interdiction[26]: x[26] + u[26] <= 1
 interdiction[27]: x[27] + u[27] <= 1
 interdiction[28]: x[28] + u[28] <= 1
 interdiction[29]: x[29] + u[29] <= 1
 interdiction[30]: x[30] + u[30] <= 1
 interdiction[31]: x[31] + u[31] <= 1
 interdiction[32]: x[32] + u[32] <= 1
 interdiction[33]: x[33] + u[33] <= 1
 interdiction[34]: x[34] + u[34] <= 1
 interdiction[35]: x[35] + u[35] <= 1
 interdiction[36]: x[36] + u[36] <= 1
 interdiction[37]: x[37] + u[37] <= 1
 interdiction[38]: x[38] + u[38] <= 1
 interdiction[39]: x[39] + u[39] <= 1
 mccormick1[0]: - u[0] + z[0] <= 0
 mccormick1[1]: - u[1] + z[1] <= 0
 mccormick1[2]: - u[2] + z[2] <= 0
 mccormick1[3]: - u[3] + z[3] <= 0
 mccormick1[4]: - u[4] + z[4] <= 0
 mccormick1[5]: - u[5] + z[5] <= 0
 mccormick1[6]: - u[6] + z[6] <= 0
 mccormick1[7]: - u[7] + z[7] <= 0
 mccormick1[8]: - u[8] + z[8] <= 0
 mccormick1[9]: - u[9] + z[9] <= 0
 mccormick1[10]: - u[10] + z[10] <= 0
 mccormick1[11]: - u[11] + z[11] <= 0
 mccormick1[12]: - u[12] + z[12] <= 0
 mccormick1[13]: - u[13] + z[13] <= 0
 mccormick1[14]: - u[14] + z[14] <= 0
 mccormick1[15]: - u[15] + z[15] <= 0
 mccormick1[16]: - u[16] + z[16] <= 0
 mccormick1[17]: - u[17] + z[17] <= 0
 mccormick1[18]: - u[18] + z[18] <= 0
 mccormick1[19]: - u[19] + z[19] <= 0
 mccormick1[20]: - u[20] + z[20] <= 0
 mccormick1[21]: - u[21] + z[21] <= 0
 mccormick1[22]: - u[22] + z[22] <= 0
 mccormick1[23]: - u[23] + z[23] <= 0
 mccormick1[24]: - u[24] + z[24] <= 0
 mccormick1[25]: - u[25] + z[25] <= 0
 mccormick1[26]: - u[26] + z[26] <= 0
 mccormick1[27]: - u[27] + z[27] <= 0
 mccormick1[28]: - u[28] + z[28] <= 0
 mccormick1[29]: - u[29] + z[29] <= 0
 mccormick1[30]: - u[30] + z[30] <= 0
 mccormick1[31]: - u[31] + z[31] <= 0
 mccormick1[32]: - u[32] + z[32] <= 0
 mccormick1[33]: - u[33] + z[33] <= 0
 mccormick1[34]: - u[34] + z[34] <= 0
 mccormick1[35]: - u[35] + z[35] <= 0
 mccormick1[36]: - u[36] + z[36] <= 0
 mccormick1[37]: - u[37] + z[37] <= 0
 mccormick1[38]: - u[38] + z[38] <= 0
 mccormick1[39]: - u[39] + z[39] <= 0
 mccormick2[0]: - y[0] + z[0] <= 0
 mccormick2[1]: - y[1] + z[1] <= 0
 mccormick2[2]: - y[2] + z[2] <= 0
 mccormick2[3]: - y[3] + z[3] <= 0
 mccormick2[4]: - y[4] + z[4] <= 0
 mccormick2[5]: - y[5] + z[5] <= 0
 mccormick2[6]: - y[6] + z[6] <= 0
 mccormick2[7]: - y[7] + z[7] <= 0
 mccormick2[8]: - y[8] + z[8] <= 0
 mccormick2[9]: - y[9] + z[9] <= 0
 mccormick2[10]: - y[10] + z[10] <= 0
 mccormick2[11]: - y[11] + z[11] <= 0
 mccormick2[12]: - y[12] + z[12] <= 0
 mccormick2[13]: - y[13] + z[13] <= 0
 mccormick2[14]: - y[14] + z[14] <= 0
 mccormick2[15]: - y[15] + z[15] <= 0
 mccormick2[16]: - y[16] + z[16] <= 0
 mccormick2[17]: - y[17] + z[17] <= 0
 mccormick2[18]: - y[18] + z[18] <= 0
 mccormick2[19]: - y[19] + z[19] <= 0
 mccormick2[20]: - y[20] + z[20] <= 0
 mccormick2[21]: - y[21] + z[21] <= 0
 mccormick2[22]: - y[22] + z[22] <= 0
 mccormick2[23]: - y[23] + z[23] <= 0
 mccormick2[24]: - y[24] + z[24] <= 0
 mccormick2[25]: - y[25] + z[25] <= 0
 mccormick2[26]: - y[26] + z[26] <= 0
 mccormick2[27]: - y[27] + z[27] <= 0
 mccormick2[28]: - y[28] + z[28] <= 0
 mccormick2[29]: - y[29] + z[29] <= 0
 mccormick2[30]: - y[30] + z[30] <= 0
 mccormick2[31]: - y[31] + z[31] <= 0
 mccormick2[32]: - y[32] + z[32] <= 0
 mccormick2[33]: - y[33] + z[33] <= 0
 mccormick2[34]: - y[34] + z[34] <= 0
 mccormick2[35]: - y[35] + z[35] <= 0
 mccormick2[36]: - y[36] + z[36] <= 0
 mccormick2[37]: - y[37] + z[37] <= 0
 mccormick2[38]: - y[38] + z[38] <= 0
 mccormick2[39]: - y[39] + z[39] <= 0
 mccormick3[0]: y[0] + u[0] - z[0] <= 1
 mccormick3[1]: y[1] + u[1] - z[1] <= 1
 mccormick3[2]: y[2] + u[2] - z[2] <= 1
 mccormick3[3]: y[3] + u[3] - z[3] <= 1
 mccormick3[4]: y[4] + u[4] - z[4] <= 1
 mccormick3[5]: y[5] + u[5] - z[5] <= 1
 mccormick3[6]: y[6] + u[6] - z[6] <= 1
 mccormick3[7]: y[7] + u[7] - z[7] <= 1
 mccormick3[8]: y[8] + u[8] - z[8] <= 1
 mccormick3[9]: y[9] + u[9] - z[9] <= 1
 mccormick3[10]: y[10] + u[10] - z[10] <= 1
 mccormick3[11]: y[11] + u[11] - z[11] <= 1
 mccormick3[12]: y[12] + u[12] - z[12] <= 1
 mccormick3[13]: y[13] + u[13] - z[13] <= 1
 mccormick3[14]: y[14] + u[14] - z[14] <= 1
 mccormick3[15]: y[15] + u[15] - z[15] <= 1
 mccormick3[16]: y[16] + u[16] - z[16] <= 1
 mccormick3[17]: y[17] + u[17] - z[17] <= 1
 mccormick3[18]: y[18] + u[18] - z[18] <= 1
 mccormick3[19]: y[19] + u[19] - z[19] <= 1
 mccormick3[20]: y[20] + u[20] - z[20] <= 1
 mccormick3[21]: y[21] + u[21] - z[21] <= 1
 mccormick3[22]: y[22] + u[22] - z[22] <= 1
 mccormick3[23]: y[23] + u[23] - z[23] <= 1
 mccormick3[24]: y[24] + u[24] - z[24] <= 1
 mccormick3[25]: y[25] + u[25] - z[25] <= 1
 mccormick3[26]: y[26] + u[26] - z[26] <= 1
 mccormick3[27]: y[27] + u[27] - z[27] <= 1
 mccormick3[28]: y[28] + u[28] - z[28] <= 1
 mccormick3[29]: y[29] + u[29] - z[29] <= 1
 mccormick3[30]: y[30] + u[30] - z[30] <= 1
 mccormick3[31]: y[31] + u[31] - z[31] <= 1
 mccormick3[32]: y[32] + u[32] - z[32] <= 1
 mccormick3[33]: y[33] + u[33] - z[33] <= 1
 mccormick3[34]: y[34] + u[34] - z[34] <= 1
 mccormick3[35]: y[35] + u[35] - z[35] <= 1
 mccormick3[36]: y[36] + u[36] - z[36] <= 1
 mccormick3[37]: y[37] + u[37] - z[37] <= 1
 mccormick3[38]: y[38] + u[38] - z[38] <= 1
 mccormick3[39]: y[39] + u[39] - z[39] <= 1
Bounds
Binaries
 x[0] x[1] x[2] x[3] x[4] x[5] x[6] x[7] x[8] x[9] x[10] x[11] x[12] x[13]
 x[14] x[15] x[16] x[17] x[18] x[19] x[20] x[21] x[22] x[23] x[24] x[25]
 x[26] x[27] x[28] x[29] x[30] x[31] x[32] x[33] x[34] x[35] x[36] x[37]
 x[38] x[39] y[0] y[1] y[2] y[3] y[4] y[5] y[6] y[7] y[8] y[9] y[10] y[11]
 y[12] y[13] y[14] y[15] y[16] y[17] y[18] y[19] y[20] y[21] y[22] y[23]
 y[24] y[25] y[26] y[27] y[28] y[29] y[30] y[31] y[32] y[33] y[34] y[35]
 y[36] y[37] y[38] y[39] u[0] u[1] u[2] u[3] u[4] u[5] u[6] u[7] u[8] u[9]
 u[10] u[11] u[12] u[13] u[14] u[15] u[16] u[17] u[18] u[19] u[20] u[21]
 u[22] u[23] u[24] u[25] u[26] u[27] u[28] u[29] u[30] u[31] u[32] u[33]
 u[34] u[35] u[36] u[37] u[38] u[39] z[0] z[1] z[2] z[3] z[4] z[5] z[6]
 z[7] z[8] z[9] z[10] z[11] z[12] z[13] z[14] z[15] z[16] z[17] z[18] z[19]
 z[20] z[21] z[22] z[23] z[24] z[25] z[26] z[27] z[28] z[29] z[30] z[31]
 z[32] z[33] z[34] z[35] z[36] z[37] z[38] z[39]
End
