* Signature: 0x6357969ace1194f9
NAME knapsack_20_100_4
ROWS
 N  OBJ
 L  primal_upper
 L  primal_lower0
 L  primal_lower1
 L  primal_lower2
 L  primal_lower3
 L  primal_lower4
 L  primal_lower5
 L  primal_lower6
 L  primal_lower7
 L  primal_lower8
 L  primal_lower9
 L  primal_lower10
 L  primal_lower11
 L  primal_lower12
 L  primal_lower13
 L  primal_lower14
 L  primal_lower15
 L  primal_lower16
 L  primal_lower17
 L  primal_lower18
 L  primal_lower19
 L  primal_lower20
 L  primal_lower21
 L  primal_lower22
 L  primal_lower23
 L  primal_lower24
 L  primal_lower25
 L  primal_lower26
 L  primal_lower27
 L  primal_lower28
 L  primal_lower29
 L  primal_lower30
 L  primal_lower31
 L  primal_lower32
 L  primal_lower33
 L  primal_lower34
 L  primal_lower35
 L  primal_lower36
 L  primal_lower37
 L  primal_lower38
 L  primal_lower39
 L  primal_lower40
 L  primal_lower41
 L  primal_lower42
 L  primal_lower43
 L  primal_lower44
 L  primal_lower45
 L  primal_lower46
 L  primal_lower47
 L  primal_lower48
 L  primal_lower49
 L  primal_lower50
 L  primal_lower51
 L  primal_lower52
 L  primal_lower53
 L  primal_lower54
 L  primal_lower55
 L  primal_lower56
 L  primal_lower57
 L  primal_lower58
 L  primal_lower59
 L  primal_lower60
 L  primal_lower61
 L  primal_lower62
 L  primal_lower63
 L  primal_lower64
 L  primal_lower65
 L  primal_lower66
 L  primal_lower67
 L  primal_lower68
 L  primal_lower69
 L  primal_lower70
 L  primal_lower71
 L  primal_lower72
 L  primal_lower73
 L  primal_lower74
 L  primal_lower75
 L  primal_lower76
 L  primal_lower77
 L  primal_lower78
 L  primal_lower79
 L  primal_lower80
 L  primal_lower81
 L  primal_lower82
 L  primal_lower83
 L  primal_lower84
 L  primal_lower85
 L  primal_lower86
 L  primal_lower87
 L  primal_lower88
 L  primal_lower89
 L  primal_lower90
 L  primal_lower91
 L  primal_lower92
 L  primal_lower93
 L  primal_lower94
 L  primal_lower95
 L  primal_lower96
 L  primal_lower97
 L  primal_lower98
 L  primal_lower99
 L  interdiction[0]
 L  interdiction[1]
 L  interdiction[2]
 L  interdiction[3]
 L  interdiction[4]
 L  interdiction[5]
 L  interdiction[6]
 L  interdiction[7]
 L  interdiction[8]
 L  interdiction[9]
 L  interdiction[10]
 L  interdiction[11]
 L  interdiction[12]
 L  interdiction[13]
 L  interdiction[14]
 L  interdiction[15]
 L  interdiction[16]
 L  interdiction[17]
 L  interdiction[18]
 L  interdiction[19]
 L  mccormick1[0]
 L  mccormick1[1]
 L  mccormick1[2]
 L  mccormick1[3]
 L  mccormick1[4]
 L  mccormick1[5]
 L  mccormick1[6]
 L  mccormick1[7]
 L  mccormick1[8]
 L  mccormick1[9]
 L  mccormick1[10]
 L  mccormick1[11]
 L  mccormick1[12]
 L  mccormick1[13]
 L  mccormick1[14]
 L  mccormick1[15]
 L  mccormick1[16]
 L  mccormick1[17]
 L  mccormick1[18]
 L  mccormick1[19]
 L  mccormick2[0]
 L  mccormick2[1]
 L  mccormick2[2]
 L  mccormick2[3]
 L  mccormick2[4]
 L  mccormick2[5]
 L  mccormick2[6]
 L  mccormick2[7]
 L  mccormick2[8]
 L  mccormick2[9]
 L  mccormick2[10]
 L  mccormick2[11]
 L  mccormick2[12]
 L  mccormick2[13]
 L  mccormick2[14]
 L  mccormick2[15]
 L  mccormick2[16]
 L  mccormick2[17]
 L  mccormick2[18]
 L  mccormick2[19]
 L  mccormick3[0]
 L  mccormick3[1]
 L  mccormick3[2]
 L  mccormick3[3]
 L  mccormick3[4]
 L  mccormick3[5]
 L  mccormick3[6]
 L  mccormick3[7]
 L  mccormick3[8]
 L  mccormick3[9]
 L  mccormick3[10]
 L  mccormick3[11]
 L  mccormick3[12]
 L  mccormick3[13]
 L  mccormick3[14]
 L  mccormick3[15]
 L  mccormick3[16]
 L  mccormick3[17]
 L  mccormick3[18]
 L  mccormick3[19]
COLUMNS
    MARKER    'MARKER'                 'INTORG'
    x[0]      OBJ       10
    x[0]      interdiction[0]  1
    x[1]      OBJ       10
    x[1]      interdiction[1]  1
    x[2]      OBJ       10
    x[2]      interdiction[2]  1
    x[3]      OBJ       10
    x[3]      interdiction[3]  1
    x[4]      OBJ       10
    x[4]      interdiction[4]  1
    x[5]      OBJ       10
    x[5]      interdiction[5]  1
    x[6]      OBJ       10
    x[6]      interdiction[6]  1
    x[7]      OBJ       10
    x[7]      interdiction[7]  1
    x[8]      OBJ       10
    x[8]      interdiction[8]  1
    x[9]      OBJ       10
    x[9]      interdiction[9]  1
    x[10]     OBJ       10
    x[10]     interdiction[10]  1
    x[11]     OBJ       10
    x[11]     interdiction[11]  1
    x[12]     OBJ       10
    x[12]     interdiction[12]  1
    x[13]     OBJ       10
    x[13]     interdiction[13]  1
    x[14]     OBJ       10
    x[14]     interdiction[14]  1
    x[15]     OBJ       10
    x[15]     interdiction[15]  1
    x[16]     OBJ       10
    x[16]     interdiction[16]  1
    x[17]     OBJ       10
    x[17]     interdiction[17]  1
    x[18]     OBJ       10
    x[18]     interdiction[18]  1
    x[19]     OBJ       10
    x[19]     interdiction[19]  1
    y[0]      OBJ       -682
    y[0]      primal_upper  180
    y[0]      mccormick2[0]  -1
    y[0]      mccormick3[0]  1
    y[1]      OBJ       -531
    y[1]      primal_upper  272
    y[1]      mccormick2[1]  -1
    y[1]      mccormick3[1]  1
    y[2]      OBJ       -796
    y[2]      primal_upper  518
    y[2]      mccormick2[2]  -1
    y[2]      mccormick3[2]  1
    y[3]      OBJ       -312
    y[3]      primal_upper  775
    y[3]      mccormick2[3]  -1
    y[3]      mccormick3[3]  1
    y[4]      OBJ       -646
    y[4]      primal_upper  696
    y[4]      mccormick2[4]  -1
    y[4]      mccormick3[4]  1
    y[5]      OBJ       -901
    y[5]      primal_upper  366
    y[5]      mccormick2[5]  -1
    y[5]      mccormick3[5]  1
    y[6]      OBJ       -782
    y[6]      primal_upper  65
    y[6]      mccormick2[6]  -1
    y[6]      mccormick3[6]  1
    y[7]      OBJ       -592
    y[7]      primal_upper  232
    y[7]      mccormick2[7]  -1
    y[7]      mccormick3[7]  1
    y[8]      OBJ       -499
    y[8]      primal_upper  169
    y[8]      mccormick2[8]  -1
    y[8]      mccormick3[8]  1
    y[9]      OBJ       -135
    y[9]      primal_upper  542
    y[9]      mccormick2[9]  -1
    y[9]      mccormick3[9]  1
    y[10]     OBJ       -779
    y[10]     primal_upper  512
    y[10]     mccormick2[10]  -1
    y[10]     mccormick3[10]  1
    y[11]     OBJ       -687
    y[11]     primal_upper  39
    y[11]     mccormick2[11]  -1
    y[11]     mccormick3[11]  1
    y[12]     OBJ       -479
    y[12]     primal_upper  584
    y[12]     mccormick2[12]  -1
    y[12]     mccormick3[12]  1
    y[13]     OBJ       -630
    y[13]     primal_upper  672
    y[13]     mccormick2[13]  -1
    y[13]     mccormick3[13]  1
    y[14]     OBJ       -579
    y[14]     primal_upper  457
    y[14]     mccormick2[14]  -1
    y[14]     mccormick3[14]  1
    y[15]     OBJ       -256
    y[15]     primal_upper  137
    y[15]     mccormick2[15]  -1
    y[15]     mccormick3[15]  1
    y[16]     OBJ       -10
    y[16]     primal_upper  409
    y[16]     mccormick2[16]  -1
    y[16]     mccormick3[16]  1
    y[17]     OBJ       -606
    y[17]     primal_upper  380
    y[17]     mccormick2[17]  -1
    y[17]     mccormick3[17]  1
    y[18]     OBJ       -911
    y[18]     primal_upper  461
    y[18]     mccormick2[18]  -1
    y[18]     mccormick3[18]  1
    y[19]     OBJ       -774
    y[19]     primal_upper  370
    y[19]     mccormick2[19]  -1
    y[19]     mccormick3[19]  1
    u[0]      primal_lower0  87
    u[0]      primal_lower1  771
    u[0]      primal_lower2  636
    u[0]      primal_lower3  158
    u[0]      primal_lower4  720
    u[0]      primal_lower5  880
    u[0]      primal_lower6  218
    u[0]      primal_lower7  244
    u[0]      primal_lower8  307
    u[0]      primal_lower9  328
    u[0]      primal_lower10  71
    u[0]      primal_lower11  801
    u[0]      primal_lower12  440
    u[0]      primal_lower13  778
    u[0]      primal_lower14  873
    u[0]      primal_lower15  534
    u[0]      primal_lower16  149
    u[0]      primal_lower17  783
    u[0]      primal_lower18  159
    u[0]      primal_lower19  991
    u[0]      primal_lower20  284
    u[0]      primal_lower21  295
    u[0]      primal_lower22  154
    u[0]      primal_lower23  819
    u[0]      primal_lower24  870
    u[0]      primal_lower25  111
    u[0]      primal_lower26  332
    u[0]      primal_lower27  292
    u[0]      primal_lower28  235
    u[0]      primal_lower29  320
    u[0]      primal_lower30  658
    u[0]      primal_lower31  661
    u[0]      primal_lower32  362
    u[0]      primal_lower33  692
    u[0]      primal_lower34  82
    u[0]      primal_lower35  824
    u[0]      primal_lower36  229
    u[0]      primal_lower37  61
    u[0]      primal_lower38  301
    u[0]      primal_lower39  874
    u[0]      primal_lower40  328
    u[0]      primal_lower41  658
    u[0]      primal_lower42  679
    u[0]      primal_lower43  629
    u[0]      primal_lower44  794
    u[0]      primal_lower45  277
    u[0]      primal_lower46  920
    u[0]      primal_lower47  807
    u[0]      primal_lower48  672
    u[0]      primal_lower49  369
    u[0]      primal_lower50  863
    u[0]      primal_lower51  104
    u[0]      primal_lower52  25
    u[0]      primal_lower53  538
    u[0]      primal_lower54  428
    u[0]      primal_lower55  104
    u[0]      primal_lower56  73
    u[0]      primal_lower57  176
    u[0]      primal_lower58  521
    u[0]      primal_lower59  565
    u[0]      primal_lower60  348
    u[0]      primal_lower61  520
    u[0]      primal_lower62  459
    u[0]      primal_lower63  412
    u[0]      primal_lower64  416
    u[0]      primal_lower65  845
    u[0]      primal_lower66  850
    u[0]      primal_lower67  968
    u[0]      primal_lower68  892
    u[0]      primal_lower69  578
    u[0]      primal_lower70  176
    u[0]      primal_lower71  930
    u[0]      primal_lower72  985
    u[0]      primal_lower73  271
    u[0]      primal_lower74  873
    u[0]      primal_lower75  715
    u[0]      primal_lower76  704
    u[0]      primal_lower77  461
    u[0]      primal_lower78  785
    u[0]      primal_lower79  939
    u[0]      primal_lower80  787
    u[0]      primal_lower81  92
    u[0]      primal_lower82  10
    u[0]      primal_lower83  357
    u[0]      primal_lower84  473
    u[0]      primal_lower85  397
    u[0]      primal_lower86  378
    u[0]      primal_lower87  924
    u[0]      primal_lower88  26
    u[0]      primal_lower89  766
    u[0]      primal_lower90  423
    u[0]      primal_lower91  795
    u[0]      primal_lower92  381
    u[0]      primal_lower93  904
    u[0]      primal_lower94  374
    u[0]      primal_lower95  562
    u[0]      primal_lower96  297
    u[0]      primal_lower97  166
    u[0]      primal_lower98  292
    u[0]      primal_lower99  586
    u[0]      interdiction[0]  1
    u[0]      mccormick1[0]  -1
    u[0]      mccormick3[0]  1
    u[1]      primal_lower0  912
    u[1]      primal_lower1  916
    u[1]      primal_lower2  312
    u[1]      primal_lower3  730
    u[1]      primal_lower4  785
    u[1]      primal_lower5  953
    u[1]      primal_lower6  342
    u[1]      primal_lower7  125
    u[1]      primal_lower8  855
    u[1]      primal_lower9  809
    u[1]      primal_lower10  232
    u[1]      primal_lower11  653
    u[1]      primal_lower12  532
    u[1]      primal_lower13  614
    u[1]      primal_lower14  362
    u[1]      primal_lower15  927
    u[1]      primal_lower16  929
    u[1]      primal_lower17  907
    u[1]      primal_lower18  432
    u[1]      primal_lower19  107
    u[1]      primal_lower20  237
    u[1]      primal_lower21  128
    u[1]      primal_lower22  203
    u[1]      primal_lower23  47
    u[1]      primal_lower24  999
    u[1]      primal_lower25  808
    u[1]      primal_lower26  445
    u[1]      primal_lower27  133
    u[1]      primal_lower28  244
    u[1]      primal_lower29  25
    u[1]      primal_lower30  907
    u[1]      primal_lower31  465
    u[1]      primal_lower32  278
    u[1]      primal_lower33  213
    u[1]      primal_lower34  262
    u[1]      primal_lower35  145
    u[1]      primal_lower36  849
    u[1]      primal_lower37  406
    u[1]      primal_lower38  513
    u[1]      primal_lower39  758
    u[1]      primal_lower40  9
    u[1]      primal_lower41  195
    u[1]      primal_lower42  640
    u[1]      primal_lower43  41
    u[1]      primal_lower44  582
    u[1]      primal_lower45  385
    u[1]      primal_lower46  52
    u[1]      primal_lower47  171
    u[1]      primal_lower48  593
    u[1]      primal_lower49  714
    u[1]      primal_lower50  928
    u[1]      primal_lower51  732
    u[1]      primal_lower52  397
    u[1]      primal_lower53  163
    u[1]      primal_lower54  296
    u[1]      primal_lower55  316
    u[1]      primal_lower56  714
    u[1]      primal_lower57  108
    u[1]      primal_lower58  658
    u[1]      primal_lower59  417
    u[1]      primal_lower60  573
    u[1]      primal_lower61  969
    u[1]      primal_lower62  516
    u[1]      primal_lower63  221
    u[1]      primal_lower64  953
    u[1]      primal_lower65  825
    u[1]      primal_lower66  334
    u[1]      primal_lower67  25
    u[1]      primal_lower68  480
    u[1]      primal_lower69  510
    u[1]      primal_lower70  113
    u[1]      primal_lower71  22
    u[1]      primal_lower72  650
    u[1]      primal_lower73  483
    u[1]      primal_lower74  338
    u[1]      primal_lower75  884
    u[1]      primal_lower76  273
    u[1]      primal_lower77  638
    u[1]      primal_lower78  490
    u[1]      primal_lower79  508
    u[1]      primal_lower80  367
    u[1]      primal_lower81  840
    u[1]      primal_lower82  587
    u[1]      primal_lower83  89
    u[1]      primal_lower84  330
    u[1]      primal_lower85  318
    u[1]      primal_lower86  83
    u[1]      primal_lower87  848
    u[1]      primal_lower88  382
    u[1]      primal_lower89  434
    u[1]      primal_lower90  51
    u[1]      primal_lower91  407
    u[1]      primal_lower92  241
    u[1]      primal_lower93  81
    u[1]      primal_lower94  31
    u[1]      primal_lower95  747
    u[1]      primal_lower96  354
    u[1]      primal_lower97  282
    u[1]      primal_lower98  288
    u[1]      primal_lower99  603
    u[1]      interdiction[1]  1
    u[1]      mccormick1[1]  -1
    u[1]      mccormick3[1]  1
    u[2]      primal_lower0  690
    u[2]      primal_lower1  502
    u[2]      primal_lower2  214
    u[2]      primal_lower3  664
    u[2]      primal_lower4  939
    u[2]      primal_lower5  187
    u[2]      primal_lower6  188
    u[2]      primal_lower7  887
    u[2]      primal_lower8  189
    u[2]      primal_lower9  83
    u[2]      primal_lower10  890
    u[2]      primal_lower11  251
    u[2]      primal_lower12  890
    u[2]      primal_lower13  940
    u[2]      primal_lower14  780
    u[2]      primal_lower15  337
    u[2]      primal_lower16  167
    u[2]      primal_lower17  697
    u[2]      primal_lower18  474
    u[2]      primal_lower19  505
    u[2]      primal_lower20  407
    u[2]      primal_lower21  106
    u[2]      primal_lower22  261
    u[2]      primal_lower23  525
    u[2]      primal_lower24  945
    u[2]      primal_lower25  698
    u[2]      primal_lower26  439
    u[2]      primal_lower27  271
    u[2]      primal_lower28  902
    u[2]      primal_lower29  147
    u[2]      primal_lower30  629
    u[2]      primal_lower31  407
    u[2]      primal_lower32  396
    u[2]      primal_lower33  679
    u[2]      primal_lower34  948
    u[2]      primal_lower35  339
    u[2]      primal_lower36  199
    u[2]      primal_lower37  376
    u[2]      primal_lower38  127
    u[2]      primal_lower39  132
    u[2]      primal_lower40  651
    u[2]      primal_lower41  109
    u[2]      primal_lower42  642
    u[2]      primal_lower43  535
    u[2]      primal_lower44  948
    u[2]      primal_lower45  143
    u[2]      primal_lower46  850
    u[2]      primal_lower47  593
    u[2]      primal_lower48  515
    u[2]      primal_lower49  836
    u[2]      primal_lower50  834
    u[2]      primal_lower51  690
    u[2]      primal_lower52  755
    u[2]      primal_lower53  477
    u[2]      primal_lower54  446
    u[2]      primal_lower55  946
    u[2]      primal_lower56  660
    u[2]      primal_lower57  410
    u[2]      primal_lower58  116
    u[2]      primal_lower59  423
    u[2]      primal_lower60  119
    u[2]      primal_lower61  851
    u[2]      primal_lower62  966
    u[2]      primal_lower63  327
    u[2]      primal_lower64  971
    u[2]      primal_lower65  711
    u[2]      primal_lower66  372
    u[2]      primal_lower67  43
    u[2]      primal_lower68  510
    u[2]      primal_lower69  644
    u[2]      primal_lower70  115
    u[2]      primal_lower71  700
    u[2]      primal_lower72  372
    u[2]      primal_lower73  385
    u[2]      primal_lower74  604
    u[2]      primal_lower75  830
    u[2]      primal_lower76  651
    u[2]      primal_lower77  416
    u[2]      primal_lower78  380
    u[2]      primal_lower79  366
    u[2]      primal_lower80  581
    u[2]      primal_lower81  150
    u[2]      primal_lower82  197
    u[2]      primal_lower83  79
    u[2]      primal_lower84  308
    u[2]      primal_lower85  312
    u[2]      primal_lower86  869
    u[2]      primal_lower87  70
    u[2]      primal_lower88  988
    u[2]      primal_lower89  192
    u[2]      primal_lower90  817
    u[2]      primal_lower91  589
    u[2]      primal_lower92  159
    u[2]      primal_lower93  171
    u[2]      primal_lower94  497
    u[2]      primal_lower95  909
    u[2]      primal_lower96  724
    u[2]      primal_lower97  624
    u[2]      primal_lower98  238
    u[2]      primal_lower99  213
    u[2]      interdiction[2]  1
    u[2]      mccormick1[2]  -1
    u[2]      mccormick3[2]  1
    u[3]      primal_lower0  263
    u[3]      primal_lower1  931
    u[3]      primal_lower2  847
    u[3]      primal_lower3  753
    u[3]      primal_lower4  344
    u[3]      primal_lower5  8
    u[3]      primal_lower6  573
    u[3]      primal_lower7  388
    u[3]      primal_lower8  806
    u[3]      primal_lower9  72
    u[3]      primal_lower10  455
    u[3]      primal_lower11  284
    u[3]      primal_lower12  291
    u[3]      primal_lower13  629
    u[3]      primal_lower14  569
    u[3]      primal_lower15  662
    u[3]      primal_lower16  592
    u[3]      primal_lower17  274
    u[3]      primal_lower18  167
    u[3]      primal_lower19  658
    u[3]      primal_lower20  580
    u[3]      primal_lower21  47
    u[3]      primal_lower22  50
    u[3]      primal_lower23  854
    u[3]      primal_lower24  598
    u[3]      primal_lower25  71
    u[3]      primal_lower26  164
    u[3]      primal_lower27  652
    u[3]      primal_lower28  779
    u[3]      primal_lower29  528
    u[3]      primal_lower30  810
    u[3]      primal_lower31  24
    u[3]      primal_lower32  101
    u[3]      primal_lower33  44
    u[3]      primal_lower34  717
    u[3]      primal_lower35  256
    u[3]      primal_lower36  608
    u[3]      primal_lower37  165
    u[3]      primal_lower38  32
    u[3]      primal_lower39  349
    u[3]      primal_lower40  128
    u[3]      primal_lower41  850
    u[3]      primal_lower42  159
    u[3]      primal_lower43  528
    u[3]      primal_lower44  829
    u[3]      primal_lower45  176
    u[3]      primal_lower46  851
    u[3]      primal_lower47  114
    u[3]      primal_lower48  160
    u[3]      primal_lower49  345
    u[3]      primal_lower50  143
    u[3]      primal_lower51  155
    u[3]      primal_lower52  300
    u[3]      primal_lower53  186
    u[3]      primal_lower54  575
    u[3]      primal_lower55  835
    u[3]      primal_lower56  817
    u[3]      primal_lower57  379
    u[3]      primal_lower58  953
    u[3]      primal_lower59  504
    u[3]      primal_lower60  828
    u[3]      primal_lower61  320
    u[3]      primal_lower62  291
    u[3]      primal_lower63  660
    u[3]      primal_lower64  792
    u[3]      primal_lower65  400
    u[3]      primal_lower66  45
    u[3]      primal_lower67  792
    u[3]      primal_lower68  903
    u[3]      primal_lower69  21
    u[3]      primal_lower70  648
    u[3]      primal_lower71  661
    u[3]      primal_lower72  89
    u[3]      primal_lower73  370
    u[3]      primal_lower74  113
    u[3]      primal_lower75  211
    u[3]      primal_lower76  704
    u[3]      primal_lower77  485
    u[3]      primal_lower78  489
    u[3]      primal_lower79  163
    u[3]      primal_lower80  310
    u[3]      primal_lower81  15
    u[3]      primal_lower82  618
    u[3]      primal_lower83  384
    u[3]      primal_lower84  113
    u[3]      primal_lower85  637
    u[3]      primal_lower86  50
    u[3]      primal_lower87  215
    u[3]      primal_lower88  381
    u[3]      primal_lower89  905
    u[3]      primal_lower90  866
    u[3]      primal_lower91  902
    u[3]      primal_lower92  48
    u[3]      primal_lower93  864
    u[3]      primal_lower94  990
    u[3]      primal_lower95  954
    u[3]      primal_lower96  713
    u[3]      primal_lower97  249
    u[3]      primal_lower98  847
    u[3]      primal_lower99  362
    u[3]      interdiction[3]  1
    u[3]      mccormick1[3]  -1
    u[3]      mccormick3[3]  1
    u[4]      primal_lower0  116
    u[4]      primal_lower1  392
    u[4]      primal_lower2  600
    u[4]      primal_lower3  274
    u[4]      primal_lower4  237
    u[4]      primal_lower5  181
    u[4]      primal_lower6  534
    u[4]      primal_lower7  89
    u[4]      primal_lower8  239
    u[4]      primal_lower9  213
    u[4]      primal_lower10  908
    u[4]      primal_lower11  917
    u[4]      primal_lower12  948
    u[4]      primal_lower13  38
    u[4]      primal_lower14  822
    u[4]      primal_lower15  707
    u[4]      primal_lower16  417
    u[4]      primal_lower17  99
    u[4]      primal_lower18  540
    u[4]      primal_lower19  147
    u[4]      primal_lower20  985
    u[4]      primal_lower21  300
    u[4]      primal_lower22  991
    u[4]      primal_lower23  527
    u[4]      primal_lower24  627
    u[4]      primal_lower25  468
    u[4]      primal_lower26  601
    u[4]      primal_lower27  993
    u[4]      primal_lower28  208
    u[4]      primal_lower29  13
    u[4]      primal_lower30  655
    u[4]      primal_lower31  849
    u[4]      primal_lower32  638
    u[4]      primal_lower33  809
    u[4]      primal_lower34  942
    u[4]      primal_lower35  589
    u[4]      primal_lower36  561
    u[4]      primal_lower37  298
    u[4]      primal_lower38  873
    u[4]      primal_lower39  246
    u[4]      primal_lower40  277
    u[4]      primal_lower41  623
    u[4]      primal_lower42  716
    u[4]      primal_lower43  185
    u[4]      primal_lower44  758
    u[4]      primal_lower45  377
    u[4]      primal_lower46  940
    u[4]      primal_lower47  795
    u[4]      primal_lower48  565
    u[4]      primal_lower49  334
    u[4]      primal_lower50  468
    u[4]      primal_lower51  404
    u[4]      primal_lower52  165
    u[4]      primal_lower53  127
    u[4]      primal_lower54  128
    u[4]      primal_lower55  948
    u[4]      primal_lower56  430
    u[4]      primal_lower57  396
    u[4]      primal_lower58  70
    u[4]      primal_lower59  961
    u[4]      primal_lower60  697
    u[4]      primal_lower61  421
    u[4]      primal_lower62  368
    u[4]      primal_lower63  857
    u[4]      primal_lower64  21
    u[4]      primal_lower65  177
    u[4]      primal_lower66  982
    u[4]      primal_lower67  61
    u[4]      primal_lower68  56
    u[4]      primal_lower69  710
    u[4]      primal_lower70  109
    u[4]      primal_lower71  438
    u[4]      primal_lower72  806
    u[4]      primal_lower73  667
    u[4]      primal_lower74  622
    u[4]      primal_lower75  888
    u[4]      primal_lower76  117
    u[4]      primal_lower77  610
    u[4]      primal_lower78  846
    u[4]      primal_lower79  448
    u[4]      primal_lower80  975
    u[4]      primal_lower81  728
    u[4]      primal_lower82  855
    u[4]      primal_lower83  777
    u[4]      primal_lower84  574
    u[4]      primal_lower85  842
    u[4]      primal_lower86  439
    u[4]      primal_lower87  896
    u[4]      primal_lower88  582
    u[4]      primal_lower89  850
    u[4]      primal_lower90  635
    u[4]      primal_lower91  63
    u[4]      primal_lower92  17
    u[4]      primal_lower93  869
    u[4]      primal_lower94  139
    u[4]      primal_lower95  959
    u[4]      primal_lower96  478
    u[4]      primal_lower97  330
    u[4]      primal_lower98  848
    u[4]      primal_lower99  623
    u[4]      interdiction[4]  1
    u[4]      mccormick1[4]  -1
    u[4]      mccormick3[4]  1
    u[5]      primal_lower0  997
    u[5]      primal_lower1  681
    u[5]      primal_lower2  390
    u[5]      primal_lower3  592
    u[5]      primal_lower4  310
    u[5]      primal_lower5  638
    u[5]      primal_lower6  756
    u[5]      primal_lower7  266
    u[5]      primal_lower8  733
    u[5]      primal_lower9  710
    u[5]      primal_lower10  573
    u[5]      primal_lower11  59
    u[5]      primal_lower12  722
    u[5]      primal_lower13  276
    u[5]      primal_lower14  519
    u[5]      primal_lower15  868
    u[5]      primal_lower16  383
    u[5]      primal_lower17  161
    u[5]      primal_lower18  533
    u[5]      primal_lower19  185
    u[5]      primal_lower20  762
    u[5]      primal_lower21  221
    u[5]      primal_lower22  936
    u[5]      primal_lower23  981
    u[5]      primal_lower24  716
    u[5]      primal_lower25  773
    u[5]      primal_lower26  770
    u[5]      primal_lower27  890
    u[5]      primal_lower28  217
    u[5]      primal_lower29  414
    u[5]      primal_lower30  288
    u[5]      primal_lower31  927
    u[5]      primal_lower32  868
    u[5]      primal_lower33  714
    u[5]      primal_lower34  204
    u[5]      primal_lower35  222
    u[5]      primal_lower36  647
    u[5]      primal_lower37  875
    u[5]      primal_lower38  799
    u[5]      primal_lower39  644
    u[5]      primal_lower40  390
    u[5]      primal_lower41  328
    u[5]      primal_lower42  645
    u[5]      primal_lower43  495
    u[5]      primal_lower44  36
    u[5]      primal_lower45  751
    u[5]      primal_lower46  770
    u[5]      primal_lower47  305
    u[5]      primal_lower48  502
    u[5]      primal_lower49  423
    u[5]      primal_lower50  501
    u[5]      primal_lower51  10
    u[5]      primal_lower52  411
    u[5]      primal_lower53  864
    u[5]      primal_lower54  550
    u[5]      primal_lower55  258
    u[5]      primal_lower56  503
    u[5]      primal_lower57  826
    u[5]      primal_lower58  527
    u[5]      primal_lower59  87
    u[5]      primal_lower60  834
    u[5]      primal_lower61  518
    u[5]      primal_lower62  857
    u[5]      primal_lower63  610
    u[5]      primal_lower64  902
    u[5]      primal_lower65  943
    u[5]      primal_lower66  196
    u[5]      primal_lower67  374
    u[5]      primal_lower68  470
    u[5]      primal_lower69  764
    u[5]      primal_lower70  374
    u[5]      primal_lower71  84
    u[5]      primal_lower72  447
    u[5]      primal_lower73  641
    u[5]      primal_lower74  639
    u[5]      primal_lower75  809
    u[5]      primal_lower76  574
    u[5]      primal_lower77  291
    u[5]      primal_lower78  167
    u[5]      primal_lower79  617
    u[5]      primal_lower80  909
    u[5]      primal_lower81  134
    u[5]      primal_lower82  104
    u[5]      primal_lower83  647
    u[5]      primal_lower84  783
    u[5]      primal_lower85  611
    u[5]      primal_lower86  384
    u[5]      primal_lower87  134
    u[5]      primal_lower88  628
    u[5]      primal_lower89  872
    u[5]      primal_lower90  561
    u[5]      primal_lower91  653
    u[5]      primal_lower92  63
    u[5]      primal_lower93  878
    u[5]      primal_lower94  676
    u[5]      primal_lower95  424
    u[5]      primal_lower96  807
    u[5]      primal_lower97  424
    u[5]      primal_lower98  454
    u[5]      primal_lower99  632
    u[5]      interdiction[5]  1
    u[5]      mccormick1[5]  -1
    u[5]      mccormick3[5]  1
    u[6]      primal_lower0  213
    u[6]      primal_lower1  585
    u[6]      primal_lower2  441
    u[6]      primal_lower3  539
    u[6]      primal_lower4  454
    u[6]      primal_lower5  918
    u[6]      primal_lower6  623
    u[6]      primal_lower7  26
    u[6]      primal_lower8  592
    u[6]      primal_lower9  206
    u[6]      primal_lower10  621
    u[6]      primal_lower11  638
    u[6]      primal_lower12  253
    u[6]      primal_lower13  719
    u[6]      primal_lower14  551
    u[6]      primal_lower15  548
    u[6]      primal_lower16  594
    u[6]      primal_lower17  716
    u[6]      primal_lower18  253
    u[6]      primal_lower19  836
    u[6]      primal_lower20  938
    u[6]      primal_lower21  165
    u[6]      primal_lower22  232
    u[6]      primal_lower23  472
    u[6]      primal_lower24  940
    u[6]      primal_lower25  365
    u[6]      primal_lower26  730
    u[6]      primal_lower27  314
    u[6]      primal_lower28  649
    u[6]      primal_lower29  990
    u[6]      primal_lower30  728
    u[6]      primal_lower31  642
    u[6]      primal_lower32  79
    u[6]      primal_lower33  546
    u[6]      primal_lower34  311
    u[6]      primal_lower35  166
    u[6]      primal_lower36  482
    u[6]      primal_lower37  443
    u[6]      primal_lower38  962
    u[6]      primal_lower39  255
    u[6]      primal_lower40  934
    u[6]      primal_lower41  800
    u[6]      primal_lower42  773
    u[6]      primal_lower43  874
    u[6]      primal_lower44  799
    u[6]      primal_lower45  994
    u[6]      primal_lower46  493
    u[6]      primal_lower47  212
    u[6]      primal_lower48  302
    u[6]      primal_lower49  151
    u[6]      primal_lower50  101
    u[6]      primal_lower51  325
    u[6]      primal_lower52  14
    u[6]      primal_lower53  32
    u[6]      primal_lower54  993
    u[6]      primal_lower55  229
    u[6]      primal_lower56  439
    u[6]      primal_lower57  509
    u[6]      primal_lower58  711
    u[6]      primal_lower59  402
    u[6]      primal_lower60  306
    u[6]      primal_lower61  510
    u[6]      primal_lower62  57
    u[6]      primal_lower63  370
    u[6]      primal_lower64  966
    u[6]      primal_lower65  674
    u[6]      primal_lower66  263
    u[6]      primal_lower67  750
    u[6]      primal_lower68  617
    u[6]      primal_lower69  479
    u[6]      primal_lower70  710
    u[6]      primal_lower71  919
    u[6]      primal_lower72  335
    u[6]      primal_lower73  828
    u[6]      primal_lower74  183
    u[6]      primal_lower75  961
    u[6]      primal_lower76  670
    u[6]      primal_lower77  67
    u[6]      primal_lower78  31
    u[6]      primal_lower79  265
    u[6]      primal_lower80  296
    u[6]      primal_lower81  425
    u[6]      primal_lower82  168
    u[6]      primal_lower83  482
    u[6]      primal_lower84  655
    u[6]      primal_lower85  531
    u[6]      primal_lower86  136
    u[6]      primal_lower87  513
    u[6]      primal_lower88  47
    u[6]      primal_lower89  523
    u[6]      primal_lower90  332
    u[6]      primal_lower91  112
    u[6]      primal_lower92  42
    u[6]      primal_lower93  886
    u[6]      primal_lower94  740
    u[6]      primal_lower95  520
    u[6]      primal_lower96  607
    u[6]      primal_lower97  747
    u[6]      primal_lower98  609
    u[6]      primal_lower99  248
    u[6]      interdiction[6]  1
    u[6]      mccormick1[6]  -1
    u[6]      mccormick3[6]  1
    u[7]      primal_lower0  983
    u[7]      primal_lower1  923
    u[7]      primal_lower2  568
    u[7]      primal_lower3  378
    u[7]      primal_lower4  200
    u[7]      primal_lower5  304
    u[7]      primal_lower6  286
    u[7]      primal_lower7  692
    u[7]      primal_lower8  911
    u[7]      primal_lower9  824
    u[7]      primal_lower10  223
    u[7]      primal_lower11  725
    u[7]      primal_lower12  764
    u[7]      primal_lower13  22
    u[7]      primal_lower14  977
    u[7]      primal_lower15  286
    u[7]      primal_lower16  33
    u[7]      primal_lower17  675
    u[7]      primal_lower18  303
    u[7]      primal_lower19  995
    u[7]      primal_lower20  412
    u[7]      primal_lower21  63
    u[7]      primal_lower22  994
    u[7]      primal_lower23  543
    u[7]      primal_lower24  398
    u[7]      primal_lower25  271
    u[7]      primal_lower26  756
    u[7]      primal_lower27  588
    u[7]      primal_lower28  883
    u[7]      primal_lower29  240
    u[7]      primal_lower30  938
    u[7]      primal_lower31  145
    u[7]      primal_lower32  894
    u[7]      primal_lower33  596
    u[7]      primal_lower34  470
    u[7]      primal_lower35  568
    u[7]      primal_lower36  185
    u[7]      primal_lower37  669
    u[7]      primal_lower38  617
    u[7]      primal_lower39  862
    u[7]      primal_lower40  384
    u[7]      primal_lower41  162
    u[7]      primal_lower42  903
    u[7]      primal_lower43  785
    u[7]      primal_lower44  310
    u[7]      primal_lower45  249
    u[7]      primal_lower46  892
    u[7]      primal_lower47  955
    u[7]      primal_lower48  808
    u[7]      primal_lower49  481
    u[7]      primal_lower50  983
    u[7]      primal_lower51  228
    u[7]      primal_lower52  85
    u[7]      primal_lower53  210
    u[7]      primal_lower54  744
    u[7]      primal_lower55  540
    u[7]      primal_lower56  897
    u[7]      primal_lower57  324
    u[7]      primal_lower58  689
    u[7]      primal_lower59  641
    u[7]      primal_lower60  220
    u[7]      primal_lower61  648
    u[7]      primal_lower62  219
    u[7]      primal_lower63  796
    u[7]      primal_lower64  952
    u[7]      primal_lower65  321
    u[7]      primal_lower66  598
    u[7]      primal_lower67  32
    u[7]      primal_lower68  592
    u[7]      primal_lower69  134
    u[7]      primal_lower70  952
    u[7]      primal_lower71  366
    u[7]      primal_lower72  537
    u[7]      primal_lower73  963
    u[7]      primal_lower74  657
    u[7]      primal_lower75  611
    u[7]      primal_lower76  680
    u[7]      primal_lower77  461
    u[7]      primal_lower78  505
    u[7]      primal_lower79  179
    u[7]      primal_lower80  479
    u[7]      primal_lower81  880
    u[7]      primal_lower82  602
    u[7]      primal_lower83  969
    u[7]      primal_lower84  553
    u[7]      primal_lower85  605
    u[7]      primal_lower86  266
    u[7]      primal_lower87  808
    u[7]      primal_lower88  22
    u[7]      primal_lower89  146
    u[7]      primal_lower90  675
    u[7]      primal_lower91  767
    u[7]      primal_lower92  961
    u[7]      primal_lower93  672
    u[7]      primal_lower94  758
    u[7]      primal_lower95  842
    u[7]      primal_lower96  337
    u[7]      primal_lower97  882
    u[7]      primal_lower98  136
    u[7]      primal_lower99  746
    u[7]      interdiction[7]  1
    u[7]      mccormick1[7]  -1
    u[7]      mccormick3[7]  1
    u[8]      primal_lower0  37
    u[8]      primal_lower1  273
    u[8]      primal_lower2  185
    u[8]      primal_lower3  131
    u[8]      primal_lower4  806
    u[8]      primal_lower5  414
    u[8]      primal_lower6  31
    u[8]      primal_lower7  770
    u[8]      primal_lower8  696
    u[8]      primal_lower9  14
    u[8]      primal_lower10  733
    u[8]      primal_lower11  886
    u[8]      primal_lower12  757
    u[8]      primal_lower13  207
    u[8]      primal_lower14  887
    u[8]      primal_lower15  324
    u[8]      primal_lower16  498
    u[8]      primal_lower17  844
    u[8]      primal_lower18  893
    u[8]      primal_lower19  60
    u[8]      primal_lower20  578
    u[8]      primal_lower21  229
    u[8]      primal_lower22  512
    u[8]      primal_lower23  632
    u[8]      primal_lower24  972
    u[8]      primal_lower25  709
    u[8]      primal_lower26  666
    u[8]      primal_lower27  746
    u[8]      primal_lower28  761
    u[8]      primal_lower29  70
    u[8]      primal_lower30  864
    u[8]      primal_lower31  266
    u[8]      primal_lower32  175
    u[8]      primal_lower33  330
    u[8]      primal_lower34  95
    u[8]      primal_lower35  974
    u[8]      primal_lower36  242
    u[8]      primal_lower37  491
    u[8]      primal_lower38  466
    u[8]      primal_lower39  7
    u[8]      primal_lower40  670
    u[8]      primal_lower41  408
    u[8]      primal_lower42  733
    u[8]      primal_lower43  50
    u[8]      primal_lower44  215
    u[8]      primal_lower45  186
    u[8]      primal_lower46  541
    u[8]      primal_lower47  980
    u[8]      primal_lower48  502
    u[8]      primal_lower49  15
    u[8]      primal_lower50  109
    u[8]      primal_lower51  29
    u[8]      primal_lower52  550
    u[8]      primal_lower53  400
    u[8]      primal_lower54  297
    u[8]      primal_lower55  933
    u[8]      primal_lower56  215
    u[8]      primal_lower57  549
    u[8]      primal_lower58  599
    u[8]      primal_lower59  170
    u[8]      primal_lower60  370
    u[8]      primal_lower61  766
    u[8]      primal_lower62  393
    u[8]      primal_lower63  42
    u[8]      primal_lower64  238
    u[8]      primal_lower65  746
    u[8]      primal_lower66  367
    u[8]      primal_lower67  374
    u[8]      primal_lower68  417
    u[8]      primal_lower69  463
    u[8]      primal_lower70  366
    u[8]      primal_lower71  959
    u[8]      primal_lower72  911
    u[8]      primal_lower73  492
    u[8]      primal_lower74  447
    u[8]      primal_lower75  281
    u[8]      primal_lower76  310
    u[8]      primal_lower77  259
    u[8]      primal_lower78  231
    u[8]      primal_lower79  209
    u[8]      primal_lower80  16
    u[8]      primal_lower81  401
    u[8]      primal_lower82  360
    u[8]      primal_lower83  754
    u[8]      primal_lower84  775
    u[8]      primal_lower85  251
    u[8]      primal_lower86  32
    u[8]      primal_lower87  697
    u[8]      primal_lower88  743
    u[8]      primal_lower89  491
    u[8]      primal_lower90  940
    u[8]      primal_lower91  360
    u[8]      primal_lower92  18
    u[8]      primal_lower93  694
    u[8]      primal_lower94  636
    u[8]      primal_lower95  736
    u[8]      primal_lower96  663
    u[8]      primal_lower97  467
    u[8]      primal_lower98  625
    u[8]      primal_lower99  448
    u[8]      interdiction[8]  1
    u[8]      mccormick1[8]  -1
    u[8]      mccormick3[8]  1
    u[9]      primal_lower0  126
    u[9]      primal_lower1  114
    u[9]      primal_lower2  790
    u[9]      primal_lower3  896
    u[9]      primal_lower4  431
    u[9]      primal_lower5  703
    u[9]      primal_lower6  452
    u[9]      primal_lower7  107
    u[9]      primal_lower8  5
    u[9]      primal_lower9  135
    u[9]      primal_lower10  582
    u[9]      primal_lower11  59
    u[9]      primal_lower12  794
    u[9]      primal_lower13  116
    u[9]      primal_lower14  936
    u[9]      primal_lower15  981
    u[9]      primal_lower16  567
    u[9]      primal_lower17  281
    u[9]      primal_lower18  726
    u[9]      primal_lower19  425
    u[9]      primal_lower20  947
    u[9]      primal_lower21  526
    u[9]      primal_lower22  345
    u[9]      primal_lower23  317
    u[9]      primal_lower24  693
    u[9]      primal_lower25  806
    u[9]      primal_lower26  611
    u[9]      primal_lower27  819
    u[9]      primal_lower28  186
    u[9]      primal_lower29  463
    u[9]      primal_lower30  689
    u[9]      primal_lower31  495
    u[9]      primal_lower32  548
    u[9]      primal_lower33  99
    u[9]      primal_lower34  860
    u[9]      primal_lower35  111
    u[9]      primal_lower36  191
    u[9]      primal_lower37  836
    u[9]      primal_lower38  119
    u[9]      primal_lower39  660
    u[9]      primal_lower40  231
    u[9]      primal_lower41  729
    u[9]      primal_lower42  78
    u[9]      primal_lower43  479
    u[9]      primal_lower44  652
    u[9]      primal_lower45  23
    u[9]      primal_lower46  658
    u[9]      primal_lower47  737
    u[9]      primal_lower48  23
    u[9]      primal_lower49  168
    u[9]      primal_lower50  286
    u[9]      primal_lower51  818
    u[9]      primal_lower52  387
    u[9]      primal_lower53  409
    u[9]      primal_lower54  534
    u[9]      primal_lower55  754
    u[9]      primal_lower56  928
    u[9]      primal_lower57  946
    u[9]      primal_lower58  208
    u[9]      primal_lower59  751
    u[9]      primal_lower60  683
    u[9]      primal_lower61  103
    u[9]      primal_lower62  826
    u[9]      primal_lower63  523
    u[9]      primal_lower64  847
    u[9]      primal_lower65  391
    u[9]      primal_lower66  668
    u[9]      primal_lower67  583
    u[9]      primal_lower68  278
    u[9]      primal_lower69  796
    u[9]      primal_lower70  527
    u[9]      primal_lower71  732
    u[9]      primal_lower72  952
    u[9]      primal_lower73  553
    u[9]      primal_lower74  776
    u[9]      primal_lower75  218
    u[9]      primal_lower76  375
    u[9]      primal_lower77  492
    u[9]      primal_lower78  200
    u[9]      primal_lower79  378
    u[9]      primal_lower80  773
    u[9]      primal_lower81  982
    u[9]      primal_lower82  305
    u[9]      primal_lower83  343
    u[9]      primal_lower84  376
    u[9]      primal_lower85  820
    u[9]      primal_lower86  33
    u[9]      primal_lower87  670
    u[9]      primal_lower88  580
    u[9]      primal_lower89  288
    u[9]      primal_lower90  897
    u[9]      primal_lower91  165
    u[9]      primal_lower92  551
    u[9]      primal_lower93  799
    u[9]      primal_lower94  445
    u[9]      primal_lower95  937
    u[9]      primal_lower96  104
    u[9]      primal_lower97  152
    u[9]      primal_lower98  774
    u[9]      primal_lower99  441
    u[9]      interdiction[9]  1
    u[9]      mccormick1[9]  -1
    u[9]      mccormick3[9]  1
    u[10]     primal_lower0  91
    u[10]     primal_lower1  487
    u[10]     primal_lower2  832
    u[10]     primal_lower3  466
    u[10]     primal_lower4  252
    u[10]     primal_lower5  564
    u[10]     primal_lower6  398
    u[10]     primal_lower7  504
    u[10]     primal_lower8  71
    u[10]     primal_lower9  436
    u[10]     primal_lower10  259
    u[10]     primal_lower11  493
    u[10]     primal_lower12  284
    u[10]     primal_lower13  774
    u[10]     primal_lower14  429
    u[10]     primal_lower15  490
    u[10]     primal_lower16  73
    u[10]     primal_lower17  819
    u[10]     primal_lower18  539
    u[10]     primal_lower19  435
    u[10]     primal_lower20  88
    u[10]     primal_lower21  235
    u[10]     primal_lower22  798
    u[10]     primal_lower23  751
    u[10]     primal_lower24  722
    u[10]     primal_lower25  427
    u[10]     primal_lower26  672
    u[10]     primal_lower27  88
    u[10]     primal_lower28  999
    u[10]     primal_lower29  796
    u[10]     primal_lower30  286
    u[10]     primal_lower31  169
    u[10]     primal_lower32  318
    u[10]     primal_lower33  432
    u[10]     primal_lower34  422
    u[10]     primal_lower35  812
    u[10]     primal_lower36  881
    u[10]     primal_lower37  113
    u[10]     primal_lower38  937
    u[10]     primal_lower39  638
    u[10]     primal_lower40  436
    u[10]     primal_lower41  118
    u[10]     primal_lower42  915
    u[10]     primal_lower43  393
    u[10]     primal_lower44  54
    u[10]     primal_lower45  161
    u[10]     primal_lower46  604
    u[10]     primal_lower47  291
    u[10]     primal_lower48  196
    u[10]     primal_lower49  525
    u[10]     primal_lower50  283
    u[10]     primal_lower51  972
    u[10]     primal_lower52  53
    u[10]     primal_lower53  534
    u[10]     primal_lower54  688
    u[10]     primal_lower55  636
    u[10]     primal_lower56  821
    u[10]     primal_lower57  388
    u[10]     primal_lower58  333
    u[10]     primal_lower59  945
    u[10]     primal_lower60  88
    u[10]     primal_lower61  468
    u[10]     primal_lower62  255
    u[10]     primal_lower63  64
    u[10]     primal_lower64  132
    u[10]     primal_lower65  841
    u[10]     primal_lower66  414
    u[10]     primal_lower67  148
    u[10]     primal_lower68  592
    u[10]     primal_lower69  350
    u[10]     primal_lower70  404
    u[10]     primal_lower71  166
    u[10]     primal_lower72  237
    u[10]     primal_lower73  83
    u[10]     primal_lower74  901
    u[10]     primal_lower75  15
    u[10]     primal_lower76  556
    u[10]     primal_lower77  873
    u[10]     primal_lower78  229
    u[10]     primal_lower79  687
    u[10]     primal_lower80  583
    u[10]     primal_lower81  984
    u[10]     primal_lower82  46
    u[10]     primal_lower83  633
    u[10]     primal_lower84  861
    u[10]     primal_lower85  593
    u[10]     primal_lower86  54
    u[10]     primal_lower87  592
    u[10]     primal_lower88  366
    u[10]     primal_lower89  762
    u[10]     primal_lower90  419
    u[10]     primal_lower91  999
    u[10]     primal_lower92  553
    u[10]     primal_lower93  340
    u[10]     primal_lower94  98
    u[10]     primal_lower95  702
    u[10]     primal_lower96  829
    u[10]     primal_lower97  50
    u[10]     primal_lower98  824
    u[10]     primal_lower99  174
    u[10]     interdiction[10]  1
    u[10]     mccormick1[10]  -1
    u[10]     mccormick3[10]  1
    u[11]     primal_lower0  407
    u[11]     primal_lower1  323
    u[11]     primal_lower2  719
    u[11]     primal_lower3  217
    u[11]     primal_lower4  320
    u[11]     primal_lower5  496
    u[11]     primal_lower6  949
    u[11]     primal_lower7  404
    u[11]     primal_lower8  14
    u[11]     primal_lower9  816
    u[11]     primal_lower10  103
    u[11]     primal_lower11  148
    u[11]     primal_lower12  739
    u[11]     primal_lower13  869
    u[11]     primal_lower14  561
    u[11]     primal_lower15  54
    u[11]     primal_lower16  648
    u[11]     primal_lower17  178
    u[11]     primal_lower18  215
    u[11]     primal_lower19  18
    u[11]     primal_lower20  764
    u[11]     primal_lower21  375
    u[11]     primal_lower22  954
    u[11]     primal_lower23  622
    u[11]     primal_lower24  798
    u[11]     primal_lower25  135
    u[11]     primal_lower26  572
    u[11]     primal_lower27  964
    u[11]     primal_lower28  451
    u[11]     primal_lower29  712
    u[11]     primal_lower30  866
    u[11]     primal_lower31  392
    u[11]     primal_lower32  445
    u[11]     primal_lower33  876
    u[11]     primal_lower34  309
    u[11]     primal_lower35  976
    u[11]     primal_lower36  1000
    u[11]     primal_lower37  629
    u[11]     primal_lower38  968
    u[11]     primal_lower39  293
    u[11]     primal_lower40  984
    u[11]     primal_lower41  186
    u[11]     primal_lower42  79
    u[11]     primal_lower43  8
    u[11]     primal_lower44  413
    u[11]     primal_lower45  8
    u[11]     primal_lower46  683
    u[11]     primal_lower47  338
    u[11]     primal_lower48  640
    u[11]     primal_lower49  657
    u[11]     primal_lower50  63
    u[11]     primal_lower51  107
    u[11]     primal_lower52  92
    u[11]     primal_lower53  394
    u[11]     primal_lower54  999
    u[11]     primal_lower55  835
    u[11]     primal_lower56  121
    u[11]     primal_lower57  835
    u[11]     primal_lower58  433
    u[11]     primal_lower59  400
    u[11]     primal_lower60  132
    u[11]     primal_lower61  168
    u[11]     primal_lower62  843
    u[11]     primal_lower63  764
    u[11]     primal_lower64  840
    u[11]     primal_lower65  784
    u[11]     primal_lower66  117
    u[11]     primal_lower67  384
    u[11]     primal_lower68  967
    u[11]     primal_lower69  669
    u[11]     primal_lower70  320
    u[11]     primal_lower71  317
    u[11]     primal_lower72  401
    u[11]     primal_lower73  338
    u[11]     primal_lower74  457
    u[11]     primal_lower75  451
    u[11]     primal_lower76  280
    u[11]     primal_lower77  597
    u[11]     primal_lower78  921
    u[11]     primal_lower79  339
    u[11]     primal_lower80  790
    u[11]     primal_lower81  695
    u[11]     primal_lower82  970
    u[11]     primal_lower83  336
    u[11]     primal_lower84  569
    u[11]     primal_lower85  357
    u[11]     primal_lower86  290
    u[11]     primal_lower87  455
    u[11]     primal_lower88  573
    u[11]     primal_lower89  409
    u[11]     primal_lower90  802
    u[11]     primal_lower91  150
    u[11]     primal_lower92  320
    u[11]     primal_lower93  456
    u[11]     primal_lower94  990
    u[11]     primal_lower95  586
    u[11]     primal_lower96  57
    u[11]     primal_lower97  89
    u[11]     primal_lower98  687
    u[11]     primal_lower99  162
    u[11]     interdiction[11]  1
    u[11]     mccormick1[11]  -1
    u[11]     mccormick3[11]  1
    u[12]     primal_lower0  980
    u[12]     primal_lower1  176
    u[12]     primal_lower2  544
    u[12]     primal_lower3  706
    u[12]     primal_lower4  597
    u[12]     primal_lower5  229
    u[12]     primal_lower6  878
    u[12]     primal_lower7  889
    u[12]     primal_lower8  671
    u[12]     primal_lower9  605
    u[12]     primal_lower10  908
    u[12]     primal_lower11  717
    u[12]     primal_lower12  884
    u[12]     primal_lower13  766
    u[12]     primal_lower14  358
    u[12]     primal_lower15  627
    u[12]     primal_lower16  737
    u[12]     primal_lower17  99
    u[12]     primal_lower18  980
    u[12]     primal_lower19  35
    u[12]     primal_lower20  489
    u[12]     primal_lower21  284
    u[12]     primal_lower22  407
    u[12]     primal_lower23  807
    u[12]     primal_lower24  131
    u[12]     primal_lower25  372
    u[12]     primal_lower26  753
    u[12]     primal_lower27  433
    u[12]     primal_lower28  992
    u[12]     primal_lower29  477
    u[12]     primal_lower30  967
    u[12]     primal_lower31  817
    u[12]     primal_lower32  454
    u[12]     primal_lower33  65
    u[12]     primal_lower34  638
    u[12]     primal_lower35  709
    u[12]     primal_lower36  409
    u[12]     primal_lower37  994
    u[12]     primal_lower38  961
    u[12]     primal_lower39  366
    u[12]     primal_lower40  997
    u[12]     primal_lower41  263
    u[12]     primal_lower42  852
    u[12]     primal_lower43  49
    u[12]     primal_lower44  806
    u[12]     primal_lower45  633
    u[12]     primal_lower46  892
    u[12]     primal_lower47  387
    u[12]     primal_lower48  509
    u[12]     primal_lower49  830
    u[12]     primal_lower50  28
    u[12]     primal_lower51  980
    u[12]     primal_lower52  957
    u[12]     primal_lower53  663
    u[12]     primal_lower54  960
    u[12]     primal_lower55  828
    u[12]     primal_lower56  126
    u[12]     primal_lower57  756
    u[12]     primal_lower58  558
    u[12]     primal_lower59  185
    u[12]     primal_lower60  577
    u[12]     primal_lower61  293
    u[12]     primal_lower62  720
    u[12]     primal_lower63  873
    u[12]     primal_lower64  509
    u[12]     primal_lower65  529
    u[12]     primal_lower66  486
    u[12]     primal_lower67  925
    u[12]     primal_lower68  224
    u[12]     primal_lower69  494
    u[12]     primal_lower70  853
    u[12]     primal_lower71  358
    u[12]     primal_lower72  822
    u[12]     primal_lower73  27
    u[12]     primal_lower74  598
    u[12]     primal_lower75  984
    u[12]     primal_lower76  29
    u[12]     primal_lower77  434
    u[12]     primal_lower78  574
    u[12]     primal_lower79  432
    u[12]     primal_lower80  479
    u[12]     primal_lower81  384
    u[12]     primal_lower82  335
    u[12]     primal_lower83  873
    u[12]     primal_lower84  502
    u[12]     primal_lower85  906
    u[12]     primal_lower86  415
    u[12]     primal_lower87  824
    u[12]     primal_lower88  582
    u[12]     primal_lower89  10
    u[12]     primal_lower90  211
    u[12]     primal_lower91  975
    u[12]     primal_lower92  825
    u[12]     primal_lower93  749
    u[12]     primal_lower94  595
    u[12]     primal_lower95  327
    u[12]     primal_lower96  422
    u[12]     primal_lower97  514
    u[12]     primal_lower98  928
    u[12]     primal_lower99  727
    u[12]     interdiction[12]  1
    u[12]     mccormick1[12]  -1
    u[12]     mccormick3[12]  1
    u[13]     primal_lower0  440
    u[13]     primal_lower1  468
    u[13]     primal_lower2  568
    u[13]     primal_lower3  362
    u[13]     primal_lower4  529
    u[13]     primal_lower5  345
    u[13]     primal_lower6  374
    u[13]     primal_lower7  565
    u[13]     primal_lower8  455
    u[13]     primal_lower9  793
    u[13]     primal_lower10  744
    u[13]     primal_lower11  349
    u[13]     primal_lower12  284
    u[13]     primal_lower13  582
    u[13]     primal_lower14  770
    u[13]     primal_lower15  127
    u[13]     primal_lower16  585
    u[13]     primal_lower17  491
    u[13]     primal_lower18  104
    u[13]     primal_lower19  323
    u[13]     primal_lower20  69
    u[13]     primal_lower21  416
    u[13]     primal_lower22  227
    u[13]     primal_lower23  879
    u[13]     primal_lower24  103
    u[13]     primal_lower25  64
    u[13]     primal_lower26  677
    u[13]     primal_lower27  101
    u[13]     primal_lower28  468
    u[13]     primal_lower29  321
    u[13]     primal_lower30  475
    u[13]     primal_lower31  193
    u[13]     primal_lower32  902
    u[13]     primal_lower33  517
    u[13]     primal_lower34  182
    u[13]     primal_lower35  929
    u[13]     primal_lower36  913
    u[13]     primal_lower37  398
    u[13]     primal_lower38  809
    u[13]     primal_lower39  862
    u[13]     primal_lower40  745
    u[13]     primal_lower41  939
    u[13]     primal_lower42  696
    u[13]     primal_lower43  697
    u[13]     primal_lower44  622
    u[13]     primal_lower45  369
    u[13]     primal_lower46  564
    u[13]     primal_lower47  779
    u[13]     primal_lower48  257
    u[13]     primal_lower49  242
    u[13]     primal_lower50  376
    u[13]     primal_lower51  316
    u[13]     primal_lower52  837
    u[13]     primal_lower53  987
    u[13]     primal_lower54  472
    u[13]     primal_lower55  76
    u[13]     primal_lower56  266
    u[13]     primal_lower57  868
    u[13]     primal_lower58  986
    u[13]     primal_lower59  257
    u[13]     primal_lower60  165
    u[13]     primal_lower61  337
    u[13]     primal_lower62  876
    u[13]     primal_lower63  965
    u[13]     primal_lower64  313
    u[13]     primal_lower65  49
    u[13]     primal_lower66  318
    u[13]     primal_lower67  809
    u[13]     primal_lower68  240
    u[13]     primal_lower69  46
    u[13]     primal_lower70  889
    u[13]     primal_lower71  142
    u[13]     primal_lower72  754
    u[13]     primal_lower73  443
    u[13]     primal_lower74  482
    u[13]     primal_lower75  692
    u[13]     primal_lower76  353
    u[13]     primal_lower77  878
    u[13]     primal_lower78  378
    u[13]     primal_lower79  236
    u[13]     primal_lower80  783
    u[13]     primal_lower81  688
    u[13]     primal_lower82  91
    u[13]     primal_lower83  721
    u[13]     primal_lower84  242
    u[13]     primal_lower85  926
    u[13]     primal_lower86  563
    u[13]     primal_lower87  896
    u[13]     primal_lower88  590
    u[13]     primal_lower89  610
    u[13]     primal_lower90  451
    u[13]     primal_lower91  47
    u[13]     primal_lower92  137
    u[13]     primal_lower93  593
    u[13]     primal_lower94  319
    u[13]     primal_lower95  979
    u[13]     primal_lower96  26
    u[13]     primal_lower97  402
    u[13]     primal_lower98  528
    u[13]     primal_lower99  291
    u[13]     interdiction[13]  1
    u[13]     mccormick1[13]  -1
    u[13]     mccormick3[13]  1
    u[14]     primal_lower0  532
    u[14]     primal_lower1  112
    u[14]     primal_lower2  585
    u[14]     primal_lower3  771
    u[14]     primal_lower4  373
    u[14]     primal_lower5  229
    u[14]     primal_lower6  583
    u[14]     primal_lower7  697
    u[14]     primal_lower8  48
    u[14]     primal_lower9  197
    u[14]     primal_lower10  772
    u[14]     primal_lower11  918
    u[14]     primal_lower12  37
    u[14]     primal_lower13  975
    u[14]     primal_lower14  790
    u[14]     primal_lower15  731
    u[14]     primal_lower16  514
    u[14]     primal_lower17  692
    u[14]     primal_lower18  588
    u[14]     primal_lower19  52
    u[14]     primal_lower20  393
    u[14]     primal_lower21  252
    u[14]     primal_lower22  711
    u[14]     primal_lower23  288
    u[14]     primal_lower24  819
    u[14]     primal_lower25  364
    u[14]     primal_lower26  753
    u[14]     primal_lower27  281
    u[14]     primal_lower28  904
    u[14]     primal_lower29  133
    u[14]     primal_lower30  319
    u[14]     primal_lower31  858
    u[14]     primal_lower32  431
    u[14]     primal_lower33  729
    u[14]     primal_lower34  559
    u[14]     primal_lower35  629
    u[14]     primal_lower36  58
    u[14]     primal_lower37  354
    u[14]     primal_lower38  274
    u[14]     primal_lower39  159
    u[14]     primal_lower40  949
    u[14]     primal_lower41  215
    u[14]     primal_lower42  764
    u[14]     primal_lower43  330
    u[14]     primal_lower44  415
    u[14]     primal_lower45  162
    u[14]     primal_lower46  133
    u[14]     primal_lower47  548
    u[14]     primal_lower48  373
    u[14]     primal_lower49  582
    u[14]     primal_lower50  124
    u[14]     primal_lower51  461
    u[14]     primal_lower52  294
    u[14]     primal_lower53  951
    u[14]     primal_lower54  833
    u[14]     primal_lower55  597
    u[14]     primal_lower56  126
    u[14]     primal_lower57  997
    u[14]     primal_lower58  806
    u[14]     primal_lower59  354
    u[14]     primal_lower60  881
    u[14]     primal_lower61  357
    u[14]     primal_lower62  992
    u[14]     primal_lower63  945
    u[14]     primal_lower64  397
    u[14]     primal_lower65  2
    u[14]     primal_lower66  615
    u[14]     primal_lower67  861
    u[14]     primal_lower68  273
    u[14]     primal_lower69  279
    u[14]     primal_lower70  397
    u[14]     primal_lower71  903
    u[14]     primal_lower72  246
    u[14]     primal_lower73  172
    u[14]     primal_lower74  870
    u[14]     primal_lower75  432
    u[14]     primal_lower76  77
    u[14]     primal_lower77  882
    u[14]     primal_lower78  126
    u[14]     primal_lower79  568
    u[14]     primal_lower80  584
    u[14]     primal_lower81  361
    u[14]     primal_lower82  407
    u[14]     primal_lower83  810
    u[14]     primal_lower84  14
    u[14]     primal_lower85  754
    u[14]     primal_lower86  23
    u[14]     primal_lower87  377
    u[14]     primal_lower88  175
    u[14]     primal_lower89  195
    u[14]     primal_lower90  788
    u[14]     primal_lower91  824
    u[14]     primal_lower92  818
    u[14]     primal_lower93  341
    u[14]     primal_lower94  387
    u[14]     primal_lower95  991
    u[14]     primal_lower96  214
    u[14]     primal_lower97  555
    u[14]     primal_lower98  377
    u[14]     primal_lower99  375
    u[14]     interdiction[14]  1
    u[14]     mccormick1[14]  -1
    u[14]     mccormick3[14]  1
    u[15]     primal_lower0  480
    u[15]     primal_lower1  700
    u[15]     primal_lower2  529
    u[15]     primal_lower3  883
    u[15]     primal_lower4  153
    u[15]     primal_lower5  249
    u[15]     primal_lower6  679
    u[15]     primal_lower7  301
    u[15]     primal_lower8  792
    u[15]     primal_lower9  537
    u[15]     primal_lower10  96
    u[15]     primal_lower11  406
    u[15]     primal_lower12  77
    u[15]     primal_lower13  255
    u[15]     primal_lower14  42
    u[15]     primal_lower15  159
    u[15]     primal_lower16  562
    u[15]     primal_lower17  36
    u[15]     primal_lower18  264
    u[15]     primal_lower19  892
    u[15]     primal_lower20  637
    u[15]     primal_lower21  776
    u[15]     primal_lower22  923
    u[15]     primal_lower23  928
    u[15]     primal_lower24  423
    u[15]     primal_lower25  848
    u[15]     primal_lower26  469
    u[15]     primal_lower27  741
    u[15]     primal_lower28  588
    u[15]     primal_lower29  65
    u[15]     primal_lower30  171
    u[15]     primal_lower31  282
    u[15]     primal_lower32  687
    u[15]     primal_lower33  221
    u[15]     primal_lower34  143
    u[15]     primal_lower35  409
    u[15]     primal_lower36  282
    u[15]     primal_lower37  342
    u[15]     primal_lower38  578
    u[15]     primal_lower39  527
    u[15]     primal_lower40  609
    u[15]     primal_lower41  3
    u[15]     primal_lower42  504
    u[15]     primal_lower43  394
    u[15]     primal_lower44  343
    u[15]     primal_lower45  258
    u[15]     primal_lower46  637
    u[15]     primal_lower47  500
    u[15]     primal_lower48  761
    u[15]     primal_lower49  354
    u[15]     primal_lower50  360
    u[15]     primal_lower51  885
    u[15]     primal_lower52  502
    u[15]     primal_lower53  627
    u[15]     primal_lower54  817
    u[15]     primal_lower55  301
    u[15]     primal_lower56  794
    u[15]     primal_lower57  669
    u[15]     primal_lower58  202
    u[15]     primal_lower59  714
    u[15]     primal_lower60  997
    u[15]     primal_lower61  305
    u[15]     primal_lower62  220
    u[15]     primal_lower63  869
    u[15]     primal_lower64  633
    u[15]     primal_lower65  650
    u[15]     primal_lower66  431
    u[15]     primal_lower67  345
    u[15]     primal_lower68  193
    u[15]     primal_lower69  895
    u[15]     primal_lower70  569
    u[15]     primal_lower71  711
    u[15]     primal_lower72  578
    u[15]     primal_lower73  948
    u[15]     primal_lower74  530
    u[15]     primal_lower75  764
    u[15]     primal_lower76  793
    u[15]     primal_lower77  894
    u[15]     primal_lower78  338
    u[15]     primal_lower79  52
    u[15]     primal_lower80  88
    u[15]     primal_lower81  17
    u[15]     primal_lower82  11
    u[15]     primal_lower83  786
    u[15]     primal_lower84  370
    u[15]     primal_lower85  166
    u[15]     primal_lower86  163
    u[15]     primal_lower87  9
    u[15]     primal_lower88  983
    u[15]     primal_lower89  875
    u[15]     primal_lower90  844
    u[15]     primal_lower91  512
    u[15]     primal_lower92  298
    u[15]     primal_lower93  569
    u[15]     primal_lower94  135
    u[15]     primal_lower95  971
    u[15]     primal_lower96  10
    u[15]     primal_lower97  403
    u[15]     primal_lower98  281
    u[15]     primal_lower99  899
    u[15]     interdiction[15]  1
    u[15]     mccormick1[15]  -1
    u[15]     mccormick3[15]  1
    u[16]     primal_lower0  173
    u[16]     primal_lower1  281
    u[16]     primal_lower2  241
    u[16]     primal_lower3  739
    u[16]     primal_lower4  726
    u[16]     primal_lower5  758
    u[16]     primal_lower6  303
    u[16]     primal_lower7  10
    u[16]     primal_lower8  152
    u[16]     primal_lower9  974
    u[16]     primal_lower10  733
    u[16]     primal_lower11  990
    u[16]     primal_lower12  805
    u[16]     primal_lower13  999
    u[16]     primal_lower14  655
    u[16]     primal_lower15  236
    u[16]     primal_lower16  722
    u[16]     primal_lower17  668
    u[16]     primal_lower18  653
    u[16]     primal_lower19  28
    u[16]     primal_lower20  834
    u[16]     primal_lower21  749
    u[16]     primal_lower22  104
    u[16]     primal_lower23  552
    u[16]     primal_lower24  124
    u[16]     primal_lower25  661
    u[16]     primal_lower26  882
    u[16]     primal_lower27  258
    u[16]     primal_lower28  337
    u[16]     primal_lower29  958
    u[16]     primal_lower30  288
    u[16]     primal_lower31  18
    u[16]     primal_lower32  719
    u[16]     primal_lower33  778
    u[16]     primal_lower34  951
    u[16]     primal_lower35  214
    u[16]     primal_lower36  26
    u[16]     primal_lower37  107
    u[16]     primal_lower38  538
    u[16]     primal_lower39  247
    u[16]     primal_lower40  838
    u[16]     primal_lower41  544
    u[16]     primal_lower42  237
    u[16]     primal_lower43  954
    u[16]     primal_lower44  375
    u[16]     primal_lower45  562
    u[16]     primal_lower46  181
    u[16]     primal_lower47  324
    u[16]     primal_lower48  894
    u[16]     primal_lower49  111
    u[16]     primal_lower50  701
    u[16]     primal_lower51  445
    u[16]     primal_lower52  110
    u[16]     primal_lower53  480
    u[16]     primal_lower54  273
    u[16]     primal_lower55  693
    u[16]     primal_lower56  495
    u[16]     primal_lower57  21
    u[16]     primal_lower58  231
    u[16]     primal_lower59  706
    u[16]     primal_lower60  954
    u[16]     primal_lower61  718
    u[16]     primal_lower62  745
    u[16]     primal_lower63  962
    u[16]     primal_lower64  126
    u[16]     primal_lower65  466
    u[16]     primal_lower66  279
    u[16]     primal_lower67  862
    u[16]     primal_lower68  297
    u[16]     primal_lower69  863
    u[16]     primal_lower70  814
    u[16]     primal_lower71  31
    u[16]     primal_lower72  63
    u[16]     primal_lower73  972
    u[16]     primal_lower74  575
    u[16]     primal_lower75  665
    u[16]     primal_lower76  590
    u[16]     primal_lower77  395
    u[16]     primal_lower78  351
    u[16]     primal_lower79  25
    u[16]     primal_lower80  856
    u[16]     primal_lower81  1
    u[16]     primal_lower82  760
    u[16]     primal_lower83  722
    u[16]     primal_lower84  39
    u[16]     primal_lower85  683
    u[16]     primal_lower86  904
    u[16]     primal_lower87  593
    u[16]     primal_lower88  423
    u[16]     primal_lower89  235
    u[16]     primal_lower90  508
    u[16]     primal_lower91  504
    u[16]     primal_lower92  842
    u[16]     primal_lower93  734
    u[16]     primal_lower94  924
    u[16]     primal_lower95  760
    u[16]     primal_lower96  943
    u[16]     primal_lower97  267
    u[16]     primal_lower98  969
    u[16]     primal_lower99  888
    u[16]     interdiction[16]  1
    u[16]     mccormick1[16]  -1
    u[16]     mccormick3[16]  1
    u[17]     primal_lower0  556
    u[17]     primal_lower1  856
    u[17]     primal_lower2  708
    u[17]     primal_lower3  46
    u[17]     primal_lower4  813
    u[17]     primal_lower5  261
    u[17]     primal_lower6  370
    u[17]     primal_lower7  577
    u[17]     primal_lower8  315
    u[17]     primal_lower9  693
    u[17]     primal_lower10  204
    u[17]     primal_lower11  681
    u[17]     primal_lower12  240
    u[17]     primal_lower13  890
    u[17]     primal_lower14  966
    u[17]     primal_lower15  835
    u[17]     primal_lower16  29
    u[17]     primal_lower17  927
    u[17]     primal_lower18  868
    u[17]     primal_lower19  863
    u[17]     primal_lower20  505
    u[17]     primal_lower21  884
    u[17]     primal_lower22  247
    u[17]     primal_lower23  667
    u[17]     primal_lower24  331
    u[17]     primal_lower25  588
    u[17]     primal_lower26  753
    u[17]     primal_lower27  449
    u[17]     primal_lower28  504
    u[17]     primal_lower29  285
    u[17]     primal_lower30  711
    u[17]     primal_lower31  925
    u[17]     primal_lower32  682
    u[17]     primal_lower33  57
    u[17]     primal_lower34  762
    u[17]     primal_lower35  933
    u[17]     primal_lower36  5
    u[17]     primal_lower37  202
    u[17]     primal_lower38  445
    u[17]     primal_lower39  330
    u[17]     primal_lower40  109
    u[17]     primal_lower41  159
    u[17]     primal_lower42  676
    u[17]     primal_lower43  149
    u[17]     primal_lower44  346
    u[17]     primal_lower45  405
    u[17]     primal_lower46  376
    u[17]     primal_lower47  311
    u[17]     primal_lower48  957
    u[17]     primal_lower49  598
    u[17]     primal_lower50  996
    u[17]     primal_lower51  456
    u[17]     primal_lower52  817
    u[17]     primal_lower53  911
    u[17]     primal_lower54  948
    u[17]     primal_lower55  424
    u[17]     primal_lower56  982
    u[17]     primal_lower57  792
    u[17]     primal_lower58  142
    u[17]     primal_lower59  589
    u[17]     primal_lower60  769
    u[17]     primal_lower61  685
    u[17]     primal_lower62  360
    u[17]     primal_lower63  601
    u[17]     primal_lower64  109
    u[17]     primal_lower65  77
    u[17]     primal_lower66  770
    u[17]     primal_lower67  189
    u[17]     primal_lower68  276
    u[17]     primal_lower69  466
    u[17]     primal_lower70  589
    u[17]     primal_lower71  890
    u[17]     primal_lower72  470
    u[17]     primal_lower73  375
    u[17]     primal_lower74  158
    u[17]     primal_lower75  344
    u[17]     primal_lower76  589
    u[17]     primal_lower77  10
    u[17]     primal_lower78  798
    u[17]     primal_lower79  968
    u[17]     primal_lower80  227
    u[17]     primal_lower81  708
    u[17]     primal_lower82  71
    u[17]     primal_lower83  917
    u[17]     primal_lower84  382
    u[17]     primal_lower85  330
    u[17]     primal_lower86  343
    u[17]     primal_lower87  804
    u[17]     primal_lower88  794
    u[17]     primal_lower89  846
    u[17]     primal_lower90  743
    u[17]     primal_lower91  299
    u[17]     primal_lower92  613
    u[17]     primal_lower93  493
    u[17]     primal_lower94  99
    u[17]     primal_lower95  31
    u[17]     primal_lower96  654
    u[17]     primal_lower97  446
    u[17]     primal_lower98  20
    u[17]     primal_lower99  15
    u[17]     interdiction[17]  1
    u[17]     mccormick1[17]  -1
    u[17]     mccormick3[17]  1
    u[18]     primal_lower0  889
    u[18]     primal_lower1  229
    u[18]     primal_lower2  197
    u[18]     primal_lower3  39
    u[18]     primal_lower4  858
    u[18]     primal_lower5  906
    u[18]     primal_lower6  291
    u[18]     primal_lower7  438
    u[18]     primal_lower8  972
    u[18]     primal_lower9  162
    u[18]     primal_lower10  1
    u[18]     primal_lower11  874
    u[18]     primal_lower12  721
    u[18]     primal_lower13  355
    u[18]     primal_lower14  579
    u[18]     primal_lower15  376
    u[18]     primal_lower16  910
    u[18]     primal_lower17  720
    u[18]     primal_lower18  817
    u[18]     primal_lower19  296
    u[18]     primal_lower20  742
    u[18]     primal_lower21  561
    u[18]     primal_lower22  20
    u[18]     primal_lower23  852
    u[18]     primal_lower24  536
    u[18]     primal_lower25  449
    u[18]     primal_lower26  990
    u[18]     primal_lower27  358
    u[18]     primal_lower28  717
    u[18]     primal_lower29  698
    u[18]     primal_lower30  820
    u[18]     primal_lower31  454
    u[18]     primal_lower32  507
    u[18]     primal_lower33  390
    u[18]     primal_lower34  803
    u[18]     primal_lower35  434
    u[18]     primal_lower36  742
    u[18]     primal_lower37  687
    u[18]     primal_lower38  822
    u[18]     primal_lower39  259
    u[18]     primal_lower40  674
    u[18]     primal_lower41  508
    u[18]     primal_lower42  857
    u[18]     primal_lower43  926
    u[18]     primal_lower44  115
    u[18]     primal_lower45  558
    u[18]     primal_lower46  89
    u[18]     primal_lower47  744
    u[18]     primal_lower48  706
    u[18]     primal_lower49  947
    u[18]     primal_lower50  777
    u[18]     primal_lower51  337
    u[18]     primal_lower52  770
    u[18]     primal_lower53  556
    u[18]     primal_lower54  661
    u[18]     primal_lower55  217
    u[18]     primal_lower56  11
    u[18]     primal_lower57  545
    u[18]     primal_lower58  811
    u[18]     primal_lower59  614
    u[18]     primal_lower60  374
    u[18]     primal_lower61  714
    u[18]     primal_lower62  509
    u[18]     primal_lower63  478
    u[18]     primal_lower64  994
    u[18]     primal_lower65  454
    u[18]     primal_lower66  611
    u[18]     primal_lower67  666
    u[18]     primal_lower68  997
    u[18]     primal_lower69  531
    u[18]     primal_lower70  90
    u[18]     primal_lower71  555
    u[18]     primal_lower72  955
    u[18]     primal_lower73  136
    u[18]     primal_lower74  971
    u[18]     primal_lower75  821
    u[18]     primal_lower76  730
    u[18]     primal_lower77  951
    u[18]     primal_lower78  147
    u[18]     primal_lower79  981
    u[18]     primal_lower80  828
    u[18]     primal_lower81  941
    u[18]     primal_lower82  796
    u[18]     primal_lower83  598
    u[18]     primal_lower84  827
    u[18]     primal_lower85  415
    u[18]     primal_lower86  676
    u[18]     primal_lower87  541
    u[18]     primal_lower88  251
    u[18]     primal_lower89  279
    u[18]     primal_lower90  960
    u[18]     primal_lower91  596
    u[18]     primal_lower92  846
    u[18]     primal_lower93  362
    u[18]     primal_lower94  912
    u[18]     primal_lower95  828
    u[18]     primal_lower96  643
    u[18]     primal_lower97  799
    u[18]     primal_lower98  437
    u[18]     primal_lower99  500
    u[18]     interdiction[18]  1
    u[18]     mccormick1[18]  -1
    u[18]     mccormick3[18]  1
    u[19]     primal_lower0  818
    u[19]     primal_lower1  662
    u[19]     primal_lower2  802
    u[19]     primal_lower3  908
    u[19]     primal_lower4  563
    u[19]     primal_lower5  723
    u[19]     primal_lower6  56
    u[19]     primal_lower7  231
    u[19]     primal_lower8  17
    u[19]     primal_lower9  299
    u[19]     primal_lower10  58
    u[19]     primal_lower11  583
    u[19]     primal_lower12  238
    u[19]     primal_lower13  848
    u[19]     primal_lower14  500
    u[19]     primal_lower15  585
    u[19]     primal_lower16  139
    u[19]     primal_lower17  485
    u[19]     primal_lower18  394
    u[19]     primal_lower19  789
    u[19]     primal_lower20  687
    u[19]     primal_lower21  610
    u[19]     primal_lower22  661
    u[19]     primal_lower23  65
    u[19]     primal_lower24  593
    u[19]     primal_lower25  602
    u[19]     primal_lower26  775
    u[19]     primal_lower27  183
    u[19]     primal_lower28  534
    u[19]     primal_lower29  35
    u[19]     primal_lower30  941
    u[19]     primal_lower31  99
    u[19]     primal_lower32  680
    u[19]     primal_lower33  55
    u[19]     primal_lower34  680
    u[19]     primal_lower35  643
    u[19]     primal_lower36  387
    u[19]     primal_lower37  648
    u[19]     primal_lower38  171
    u[19]     primal_lower39  712
    u[19]     primal_lower40  811
    u[19]     primal_lower41  549
    u[19]     primal_lower42  954
    u[19]     primal_lower43  299
    u[19]     primal_lower44  592
    u[19]     primal_lower45  515
    u[19]     primal_lower46  750
    u[19]     primal_lower47  373
    u[19]     primal_lower48  155
    u[19]     primal_lower49  524
    u[19]     primal_lower50  602
    u[19]     primal_lower51  726
    u[19]     primal_lower52  223
    u[19]     primal_lower53  221
    u[19]     primal_lower54  954
    u[19]     primal_lower55  22
    u[19]     primal_lower56  724
    u[19]     primal_lower57  526
    u[19]     primal_lower58  148
    u[19]     primal_lower59  27
    u[19]     primal_lower60  783
    u[19]     primal_lower61  875
    u[19]     primal_lower62  734
    u[19]     primal_lower63  623
    u[19]     primal_lower64  707
    u[19]     primal_lower65  355
    u[19]     primal_lower66  560
    u[19]     primal_lower67  339
    u[19]     primal_lower68  618
    u[19]     primal_lower69  176
    u[19]     primal_lower70  603
    u[19]     primal_lower71  560
    u[19]     primal_lower72  620
    u[19]     primal_lower73  565
    u[19]     primal_lower74  308
    u[19]     primal_lower75  62
    u[19]     primal_lower76  395
    u[19]     primal_lower77  808
    u[19]     primal_lower78  212
    u[19]     primal_lower79  686
    u[19]     primal_lower80  17
    u[19]     primal_lower81  354
    u[19]     primal_lower82  725
    u[19]     primal_lower83  195
    u[19]     primal_lower84  44
    u[19]     primal_lower85  392
    u[19]     primal_lower86  533
    u[19]     primal_lower87  490
    u[19]     primal_lower88  992
    u[19]     primal_lower89  300
    u[19]     primal_lower90  733
    u[19]     primal_lower91  721
    u[19]     primal_lower92  419
    u[19]     primal_lower93  379
    u[19]     primal_lower94  729
    u[19]     primal_lower95  829
    u[19]     primal_lower96  404
    u[19]     primal_lower97  492
    u[19]     primal_lower98  562
    u[19]     primal_lower99  557
    u[19]     interdiction[19]  1
    u[19]     mccormick1[19]  -1
    u[19]     mccormick3[19]  1
    z[0]      primal_upper  18
    z[0]      mccormick1[0]  1
    z[0]      mccormick2[0]  1
    z[0]      mccormick3[0]  -1
    z[1]      primal_upper  27
    z[1]      mccormick1[1]  1
    z[1]      mccormick2[1]  1
    z[1]      mccormick3[1]  -1
    z[2]      primal_upper  52
    z[2]      mccormick1[2]  1
    z[2]      mccormick2[2]  1
    z[2]      mccormick3[2]  -1
    z[3]      primal_upper  78
    z[3]      mccormick1[3]  1
    z[3]      mccormick2[3]  1
    z[3]      mccormick3[3]  -1
    z[4]      primal_upper  70
    z[4]      mccormick1[4]  1
    z[4]      mccormick2[4]  1
    z[4]      mccormick3[4]  -1
    z[5]      primal_upper  37
    z[5]      mccormick1[5]  1
    z[5]      mccormick2[5]  1
    z[5]      mccormick3[5]  -1
    z[6]      primal_upper  6
    z[6]      mccormick1[6]  1
    z[6]      mccormick2[6]  1
    z[6]      mccormick3[6]  -1
    z[7]      primal_upper  23
    z[7]      mccormick1[7]  1
    z[7]      mccormick2[7]  1
    z[7]      mccormick3[7]  -1
    z[8]      primal_upper  17
    z[8]      mccormick1[8]  1
    z[8]      mccormick2[8]  1
    z[8]      mccormick3[8]  -1
    z[9]      primal_upper  54
    z[9]      mccormick1[9]  1
    z[9]      mccormick2[9]  1
    z[9]      mccormick3[9]  -1
    z[10]     primal_upper  51
    z[10]     mccormick1[10]  1
    z[10]     mccormick2[10]  1
    z[10]     mccormick3[10]  -1
    z[11]     primal_upper  4
    z[11]     mccormick1[11]  1
    z[11]     mccormick2[11]  1
    z[11]     mccormick3[11]  -1
    z[12]     primal_upper  58
    z[12]     mccormick1[12]  1
    z[12]     mccormick2[12]  1
    z[12]     mccormick3[12]  -1
    z[13]     primal_upper  67
    z[13]     mccormick1[13]  1
    z[13]     mccormick2[13]  1
    z[13]     mccormick3[13]  -1
    z[14]     primal_upper  46
    z[14]     mccormick1[14]  1
    z[14]     mccormick2[14]  1
    z[14]     mccormick3[14]  -1
    z[15]     primal_upper  14
    z[15]     mccormick1[15]  1
    z[15]     mccormick2[15]  1
    z[15]     mccormick3[15]  -1
    z[16]     primal_upper  41
    z[16]     mccormick1[16]  1
    z[16]     mccormick2[16]  1
    z[16]     mccormick3[16]  -1
    z[17]     primal_upper  38
    z[17]     mccormick1[17]  1
    z[17]     mccormick2[17]  1
    z[17]     mccormick3[17]  -1
    z[18]     primal_upper  46
    z[18]     mccormick1[18]  1
    z[18]     mccormick2[18]  1
    z[18]     mccormick3[18]  -1
    z[19]     primal_upper  37
    z[19]     mccormick1[19]  1
    z[19]     mccormick2[19]  1
    z[19]     mccormick3[19]  -1
    MARKER    'MARKER'                 'INTEND'
RHS
    RHS1      primal_upper  1567
    RHS1      primal_lower0  1958
    RHS1      primal_lower1  4152
    RHS1      primal_lower2  2141
    RHS1      primal_lower3  908
    RHS1      primal_lower4  939
    RHS1      primal_lower5  953
    RHS1      primal_lower6  949
    RHS1      primal_lower7  3284
    RHS1      primal_lower8  3536
    RHS1      primal_lower9  3562
    RHS1      primal_lower10  3666
    RHS1      primal_lower11  6859
    RHS1      primal_lower12  948
    RHS1      primal_lower13  4660
    RHS1      primal_lower14  2585
    RHS1      primal_lower15  2078
    RHS1      primal_lower16  3699
    RHS1      primal_lower17  2110
    RHS1      primal_lower18  1980
    RHS1      primal_lower19  5184
    RHS1      primal_lower20  4535
    RHS1      primal_lower21  884
    RHS1      primal_lower22  1946
    RHS1      primal_lower23  4851
    RHS1      primal_lower24  2467
    RHS1      primal_lower25  848
    RHS1      primal_lower26  5124
    RHS1      primal_lower27  3821
    RHS1      primal_lower28  2311
    RHS1      primal_lower29  4614
    RHS1      primal_lower30  7806
    RHS1      primal_lower31  5452
    RHS1      primal_lower32  902
    RHS1      primal_lower33  3536
    RHS1      primal_lower34  2068
    RHS1      primal_lower35  4352
    RHS1      primal_lower36  1779
    RHS1      primal_lower37  3637
    RHS1      primal_lower38  4524
    RHS1      primal_lower39  5508
    RHS1      primal_lower40  997
    RHS1      primal_lower41  3338
    RHS1      primal_lower42  2500
    RHS1      primal_lower43  3520
    RHS1      primal_lower44  4001
    RHS1      primal_lower45  4315
    RHS1      primal_lower46  940
    RHS1      primal_lower47  980
    RHS1      primal_lower48  2018
    RHS1      primal_lower49  5523
    RHS1      primal_lower50  1905
    RHS1      primal_lower51  3672
    RHS1      primal_lower52  3097
    RHS1      primal_lower53  987
    RHS1      primal_lower54  2519
    RHS1      primal_lower55  4196
    RHS1      primal_lower56  2028
    RHS1      primal_lower57  2204
    RHS1      primal_lower58  1940
    RHS1      primal_lower59  1942
    RHS1      primal_lower60  2139
    RHS1      primal_lower61  4218
    RHS1      primal_lower62  4482
    RHS1      primal_lower63  4784
    RHS1      primal_lower64  7090
    RHS1      primal_lower65  4096
    RHS1      primal_lower66  3710
    RHS1      primal_lower67  3812
    RHS1      primal_lower68  1978
    RHS1      primal_lower69  1973
    RHS1      primal_lower70  1923
    RHS1      primal_lower71  4177
    RHS1      primal_lower72  6738
    RHS1      primal_lower73  972
    RHS1      primal_lower74  2220
    RHS1      primal_lower75  2327
    RHS1      primal_lower76  793
    RHS1      primal_lower77  2180
    RHS1      primal_lower78  4918
    RHS1      primal_lower79  1809
    RHS1      primal_lower80  2145
    RHS1      primal_lower81  1956
    RHS1      primal_lower82  3207
    RHS1      primal_lower83  969
    RHS1      primal_lower84  3516
    RHS1      primal_lower85  6507
    RHS1      primal_lower86  1326
    RHS1      primal_lower87  6813
    RHS1      primal_lower88  2021
    RHS1      primal_lower89  3995
    RHS1      primal_lower90  2531
    RHS1      primal_lower91  2088
    RHS1      primal_lower92  3260
    RHS1      primal_lower93  2366
    RHS1      primal_lower94  4189
    RHS1      primal_lower95  2918
    RHS1      primal_lower96  3714
    RHS1      primal_lower97  5004
    RHS1      primal_lower98  6434
    RHS1      primal_lower99  3796
    RHS1      interdiction[0]  1
    RHS1      interdiction[1]  1
    RHS1      interdiction[2]  1
    RHS1      interdiction[3]  1
    RHS1      interdiction[4]  1
    RHS1      interdiction[5]  1
    RHS1      interdiction[6]  1
    RHS1      interdiction[7]  1
    RHS1      interdiction[8]  1
    RHS1      interdiction[9]  1
    RHS1      interdiction[10]  1
    RHS1      interdiction[11]  1
    RHS1      interdiction[12]  1
    RHS1      interdiction[13]  1
    RHS1      interdiction[14]  1
    RHS1      interdiction[15]  1
    RHS1      interdiction[16]  1
    RHS1      interdiction[17]  1
    RHS1      interdiction[18]  1
    RHS1      interdiction[19]  1
    RHS1      mccormick3[0]  1
    RHS1      mccormick3[1]  1
    RHS1      mccormick3[2]  1
    RHS1      mccormick3[3]  1
    RHS1      mccormick3[4]  1
    RHS1      mccormick3[5]  1
    RHS1      mccormick3[6]  1
    RHS1      mccormick3[7]  1
    RHS1      mccormick3[8]  1
    RHS1      mccormick3[9]  1
    RHS1      mccormick3[10]  1
    RHS1      mccormick3[11]  1
    RHS1      mccormick3[12]  1
    RHS1      mccormick3[13]  1
    RHS1      mccormick3[14]  1
    RHS1      mccormick3[15]  1
    RHS1      mccormick3[16]  1
    RHS1      mccormick3[17]  1
    RHS1      mccormick3[18]  1
    RHS1      mccormick3[19]  1
BOUNDS
 BV BND1      x[0]    
 BV BND1      x[1]    
 BV BND1      x[2]    
 BV BND1      x[3]    
 BV BND1      x[4]    
 BV BND1      x[5]    
 BV BND1      x[6]    
 BV BND1      x[7]    
 BV BND1      x[8]    
 BV BND1      x[9]    
 BV BND1      x[10]   
 BV BND1      x[11]   
 BV BND1      x[12]   
 BV BND1      x[13]   
 BV BND1      x[14]   
 BV BND1      x[15]   
 BV BND1      x[16]   
 BV BND1      x[17]   
 BV BND1      x[18]   
 BV BND1      x[19]   
 BV BND1      y[0]    
 BV BND1      y[1]    
 BV BND1      y[2]    
 BV BND1      y[3]    
 BV BND1      y[4]    
 BV BND1      y[5]    
 BV BND1      y[6]    
 BV BND1      y[7]    
 BV BND1      y[8]    
 BV BND1      y[9]    
 BV BND1      y[10]   
 BV BND1      y[11]   
 BV BND1      y[12]   
 BV BND1      y[13]   
 BV BND1      y[14]   
 BV BND1      y[15]   
 BV BND1      y[16]   
 BV BND1      y[17]   
 BV BND1      y[18]   
 BV BND1      y[19]   
 BV BND1      u[0]    
 BV BND1      u[1]    
 BV BND1      u[2]    
 BV BND1      u[3]    
 BV BND1      u[4]    
 BV BND1      u[5]    
 BV BND1      u[6]    
 BV BND1      u[7]    
 BV BND1      u[8]    
 BV BND1      u[9]    
 BV BND1      u[10]   
 BV BND1      u[11]   
 BV BND1      u[12]   
 BV BND1      u[13]   
 BV BND1      u[14]   
 BV BND1      u[15]   
 BV BND1      u[16]   
 BV BND1      u[17]   
 BV BND1      u[18]   
 BV BND1      u[19]   
 BV BND1      z[0]    
 BV BND1      z[1]    
 BV BND1      z[2]    
 BV BND1      z[3]    
 BV BND1      z[4]    
 BV BND1      z[5]    
 BV BND1      z[6]    
 BV BND1      z[7]    
 BV BND1      z[8]    
 BV BND1      z[9]    
 BV BND1      z[10]   
 BV BND1      z[11]   
 BV BND1      z[12]   
 BV BND1      z[13]   
 BV BND1      z[14]   
 BV BND1      z[15]   
 BV BND1      z[16]   
 BV BND1      z[17]   
 BV BND1      z[18]   
 BV BND1      z[19]   
ENDATA
