\ Model knapsack_20_1000_5
\ LP format - for model browsing. Use MPS format to capture full model detail.
\ Signature: 0x30effe895b1fc564
Minimize
  10 x[0] + 10 x[1] + 10 x[2] + 10 x[3] + 10 x[4] + 10 x[5] + 10 x[6]
   + 10 x[7] + 10 x[8] + 10 x[9] + 10 x[10] + 10 x[11] + 10 x[12]
   + 10 x[13] + 10 x[14] + 10 x[15] + 10 x[16] + 10 x[17] + 10 x[18]
   + 10 x[19] - 623 y[0] - 824 y[1] - 801 y[2] - 525 y[3] - 939 y[4]
   - 370 y[5] - 739 y[6] - 381 y[7] - 728 y[8] - 828 y[9] - 712 y[10]
   - 548 y[11] - 852 y[12] - 379 y[13] - 616 y[14] - 541 y[15] - 871 y[16]
   - 915 y[17] - 836 y[18] - 923 y[19]
Subject To
 primal_upper: 237 y[0] + 721 y[1] + 775 y[2] + 680 y[3] + 825 y[4]
   + 407 y[5] + 458 y[6] + 929 y[7] + 426 y[8] + 759 y[9] + 545 y[10]
   + 176 y[11] + 921 y[12] + 777 y[13] + 858 y[14] + 194 y[15] + 306 y[16]
   + 485 y[17] + 374 y[18] + 123 y[19] + 24 z[0] + 72 z[1] + 78 z[2]
   + 68 z[3] + 82 z[4] + 41 z[5] + 46 z[6] + 93 z[7] + 43 z[8] + 76 z[9]
   + 54 z[10] + 18 z[11] + 92 z[12] + 78 z[13] + 86 z[14] + 19 z[15]
   + 31 z[16] + 48 z[17] + 37 z[18] + 12 z[19] <= 1829
 primal_lower0: 931 u[0] + 831 u[1] + 541 u[2] + 334 u[3] + 799 u[4]
   + 501 u[5] + 784 u[6] + 255 u[7] + 128 u[8] + 181 u[9] + 199 u[10]
   + 926 u[11] + 351 u[12] + 231 u[13] + 952 u[14] + 632 u[15] + 752 u[16]
   + 259 u[17] + 940 u[18] + 9 u[19] <= 952
 primal_lower1: 892 u[0] + 280 u[1] + 942 u[2] + 847 u[3] + 800 u[4]
   + 790 u[5] + 81 u[6] + 32 u[7] + 953 u[8] + 182 u[9] + 784 u[10]
   + 799 u[11] + 832 u[12] + 288 u[13] + 713 u[14] + 121 u[15] + 433 u[16]
   + 52 u[17] + 485 u[18] + 106 u[19] <= 6941
 primal_lower2: 334 u[0] + 546 u[1] + 384 u[2] + 497 u[3] + 186 u[4]
   + 264 u[5] + 91 u[6] + 418 u[7] + 547 u[8] + 440 u[9] + 554 u[10]
   + 713 u[11] + 2 u[12] + 322 u[13] + 75 u[14] + 803 u[15] + 523 u[16]
   + 214 u[17] + 791 u[18] + 284 u[19] <= 1331
 primal_lower3: 287 u[0] + 256 u[1] + 530 u[2] + 975 u[3] + 844 u[4]
   + 269 u[5] + 189 u[6] + 511 u[7] + 853 u[8] + 766 u[9] + 571 u[10]
   + 199 u[11] + 772 u[12] + 552 u[13] + 452 u[14] + 864 u[15] + 469 u[16]
   + 596 u[17] + 929 u[18] + 874 u[19] <= 3919
 primal_lower4: 42 u[0] + 299 u[1] + 277 u[2] + 506 u[3] + 839 u[4]
   + 872 u[5] + 40 u[6] + 490 u[7] + 472 u[8] + 121 u[9] + 462 u[10]
   + 594 u[11] + 71 u[12] + 931 u[13] + 615 u[14] + 219 u[15] + 952 u[16]
   + 143 u[17] + 196 u[18] + 701 u[19] <= 1473
 primal_lower5: 759 u[0] + 691 u[1] + 73 u[2] + 890 u[3] + 155 u[4]
   + 457 u[5] + 988 u[6] + 339 u[7] + 324 u[8] + 289 u[9] + 403 u[10]
   + 146 u[11] + 195 u[12] + 851 u[13] + 652 u[14] + 276 u[15] + 236 u[16]
   + 7 u[17] + 96 u[18] + 357 u[19] <= 4092
 primal_lower6: 104 u[0] + 92 u[1] + 10 u[2] + 323 u[3] + 684 u[4]
   + 506 u[5] + 133 u[6] + 660 u[7] + 837 u[8] + 498 u[9] + 108 u[10]
   + 371 u[11] + 484 u[12] + 836 u[13] + 733 u[14] + 909 u[15] + 749 u[16]
   + 392 u[17] + 97 u[18] + 126 u[19] <= 1442
 primal_lower7: 408 u[0] + 785 u[1] + 619 u[2] + 272 u[3] + 989 u[4]
   + 742 u[5] + 158 u[6] + 312 u[7] + 502 u[8] + 191 u[9] + 20 u[10]
   + 256 u[11] + 445 u[12] + 961 u[13] + 973 u[14] + 329 u[15] + 854 u[16]
   + 109 u[17] + 978 u[18] + 283 u[19] <= 1697
 primal_lower8: 683 u[0] + 207 u[1] + 829 u[2] + 910 u[3] + 335 u[4]
   + 573 u[5] + 896 u[6] + 367 u[7] + 768 u[8] + 45 u[9] + 23 u[10]
   + 382 u[11] + 87 u[12] + 455 u[13] + 296 u[14] + 416 u[15] + 360 u[16]
   + 483 u[17] + 580 u[18] + 73 u[19] <= 910
 primal_lower9: 714 u[0] + 499 u[1] + 381 u[2] + 562 u[3] + 695 u[4]
   + 336 u[5] + 888 u[6] + 50 u[7] + 320 u[8] + 169 u[9] + 510 u[10]
   + 362 u[11] + 55 u[12] + 723 u[13] + 23 u[14] + 11 u[15] + 880 u[16]
   + 575 u[17] + 692 u[18] + 453 u[19] <= 2966
 primal_lower10: 279 u[0] + 960 u[1] + 450 u[2] + 335 u[3] + 868 u[4]
   + 885 u[5] + 773 u[6] + 519 u[7] + 917 u[8] + 846 u[9] + 571 u[10]
   + 583 u[11] + 332 u[12] + 304 u[13] + 844 u[14] + 296 u[15] + 381 u[16]
   + 860 u[17] + 665 u[18] + 730 u[19] <= 4132
 primal_lower11: 641 u[0] + 973 u[1] + 779 u[2] + 68 u[3] + 549 u[4]
   + 939 u[5] + 198 u[6] + 517 u[7] + 638 u[8] + 683 u[9] + 629 u[10]
   + 188 u[11] + 637 u[12] + 829 u[13] + 494 u[14] + 894 u[15] + 950 u[16]
   + 753 u[17] + 18 u[18] + 919 u[19] <= 973
 primal_lower12: 371 u[0] + 84 u[1] + 598 u[2] + 531 u[3] + 400 u[4]
   + 625 u[5] + 225 u[6] + 59 u[7] + 625 u[8] + 266 u[9] + 727 u[10]
   + 499 u[11] + 712 u[12] + 892 u[13] + 88 u[14] + 100 u[15] + 529 u[16]
   + 688 u[17] + 181 u[18] + 526 u[19] <= 2908
 primal_lower13: 996 u[0] + 536 u[1] + 174 u[2] + 287 u[3] + 408 u[4]
   + 358 u[5] + 361 u[6] + 560 u[7] + 553 u[8] + 758 u[9] + 176 u[10]
   + 527 u[11] + 328 u[12] + 80 u[13] + 705 u[14] + 817 u[15] + 377 u[16]
   + 52 u[17] + 229 u[18] + 658 u[19] <= 4470
 primal_lower14: 454 u[0] + 807 u[1] + 465 u[2] + 942 u[3] + 851 u[4]
   + 220 u[5] + 964 u[6] + 686 u[7] + 660 u[8] + 597 u[9] + 490 u[10]
   + 454 u[11] + 43 u[12] + 535 u[13] + 411 u[14] + 855 u[15] + 132 u[16]
   + 291 u[17] + 216 u[18] + 201 u[19] <= 6849
 primal_lower15: 503 u[0] + 211 u[1] + 201 u[2] + 986 u[3] + 179 u[4]
   + 777 u[5] + 148 u[6] + 467 u[7] + 564 u[8] + 841 u[9] + 283 u[10]
   + 554 u[11] + 595 u[12] + 355 u[13] + 364 u[14] + 588 u[15] + 972 u[16]
   + 335 u[17] + 816 u[18] + 173 u[19] <= 986
 primal_lower16: 53 u[0] + 457 u[1] + 871 u[2] + 696 u[3] + 817 u[4]
   + 919 u[5] + 530 u[6] + 281 u[7] + 34 u[8] + 855 u[9] + 513 u[10]
   + 24 u[11] + 177 u[12] + 265 u[13] + 394 u[14] + 338 u[15] + 986 u[16]
   + 437 u[17] + 246 u[18] + 851 u[19] <= 4872
 primal_lower17: 79 u[0] + 256 u[1] + 290 u[2] + 647 u[3] + 860 u[4]
   + 117 u[5] + 797 u[6] + 559 u[7] + 101 u[8] + 718 u[9] + 955 u[10]
   + 527 u[11] + 228 u[12] + 672 u[13] + 652 u[14] + 80 u[15] + 973 u[16]
   + 884 u[17] + 673 u[18] + 82 u[19] <= 5075
 primal_lower18: 912 u[0] + 900 u[1] + 106 u[2] + 731 u[3] + 852 u[4]
   + 2 u[5] + 325 u[6] + 12 u[7] + 781 u[8] + 258 u[9] + 20 u[10]
   + 227 u[11] + 388 u[12] + 548 u[13] + 69 u[14] + 581 u[15] + 317 u[16]
   + 960 u[17] + 169 u[18] + 6 u[19] <= 2721
 primal_lower19: 659 u[0] + 660 u[1] + 238 u[2] + 947 u[3] + 840 u[4]
   + 641 u[5] + 305 u[6] + 187 u[7] + 745 u[8] + 562 u[9] + 927 u[10]
   + 467 u[11] + 120 u[12] + 36 u[13] + 160 u[14] + 532 u[15] + 369 u[16]
   + 984 u[17] + 37 u[18] + 86 u[19] <= 6334
 primal_lower20: 500 u[0] + 365 u[1] + 487 u[2] + 28 u[3] + 121 u[4]
   + 506 u[5] + 906 u[6] + 620 u[7] + 106 u[8] + 283 u[9] + 760 u[10]
   + 868 u[11] + 105 u[12] + 413 u[13] + 169 u[14] + 477 u[15] + 242 u[16]
   + 169 u[17] + 126 u[18] + 655 u[19] <= 2635
 primal_lower21: 730 u[0] + 379 u[1] + 749 u[2] + 234 u[3] + 159 u[4]
   + 440 u[5] + 208 u[6] + 370 u[7] + 88 u[8] + 809 u[9] + 150 u[10]
   + 834 u[11] + 519 u[12] + 371 u[13] + 535 u[14] + 467 u[15] + 992 u[16]
   + 151 u[17] + 92 u[18] + 725 u[19] <= 3000
 primal_lower22: 866 u[0] + 11 u[1] + 309 u[2] + 258 u[3] + 839 u[4]
   + 488 u[5] + 520 u[6] + 426 u[7] + 832 u[8] + 889 u[9] + 262 u[10]
   + 546 u[11] + 263 u[12] + 83 u[13] + 215 u[14] + 835 u[15] + 648 u[16]
   + 503 u[17] + 532 u[18] + 693 u[19] <= 1669
 primal_lower23: 363 u[0] + 884 u[1] + 998 u[2] + 931 u[3] + 392 u[4]
   + 473 u[5] + 689 u[6] + 291 u[7] + 233 u[8] + 386 u[9] + 751 u[10]
   + 203 u[11] + 568 u[12] + 300 u[13] + 376 u[14] + 556 u[15] + 697 u[16]
   + 400 u[17] + 413 u[18] + 990 u[19] <= 1815
 primal_lower24: 861 u[0] + 558 u[1] + 880 u[2] + 957 u[3] + 402 u[4]
   + 299 u[5] + 219 u[6] + 597 u[7] + 499 u[8] + 188 u[9] + 81 u[10]
   + 413 u[11] + 146 u[12] + 534 u[13] + 810 u[14] + 614 u[15] + 475 u[16]
   + 98 u[17] + 543 u[18] + 600 u[19] <= 4887
 primal_lower25: 653 u[0] + 433 u[1] + 967 u[2] + 296 u[3] + 825 u[4]
   + 863 u[5] + 362 u[6] + 225 u[7] + 386 u[8] + 7 u[9] + 753 u[10]
   + 200 u[11] + 713 u[12] + 881 u[13] + 370 u[14] + 930 u[15] + 234 u[16]
   + 77 u[17] + 198 u[18] + 907 u[19] <= 1713
 primal_lower26: 679 u[0] + 864 u[1] + 386 u[2] + 671 u[3] + 980 u[4]
   + 397 u[5] + 869 u[6] + 591 u[7] + 829 u[8] + 334 u[9] + 443 u[10]
   + 351 u[11] + 4 u[12] + 936 u[13] + 628 u[14] + 896 u[15] + 181 u[16]
   + 708 u[17] + 977 u[18] + 658 u[19] <= 4127
 primal_lower27: 990 u[0] + 199 u[1] + 9 u[2] + 782 u[3] + 947 u[4]
   + 972 u[5] + 932 u[6] + 894 u[7] + 140 u[8] + 645 u[9] + 58 u[10]
   + 774 u[11] + 907 u[12] + 455 u[13] + 331 u[14] + 503 u[15] + 364 u[16]
   + 171 u[17] + 624 u[18] + 697 u[19] <= 7596
 primal_lower28: 756 u[0] + 701 u[1] + 23 u[2] + 412 u[3] + 209 u[4]
   + 378 u[5] + 306 u[6] + 188 u[7] + 498 u[8] + 211 u[9] + 656 u[10]
   + 300 u[11] + 961 u[12] + 677 u[13] + 297 u[14] + 653 u[15] + 666 u[16]
   + 521 u[17] + 870 u[18] + 439 u[19] <= 4861
 primal_lower29: 34 u[0] + 427 u[1] + 701 u[2] + 242 u[3] + 383 u[4]
   + 112 u[5] + 256 u[6] + 938 u[7] + 96 u[8] + 553 u[9] + 798 u[10]
   + 418 u[11] + 559 u[12] + 67 u[13] + 815 u[14] + 307 u[15] + 672 u[16]
   + 663 u[17] + 564 u[18] + 773 u[19] <= 3126
 primal_lower30: 157 u[0] + 110 u[1] + 376 u[2] + 461 u[3] + 394 u[4]
   + 715 u[5] + 739 u[6] + 805 u[7] + 915 u[8] + 108 u[9] + 921 u[10]
   + 213 u[11] + 354 u[12] + 30 u[13] + 730 u[14] + 6 u[15] + 203 u[16]
   + 650 u[17] + 239 u[18] + 992 u[19] <= 1519
 primal_lower31: 949 u[0] + 78 u[1] + 1000 u[2] + 597 u[3] + 978 u[4]
   + 675 u[5] + 651 u[6] + 29 u[7] + 859 u[8] + 596 u[9] + 249 u[10]
   + 557 u[11] + 594 u[12] + 790 u[13] + 618 u[14] + 854 u[15] + 211 u[16]
   + 498 u[17] + 607 u[18] + 656 u[19] <= 1000
 primal_lower32: 382 u[0] + 42 u[1] + 624 u[2] + 665 u[3] + 122 u[4]
   + 800 u[5] + 179 u[6] + 98 u[7] + 723 u[8] + 904 u[9] + 778 u[10]
   + 761 u[11] + 234 u[12] + 274 u[13] + 115 u[14] + 147 u[15] + 699 u[16]
   + 758 u[17] + 719 u[18] + 356 u[19] <= 6253
 primal_lower33: 749 u[0] + 857 u[1] + 799 u[2] + 544 u[3] + 481 u[4]
   + 887 u[5] + 274 u[6] + 225 u[7] + 426 u[8] + 639 u[9] + 449 u[10]
   + 504 u[11] + 889 u[12] + 553 u[13] + 482 u[14] + 450 u[15] + 938 u[16]
   + 397 u[17] + 270 u[18] + 243 u[19] <= 1842
 primal_lower34: 562 u[0] + 382 u[1] + 964 u[2] + 165 u[3] + 422 u[4]
   + 892 u[5] + 95 u[6] + 670 u[7] + 567 u[8] + 724 u[9] + 934 u[10]
   + 917 u[11] + 862 u[12] + 558 u[13] + 151 u[14] + 559 u[15] + 983 u[16]
   + 450 u[17] + 147 u[18] + 976 u[19] <= 5990
 primal_lower35: 539 u[0] + 92 u[1] + 286 u[2] + 731 u[3] + 368 u[4]
   + 17 u[5] + 969 u[6] + 891 u[7] + 305 u[8] + 834 u[9] + 647 u[10]
   + 59 u[11] + 448 u[12] + 20 u[13] + 432 u[14] + 356 u[15] + 153 u[16]
   + 792 u[17] + 677 u[18] + 878 u[19] <= 1582
 primal_lower36: 957 u[0] + 457 u[1] + 823 u[2] + 496 u[3] + 497 u[4]
   + 167 u[5] + 626 u[6] + 361 u[7] + 410 u[8] + 639 u[9] + 873 u[10]
   + 952 u[11] + 129 u[12] + 217 u[13] + 562 u[14] + 770 u[15] + 770 u[16]
   + 125 u[17] + 686 u[18] + 387 u[19] <= 3634
 primal_lower37: 200 u[0] + 657 u[1] + 843 u[2] + 824 u[3] + 61 u[4]
   + 174 u[5] + 966 u[6] + 8 u[7] + 742 u[8] + 879 u[9] + 516 u[10]
   + 552 u[11] + 717 u[12] + 377 u[13] + 373 u[14] + 473 u[15] + 542 u[16]
   + 661 u[17] + 474 u[18] + 963 u[19] <= 7334
 primal_lower38: 853 u[0] + 134 u[1] + 456 u[2] + 389 u[3] + 482 u[4]
   + 691 u[5] + 619 u[6] + 445 u[7] + 363 u[8] + 4 u[9] + 385 u[10]
   + 573 u[11] + 714 u[12] + 582 u[13] + 210 u[14] + 166 u[15] + 763 u[16]
   + 626 u[17] + 31 u[18] + 928 u[19] <= 3138
 primal_lower39: 680 u[0] + 537 u[1] + 315 u[2] + 360 u[3] + 333 u[4]
   + 910 u[5] + 14 u[6] + 568 u[7] + 142 u[8] + 423 u[9] + 972 u[10]
   + 760 u[11] + 229 u[12] + 177 u[13] + 933 u[14] + 865 u[15] + 414 u[16]
   + 925 u[17] + 602 u[18] + 875 u[19] <= 1839
 primal_lower40: 510 u[0] + 319 u[1] + 537 u[2] + 246 u[3] + 675 u[4]
   + 428 u[5] + 692 u[6] + 334 u[7] + 548 u[8] + 101 u[9] + 794 u[10]
   + 566 u[11] + 203 u[12] + 655 u[13] + 771 u[14] + 111 u[15] + 684 u[16]
   + 99 u[17] + 496 u[18] + 785 u[19] <= 3184
 primal_lower41: 727 u[0] + 744 u[1] + 234 u[2] + 815 u[3] + 132 u[4]
   + 797 u[5] + 357 u[6] + 135 u[7] + 605 u[8] + 782 u[9] + 139 u[10]
   + 687 u[11] + 364 u[12] + 576 u[13] + 28 u[14] + 264 u[15] + 613 u[16]
   + 460 u[17] + 649 u[18] + 698 u[19] <= 1634
 primal_lower42: 678 u[0] + 535 u[1] + 361 u[2] + 558 u[3] + 155 u[4]
   + 180 u[5] + 700 u[6] + 286 u[7] + 156 u[8] + 669 u[9] + 330 u[10]
   + 270 u[11] + 107 u[12] + 879 u[13] + 619 u[14] + 703 u[15] + 36 u[16]
   + 843 u[17] + 16 u[18] + 353 u[19] <= 4217
 primal_lower43: 698 u[0] + 483 u[1] + 437 u[2] + 234 u[3] + 407 u[4]
   + 488 u[5] + 472 u[6] + 986 u[7] + 840 u[8] + 105 u[9] + 454 u[10]
   + 706 u[11] + 431 u[12] + 987 u[13] + 911 u[14] + 115 u[15] + 408 u[16]
   + 903 u[17] + 460 u[18] + 485 u[19] <= 3670
 primal_lower44: 456 u[0] + 356 u[1] + 562 u[2] + 971 u[3] + 780 u[4]
   + 866 u[5] + 701 u[6] + 940 u[7] + 589 u[8] + 810 u[9] + 340 u[10]
   + 123 u[11] + 180 u[12] + 92 u[13] + 125 u[14] + 653 u[15] + 149 u[16]
   + 568 u[17] + 137 u[18] + 774 u[19] <= 5086
 primal_lower45: 917 u[0] + 249 u[1] + 95 u[2] + 912 u[3] + 281 u[4]
   + 143 u[5] + 418 u[6] + 113 u[7] + 706 u[8] + 999 u[9] + 649 u[10]
   + 352 u[11] + 561 u[12] + 369 u[13] + 186 u[14] + 922 u[15] + 818 u[16]
   + 93 u[17] + 510 u[18] + 755 u[19] <= 999
 primal_lower46: 875 u[0] + 743 u[1] + 637 u[2] + 78 u[3] + 119 u[4]
   + 373 u[5] + 64 u[6] + 687 u[7] + 848 u[8] + 709 u[9] + 335 u[10]
   + 46 u[11] + 319 u[12] + 735 u[13] + 64 u[14] + 328 u[15] + 496 u[16]
   + 459 u[17] + 364 u[18] + 297 u[19] <= 4288
 primal_lower47: 353 u[0] + 301 u[1] + 11 u[2] + 716 u[3] + 245 u[4]
   + 291 u[5] + 598 u[6] + 557 u[7] + 270 u[8] + 635 u[9] + 981 u[10]
   + 252 u[11] + 397 u[12] + 653 u[13] + 958 u[14] + 462 u[15] + 918 u[16]
   + 505 u[17] + 914 u[18] + 807 u[19] <= 3608
 primal_lower48: 658 u[0] + 635 u[1] + 29 u[2] + 818 u[3] + 279 u[4]
   + 152 u[5] + 264 u[6] + 170 u[7] + 944 u[8] + 953 u[9] + 174 u[10]
   + 754 u[11] + 367 u[12] + 467 u[13] + 999 u[14] + 99 u[15] + 568 u[16]
   + 807 u[17] + 44 u[18] + 445 u[19] <= 3208
 primal_lower49: 732 u[0] + 709 u[1] + 615 u[2] + 20 u[3] + 537 u[4]
   + 74 u[5] + 50 u[6] + 372 u[7] + 930 u[8] + 539 u[9] + 488 u[10]
   + 524 u[11] + 601 u[12] + 709 u[13] + 785 u[14] + 581 u[15] + 858 u[16]
   + 193 u[17] + 438 u[18] + 479 u[19] <= 3411
 primal_lower50: 275 u[0] + 980 u[1] + 382 u[2] + 667 u[3] + 336 u[4]
   + 529 u[5] + 889 u[6] + 107 u[7] + 433 u[8] + 138 u[9] + 919 u[10]
   + 499 u[11] + 48 u[12] + 236 u[13] + 992 u[14] + 972 u[15] + 577 u[16]
   + 256 u[17] + 981 u[18] + 342 u[19] <= 5279
 primal_lower51: 171 u[0] + 87 u[1] + 333 u[2] + 990 u[3] + 167 u[4]
   + 589 u[5] + 944 u[6] + 943 u[7] + 288 u[8] + 565 u[9] + 455 u[10]
   + 910 u[11] + 159 u[12] + 895 u[13] + 816 u[14] + 280 u[15] + 8 u[16]
   + 619 u[17] + 964 u[18] + 817 u[19] <= 990
 primal_lower52: 696 u[0] + 444 u[1] + 114 u[2] + 299 u[3] + 516 u[4]
   + 162 u[5] + 829 u[6] + 84 u[7] + 589 u[8] + 754 u[9] + 652 u[10]
   + 731 u[11] + 812 u[12] + 356 u[13] + 357 u[14] + 789 u[15] + 421 u[16]
   + 336 u[17] + 25 u[18] + 806 u[19] <= 3257
 primal_lower53: 896 u[0] + 156 u[1] + 842 u[2] + 43 u[3] + 588 u[4]
   + 802 u[5] + 341 u[6] + 412 u[7] + 677 u[8] + 978 u[9] + 76 u[10]
   + 955 u[11] + 692 u[12] + 940 u[13] + 301 u[14] + 77 u[15] + 693 u[16]
   + 536 u[17] + 337 u[18] + 966 u[19] <= 5654
 primal_lower54: 381 u[0] + 366 u[1] + 832 u[2] + 381 u[3] + 610 u[4]
   + 347 u[5] + 507 u[6] + 381 u[7] + 571 u[8] + 492 u[9] + 457 u[10]
   + 669 u[11] + 906 u[12] + 102 u[13] + 458 u[14] + 198 u[15] + 395 u[16]
   + 922 u[17] + 935 u[18] + 512 u[19] <= 3474
 primal_lower55: 969 u[0] + 77 u[1] + 683 u[2] + 996 u[3] + 341 u[4]
   + 203 u[5] + 286 u[6] + 245 u[7] + 662 u[8] + 691 u[9] + 941 u[10]
   + 788 u[11] + 797 u[12] + 717 u[13] + 126 u[14] + 246 u[15] + 558 u[16]
   + 9 u[17] + 490 u[18] + 639 u[19] <= 6976
 primal_lower56: 862 u[0] + 399 u[1] + 49 u[2] + 974 u[3] + 195 u[4]
   + 604 u[5] + 396 u[6] + 118 u[7] + 972 u[8] + 717 u[9] + 362 u[10]
   + 6 u[11] + 547 u[12] + 175 u[13] + 363 u[14] + 903 u[15] + 692 u[16]
   + 99 u[17] + 496 u[18] + 785 u[19] <= 974
 primal_lower57: 686 u[0] + 255 u[1] + 225 u[2] + 246 u[3] + 275 u[4]
   + 836 u[5] + 508 u[6] + 358 u[7] + 700 u[8] + 5 u[9] + 578 u[10]
   + 118 u[11] + 483 u[12] + 559 u[13] + 315 u[14] + 31 u[15] + 420 u[16]
   + 779 u[17] + 984 u[18] + 177 u[19] <= 5692
 primal_lower58: 713 u[0] + 586 u[1] + 100 u[2] + 961 u[3] + 942 u[4]
   + 63 u[5] + 815 u[6] + 433 u[7] + 743 u[8] + 760 u[9] + 925 u[10]
   + 553 u[11] + 310 u[12] + 906 u[13] + 686 u[14] + 210 u[15] + 487 u[16]
   + 742 u[17] + 851 u[18] + 852 u[19] <= 2106
 primal_lower59: 731 u[0] + 815 u[1] + 805 u[2] + 606 u[3] + 271 u[4]
   + 133 u[5] + 144 u[6] + 447 u[7] + 976 u[8] + 709 u[9] + 415 u[10]
   + 526 u[11] + 327 u[12] + 967 u[13] + 160 u[14] + 392 u[15] + 944 u[16]
   + 371 u[17] + 660 u[18] + 185 u[19] <= 976
 primal_lower60: 652 u[0] + 712 u[1] + 766 u[2] + 151 u[3] + 720 u[4]
   + 102 u[5] + 65 u[6] + 496 u[7] + 457 u[8] + 646 u[9] + 360 u[10]
   + 663 u[11] + 104 u[12] + 992 u[13] + 249 u[14] + 449 u[15] + 969 u[16]
   + 588 u[17] + 173 u[18] + 930 u[19] <= 6829
 primal_lower61: 340 u[0] + 496 u[1] + 270 u[2] + 431 u[3] + 464 u[4]
   + 654 u[5] + 401 u[6] + 288 u[7] + 713 u[8] + 438 u[9] + 600 u[10]
   + 495 u[11] + 192 u[12] + 328 u[13] + 737 u[14] + 113 u[15] + 17 u[16]
   + 268 u[17] + 685 u[18] + 458 u[19] <= 1398
 primal_lower62: 234 u[0] + 443 u[1] + 437 u[2] + 970 u[3] + 103 u[4]
   + 480 u[5] + 704 u[6] + 554 u[7] + 248 u[8] + 833 u[9] + 774 u[10]
   + 818 u[11] + 583 u[12] + 331 u[13] + 607 u[14] + 739 u[15] + 480 u[16]
   + 551 u[17] + 844 u[18] + 597 u[19] <= 5665
 primal_lower63: 390 u[0] + 98 u[1] + 160 u[2] + 393 u[3] + 890 u[4]
   + 232 u[5] + 51 u[6] + 450 u[7] + 587 u[8] + 504 u[9] + 722 u[10]
   + 977 u[11] + 962 u[12] + 946 u[13] + 499 u[14] + 691 u[15] + 435 u[16]
   + 878 u[17] + 959 u[18] + 924 u[19] <= 3916
 primal_lower64: 990 u[0] + 122 u[1] + 192 u[2] + 929 u[3] + 466 u[4]
   + 264 u[5] + 27 u[6] + 362 u[7] + 219 u[8] + 184 u[9] + 738 u[10]
   + 265 u[11] + 82 u[12] + 258 u[13] + 147 u[14] + 91 u[15] + 587 u[16]
   + 542 u[17] + 191 u[18] + 204 u[19] <= 990
 primal_lower65: 5 u[0] + 345 u[1] + 239 u[2] + 504 u[3] + 713 u[4]
   + 247 u[5] + 842 u[6] + 465 u[7] + 650 u[8] + 991 u[9] + 569 u[10]
   + 456 u[11] + 881 u[12] + u[13] + 714 u[14] + 210 u[15] + 66 u[16]
   + 485 u[17] + 62 u[18] + 939 u[19] <= 1564
 primal_lower66: 26 u[0] + 494 u[1] + 996 u[2] + 557 u[3] + 38 u[4]
   + 356 u[5] + 983 u[6] + 310 u[7] + 615 u[8] + 636 u[9] + 726 u[10]
   + 941 u[11] + 918 u[12] + 270 u[13] + 23 u[14] + 935 u[15] + 959 u[16]
   + 482 u[17] + 27 u[18] + 656 u[19] <= 5474
 primal_lower67: 580 u[0] + 501 u[1] + 695 u[2] + 500 u[3] + 657 u[4]
   + 842 u[5] + 354 u[6] + 92 u[7] + 290 u[8] + 875 u[9] + 96 u[10]
   + 516 u[11] + 729 u[12] + 221 u[13] + 633 u[14] + 709 u[15] + 626 u[16]
   + 953 u[17] + 566 u[18] + 95 u[19] <= 3510
 primal_lower68: 508 u[0] + 325 u[1] + 623 u[2] + 172 u[3] + 377 u[4]
   + 410 u[5] + 482 u[6] + 444 u[7] + 74 u[8] + 891 u[9] + 64 u[10]
   + 36 u[11] + 865 u[12] + 741 u[13] + 873 u[14] + 317 u[15] + 850 u[16]
   + 185 u[17] + 494 u[18] + 431 u[19] <= 4581
 primal_lower69: 316 u[0] + 477 u[1] + 431 u[2] + 964 u[3] + 881 u[4]
   + 10 u[5] + 842 u[6] + 276 u[7] + 658 u[8] + 75 u[9] + 392 u[10]
   + 28 u[11] + 905 u[12] + 637 u[13] + 313 u[14] + 573 u[15] + 506 u[16]
   + 297 u[17] + 230 u[18] + 31 u[19] <= 1473
 primal_lower70: 696 u[0] + 145 u[1] + 811 u[2] + 584 u[3] + 773 u[4]
   + 174 u[5] + 94 u[6] + 424 u[7] + 534 u[8] + 279 u[9] + 308 u[10]
   + 848 u[11] + 765 u[12] + 697 u[13] + 909 u[14] + 737 u[15] + 678 u[16]
   + 445 u[17] + 602 u[18] + 27 u[19] <= 5265
 primal_lower71: 154 u[0] + 806 u[1] + 908 u[2] + 269 u[3] + 566 u[4]
   + 4 u[5] + 719 u[6] + 110 u[7] + 583 u[8] + 620 u[9] + 590 u[10]
   + 413 u[11] + 398 u[12] + 134 u[13] + 535 u[14] + 439 u[15] + 703 u[16]
   + 882 u[17] + 339 u[18] + 448 u[19] <= 908
 primal_lower72: 475 u[0] + 847 u[1] + 77 u[2] + 606 u[3] + 71 u[4]
   + 733 u[5] + 696 u[6] + 983 u[7] + 400 u[8] + 317 u[9] + 271 u[10]
   + 446 u[11] + 231 u[12] + 247 u[13] + 224 u[14] + 800 u[15] + 560 u[16]
   + 27 u[17] + 564 u[18] + 881 u[19] <= 1576
 primal_lower73: 325 u[0] + 849 u[1] + 247 u[2] + 808 u[3] + 881 u[4]
   + 399 u[5] + 578 u[6] + 105 u[7] + 674 u[8] + 215 u[9] + 329 u[10]
   + 72 u[11] + 457 u[12] + 961 u[13] + 890 u[14] + 42 u[15] + 242 u[16]
   + 317 u[17] + 302 u[18] + 851 u[19] <= 1590
 primal_lower74: 182 u[0] + 303 u[1] + 273 u[2] + 846 u[3] + 331 u[4]
   + 12 u[5] + 172 u[6] + 574 u[7] + 956 u[8] + 989 u[9] + 314 u[10]
   + 38 u[11] + 427 u[12] + 351 u[13] + 67 u[14] + 391 u[15] + 532 u[16]
   + 723 u[17] + 384 u[18] + 537 u[19] <= 4201
 primal_lower75: 12 u[0] + 741 u[1] + 783 u[2] + 348 u[3] + 721 u[4]
   + 234 u[5] + 682 u[6] + 860 u[7] + 338 u[8] + 435 u[9] + 720 u[10]
   + 516 u[11] + 457 u[12] + 645 u[13] + 801 u[14] + 245 u[15] + 906 u[16]
   + 353 u[17] + 422 u[18] + 535 u[19] <= 3584
 primal_lower76: 269 u[0] + 241 u[1] + 967 u[2] + 112 u[3] + 545 u[4]
   + 663 u[5] + 554 u[6] + 929 u[7] + 890 u[8] + 719 u[9] + 577 u[10]
   + 720 u[11] + 329 u[12] + 497 u[13] + 850 u[14] + 274 u[15] + 370 u[16]
   + 213 u[17] + 150 u[18] + 283 u[19] <= 5076
 primal_lower77: 457 u[0] + 290 u[1] + 268 u[2] + 977 u[3] + 734 u[4]
   + 567 u[5] + 839 u[6] + 249 u[7] + 311 u[8] + 8 u[9] + 277 u[10]
   + 81 u[11] + 254 u[12] + 146 u[13] + 6 u[14] + 474 u[15] + 615 u[16]
   + 246 u[17] + 803 u[18] + 316 u[19] <= 1319
 primal_lower78: 592 u[0] + 36 u[1] + 586 u[2] + 259 u[3] + 596 u[4]
   + 162 u[5] + 781 u[6] + 940 u[7] + 757 u[8] + 354 u[9] + 124 u[10]
   + 155 u[11] + 308 u[12] + 68 u[13] + 429 u[14] + 725 u[15] + 29 u[16]
   + 192 u[17] + 977 u[18] + 502 u[19] <= 1428
 primal_lower79: 714 u[0] + 443 u[1] + 877 u[2] + 570 u[3] + 871 u[4]
   + 568 u[5] + 824 u[6] + 906 u[7] + 384 u[8] + 545 u[9] + 926 u[10]
   + 274 u[11] + 887 u[12] + 883 u[13] + 599 u[14] + 939 u[15] + 112 u[16]
   + 135 u[17] + 708 u[18] + 717 u[19] <= 4294
 primal_lower80: 160 u[0] + 473 u[1] + 211 u[2] + 240 u[3] + 589 u[4]
   + 710 u[5] + 350 u[6] + 384 u[7] + 22 u[8] + 351 u[9] + 628 u[10]
   + 976 u[11] + 773 u[12] + 697 u[13] + 893 u[14] + 625 u[15] + 734 u[16]
   + 93 u[17] + 90 u[18] + 899 u[19] <= 976
 primal_lower81: 59 u[0] + 748 u[1] + 134 u[2] + 747 u[3] + 264 u[4]
   + 441 u[5] + 489 u[6] + 59 u[7] + 145 u[8] + 698 u[9] + 79 u[10]
   + 467 u[11] + 8 u[12] + 92 u[13] + 144 u[14] + 572 u[15] + 625 u[16]
   + 664 u[17] + 957 u[18] + 846 u[19] <= 4119
 primal_lower82: 719 u[0] + 795 u[1] + 729 u[2] + 346 u[3] + 651 u[4]
   + 841 u[5] + 444 u[6] + 747 u[7] + 148 u[8] + 609 u[9] + 347 u[10]
   + 82 u[11] + 355 u[12] + 635 u[13] + 68 u[14] + 452 u[15] + 684 u[16]
   + 887 u[17] + 208 u[18] + 93 u[19] <= 887
 primal_lower83: 155 u[0] + 591 u[1] + 573 u[2] + 294 u[3] + 727 u[4]
   + 349 u[5] + 24 u[6] + 679 u[7] + 120 u[8] + 717 u[9] + 95 u[10]
   + 726 u[11] + 631 u[12] + 935 u[13] + 472 u[14] + 848 u[15] + 152 u[16]
   + 443 u[17] + 116 u[18] + 705 u[19] <= 1558
 primal_lower84: 265 u[0] + 690 u[1] + 388 u[2] + 953 u[3] + 870 u[4]
   + 127 u[5] + 71 u[6] + 225 u[7] + 831 u[8] + 816 u[9] + 381 u[10]
   + 353 u[11] + 462 u[12] + 74 u[13] + 870 u[14] + 610 u[15] + 847 u[16]
   + 606 u[17] + 523 u[18] + 844 u[19] <= 953
 primal_lower85: 724 u[0] + 344 u[1] + 558 u[2] + 231 u[3] + 600 u[4]
   + 558 u[5] + 41 u[6] + 104 u[7] + 377 u[8] + 302 u[9] + 168 u[10]
   + 647 u[11] + 440 u[12] + 336 u[13] + 153 u[14] + 185 u[15] + 985 u[16]
   + 588 u[17] + 877 u[18] + 170 u[19] <= 2796
 primal_lower86: 201 u[0] + 773 u[1] + 555 u[2] + 268 u[3] + 421 u[4]
   + 643 u[5] + 102 u[6] + 925 u[7] + 430 u[8] + 707 u[9] + 893 u[10]
   + 20 u[11] + 149 u[12] + 77 u[13] + 622 u[14] + 326 u[15] + 870 u[16]
   + 145 u[17] + 794 u[18] + 703 u[19] <= 3208
 primal_lower87: 373 u[0] + 750 u[1] + 408 u[2] + 813 u[3] + 690 u[4]
   + 739 u[5] + 907 u[6] + 37 u[7] + 435 u[8] + 500 u[9] + 761 u[10]
   + 829 u[11] + 282 u[12] + 150 u[13] + 50 u[14] + 750 u[15] + 683 u[16]
   + 450 u[17] + 423 u[18] + 648 u[19] <= 5339
 primal_lower88: 961 u[0] + 810 u[1] + 676 u[2] + 273 u[3] + 278 u[4]
   + 439 u[5] + 247 u[6] + 393 u[7] + 983 u[8] + 704 u[9] + 485 u[10]
   + 761 u[11] + 598 u[12] + 970 u[13] + 30 u[14] + 282 u[15] + 343 u[16]
   + 878 u[17] + 187 u[18] + 764 u[19] <= 1843
 primal_lower89: 342 u[0] + 34 u[1] + 464 u[2] + 137 u[3] + 162 u[4]
   + 648 u[5] + 507 u[6] + 410 u[7] + 675 u[8] + 168 u[9] + 554 u[10]
   + 521 u[11] + 250 u[12] + 378 u[13] + 491 u[14] + 371 u[15] + 419 u[16]
   + 950 u[17] + 55 u[18] + 428 u[19] <= 3982
 primal_lower90: 242 u[0] + 598 u[1] + 708 u[2] + 357 u[3] + 166 u[4]
   + 28 u[5] + 583 u[6] + 6 u[7] + 511 u[8] + 812 u[9] + 62 u[10]
   + 941 u[11] + 774 u[12] + 518 u[13] + 879 u[14] + 71 u[15] + 95 u[16]
   + 338 u[17] + 803 u[18] + 432 u[19] <= 5949
 primal_lower91: 545 u[0] + 650 u[1] + 524 u[2] + 153 u[3] + 934 u[4]
   + 831 u[5] + 967 u[6] + 505 u[7] + 167 u[8] + 880 u[9] + 501 u[10]
   + 209 u[11] + 918 u[12] + 954 u[13] + 126 u[14] + 82 u[15] + 847 u[16]
   + 278 u[17] + 243 u[18] + 916 u[19] <= 3743
 primal_lower92: 116 u[0] + 408 u[1] + 54 u[2] + 839 u[3] + 880 u[4]
   + 6 u[5] + 857 u[6] + 448 u[7] + 217 u[8] + 494 u[9] + 624 u[10]
   + 223 u[11] + 8 u[12] + 656 u[13] + 257 u[14] + 433 u[15] + u[16]
   + 588 u[17] + 933 u[18] + 906 u[19] <= 4474
 primal_lower93: 895 u[0] + 171 u[1] + 529 u[2] + 314 u[3] + 715 u[4]
   + 73 u[5] + 532 u[6] + 779 u[7] + 28 u[8] + 737 u[9] + 379 u[10]
   + 202 u[11] + 739 u[12] + 875 u[13] + 396 u[14] + 276 u[15] + 252 u[16]
   + 215 u[17] + 232 u[18] + 381 u[19] <= 2906
 primal_lower94: 786 u[0] + 987 u[1] + 837 u[2] + 122 u[3] + 495 u[4]
   + 176 u[5] + 232 u[6] + 354 u[7] + 872 u[8] + 305 u[9] + 94 u[10]
   + 186 u[11] + 647 u[12] + 835 u[13] + 575 u[14] + 235 u[15] + 672 u[16]
   + 255 u[17] + 244 u[18] + 485 u[19] <= 1565
 primal_lower95: 432 u[0] + 721 u[1] + 331 u[2] + 480 u[3] + 221 u[4]
   + 278 u[5] + 542 u[6] + 984 u[7] + 134 u[8] + 431 u[9] + 412 u[10]
   + 944 u[11] + 637 u[12] + 281 u[13] + 869 u[14] + 137 u[15] + 894 u[16]
   + 997 u[17] + 426 u[18] + 315 u[19] <= 1744
 primal_lower96: 578 u[0] + 926 u[1] + 388 u[2] + 341 u[3] + 974 u[4]
   + 516 u[5] + 575 u[6] + 822 u[7] + 367 u[8] + 52 u[9] + 878 u[10]
   + 941 u[11] + 838 u[12] + 286 u[13] + 951 u[14] + 479 u[15] + 807 u[16]
   + 498 u[17] + 651 u[18] + 880 u[19] <= 2124
 primal_lower97: 943 u[0] + 355 u[1] + 193 u[2] + 442 u[3] + 131 u[4]
   + 201 u[5] + 148 u[6] + 611 u[7] + 484 u[8] + 241 u[9] + 435 u[10]
   + 714 u[11] + 243 u[12] + 387 u[13] + 836 u[14] + 596 u[15] + 220 u[16]
   + 847 u[17] + 872 u[18] + 277 u[19] <= 3058
 primal_lower98: 19 u[0] + 151 u[1] + 93 u[2] + 110 u[3] + 311 u[4]
   + 5 u[5] + 488 u[6] + 127 u[7] + 24 u[8] + 493 u[9] + 367 u[10]
   + 94 u[11] + 215 u[12] + 535 u[13] + 200 u[14] + 800 u[15] + 624 u[16]
   + 243 u[17] + 492 u[18] + 361 u[19] <= 2876
 primal_lower99: 85 u[0] + 262 u[1] + 488 u[2] + 573 u[3] + 962 u[4]
   + 83 u[5] + 171 u[6] + 573 u[7] + 203 u[8] + 148 u[9] + 585 u[10]
   + 205 u[11] + 586 u[12] + 518 u[13] + 930 u[14] + 270 u[15] + 235 u[16]
   + 186 u[17] + 551 u[18] + 184 u[19] <= 1299
 primal_lower100: 437 u[0] + 137 u[1] + 647 u[2] + 328 u[3] + 865 u[4]
   + 327 u[5] + 170 u[6] + 473 u[7] + 698 u[8] + 231 u[9] + 137 u[10]
   + 912 u[11] + 921 u[12] + 945 u[13] + 346 u[14] + 578 u[15] + 650 u[16]
   + 821 u[17] + 678 u[18] + 971 u[19] <= 7514
 primal_lower101: 622 u[0] + 666 u[1] + 304 u[2] + 545 u[3] + 26 u[4]
   + 256 u[5] + 875 u[6] + 778 u[7] + 155 u[8] + 64 u[9] + 978 u[10]
   + 177 u[11] + 130 u[12] + 410 u[13] + 3 u[14] + 891 u[15] + 931 u[16]
   + 470 u[17] + 15 u[18] + 268 u[19] <= 1427
 primal_lower102: 810 u[0] + 219 u[1] + 181 u[2] + 450 u[3] + 735 u[4]
   + 568 u[5] + 824 u[6] + 946 u[7] + 912 u[8] + 505 u[9] + 38 u[10]
   + 74 u[11] + 783 u[12] + 883 u[13] + 759 u[14] + 115 u[15] + 384 u[16]
   + 415 u[17] + 148 u[18] + 477 u[19] <= 6817
 primal_lower103: 812 u[0] + 864 u[1] + 486 u[2] + 871 u[3] + 176 u[4]
   + 934 u[5] + 665 u[6] + 536 u[7] + 737 u[8] + 902 u[9] + 336 u[10]
   + 791 u[11] + 696 u[12] + 592 u[13] + 961 u[14] + 425 u[15] + 529 u[16]
   + 988 u[17] + 941 u[18] + 34 u[19] <= 4425
 primal_lower104: 354 u[0] + 54 u[1] + 540 u[2] + 397 u[3] + 782 u[4]
   + 940 u[5] + 399 u[6] + 110 u[7] + 503 u[8] + 268 u[9] + 430 u[10]
   + 773 u[11] + 222 u[12] + 902 u[13] + 583 u[14] + 311 u[15] + 871 u[16]
   + 434 u[17] + 507 u[18] + 520 u[19] <= 3300
 primal_lower105: 242 u[0] + 947 u[1] + 125 u[2] + 202 u[3] + 23 u[4]
   + 64 u[5] + 952 u[6] + 306 u[7] + 160 u[8] + 817 u[9] + 302 u[10]
   + 562 u[11] + 7 u[12] + 723 u[13] + 383 u[14] + 555 u[15] + 784 u[16]
   + 679 u[17] + 204 u[18] + 421 u[19] <= 2819
 primal_lower106: 999 u[0] + 459 u[1] + 897 u[2] + 290 u[3] + 947 u[4]
   + 337 u[5] + 316 u[6] + 131 u[7] + 932 u[8] + 777 u[9] + 19 u[10]
   + 722 u[11] + 451 u[12] + 219 u[13] + 84 u[14] + 340 u[15] + 692 u[16]
   + 847 u[17] + 544 u[18] + 669 u[19] <= 3557
 primal_lower107: 738 u[0] + 990 u[1] + 468 u[2] + 533 u[3] + 366 u[4]
   + 500 u[5] + 415 u[6] + 894 u[7] + 407 u[8] + 220 u[9] + 22 u[10]
   + 189 u[11] + 854 u[12] + 494 u[13] + 735 u[14] + 15 u[15] + 103 u[16]
   + 826 u[17] + 59 u[18] + 512 u[19] <= 6226
 primal_lower108: 513 u[0] + 149 u[1] + 723 u[2] + 452 u[3] + 245 u[4]
   + 203 u[5] + 70 u[6] + 309 u[7] + 678 u[8] + 643 u[9] + 597 u[10]
   + 396 u[11] + 845 u[12] + 381 u[13] + 630 u[14] + 294 u[15] + 134 u[16]
   + 25 u[17] + 906 u[18] + 439 u[19] <= 2877
 primal_lower109: 715 u[0] + 319 u[1] + 45 u[2] + 910 u[3] + 639 u[4]
   + 893 u[5] + 224 u[6] + 183 u[7] + 1000 u[8] + 53 u[9] + 55 u[10]
   + 534 u[11] + 799 u[12] + 199 u[13] + 816 u[14] + 960 u[15] + 88 u[16]
   + 195 u[17] + 4 u[18] + 881 u[19] <= 3170
 primal_lower110: 92 u[0] + 728 u[1] + 222 u[2] + 679 u[3] + 728 u[4]
   + 110 u[5] + 265 u[6] + 288 u[7] + 177 u[8] + 974 u[9] + 816 u[10]
   + 599 u[11] + 376 u[12] + 128 u[13] + 537 u[14] + 385 u[15] + 593 u[16]
   + 364 u[17] + 789 u[18] + 314 u[19] <= 1527
 primal_lower111: 421 u[0] + 313 u[1] + 975 u[2] + 648 u[3] + 225 u[4]
   + 991 u[5] + 722 u[6] + 297 u[7] + 866 u[8] + 23 u[9] + 273 u[10]
   + 528 u[11] + 433 u[12] + 137 u[13] + 258 u[14] + 194 u[15] + 306 u[16]
   + 493 u[17] + 262 u[18] + 627 u[19] <= 1498
 primal_lower112: 681 u[0] + 485 u[1] + 515 u[2] + 636 u[3] + 221 u[4]
   + 691 u[5] + 342 u[6] + 53 u[7] + 214 u[8] + 379 u[9] + 213 u[10]
   + 964 u[11] + 349 u[12] + 357 u[13] + 910 u[14] + 694 u[15] + 246 u[16]
   + 473 u[17] + 162 u[18] + 23 u[19] <= 2869
 primal_lower113: 32 u[0] + 868 u[1] + 194 u[2] + 867 u[3] + 836 u[4]
   + 986 u[5] + 117 u[6] + 428 u[7] + 341 u[8] + 794 u[9] + 108 u[10]
   + 971 u[11] + 36 u[12] + 468 u[13] + 301 u[14] + 709 u[15] + 69 u[16]
   + 600 u[17] + 553 u[18] + 238 u[19] <= 3172
 primal_lower114: 308 u[0] + 21 u[1] + 679 u[2] + 860 u[3] + 337 u[4]
   + 514 u[5] + 738 u[6] + 300 u[7] + 26 u[8] + 619 u[9] + 448 u[10]
   + 396 u[11] + 873 u[12] + 133 u[13] + 401 u[14] + 565 u[15] + 106 u[16]
   + 193 u[17] + 342 u[18] + 431 u[19] <= 1381
 primal_lower115: 186 u[0] + 974 u[1] + 820 u[2] + 69 u[3] + 694 u[4]
   + 92 u[5] + 919 u[6] + 70 u[7] + 751 u[8] + 60 u[9] + 398 u[10]
   + 461 u[11] + 278 u[12] + 718 u[13] + 671 u[14] + 863 u[15] + 7 u[16]
   + 842 u[17] + 747 u[18] + 184 u[19] <= 3268
 primal_lower116: 985 u[0] + 861 u[1] + 843 u[2] + 276 u[3] + 293 u[4]
   + 779 u[5] + 502 u[6] + 229 u[7] + 534 u[8] + 531 u[9] + 749 u[10]
   + 212 u[11] + 293 u[12] + 21 u[13] + 958 u[14] + 190 u[15] + 542 u[16]
   + 289 u[17] + 18 u[18] + 927 u[19] <= 985
 primal_lower117: 177 u[0] + 5 u[1] + 891 u[2] + 388 u[3] + 13 u[4]
   + 91 u[5] + 750 u[6] + 989 u[7] + 958 u[8] + 99 u[9] + 253 u[10]
   + 516 u[11] + 133 u[12] + 349 u[13] + 974 u[14] + 30 u[15] + 6 u[16]
   + 41 u[17] + 482 u[18] + 447 u[19] <= 2530
 primal_lower118: 297 u[0] + 42 u[1] + 340 u[2] + 865 u[3] + 766 u[4]
   + 399 u[5] + 135 u[6] + 681 u[7] + 135 u[8] + 144 u[9] + 661 u[10]
   + 713 u[11] + 694 u[12] + 394 u[13] + 614 u[14] + 986 u[15] + 735 u[16]
   + 742 u[17] + 163 u[18] + 36 u[19] <= 986
 primal_lower119: 487 u[0] + 339 u[1] + 593 u[2] + 370 u[3] + 971 u[4]
   + 545 u[5] + 364 u[6] + 707 u[7] + 452 u[8] + 105 u[9] + 451 u[10]
   + 250 u[11] + 715 u[12] + 659 u[13] + 412 u[14] + 204 u[15] + 532 u[16]
   + 983 u[17] + 928 u[18] + 413 u[19] <= 5240
 primal_lower120: 408 u[0] + 764 u[1] + 114 u[2] + 411 u[3] + 332 u[4]
   + 994 u[5] + 317 u[6] + 732 u[7] + 709 u[8] + 354 u[9] + 284 u[10]
   + 835 u[11] + 980 u[12] + 604 u[13] + 405 u[14] + 797 u[15] + 845 u[16]
   + 920 u[17] + 337 u[18] + 718 u[19] <= 1976
 primal_lower121: 29 u[0] + 766 u[1] + 136 u[2] + 213 u[3] + 434 u[4]
   + 371 u[5] + 499 u[6] + 989 u[7] + 643 u[8] + 660 u[9] + u[10]
   + 949 u[11] + 466 u[12] + 614 u[13] + 906 u[14] + 942 u[15] + 963 u[16]
   + 618 u[17] + 551 u[18] + 656 u[19] <= 5703
 primal_lower122: 282 u[0] + 27 u[1] + 317 u[2] + 666 u[3] + 295 u[4]
   + 672 u[5] + 360 u[6] + 202 u[7] + 472 u[8] + 385 u[9] + 830 u[10]
   + 938 u[11] + 199 u[12] + 675 u[13] + 575 u[14] + 523 u[15] + 920 u[16]
   + 783 u[17] + 132 u[18] + 141 u[19] <= 1565
 primal_lower123: 55 u[0] + 427 u[1] + 417 u[2] + 506 u[3] + 107 u[4]
   + 57 u[5] + 372 u[6] + 851 u[7] + 876 u[8] + 97 u[9] + 715 u[10]
   + 450 u[11] + 755 u[12] + 83 u[13] + 180 u[14] + 620 u[15] + 740 u[16]
   + 543 u[17] + 832 u[18] + 205 u[19] <= 4444
 primal_lower124: 623 u[0] + 755 u[1] + 977 u[2] + 746 u[3] + 451 u[4]
   + 521 u[5] + 308 u[6] + 635 u[7] + 564 u[8] + 217 u[9] + 843 u[10]
   + 858 u[11] + 507 u[12] + 83 u[13] + 980 u[14] + 252 u[15] + 108 u[16]
   + 719 u[17] + 760 u[18] + 189 u[19] <= 5548
 primal_lower125: 8 u[0] + 644 u[1] + 2 u[2] + 427 u[3] + 828 u[4]
   + 602 u[5] + 853 u[6] + 532 u[7] + 165 u[8] + 898 u[9] + 692 u[10]
   + 963 u[11] + 548 u[12] + 876 u[13] + 509 u[14] + 685 u[15] + 965 u[16]
   + 264 u[17] + 417 u[18] + 598 u[19] <= 3825
 primal_lower126: 520 u[0] + 57 u[1] + 411 u[2] + 200 u[3] + 29 u[4]
   + 470 u[5] + 302 u[6] + 920 u[7] + 550 u[8] + 951 u[9] + 916 u[10]
   + 968 u[11] + 541 u[12] + 801 u[13] + 261 u[14] + 425 u[15] + 46 u[16]
   + 221 u[17] + 258 u[18] + 723 u[19] <= 3190
 primal_lower127: 388 u[0] + 432 u[1] + 430 u[2] + 567 u[3] + 56 u[4]
   + 822 u[5] + 953 u[6] + 168 u[7] + 425 u[8] + 318 u[9] + 880 u[10]
   + 919 u[11] + 720 u[12] + 808 u[13] + 561 u[14] + 361 u[15] + 217 u[16]
   + 460 u[17] + 341 u[18] + 426 u[19] <= 6834
 primal_lower128: 903 u[0] + 491 u[1] + 177 u[2] + 434 u[3] + 59 u[4]
   + 473 u[5] + 108 u[6] + 35 u[7] + 804 u[8] + 25 u[9] + 627 u[10]
   + 634 u[11] + 811 u[12] + 723 u[13] + 564 u[14] + 140 u[15] + 164 u[16]
   + 167 u[17] + 360 u[18] + 749 u[19] <= 903
 primal_lower129: 668 u[0] + 173 u[1] + 527 u[2] + 716 u[3] + 377 u[4]
   + 322 u[5] + 954 u[6] + 196 u[7] + 482 u[8] + 899 u[9] + 680 u[10]
   + 988 u[11] + 121 u[12] + 469 u[13] + 737 u[14] + 341 u[15] + 66 u[16]
   + 705 u[17] + 486 u[18] + 871 u[19] <= 1796
 primal_lower130: 996 u[0] + 877 u[1] + 215 u[2] + 268 u[3] + 201 u[4]
   + 522 u[5] + 2 u[6] + 300 u[7] + 738 u[8] + 859 u[9] + 800 u[10]
   + 172 u[11] + 169 u[12] + 333 u[13] + 649 u[14] + 229 u[15] + 202 u[16]
   + 169 u[17] + 118 u[18] + 943 u[19] <= 996
 primal_lower131: 931 u[0] + 991 u[1] + 405 u[2] + 798 u[3] + 367 u[4]
   + 613 u[5] + 88 u[6] + 431 u[7] + 824 u[8] + 717 u[9] + 143 u[10]
   + 134 u[11] + 135 u[12] + 679 u[13] + 640 u[14] + 72 u[15] + 64 u[16]
   + 627 u[17] + 564 u[18] + 273 u[19] <= 3165
 primal_lower132: 170 u[0] + 227 u[1] + 693 u[2] + 594 u[3] + 887 u[4]
   + 952 u[5] + 408 u[6] + 730 u[7] + 1000 u[8] + 265 u[9] + 662 u[10]
   + 506 u[11] + 287 u[12] + 987 u[13] + 551 u[14] + 379 u[15] + 312 u[16]
   + 799 u[17] + 948 u[18] + 517 u[19] <= 5937
 primal_lower133: 340 u[0] + 104 u[1] + 622 u[2] + 919 u[3] + 752 u[4]
   + 78 u[5] + 89 u[6] + 32 u[7] + 601 u[8] + 294 u[9] + 408 u[10]
   + 55 u[11] + 472 u[12] + 256 u[13] + 961 u[14] + 529 u[15] + 217 u[16]
   + 700 u[17] + 357 u[18] + 322 u[19] <= 2702
 primal_lower134: 917 u[0] + 782 u[1] + 552 u[2] + 677 u[3] + 906 u[4]
   + 171 u[5] + 651 u[6] + 717 u[7] + 683 u[8] + 892 u[9] + 553 u[10]
   + 285 u[11] + 338 u[12] + 310 u[13] + 298 u[14] + 358 u[15] + 899 u[16]
   + 610 u[17] + 951 u[18] + 200 u[19] <= 1958
 primal_lower135: 334 u[0] + 439 u[1] + 353 u[2] + 430 u[3] + 899 u[4]
   + 980 u[5] + 132 u[6] + 646 u[7] + 332 u[8] + 13 u[9] + 402 u[10]
   + 102 u[11] + 283 u[12] + 783 u[13] + 651 u[14] + 263 u[15] + 716 u[16]
   + 667 u[17] + 992 u[18] + 129 u[19] <= 4773
 primal_lower136: 150 u[0] + 282 u[1] + 480 u[2] + 513 u[3] + 986 u[4]
   + 776 u[5] + 163 u[6] + 770 u[7] + 155 u[8] + 344 u[9] + 522 u[10]
   + 753 u[11] + 258 u[12] + 810 u[13] + 611 u[14] + 947 u[15] + 11 u[16]
   + 166 u[17] + 663 u[18] + 12 u[19] <= 1562
 primal_lower137: 186 u[0] + 211 u[1] + 309 u[2] + 386 u[3] + 743 u[4]
   + 912 u[5] + 128 u[6] + 778 u[7] + 176 u[8] + 57 u[9] + 662 u[10]
   + 986 u[11] + 695 u[12] + 363 u[13] + 351 u[14] + 715 u[15] + 288 u[16]
   + 839 u[17] + 804 u[18] + 941 u[19] <= 986
 primal_lower138: 393 u[0] + 898 u[1] + 132 u[2] + 193 u[3] + 654 u[4]
   + 431 u[5] + 183 u[6] + 185 u[7] + 231 u[8] + 696 u[9] + 885 u[10]
   + 705 u[11] + 326 u[12] + 330 u[13] + 118 u[14] + 746 u[15] + 855 u[16]
   + 78 u[17] + 195 u[18] + 108 u[19] <= 1390
 primal_lower139: 689 u[0] + 909 u[1] + 131 u[2] + 204 u[3] + 333 u[4]
   + 299 u[5] + 750 u[6] + 205 u[7] + 350 u[8] + 563 u[9] + 101 u[10]
   + 804 u[11] + 973 u[12] + 501 u[13] + 318 u[14] + 334 u[15] + 150 u[16]
   + 945 u[17] + 674 u[18] + 887 u[19] <= 1686
 primal_lower140: 754 u[0] + 91 u[1] + 717 u[2] + 122 u[3] + 743 u[4]
   + 224 u[5] + 496 u[6] + 162 u[7] + 624 u[8] + 601 u[9] + 206 u[10]
   + 250 u[11] + 559 u[12] + 451 u[13] + 759 u[14] + 883 u[15] + 88 u[16]
   + 7 u[17] + 612 u[18] + 53 u[19] <= 4201
 primal_lower141: 880 u[0] + 25 u[1] + 299 u[2] + 592 u[3] + 949 u[4]
   + 798 u[5] + 430 u[6] + 208 u[7] + 326 u[8] + 391 u[9] + 868 u[10]
   + 712 u[11] + 765 u[12] + 521 u[13] + 13 u[14] + 569 u[15] + 742 u[16]
   + 93 u[17] + 986 u[18] + 331 u[19] <= 5249
 primal_lower142: 70 u[0] + 919 u[1] + 473 u[2] + 934 u[3] + 835 u[4]
   + 556 u[5] + 284 u[6] + 678 u[7] + 36 u[8] + 173 u[9] + 866 u[10]
   + 150 u[11] + 187 u[12] + 23 u[13] + 931 u[14] + 151 u[15] + 804 u[16]
   + 923 u[17] + 136 u[18] + 433 u[19] <= 3187
 primal_lower143: 520 u[0] + 364 u[1] + 90 u[2] + 779 u[3] + 28 u[4]
   + 330 u[5] + 573 u[6] + 140 u[7] + 69 u[8] + 330 u[9] + 260 u[10]
   + 19 u[11] + 172 u[12] + 220 u[13] + 461 u[14] + 549 u[15] + 653 u[16]
   + 336 u[17] + 193 u[18] + 14 u[19] <= 4066
 primal_lower144: 180 u[0] + 189 u[1] + 391 u[2] + 516 u[3] + 153 u[4]
   + 258 u[5] + 890 u[6] + 700 u[7] + 746 u[8] + 227 u[9] + 696 u[10]
   + 452 u[11] + 297 u[12] + 301 u[13] + 929 u[14] + 597 u[15] + 746 u[16]
   + 297 u[17] + 646 u[18] + 975 u[19] <= 6790
 primal_lower145: 754 u[0] + 46 u[1] + 116 u[2] + 261 u[3] + 342 u[4]
   + 108 u[5] + 63 u[6] + 150 u[7] + 847 u[8] + 652 u[9] + 134 u[10]
   + 805 u[11] + 470 u[12] + 734 u[13] + 103 u[14] + 351 u[15] + 935 u[16]
   + 162 u[17] + 179 u[18] + 920 u[19] <= 2710
 primal_lower146: 614 u[0] + 586 u[1] + 592 u[2] + 361 u[3] + 58 u[4]
   + 944 u[5] + 635 u[6] + 298 u[7] + 659 u[8] + 304 u[9] + 698 u[10]
   + 665 u[11] + 642 u[12] + 642 u[13] + 507 u[14] + 835 u[15] + 115 u[16]
   + 350 u[17] + 359 u[18] + 316 u[19] <= 3393
 primal_lower147: 348 u[0] + 664 u[1] + 622 u[2] + 143 u[3] + 496 u[4]
   + 622 u[5] + 209 u[6] + 928 u[7] + 449 u[8] + 902 u[9] + 712 u[10]
   + 887 u[11] + 256 u[12] + 488 u[13] + 161 u[14] + 417 u[15] + 289 u[16]
   + 76 u[17] + 701 u[18] + 882 u[19] <= 3417
 primal_lower148: 854 u[0] + 487 u[1] + 657 u[2] + 958 u[3] + 507 u[4]
   + 980 u[5] + 156 u[6] + 70 u[7] + 476 u[8] + 829 u[9] + 26 u[10]
   + 758 u[11] + 563 u[12] + 927 u[13] + 331 u[14] + 871 u[15] + 988 u[16]
   + 915 u[17] + 600 u[18] + 425 u[19] <= 988
 primal_lower149: 407 u[0] + 104 u[1] + 122 u[2] + 527 u[3] + 572 u[4]
   + 549 u[5] + 285 u[6] + 775 u[7] + 725 u[8] + 198 u[9] + 683 u[10]
   + 679 u[11] + 828 u[12] + 768 u[13] + 108 u[14] + 288 u[15] + 949 u[16]
   + 476 u[17] + 649 u[18] + 554 u[19] <= 5123
 primal_lower150: 92 u[0] + 565 u[1] + 687 u[2] + 428 u[3] + 809 u[4]
   + 866 u[5] + 242 u[6] + 372 u[7] + 834 u[8] + 923 u[9] + 80 u[10]
   + 900 u[11] + 489 u[12] + 749 u[13] + 689 u[14] + 773 u[15] + 18 u[16]
   + 377 u[17] + 198 u[18] + 423 u[19] <= 923
 primal_lower151: 554 u[0] + 731 u[1] + 269 u[2] + 818 u[3] + 71 u[4]
   + 560 u[5] + 880 u[6] + 874 u[7] + 640 u[8] + 897 u[9] + 6 u[10]
   + 330 u[11] + 399 u[12] + 3 u[13] + 671 u[14] + 59 u[15] + 384 u[16]
   + 575 u[17] + 476 u[18] + 317 u[19] <= 4757
 primal_lower152: 162 u[0] + 662 u[1] + 876 u[2] + 749 u[3] + 886 u[4]
   + 564 u[5] + 863 u[6] + 902 u[7] + 791 u[8] + 124 u[9] + 534 u[10]
   + 461 u[11] + 734 u[12] + 854 u[13] + 167 u[14] + 911 u[15] + 575 u[16]
   + 778 u[17] + 875 u[18] + 696 u[19] <= 8776
 primal_lower153: 384 u[0] + 401 u[1] + 563 u[2] + 368 u[3] + 605 u[4]
   + 54 u[5] + 398 u[6] + 240 u[7] + 822 u[8] + 567 u[9] + 660 u[10]
   + 232 u[11] + 365 u[12] + 921 u[13] + 685 u[14] + 865 u[15] + 438 u[16]
   + 405 u[17] + 218 u[18] + 187 u[19] <= 4689
 primal_lower154: 157 u[0] + 241 u[1] + 775 u[2] + 984 u[3] + 881 u[4]
   + 263 u[5] + 66 u[6] + 897 u[7] + 954 u[8] + 695 u[9] + 601 u[10]
   + 120 u[11] + 25 u[12] + 857 u[13] + 74 u[14] + 58 u[15] + 90 u[16]
   + 813 u[17] + 454 u[18] + 339 u[19] <= 984
 primal_lower155: 360 u[0] + 172 u[1] + 666 u[2] + 659 u[3] + 692 u[4]
   + 930 u[5] + 933 u[6] + 716 u[7] + 829 u[8] + 898 u[9] + 228 u[10]
   + 739 u[11] + 780 u[12] + 308 u[13] + 685 u[14] + 941 u[15] + 541 u[16]
   + 272 u[17] + 537 u[18] + 662 u[19] <= 6274
 primal_lower156: 639 u[0] + 51 u[1] + 89 u[2] + 738 u[3] + 371 u[4]
   + 377 u[5] + 724 u[6] + 643 u[7] + 428 u[8] + 921 u[9] + 11 u[10]
   + 794 u[11] + 315 u[12] + 971 u[13] + 356 u[14] + 100 u[15] + 164 u[16]
   + 327 u[17] + 280 u[18] + 165 u[19] <= 2821
 primal_lower157: 396 u[0] + 760 u[1] + 646 u[2] + 743 u[3] + 656 u[4]
   + 94 u[5] + 257 u[6] + 984 u[7] + 665 u[8] + 510 u[9] + 936 u[10]
   + 519 u[11] + 184 u[12] + 608 u[13] + 481 u[14] + 297 u[15] + 801 u[16]
   + 636 u[17] + 981 u[18] + 306 u[19] <= 1910
 primal_lower158: 146 u[0] + 422 u[1] + 188 u[2] + 101 u[3] + 334 u[4]
   + 964 u[5] + 543 u[6] + 150 u[7] + 215 u[8] + 804 u[9] + 950 u[10]
   + 725 u[11] + 766 u[12] + 686 u[13] + 999 u[14] + 431 u[15] + 351 u[16]
   + 266 u[17] + 715 u[18] + 832 u[19] <= 999
 primal_lower159: 236 u[0] + 792 u[1] + 966 u[2] + 135 u[3] + 776 u[4]
   + 446 u[5] + 521 u[6] + 248 u[7] + 713 u[8] + 334 u[9] + 432 u[10]
   + 511 u[11] + 136 u[12] + 744 u[13] + 377 u[14] + 465 u[15] + 633 u[16]
   + 604 u[17] + 253 u[18] + 466 u[19] <= 6525
 primal_lower160: 280 u[0] + 297 u[1] + 43 u[2] + 504 u[3] + 141 u[4]
   + 782 u[5] + 478 u[6] + 384 u[7] + 54 u[8] + 415 u[9] + 492 u[10]
   + 832 u[11] + 5 u[12] + 505 u[13] + 797 u[14] + 753 u[15] + 390 u[16]
   + 949 u[17] + 946 u[18] + 547 u[19] <= 949
 primal_lower161: 229 u[0] + 921 u[1] + 311 u[2] + 192 u[3] + 137 u[4]
   + 807 u[5] + 186 u[6] + 89 u[7] + 154 u[8] + 879 u[9] + 185 u[10]
   + 24 u[11] + 945 u[12] + 89 u[13] + 842 u[14] + 794 u[15] + 10 u[16]
   + 837 u[17] + 630 u[18] + 803 u[19] <= 1510
 primal_lower162: 254 u[0] + 58 u[1] + 704 u[2] + 585 u[3] + 442 u[4]
   + 952 u[5] + 747 u[6] + 906 u[7] + 67 u[8] + 328 u[9] + 994 u[10]
   + 761 u[11] + 850 u[12] + 378 u[13] + 755 u[14] + 107 u[15] + 571 u[16]
   + 662 u[17] + 983 u[18] + 420 u[19] <= 3841
 primal_lower163: 415 u[0] + 211 u[1] + 457 u[2] + 978 u[3] + 259 u[4]
   + 201 u[5] + 828 u[6] + 643 u[7] + 516 u[8] + 649 u[9] + 3 u[10]
   + 690 u[11] + 435 u[12] + 67 u[13] + 516 u[14] + 812 u[15] + 852 u[16]
   + 239 u[17] + 328 u[18] + 165 u[19] <= 4632
 primal_lower164: 692 u[0] + 341 u[1] + 215 u[2] + 972 u[3] + 753 u[4]
   + 130 u[5] + 346 u[6] + 948 u[7] + 722 u[8] + 363 u[9] + 320 u[10]
   + 908 u[11] + 441 u[12] + 413 u[13] + 913 u[14] + 293 u[15] + 594 u[16]
   + 793 u[17] + 638 u[18] + 775 u[19] <= 5785
 primal_lower165: 292 u[0] + 181 u[1] + 207 u[2] + 588 u[3] + 561 u[4]
   + 978 u[5] + 650 u[6] + 364 u[7] + 218 u[8] + 347 u[9] + 864 u[10]
   + 884 u[11] + 209 u[12] + 989 u[13] + 953 u[14] + 549 u[15] + 162 u[16]
   + 473 u[17] + 830 u[18] + 407 u[19] <= 3568
 primal_lower166: 288 u[0] + 385 u[1] + 987 u[2] + 32 u[3] + 605 u[4]
   + 806 u[5] + 630 u[6] + 256 u[7] + 870 u[8] + 335 u[9] + 684 u[10]
   + 112 u[11] + 277 u[12] + 657 u[13] + 709 u[14] + 177 u[15] + 942 u[16]
   + 45 u[17] + 378 u[18] + 667 u[19] <= 1640
 primal_lower167: 471 u[0] + 168 u[1] + 154 u[2] + 519 u[3] + 644 u[4]
   + 781 u[5] + 221 u[6] + 119 u[7] + 141 u[8] + 342 u[9] + 379 u[10]
   + 855 u[11] + 796 u[12] + 928 u[13] + 868 u[14] + 64 u[15] + 221 u[16]
   + 684 u[17] + 689 u[18] + 722 u[19] <= 928
 primal_lower168: 451 u[0] + 988 u[1] + 102 u[2] + 603 u[3] + 56 u[4]
   + 393 u[5] + 441 u[6] + 147 u[7] + 849 u[8] + 682 u[9] + 7 u[10]
   + 995 u[11] + 344 u[12] + 196 u[13] + 296 u[14] + 700 u[15] + 361 u[16]
   + 424 u[17] + 733 u[18] + 718 u[19] <= 1581
 primal_lower169: 642 u[0] + 734 u[1] + 348 u[2] + 285 u[3] + 966 u[4]
   + 108 u[5] + 911 u[6] + 462 u[7] + 383 u[8] + 668 u[9] + 798 u[10]
   + 669 u[11] + 246 u[12] + 462 u[13] + 727 u[14] + 303 u[15] + 255 u[16]
   + 42 u[17] + 195 u[18] + 608 u[19] <= 6541
 primal_lower170: 35 u[0] + 100 u[1] + 630 u[2] + 931 u[3] + 544 u[4]
   + 433 u[5] + 401 u[6] + 723 u[7] + 409 u[8] + 450 u[9] + 327 u[10]
   + 827 u[11] + 784 u[12] + 308 u[13] + 928 u[14] + 276 u[15] + 713 u[16]
   + 72 u[17] + 189 u[18] + 990 u[19] <= 6713
 primal_lower171: 205 u[0] + 577 u[1] + 151 u[2] + 688 u[3] + 441 u[4]
   + 687 u[5] + 850 u[6] + 401 u[7] + 242 u[8] + 623 u[9] + 881 u[10]
   + 960 u[11] + 665 u[12] + 553 u[13] + 618 u[14] + 962 u[15] + 954 u[16]
   + 989 u[17] + 758 u[18] + 955 u[19] <= 4386
 primal_lower172: 474 u[0] + 803 u[1] + 669 u[2] + 938 u[3] + 671 u[4]
   + 616 u[5] + 72 u[6] + 162 u[7] + 624 u[8] + 369 u[9] + 390 u[10]
   + 2 u[11] + 143 u[12] + 531 u[13] + 567 u[14] + 267 u[15] + 408 u[16]
   + 375 u[17] + 132 u[18] + 557 u[19] <= 4385
 primal_lower173: 6 u[0] + 362 u[1] + 880 u[2] + 769 u[3] + 18 u[4]
   + 56 u[5] + 347 u[6] + 114 u[7] + 795 u[8] + 504 u[9] + 322 u[10]
   + u[11] + 50 u[12] + 426 u[13] + 123 u[14] + 571 u[15] + 3 u[16]
   + 246 u[17] + 543 u[18] + 68 u[19] <= 1034
 primal_lower174: 182 u[0] + 887 u[1] + 529 u[2] + 334 u[3] + 875 u[4]
   + 260 u[5] + 76 u[6] + 694 u[7] + 860 u[8] + 733 u[9] + 786 u[10]
   + 766 u[11] + 275 u[12] + 111 u[13] + 395 u[14] + 807 u[15] + 588 u[16]
   + 691 u[17] + 264 u[18] + 833 u[19] <= 5473
 primal_lower175: 260 u[0] + 760 u[1] + 6 u[2] + 879 u[3] + 440 u[4]
   + 678 u[5] + 409 u[6] + 744 u[7] + 649 u[8] + 654 u[9] + 72 u[10]
   + 183 u[11] + 736 u[12] + 424 u[13] + 777 u[14] + 833 u[15] + 361 u[16]
   + 932 u[17] + 269 u[18] + 234 u[19] <= 1716
 primal_lower176: 259 u[0] + 247 u[1] + 21 u[2] + 302 u[3] + 111 u[4]
   + 173 u[5] + 344 u[6] + 831 u[7] + 488 u[8] + 341 u[9] + 679 u[10]
   + 870 u[11] + 431 u[12] + 751 u[13] + 184 u[14] + 8 u[15] + 568 u[16]
   + 427 u[17] + 892 u[18] + 905 u[19] <= 1472
 primal_lower177: 522 u[0] + 30 u[1] + 900 u[2] + 253 u[3] + 126 u[4]
   + 444 u[5] + 447 u[6] + 118 u[7] + 879 u[8] + 564 u[9] + 294 u[10]
   + 349 u[11] + 742 u[12] + 478 u[13] + 423 u[14] + 199 u[15] + 807 u[16]
   + 98 u[17] + 627 u[18] + 136 u[19] <= 4218
 primal_lower178: 698 u[0] + 94 u[1] + 124 u[2] + 989 u[3] + 670 u[4]
   + 76 u[5] + 871 u[6] + 494 u[7] + 231 u[8] + 540 u[9] + 966 u[10]
   + 933 u[11] + 206 u[12] + 86 u[13] + 151 u[14] + 999 u[15] + 359 u[16]
   + 706 u[17] + 363 u[18] + 440 u[19] <= 1666
 primal_lower179: 354 u[0] + 806 u[1] + 36 u[2] + 405 u[3] + 150 u[4]
   + 980 u[5] + 335 u[6] + 966 u[7] + 567 u[8] + 836 u[9] + 846 u[10]
   + 685 u[11] + 54 u[12] + 62 u[13] + 967 u[14] + 239 u[15] + 103 u[16]
   + 186 u[17] + 523 u[18] + 592 u[19] <= 1615
 primal_lower180: 784 u[0] + 625 u[1] + 35 u[2] + 824 u[3] + 661 u[4]
   + 790 u[5] + 486 u[6] + 472 u[7] + 126 u[8] + 319 u[9] + 420 u[10]
   + 32 u[11] + 413 u[12] + 449 u[13] + 461 u[14] + 345 u[15] + 862 u[16]
   + 989 u[17] + 778 u[18] + 835 u[19] <= 5353
 primal_lower181: 208 u[0] + 81 u[1] + 267 u[2] + 584 u[3] + 173 u[4]
   + 974 u[5] + 374 u[6] + 352 u[7] + 878 u[8] + 63 u[9] + 404 u[10]
   + 200 u[11] + 341 u[12] + 521 u[13] + 781 u[14] + 921 u[15] + 446 u[16]
   + 325 u[17] + 986 u[18] + 827 u[19] <= 3235
 primal_lower182: 319 u[0] + 224 u[1] + 682 u[2] + 911 u[3] + 908 u[4]
   + 677 u[5] + 853 u[6] + 911 u[7] + 365 u[8] + 110 u[9] + 571 u[10]
   + 79 u[11] + 68 u[12] + 992 u[13] + 836 u[14] + 216 u[15] + 101 u[16]
   + 140 u[17] + 825 u[18] + 98 u[19] <= 4943
 primal_lower183: 381 u[0] + 390 u[1] + 200 u[2] + 837 u[3] + 810 u[4]
   + 227 u[5] + 875 u[6] + 701 u[7] + 203 u[8] + 652 u[9] + 177 u[10]
   + 773 u[11] + 666 u[12] + 390 u[13] + 570 u[14] + 710 u[15] + 667 u[16]
   + 730 u[17] + 543 u[18] + 704 u[19] <= 3735
 primal_lower184: 727 u[0] + 344 u[1] + 18 u[2] + 247 u[3] + 164 u[4]
   + 733 u[5] + 317 u[6] + 511 u[7] + 837 u[8] + 734 u[9] + 139 u[10]
   + 271 u[11] + 60 u[12] + 552 u[13] + 308 u[14] + 800 u[15] + 141 u[16]
   + 668 u[17] + u[18] + 50 u[19] <= 1270
 primal_lower185: 723 u[0] + 159 u[1] + 485 u[2] + 638 u[3] + 663 u[4]
   + 957 u[5] + 504 u[6] + 911 u[7] + 880 u[8] + 349 u[9] + 663 u[10]
   + 726 u[11] + 903 u[12] + 511 u[13] + 304 u[14] + 312 u[15] + 680 u[16]
   + 43 u[17] + 260 u[18] + 73 u[19] <= 3581
 primal_lower186: 666 u[0] + 558 u[1] + 324 u[2] + 157 u[3] + 198 u[4]
   + 620 u[5] + 135 u[6] + 542 u[7] + 791 u[8] + 516 u[9] + 214 u[10]
   + 453 u[11] + 430 u[12] + 222 u[13] + 799 u[14] + 671 u[15] + 887 u[16]
   + 394 u[17] + 491 u[18] + 600 u[19] <= 887
 primal_lower187: 625 u[0] + 349 u[1] + 675 u[2] + 444 u[3] + 973 u[4]
   + 475 u[5] + 286 u[6] + 709 u[7] + 270 u[8] + 571 u[9] + 573 u[10]
   + 164 u[11] + 733 u[12] + 973 u[13] + 158 u[14] + 390 u[15] + 278 u[16]
   + 841 u[17] + 114 u[18] + 895 u[19] <= 3498
 primal_lower188: 259 u[0] + 796 u[1] + 198 u[2] + 11 u[3] + 416 u[4]
   + 697 u[5] + 441 u[6] + 499 u[7] + 793 u[8] + 442 u[9] + 919 u[10]
   + 851 u[11] + 248 u[12] + 908 u[13] + 632 u[14] + 372 u[15] + 929 u[16]
   + 992 u[17] + 613 u[18] + 406 u[19] <= 1903
 primal_lower189: 22 u[0] + 735 u[1] + 809 u[2] + 806 u[3] + 419 u[4]
   + 620 u[5] + 668 u[6] + 654 u[7] + 580 u[8] + 669 u[9] + 810 u[10]
   + 446 u[11] + 683 u[12] + 511 u[13] + 683 u[14] + 831 u[15] + 836 u[16]
   + 483 u[17] + 496 u[18] + 537 u[19] <= 4099
 primal_lower190: 54 u[0] + 663 u[1] + 257 u[2] + 150 u[3] + 603 u[4]
   + 460 u[5] + 908 u[6] + 862 u[7] + 132 u[8] + 837 u[9] + 754 u[10]
   + 366 u[11] + 179 u[12] + 639 u[13] + 811 u[14] + 743 u[15] + 108 u[16]
   + 171 u[17] + 504 u[18] + 513 u[19] <= 4857
 primal_lower191: 906 u[0] + 814 u[1] + 116 u[2] + 813 u[3] + 566 u[4]
   + 708 u[5] + 295 u[6] + 422 u[7] + 951 u[8] + 92 u[9] + 470 u[10]
   + 245 u[11] + 238 u[12] + 886 u[13] + 471 u[14] + 319 u[15] + 335 u[16]
   + 946 u[17] + 515 u[18] + 408 u[19] <= 1752
 primal_lower192: 211 u[0] + 164 u[1] + 854 u[2] + 859 u[3] + 88 u[4]
   + 65 u[5] + 825 u[6] + 99 u[7] + 953 u[8] + 618 u[9] + 999 u[10]
   + 603 u[11] + 248 u[12] + 108 u[13] + 656 u[14] + 76 u[15] + 265 u[16]
   + 488 u[17] + 925 u[18] + 102 u[19] <= 4603
 primal_lower193: 126 u[0] + 23 u[1] + 177 u[2] + 590 u[3] + 651 u[4]
   + 884 u[5] + 452 u[6] + 6 u[7] + 484 u[8] + 709 u[9] + 450 u[10]
   + 158 u[11] + 395 u[12] + 855 u[13] + 179 u[14] + 895 u[15] + 276 u[16]
   + 115 u[17] + 808 u[18] + 825 u[19] <= 4529
 primal_lower194: 391 u[0] + 939 u[1] + 329 u[2] + 410 u[3] + 683 u[4]
   + 537 u[5] + 228 u[6] + 163 u[7] + 60 u[8] + 33 u[9] + 3 u[10]
   + 762 u[11] + 363 u[12] + 587 u[13] + 52 u[14] + 980 u[15] + 652 u[16]
   + 879 u[17] + 720 u[18] + 109 u[19] <= 4440
 primal_lower195: 864 u[0] + 513 u[1] + 931 u[2] + 304 u[3] + 373 u[4]
   + 358 u[5] + 870 u[6] + 992 u[7] + 182 u[8] + 479 u[9] + 980 u[10]
   + 592 u[11] + 869 u[12] + 225 u[13] + 501 u[14] + 697 u[15] + 478 u[16]
   + 525 u[17] + 234 u[18] + 347 u[19] <= 5657
 primal_lower196: 459 u[0] + 716 u[1] + 534 u[2] + 155 u[3] + 432 u[4]
   + 729 u[5] + 785 u[6] + 779 u[7] + 49 u[8] + 922 u[9] + 255 u[10]
   + 11 u[11] + 304 u[12] + 828 u[13] + 744 u[14] + 292 u[15] + 609 u[16]
   + 584 u[17] + 21 u[18] + 246 u[19] <= 6302
 primal_lower197: 498 u[0] + 211 u[1] + 629 u[2] + 650 u[3] + 799 u[4]
   + 480 u[5] + 424 u[6] + 666 u[7] + 288 u[8] + 105 u[9] + 894 u[10]
   + 50 u[11] + 847 u[12] + 931 u[13] + 751 u[14] + 731 u[15] + 968 u[16]
   + 543 u[17] + 684 u[18] + 221 u[19] <= 968
 primal_lower198: 904 u[0] + 772 u[1] + 458 u[2] + 611 u[3] + 508 u[4]
   + 602 u[5] + 749 u[6] + 756 u[7] + 5 u[8] + 970 u[9] + 964 u[10]
   + 795 u[11] + 124 u[12] + 892 u[13] + 901 u[14] + 525 u[15] + 405 u[16]
   + 8 u[17] + 849 u[18] + 638 u[19] <= 4145
 primal_lower199: 703 u[0] + 16 u[1] + 466 u[2] + 527 u[3] + 412 u[4]
   + 813 u[5] + 429 u[6] + 583 u[7] + 93 u[8] + 542 u[9] + 555 u[10]
   + 335 u[11] + 148 u[12] + 352 u[13] + 636 u[14] + 408 u[15] + 301 u[16]
   + 212 u[17] + 33 u[18] + 882 u[19] <= 1407
 primal_lower200: 485 u[0] + 561 u[1] + 855 u[2] + 560 u[3] + 681 u[4]
   + 407 u[5] + 522 u[6] + 137 u[7] + 418 u[8] + 55 u[9] + 249 u[10]
   + 824 u[11] + 945 u[12] + 33 u[13] + 818 u[14] + 922 u[15] + 778 u[16]
   + 877 u[17] + 534 u[18] + 251 u[19] <= 1818
 primal_lower201: 816 u[0] + 28 u[1] + 594 u[2] + 459 u[3] + 476 u[4]
   + 474 u[5] + 221 u[6] + 444 u[7] + 357 u[8] + 498 u[9] + 268 u[10]
   + 187 u[11] + 524 u[12] + 396 u[13] + 421 u[14] + 893 u[15] + 917 u[16]
   + 576 u[17] + 857 u[18] + 70 u[19] <= 4738
 primal_lower202: 589 u[0] + 494 u[1] + 608 u[2] + 637 u[3] + 538 u[4]
   + 915 u[5] + 699 u[6] + 493 u[7] + 523 u[8] + 996 u[9] + 961 u[10]
   + 565 u[11] + 634 u[12] + 686 u[13] + 250 u[14] + 54 u[15] + 707 u[16]
   + 370 u[17] + 439 u[18] + 832 u[19] <= 5995
 primal_lower203: 764 u[0] + 56 u[1] + 670 u[2] + 663 u[3] + 528 u[4]
   + 798 u[5] + 913 u[6] + 200 u[7] + 225 u[8] + 94 u[9] + 752 u[10]
   + 591 u[11] + 736 u[12] + 8 u[13] + 129 u[14] + 57 u[15] + 145 u[16]
   + 532 u[17] + 533 u[18] + 786 u[19] <= 1530
 primal_lower204: 613 u[0] + 697 u[1] + 487 u[2] + 216 u[3] + 697 u[4]
   + 551 u[5] + 122 u[6] + u[7] + 714 u[8] + 55 u[9] + 641 u[10]
   + 152 u[11] + 657 u[12] + 113 u[13] + 282 u[14] + 546 u[15] + 802 u[16]
   + 325 u[17] + 934 u[18] + 907 u[19] <= 1585
 primal_lower205: 272 u[0] + 724 u[1] + 770 u[2] + 955 u[3] + 428 u[4]
   + 10 u[5] + 237 u[6] + 300 u[7] + 733 u[8] + 322 u[9] + 364 u[10]
   + 347 u[11] + 540 u[12] + 108 u[13] + 445 u[14] + 893 u[15] + 853 u[16]
   + 360 u[17] + 737 u[18] + 398 u[19] <= 6530
 primal_lower206: 62 u[0] + 530 u[1] + 48 u[2] + 497 u[3] + 890 u[4]
   + 968 u[5] + 907 u[6] + 90 u[7] + 43 u[8] + 776 u[9] + 18 u[10]
   + 977 u[11] + 74 u[12] + 362 u[13] + 187 u[14] + 243 u[15] + 659 u[16]
   + 510 u[17] + 967 u[18] + 740 u[19] <= 1591
 primal_lower207: 776 u[0] + 388 u[1] + 322 u[2] + 771 u[3] + 860 u[4]
   + 498 u[5] + 277 u[6] + 556 u[7] + 773 u[8] + 346 u[9] + 988 u[10]
   + 379 u[11] + 436 u[12] + 972 u[13] + 821 u[14] + 21 u[15] + 805 u[16]
   + 120 u[17] + 465 u[18] + 246 u[19] <= 988
 primal_lower208: 14 u[0] + 906 u[1] + 272 u[2] + 401 u[3] + 818 u[4]
   + 208 u[5] + 827 u[6] + 58 u[7] + 667 u[8] + 856 u[9] + 906 u[10]
   + 897 u[11] + 466 u[12] + 514 u[13] + 963 u[14] + 19 u[15] + 859 u[16]
   + 230 u[17] + 791 u[18] + 948 u[19] <= 7746
 primal_lower209: 439 u[0] + 707 u[1] + 249 u[2] + 218 u[3] + 643 u[4]
   + 913 u[5] + 748 u[6] + 307 u[7] + 612 u[8] + 281 u[9] + 531 u[10]
   + 2 u[11] + 523 u[12] + 859 u[13] + 628 u[14] + 908 u[15] + 868 u[16]
   + 479 u[17] + 240 u[18] + 301 u[19] <= 5228
 primal_lower210: 457 u[0] + 125 u[1] + 699 u[2] + 244 u[3] + 453 u[4]
   + 907 u[5] + 142 u[6] + 445 u[7] + 798 u[8] + 891 u[9] + 317 u[10]
   + 580 u[11] + 373 u[12] + 677 u[13] + 918 u[14] + 942 u[15] + 510 u[16]
   + 81 u[17] + 826 u[18] + 975 u[19] <= 3786
 primal_lower211: 595 u[0] + 708 u[1] + 134 u[2] + 483 u[3] + 960 u[4]
   + 433 u[5] + 529 u[6] + 435 u[7] + 553 u[8] + 426 u[9] + 399 u[10]
   + 579 u[11] + 968 u[12] + 436 u[13] + 32 u[14] + 196 u[15] + 697 u[16]
   + 120 u[17] + 341 u[18] + 150 u[19] <= 1529
 primal_lower212: 777 u[0] + 266 u[1] + 524 u[2] + 785 u[3] + 990 u[4]
   + 239 u[5] + 351 u[6] + 721 u[7] + 559 u[8] + 920 u[9] + 341 u[10]
   + 249 u[11] + 342 u[12] + 378 u[13] + 278 u[14] + 770 u[15] + 311 u[16]
   + 550 u[17] + 147 u[18] + 860 u[19] <= 1726
 primal_lower213: 681 u[0] + 629 u[1] + 659 u[2] + 156 u[3] + 301 u[4]
   + 115 u[5] + 782 u[6] + 165 u[7] + 390 u[8] + 899 u[9] + 821 u[10]
   + 124 u[11] + 901 u[12] + 589 u[13] + 262 u[14] + 206 u[15] + 470 u[16]
   + 601 u[17] + 506 u[18] + 423 u[19] <= 901
 primal_lower214: 490 u[0] + 899 u[1] + 21 u[2] + 66 u[3] + 335 u[4]
   + 600 u[5] + 952 u[6] + 802 u[7] + 832 u[8] + 169 u[9] + 558 u[10]
   + 578 u[11] + 559 u[12] + 467 u[13] + 191 u[14] + 235 u[15] + 792 u[16]
   + 567 u[17] + 140 u[18] + 21 u[19] <= 4637
 primal_lower215: 513 u[0] + 93 u[1] + 219 u[2] + 460 u[3] + 613 u[4]
   + 435 u[5] + 198 u[6] + 165 u[7] + 742 u[8] + 19 u[9] + 13 u[10]
   + 308 u[11] + 677 u[12] + 541 u[13] + 206 u[14] + 414 u[15] + 366 u[16]
   + 777 u[17] + 922 u[18] + 511 u[19] <= 1365
 primal_lower216: 674 u[0] + 803 u[1] + 605 u[2] + 74 u[3] + 255 u[4]
   + 592 u[5] + 880 u[6] + 18 u[7] + 608 u[8] + 585 u[9] + 454 u[10]
   + 274 u[11] + 799 u[12] + 459 u[13] + 191 u[14] + 67 u[15] + 808 u[16]
   + 679 u[17] + 316 u[18] + 893 u[19] <= 3344
 primal_lower217: 215 u[0] + 987 u[1] + 921 u[2] + 658 u[3] + 595 u[4]
   + 633 u[5] + 740 u[6] + 75 u[7] + 388 u[8] + 113 u[9] + 499 u[10]
   + 162 u[11] + 43 u[12] + 659 u[13] + 364 u[14] + 132 u[15] + 636 u[16]
   + 959 u[17] + 952 u[18] + 661 u[19] <= 6928
 primal_lower218: 700 u[0] + 397 u[1] + 751 u[2] + 700 u[3] + 329 u[4]
   + 370 u[5] + 218 u[6] + 300 u[7] + 586 u[8] + 771 u[9] + 72 u[10]
   + 316 u[11] + 169 u[12] + 893 u[13] + 297 u[14] + 645 u[15] + 330 u[16]
   + 105 u[17] + 686 u[18] + 535 u[19] <= 6113
 primal_lower219: 690 u[0] + 643 u[1] + 77 u[2] + 154 u[3] + 31 u[4]
   + 128 u[5] + 160 u[6] + 954 u[7] + 608 u[8] + 857 u[9] + 230 u[10]
   + 786 u[11] + 463 u[12] + 603 u[13] + 447 u[14] + 83 u[15] + 752 u[16]
   + 399 u[17] + 828 u[18] + 917 u[19] <= 1635
 primal_lower220: 921 u[0] + 362 u[1] + 596 u[2] + 777 u[3] + 470 u[4]
   + 463 u[5] + 303 u[6] + 505 u[7] + 399 u[8] + 744 u[9] + 13 u[10]
   + 953 u[11] + 510 u[12] + 354 u[13] + 622 u[14] + 410 u[15] + 39 u[16]
   + 422 u[17] + 987 u[18] + 940 u[19] <= 5395
 primal_lower221: 394 u[0] + 502 u[1] + 620 u[2] + 893 u[3] + 590 u[4]
   + 724 u[5] + 343 u[6] + 998 u[7] + 279 u[8] + 420 u[9] + 902 u[10]
   + 773 u[11] + 310 u[12] + 326 u[13] + 991 u[14] + 183 u[15] + 983 u[16]
   + 82 u[17] + 899 u[18] + 344 u[19] <= 1926
 primal_lower222: 186 u[0] + 414 u[1] + 740 u[2] + 37 u[3] + 350 u[4]
   + 916 u[5] + 383 u[6] + 78 u[7] + 287 u[8] + 284 u[9] + 454 u[10]
   + 29 u[11] + 382 u[12] + 246 u[13] + 455 u[14] + 959 u[15] + 31 u[16]
   + 490 u[17] + 283 u[18] + 80 u[19] <= 959
 primal_lower223: 195 u[0] + 943 u[1] + 637 u[2] + 398 u[3] + 831 u[4]
   + 989 u[5] + 672 u[6] + 39 u[7] + 1000 u[8] + 877 u[9] + 927 u[10]
   + 486 u[11] + 751 u[12] + 207 u[13] + 200 u[14] + 208 u[15] + 328 u[16]
   + 795 u[17] + 636 u[18] + 545 u[19] <= 1944
 primal_lower224: 922 u[0] + 315 u[1] + 581 u[2] + 970 u[3] + 911 u[4]
   + 496 u[5] + 416 u[6] + 314 u[7] + 744 u[8] + 521 u[9] + 654 u[10]
   + 722 u[11] + 55 u[12] + 867 u[13] + 215 u[14] + 651 u[15] + 792 u[16]
   + 919 u[17] + 716 u[18] + 597 u[19] <= 8252
 primal_lower225: 468 u[0] + 496 u[1] + 606 u[2] + 295 u[3] + 280 u[4]
   + 702 u[5] + 473 u[6] + 432 u[7] + 345 u[8] + 270 u[9] + 104 u[10]
   + 431 u[11] + 136 u[12] + 560 u[13] + 457 u[14] + 593 u[15] + 553 u[16]
   + 564 u[17] + 325 u[18] + 74 u[19] <= 4082
 primal_lower226: 331 u[0] + 223 u[1] + 445 u[2] + 118 u[3] + 679 u[4]
   + 29 u[5] + 712 u[6] + 223 u[7] + 592 u[8] + 373 u[9] + 711 u[10]
   + 102 u[11] + 575 u[12] + 159 u[13] + 168 u[14] + 816 u[15] + 352 u[16]
   + 627 u[17] + 636 u[18] + 433 u[19] <= 1384
 primal_lower227: 213 u[0] + 769 u[1] + 455 u[2] + 880 u[3] + 841 u[4]
   + 863 u[5] + 434 u[6] + 497 u[7] + 818 u[8] + 455 u[9] + 433 u[10]
   + 360 u[11] + 361 u[12] + 313 u[13] + 602 u[14] + 754 u[15] + 50 u[16]
   + 205 u[17] + 830 u[18] + 411 u[19] <= 3514
 primal_lower228: 60 u[0] + 728 u[1] + 742 u[2] + 207 u[3] + 232 u[4]
   + 814 u[5] + 97 u[6] + 64 u[7] + 169 u[8] + 166 u[9] + 760 u[10]
   + 735 u[11] + 672 u[12] + 944 u[13] + 841 u[14] + 473 u[15] + 273 u[16]
   + 996 u[17] + 517 u[18] + 354 u[19] <= 4922
 primal_lower229: 863 u[0] + 600 u[1] + 730 u[2] + 159 u[3] + 268 u[4]
   + 597 u[5] + 573 u[6] + 263 u[7] + 445 u[8] + 118 u[9] + 587 u[10]
   + 863 u[11] + 260 u[12] + 528 u[13] + 380 u[14] + 216 u[15] + 213 u[16]
   + 36 u[17] + 17 u[18] + 370 u[19] <= 2695
 primal_lower230: 303 u[0] + 811 u[1] + 857 u[2] + 282 u[3] + 627 u[4]
   + 545 u[5] + 300 u[6] + 987 u[7] + 812 u[8] + 577 u[9] + 27 u[10]
   + 674 u[11] + 827 u[12] + 403 u[13] + 20 u[14] + 324 u[15] + 908 u[16]
   + 47 u[17] + 984 u[18] + 381 u[19] <= 1782
 primal_lower231: 810 u[0] + 403 u[1] + 29 u[2] + 370 u[3] + 503 u[4]
   + 752 u[5] + 496 u[6] + 250 u[7] + 48 u[8] + 393 u[9] + 510 u[10]
   + 194 u[11] + 135 u[12] + 619 u[13] + 175 u[14] + 67 u[15] + 968 u[16]
   + 591 u[17] + 380 u[18] + 125 u[19] <= 968
 primal_lower232: 419 u[0] + 860 u[1] + 86 u[2] + 203 u[3] + 616 u[4]
   + 681 u[5] + 473 u[6] + 571 u[7] + 641 u[8] + 610 u[9] + 255 u[10]
   + 99 u[11] + 456 u[12] + 116 u[13] + 416 u[14] + 908 u[15] + 225 u[16]
   + 512 u[17] + 213 u[18] + 38 u[19] <= 4199
 primal_lower233: 949 u[0] + 6 u[1] + 968 u[2] + 661 u[3] + 858 u[4]
   + 219 u[5] + 915 u[6] + 821 u[7] + 595 u[8] + 764 u[9] + 137 u[10]
   + 613 u[11] + 386 u[12] + 734 u[13] + 50 u[14] + 662 u[15] + 163 u[16]
   + 10 u[17] + 343 u[18] + 864 u[19] <= 1786
 primal_lower234: 479 u[0] + 443 u[1] + 729 u[2] + 106 u[3] + 771 u[4]
   + 225 u[5] + 988 u[6] + 531 u[7] + 92 u[8] + 425 u[9] + 643 u[10]
   + 50 u[11] + 579 u[12] + 627 u[13] + 716 u[14] + 292 u[15] + 108 u[16]
   + 231 u[17] + 504 u[18] + 109 u[19] <= 1441
 primal_lower235: 214 u[0] + 199 u[1] + 393 u[2] + 846 u[3] + 83 u[4]
   + 964 u[5] + 908 u[6] + 766 u[7] + 204 u[8] + 693 u[9] + 202 u[10]
   + 974 u[11] + 707 u[12] + 735 u[13] + 883 u[14] + 743 u[15] + 116 u[16]
   + 971 u[17] + 16 u[18] + 777 u[19] <= 1899
 primal_lower236: 187 u[0] + 615 u[1] + 421 u[2] + 222 u[3] + 423 u[4]
   + 717 u[5] + 560 u[6] + 223 u[7] + 760 u[8] + 685 u[9] + 871 u[10]
   + 886 u[11] + 95 u[12] + 407 u[13] + 472 u[14] + 272 u[15] + 552 u[16]
   + 427 u[17] + 996 u[18] + 665 u[19] <= 3485
 primal_lower237: 954 u[0] + 446 u[1] + 460 u[2] + 965 u[3] + 702 u[4]
   + 340 u[5] + 911 u[6] + 822 u[7] + 599 u[8] + 916 u[9] + 390 u[10]
   + 493 u[11] + 430 u[12] + 686 u[13] + 447 u[14] + 615 u[15] + 999 u[16]
   + 450 u[17] + 203 u[18] + 712 u[19] <= 999
 primal_lower238: 74 u[0] + 550 u[1] + 124 u[2] + 565 u[3] + 510 u[4]
   + 260 u[5] + 607 u[6] + 790 u[7] + 63 u[8] + 876 u[9] + 86 u[10]
   + 421 u[11] + 46 u[12] + 886 u[13] + 279 u[14] + 183 u[15] + 111 u[16]
   + 186 u[17] + 419 u[18] + 832 u[19] <= 1311
 primal_lower239: 407 u[0] + 328 u[1] + 866 u[2] + 39 u[3] + 28 u[4]
   + 301 u[5] + 381 u[6] + 655 u[7] + 821 u[8] + 454 u[9] + 19 u[10]
   + 143 u[11] + 172 u[12] + 8 u[13] + 780 u[14] + 872 u[15] + 893 u[16]
   + 508 u[17] + 769 u[18] + 258 u[19] <= 1450
 primal_lower240: 312 u[0] + 553 u[1] + 595 u[2] + 832 u[3] + 525 u[4]
   + 718 u[5] + 246 u[6] + 312 u[7] + 462 u[8] + 751 u[9] + 132 u[10]
   + 952 u[11] + 269 u[12] + 289 u[13] + 861 u[14] + 617 u[15] + 342 u[16]
   + 789 u[17] + 714 u[18] + 755 u[19] <= 3675
 primal_lower241: 432 u[0] + 281 u[1] + 411 u[2] + 512 u[3] + 565 u[4]
   + 454 u[5] + 78 u[6] + 784 u[7] + 598 u[8] + 15 u[9] + 356 u[10]
   + 568 u[11] + 533 u[12] + 753 u[13] + 85 u[14] + 233 u[15] + 870 u[16]
   + 349 u[17] + 890 u[18] + 419 u[19] <= 1531
 primal_lower242: 820 u[0] + 725 u[1] + 159 u[2] + 812 u[3] + 401 u[4]
   + 42 u[5] + 10 u[6] + 148 u[7] + 954 u[8] + 987 u[9] + 296 u[10]
   + 324 u[11] + 129 u[12] + 333 u[13] + 993 u[14] + 797 u[15] + 386 u[16]
   + 681 u[17] + 22 u[18] + 359 u[19] <= 993
 primal_lower243: 707 u[0] + 223 u[1] + 805 u[2] + 782 u[3] + 375 u[4]
   + 893 u[5] + 120 u[6] + 447 u[7] + 176 u[8] + 85 u[9] + 247 u[10]
   + 166 u[11] + 271 u[12] + 23 u[13] + 368 u[14] + 784 u[15] + 800 u[16]
   + 27 u[17] + 876 u[18] + 65 u[19] <= 893
 primal_lower244: 552 u[0] + 441 u[1] + 579 u[2] + 104 u[3] + 5 u[4]
   + 334 u[5] + 646 u[6] + 896 u[7] + 806 u[8] + 599 u[9] + 636 u[10]
   + 584 u[11] + 509 u[12] + 601 u[13] + 533 u[14] + 681 u[15] + 750 u[16]
   + 141 u[17] + 90 u[18] + 275 u[19] <= 4881
 primal_lower245: 999 u[0] + 219 u[1] + 545 u[2] + 186 u[3] + 547 u[4]
   + 385 u[5] + 580 u[6] + 491 u[7] + 860 u[8] + 457 u[9] + 771 u[10]
   + 514 u[11] + 931 u[12] + 643 u[13] + 860 u[14] + 316 u[15] + 532 u[16]
   + 423 u[17] + 520 u[18] + 285 u[19] <= 5532
 primal_lower246: 236 u[0] + 13 u[1] + 39 u[2] + 860 u[3] + 881 u[4]
   + 66 u[5] + 90 u[6] + 196 u[7] + 970 u[8] + 75 u[9] + 976 u[10]
   + 100 u[11] + 185 u[12] + 53 u[13] + 889 u[14] + 877 u[15] + 506 u[16]
   + 17 u[17] + 214 u[18] + 735 u[19] <= 976
 primal_lower247: 131 u[0] + 244 u[1] + 822 u[2] + 843 u[3] + 944 u[4]
   + 801 u[5] + 745 u[6] + 755 u[7] + 401 u[8] + 186 u[9] + 191 u[10]
   + 251 u[11] + 384 u[12] + 588 u[13] + 304 u[14] + 356 u[15] + 961 u[16]
   + 512 u[17] + 93 u[18] + 46 u[19] <= 6372
 primal_lower248: 415 u[0] + 995 u[1] + 89 u[2] + 330 u[3] + 59 u[4]
   + 321 u[5] + 460 u[6] + 323 u[7] + 76 u[8] + 489 u[9] + 475 u[10]
   + 586 u[11] + 675 u[12] + 779 u[13] + 404 u[14] + 492 u[15] + 772 u[16]
   + 623 u[17] + 720 u[18] + 973 u[19] <= 1676
 primal_lower249: 215 u[0] + 480 u[1] + 674 u[2] + 23 u[3] + 532 u[4]
   + 93 u[5] + 741 u[6] + 487 u[7] + 405 u[8] + 638 u[9] + 347 u[10]
   + 135 u[11] + 20 u[12] + 96 u[13] + 220 u[14] + 128 u[15] + 357 u[16]
   + 620 u[17] + 505 u[18] + 858 u[19] <= 2524
 primal_lower250: 197 u[0] + 9 u[1] + 391 u[2] + 600 u[3] + 441 u[4]
   + 463 u[5] + 810 u[6] + 137 u[7] + 930 u[8] + 919 u[9] + 769 u[10]
   + 152 u[11] + 297 u[12] + 177 u[13] + 666 u[14] + 2 u[15] + 18 u[16]
   + 197 u[17] + 94 u[18] + 883 u[19] <= 2717
 primal_lower251: 815 u[0] + 955 u[1] + 449 u[2] + 202 u[3] + 539 u[4]
   + 897 u[5] + 844 u[6] + 843 u[7] + 276 u[8] + 361 u[9] + 931 u[10]
   + 362 u[11] + 187 u[12] + 131 u[13] + 396 u[14] + 652 u[15] + 212 u[16]
   + 375 u[17] + 392 u[18] + 13 u[19] <= 1638
 primal_lower252: 81 u[0] + 482 u[1] + 988 u[2] + 961 u[3] + 494 u[4]
   + 407 u[5] + 207 u[6] + 721 u[7] + 183 u[8] + 344 u[9] + 933 u[10]
   + 289 u[11] + 694 u[12] + 402 u[13] + 830 u[14] + 826 u[15] + 103 u[16]
   + 998 u[17] + 379 u[18] + 500 u[19] <= 3607
 primal_lower253: 308 u[0] + 221 u[1] + 247 u[2] + 916 u[3] + 593 u[4]
   + 386 u[5] + 466 u[6] + 668 u[7] + 682 u[8] + 523 u[9] + 256 u[10]
   + 372 u[11] + 457 u[12] + 85 u[13] + 153 u[14] + 637 u[15] + 778 u[16]
   + 417 u[17] + 854 u[18] + 135 u[19] <= 4577
 primal_lower254: 3 u[0] + 188 u[1] + 790 u[2] + 179 u[3] + 304 u[4]
   + 793 u[5] + 801 u[6] + 467 u[7] + 833 u[8] + 730 u[9] + 103 u[10]
   + 35 u[11] + 464 u[12] + 516 u[13] + 968 u[14] + 804 u[15] + 849 u[16]
   + 584 u[17] + 277 u[18] + 694 u[19] <= 968
 primal_lower255: 65 u[0] + 82 u[1] + 436 u[2] + 657 u[3] + 374 u[4]
   + 503 u[5] + 391 u[6] + 793 u[7] + 103 u[8] + 488 u[9] + 405 u[10]
   + 345 u[11] + 134 u[12] + 786 u[13] + 358 u[14] + 906 u[15] + 375 u[16]
   + 118 u[17] + 595 u[18] + 180 u[19] <= 4047
 primal_lower256: 716 u[0] + 277 u[1] + 927 u[2] + 372 u[3] + 793 u[4]
   + 474 u[5] + 730 u[6] + 620 u[7] + 354 u[8] + 411 u[9] + 712 u[10]
   + 788 u[11] + 633 u[12] + 541 u[13] + 809 u[14] + 293 u[15] + 442 u[16]
   + 681 u[17] + 86 u[18] + 807 u[19] <= 927
 primal_lower257: 703 u[0] + 8 u[1] + 898 u[2] + 471 u[3] + 156 u[4]
   + 133 u[5] + 701 u[6] + 23 u[7] + 437 u[8] + 638 u[9] + 555 u[10]
   + 167 u[11] + 564 u[12] + 400 u[13] + 884 u[14] + 336 u[15] + 437 u[16]
   + 988 u[17] + 521 u[18] + 370 u[19] <= 3130
 primal_lower258: 761 u[0] + 10 u[1] + 308 u[2] + u[3] + 758 u[4]
   + 143 u[5] + 167 u[6] + 905 u[7] + 463 u[8] + 584 u[9] + 229 u[10]
   + 465 u[11] + 334 u[12] + 994 u[13] + 158 u[14] + 362 u[15] + 615 u[16]
   + 798 u[17] + 515 u[18] + 132 u[19] <= 1450
 primal_lower259: 531 u[0] + 383 u[1] + 325 u[2] + 366 u[3] + 287 u[4]
   + 13 u[5] + 792 u[6] + 951 u[7] + 920 u[8] + 173 u[9] + 103 u[10]
   + 854 u[11] + 151 u[12] + 655 u[13] + 504 u[14] + 568 u[15] + 192 u[16]
   + 643 u[17] + 260 u[18] + 657 u[19] <= 1554
 primal_lower260: 828 u[0] + 872 u[1] + 198 u[2] + 471 u[3] + 776 u[4]
   + 262 u[5] + 785 u[6] + 208 u[7] + 705 u[8] + 614 u[9] + 672 u[10]
   + 487 u[11] + 536 u[12] + 136 u[13] + 657 u[14] + 953 u[15] + 457 u[16]
   + 300 u[17] + 589 u[18] + 26 u[19] <= 5266
 primal_lower261: 788 u[0] + 608 u[1] + 966 u[2] + 895 u[3] + 736 u[4]
   + 470 u[5] + 705 u[6] + 816 u[7] + 257 u[8] + 542 u[9] + 864 u[10]
   + 799 u[11] + 992 u[12] + 448 u[13] + 665 u[14] + 33 u[15] + 737 u[16]
   + 20 u[17] + 429 u[18] + 850 u[19] <= 2103
 primal_lower262: 222 u[0] + 938 u[1] + 840 u[2] + 73 u[3] + 234 u[4]
   + 248 u[5] + 915 u[6] + 834 u[7] + 723 u[8] + 368 u[9] + 578 u[10]
   + 553 u[11] + 418 u[12] + 754 u[13] + 75 u[14] + 171 u[15] + 851 u[16]
   + 382 u[17] + 231 u[18] + 284 u[19] <= 1615
 primal_lower263: 463 u[0] + 219 u[1] + 649 u[2] + 50 u[3] + 163 u[4]
   + 17 u[5] + 308 u[6] + 539 u[7] + 492 u[8] + 361 u[9] + 587 u[10]
   + 250 u[11] + 979 u[12] + 795 u[13] + 908 u[14] + 252 u[15] + 100 u[16]
   + 919 u[17] + 248 u[18] + 925 u[19] <= 979
 primal_lower264: 116 u[0] + 192 u[1] + 878 u[2] + 383 u[3] + 680 u[4]
   + 934 u[5] + 489 u[6] + 128 u[7] + 777 u[8] + 334 u[9] + 96 u[10]
   + 927 u[11] + 56 u[12] + 368 u[13] + 337 u[14] + 921 u[15] + 921 u[16]
   + 780 u[17] + 325 u[18] + 714 u[19] <= 6904
 primal_lower265: 712 u[0] + 492 u[1] + 722 u[2] + 491 u[3] + 612 u[4]
   + 250 u[5] + 373 u[6] + 140 u[7] + 517 u[8] + 834 u[9] + 44 u[10]
   + 387 u[11] + 644 u[12] + 404 u[13] + 309 u[14] + 757 u[15] + 709 u[16]
   + 696 u[17] + 561 u[18] + 854 u[19] <= 1751
 primal_lower266: 434 u[0] + 342 u[1] + 460 u[2] + 445 u[3] + 462 u[4]
   + 380 u[5] + 15 u[6] + 254 u[7] + 519 u[8] + 476 u[9] + 182 u[10]
   + 749 u[11] + 982 u[12] + 702 u[13] + 151 u[14] + 127 u[15] + 959 u[16]
   + 762 u[17] + 803 u[18] + 680 u[19] <= 4942
 primal_lower267: 759 u[0] + 779 u[1] + 713 u[2] + 418 u[3] + 411 u[4]
   + 113 u[5] + 556 u[6] + 307 u[7] + 564 u[8] + 185 u[9] + 235 u[10]
   + 218 u[11] + 579 u[12] + 243 u[13] + 580 u[14] + 716 u[15] + 692 u[16]
   + 887 u[17] + 264 u[18] + 829 u[19] <= 887
 primal_lower268: 829 u[0] + 345 u[1] + 479 u[2] + 648 u[3] + 225 u[4]
   + 199 u[5] + 618 u[6] + 929 u[7] + 906 u[8] + 751 u[9] + 9 u[10]
   + 648 u[11] + 41 u[12] + 305 u[13] + 994 u[14] + 338 u[15] + 890 u[16]
   + 141 u[17] + 78 u[18] + 107 u[19] <= 3160
 primal_lower269: 805 u[0] + 465 u[1] + 79 u[2] + 432 u[3] + 817 u[4]
   + 623 u[5] + 298 u[6] + 401 u[7] + 210 u[8] + 135 u[9] + 201 u[10]
   + 48 u[11] + 17 u[12] + 17 u[13] + 522 u[14] + 218 u[15] + 618 u[16]
   + 501 u[17] + 422 u[18] + 3 u[19] <= 1138
 primal_lower270: 296 u[0] + 425 u[1] + 915 u[2] + 168 u[3] + 237 u[4]
   + 846 u[5] + 862 u[6] + 848 u[7] + 758 u[8] + 679 u[9] + 908 u[10]
   + 392 u[11] + 637 u[12] + 801 u[13] + 733 u[14] + 281 u[15] + 462 u[16]
   + 773 u[17] + 330 u[18] + 747 u[19] <= 8065
 primal_lower271: 250 u[0] + 675 u[1] + 557 u[2] + 754 u[3] + 399 u[4]
   + 400 u[5] + 296 u[6] + 746 u[7] + 168 u[8] + 57 u[9] + 550 u[10]
   + 578 u[11] + 967 u[12] + 355 u[13] + 831 u[14] + 955 u[15] + 32 u[16]
   + 839 u[17] + 492 u[18] + 757 u[19] <= 3552
 primal_lower272: 483 u[0] + 519 u[1] + 197 u[2] + 166 u[3] + 815 u[4]
   + 109 u[5] + 976 u[6] + 471 u[7] + 472 u[8] + 125 u[9] + 743 u[10]
   + 182 u[11] + 23 u[12] + 39 u[13] + 248 u[14] + 128 u[15] + 40 u[16]
   + 939 u[17] + 868 u[18] + 481 u[19] <= 4012
 primal_lower273: 634 u[0] + 534 u[1] + 668 u[2] + 229 u[3] + 502 u[4]
   + 252 u[5] + 599 u[6] + 998 u[7] + 343 u[8] + 548 u[9] + 630 u[10]
   + 293 u[11] + 966 u[12] + 750 u[13] + 991 u[14] + 247 u[15] + 487 u[16]
   + 410 u[17] + 611 u[18] + 448 u[19] <= 1856
 primal_lower274: 371 u[0] + 95 u[1] + 501 u[2] + 854 u[3] + 631 u[4]
   + 277 u[5] + 664 u[6] + 191 u[7] + 784 u[8] + 941 u[9] + 431 u[10]
   + 142 u[11] + 791 u[12] + 207 u[13] + 856 u[14] + 448 u[15] + 144 u[16]
   + 283 u[17] + 732 u[18] + 129 u[19] <= 1578
 primal_lower275: 396 u[0] + 293 u[1] + 103 u[2] + 508 u[3] + 281 u[4]
   + 122 u[5] + 490 u[6] + 588 u[7] + 642 u[8] + 403 u[9] + 840 u[10]
   + 452 u[11] + 153 u[12] + 549 u[13] + 785 u[14] + 733 u[15] + 882 u[16]
   + 153 u[17] + 422 u[18] + 559 u[19] <= 882
 primal_lower276: 982 u[0] + 578 u[1] + 608 u[2] + 297 u[3] + 666 u[4]
   + 112 u[5] + 355 u[6] + 226 u[7] + 347 u[8] + 832 u[9] + 962 u[10]
   + 561 u[11] + 666 u[12] + 362 u[13] + 115 u[14] + 643 u[15] + 923 u[16]
   + 558 u[17] + 943 u[18] + 324 u[19] <= 1843
 primal_lower277: 225 u[0] + 773 u[1] + 731 u[2] + 548 u[3] + 517 u[4]
   + 763 u[5] + 494 u[6] + 245 u[7] + 862 u[8] + 491 u[9] + 589 u[10]
   + 676 u[11] + 157 u[12] + 501 u[13] + 526 u[14] + 446 u[15] + 94 u[16]
   + 297 u[17] + 186 u[18] + 15 u[19] <= 4568
 primal_lower278: 402 u[0] + 299 u[1] + 413 u[2] + 786 u[3] + 735 u[4]
   + 384 u[5] + 88 u[6] + 906 u[7] + 904 u[8] + 977 u[9] + 278 u[10]
   + 50 u[11] + 183 u[12] + 275 u[13] + 847 u[14] + 603 u[15] + 208 u[16]
   + 303 u[17] + 484 u[18] + 37 u[19] <= 4581
 primal_lower279: 546 u[0] + 526 u[1] + 692 u[2] + 493 u[3] + 702 u[4]
   + 156 u[5] + 367 u[6] + 782 u[7] + 783 u[8] + 196 u[9] + 630 u[10]
   + 469 u[11] + 830 u[12] + 78 u[13] + 535 u[14] + 103 u[15] + 823 u[16]
   + 338 u[17] + 539 u[18] + 272 u[19] <= 830
 primal_lower280: 789 u[0] + 814 u[1] + 352 u[2] + 541 u[3] + 522 u[4]
   + 11 u[5] + 83 u[6] + 589 u[7] + 355 u[8] + 332 u[9] + 105 u[10]
   + 141 u[11] + 994 u[12] + 630 u[13] + 82 u[14] + 246 u[15] + 51 u[16]
   + 754 u[17] + 687 u[18] + 320 u[19] <= 4199
 primal_lower281: 732 u[0] + 189 u[1] + 431 u[2] + 580 u[3] + 881 u[4]
   + 466 u[5] + 746 u[6] + 764 u[7] + 426 u[8] + 323 u[9] + 408 u[10]
   + 52 u[11] + 505 u[12] + 741 u[13] + 825 u[14] + 117 u[15] + 242 u[16]
   + 889 u[17] + 54 u[18] + 623 u[19] <= 1665
 primal_lower282: 633 u[0] + 898 u[1] + 772 u[2] + 345 u[3] + 486 u[4]
   + 175 u[5] + 159 u[6] + 473 u[7] + 151 u[8] + 696 u[9] + 173 u[10]
   + 161 u[11] + 246 u[12] + 82 u[13] + 590 u[14] + 930 u[15] + 735 u[16]
   + 622 u[17] + 907 u[18] + 852 u[19] <= 6724
 primal_lower283: 76 u[0] + 152 u[1] + 390 u[2] + 319 u[3] + 96 u[4]
   + 894 u[5] + 313 u[6] + 424 u[7] + 233 u[8] + 134 u[9] + 624 u[10]
   + 703 u[11] + 856 u[12] + 728 u[13] + 209 u[14] + 585 u[15] + 145 u[16]
   + 532 u[17] + 285 u[18] + 50 u[19] <= 2582
 primal_lower284: 218 u[0] + 382 u[1] + 84 u[2] + 973 u[3] + 222 u[4]
   + 324 u[5] + 855 u[6] + 670 u[7] + 799 u[8] + 820 u[9] + 454 u[10]
   + 909 u[11] + 678 u[12] + 878 u[13] + 839 u[14] + 311 u[15] + 855 u[16]
   + 226 u[17] + 179 u[18] + 304 u[19] <= 1830
 primal_lower285: 703 u[0] + 371 u[1] + 81 u[2] + 234 u[3] + 787 u[4]
   + 761 u[5] + 36 u[6] + 387 u[7] + 892 u[8] + 641 u[9] + 483 u[10]
   + 306 u[11] + 363 u[12] + 851 u[13] + 700 u[14] + 340 u[15] + 812 u[16]
   + 351 u[17] + 440 u[18] + 397 u[19] <= 1656
 primal_lower286: 683 u[0] + 319 u[1] + 565 u[2] + 438 u[3] + 143 u[4]
   + 597 u[5] + 56 u[6] + 767 u[7] + 992 u[8] + 245 u[9] + 999 u[10]
   + 478 u[11] + 95 u[12] + 15 u[13] + 120 u[14] + 48 u[15] + 768 u[16]
   + 19 u[17] + 732 u[18] + 113 u[19] <= 999
 primal_lower287: 166 u[0] + 770 u[1] + 480 u[2] + 345 u[3] + 362 u[4]
   + 336 u[5] + 355 u[6] + 666 u[7] + 667 u[8] + 96 u[9] + 882 u[10]
   + 577 u[11] + 394 u[12] + 818 u[13] + 11 u[14] + 499 u[15] + 195 u[16]
   + 118 u[17] + 807 u[18] + 612 u[19] <= 1526
 primal_lower288: 471 u[0] + 339 u[1] + 257 u[2] + 634 u[3] + 627 u[4]
   + 897 u[5] + 780 u[6] + 595 u[7] + 948 u[8] + 297 u[9] + 923 u[10]
   + 722 u[11] + 267 u[12] + 67 u[13] + 660 u[14] + 748 u[15] + 468 u[16]
   + 895 u[17] + 792 u[18] + 125 u[19] <= 5756
 primal_lower289: 362 u[0] + 822 u[1] + 676 u[2] + 541 u[3] + 38 u[4]
   + 844 u[5] + 975 u[6] + 934 u[7] + 471 u[8] + 876 u[9] + 542 u[10]
   + 941 u[11] + 982 u[12] + 38 u[13] + 287 u[14] + 343 u[15] + 479 u[16]
   + 642 u[17] + 875 u[18] + 104 u[19] <= 1962
 primal_lower290: 716 u[0] + 997 u[1] + 679 u[2] + 868 u[3] + 705 u[4]
   + 954 u[5] + 762 u[6] + 596 u[7] + 322 u[8] + 531 u[9] + 600 u[10]
   + 236 u[11] + 313 u[12] + 461 u[13] + 521 u[14] + 637 u[15] + 922 u[16]
   + 401 u[17] + 174 u[18] + 175 u[19] <= 3856
 primal_lower291: 807 u[0] + 376 u[1] + 58 u[2] + 439 u[3] + 764 u[4]
   + 725 u[5] + 141 u[6] + 951 u[7] + 261 u[8] + 222 u[9] + 115 u[10]
   + 799 u[11] + 68 u[12] + 752 u[13] + 700 u[14] + 472 u[15] + 789 u[16]
   + 332 u[17] + 609 u[18] + 962 u[19] <= 3447
 primal_lower292: 447 u[0] + 880 u[1] + 498 u[2] + 7 u[3] + 580 u[4]
   + 621 u[5] + 757 u[6] + 383 u[7] + 165 u[8] + 518 u[9] + 659 u[10]
   + 879 u[11] + 684 u[12] + 40 u[13] + 260 u[14] + 304 u[15] + 741 u[16]
   + 84 u[17] + 801 u[18] + 610 u[19] <= 6612
 primal_lower293: 133 u[0] + 705 u[1] + 87 u[2] + 344 u[3] + 617 u[4]
   + 983 u[5] + 914 u[6] + 41 u[7] + 90 u[8] + 503 u[9] + 209 u[10]
   + 848 u[11] + 945 u[12] + 753 u[13] + 898 u[14] + 714 u[15] + 714 u[16]
   + 909 u[17] + 654 u[18] + 955 u[19] <= 4005
 primal_lower294: 698 u[0] + 699 u[1] + 613 u[2] + 882 u[3] + 607 u[4]
   + 560 u[5] + 32 u[6] + 306 u[7] + 280 u[8] + 265 u[9] + 982 u[10]
   + 2 u[11] + 191 u[12] + 275 u[13] + 831 u[14] + 627 u[15] + 488 u[16]
   + 711 u[17] + 68 u[18] + 677 u[19] <= 6529
 primal_lower295: 60 u[0] + 93 u[1] + 959 u[2] + 452 u[3] + 225 u[4]
   + 858 u[5] + 106 u[6] + 124 u[7] + 794 u[8] + 427 u[9] + 720 u[10]
   + 484 u[11] + 273 u[12] + 677 u[13] + 705 u[14] + 397 u[15] + 178 u[16]
   + 729 u[17] + 822 u[18] + 23 u[19] <= 1517
 primal_lower296: 51 u[0] + 975 u[1] + 101 u[2] + 334 u[3] + 295 u[4]
   + 989 u[5] + 712 u[6] + 415 u[7] + 360 u[8] + 509 u[9] + 951 u[10]
   + 6 u[11] + 959 u[12] + 935 u[13] + 40 u[14] + 640 u[15] + 224 u[16]
   + 851 u[17] + 44 u[18] + 185 u[19] <= 3192
 primal_lower297: 102 u[0] + 122 u[1] + 384 u[2] + 865 u[3] + 938 u[4]
   + 856 u[5] + 515 u[6] + 202 u[7] + 347 u[8] + 208 u[9] + 714 u[10]
   + 865 u[11] + 578 u[12] + 898 u[13] + 923 u[14] + 115 u[15] + 59 u[16]
   + 942 u[17] + 887 u[18] + 340 u[19] <= 5430
 primal_lower298: 805 u[0] + 729 u[1] + 719 u[2] + 344 u[3] + 961 u[4]
   + 943 u[5] + 626 u[6] + 473 u[7] + 266 u[8] + 759 u[9] + 785 u[10]
   + 280 u[11] + 161 u[12] + 761 u[13] + 450 u[14] + 434 u[15] + 922 u[16]
   + 389 u[17] + 430 u[18] + 955 u[19] <= 961
 primal_lower299: 818 u[0] + 171 u[1] + 357 u[2] + 514 u[3] + 759 u[4]
   + 656 u[5] + 72 u[6] + 266 u[7] + 16 u[8] + u[9] + 622 u[10] + 362 u[11]
   + 895 u[12] + 755 u[13] + 879 u[14] + 99 u[15] + 576 u[16] + 607 u[17]
   + 556 u[18] + 709 u[19] <= 4845
 primal_lower300: 868 u[0] + 949 u[1] + 719 u[2] + 340 u[3] + 505 u[4]
   + 738 u[5] + 858 u[6] + 364 u[7] + 370 u[8] + 859 u[9] + 216 u[10]
   + 180 u[11] + 625 u[12] + 157 u[13] + 497 u[14] + 749 u[15] + 714 u[16]
   + 169 u[17] + 550 u[18] + 311 u[19] <= 5369
 primal_lower301: 501 u[0] + 622 u[1] + 400 u[2] + 557 u[3] + 562 u[4]
   + 563 u[5] + 179 u[6] + 21 u[7] + 675 u[8] + 68 u[9] + 569 u[10]
   + 733 u[11] + 658 u[12] + 486 u[13] + 586 u[14] + 350 u[15] + 403 u[16]
   + 10 u[17] + 7 u[18] + 544 u[19] <= 5662
 primal_lower302: 111 u[0] + 835 u[1] + 129 u[2] + 338 u[3] + 187 u[4]
   + 921 u[5] + 668 u[6] + 467 u[7] + 196 u[8] + 689 u[9] + 467 u[10]
   + 634 u[11] + 491 u[12] + 595 u[13] + 468 u[14] + 508 u[15] + 556 u[16]
   + 423 u[17] + 472 u[18] + 261 u[19] <= 3138
 primal_lower303: 511 u[0] + 776 u[1] + 98 u[2] + 479 u[3] + 636 u[4]
   + 869 u[5] + 661 u[6] + 991 u[7] + 421 u[8] + 30 u[9] + 603 u[10]
   + 871 u[11] + 668 u[12] + 800 u[13] + 964 u[14] + 568 u[15] + 645 u[16]
   + 700 u[17] + 705 u[18] + 810 u[19] <= 8537
 primal_lower304: 962 u[0] + 467 u[1] + 997 u[2] + 370 u[3] + 495 u[4]
   + 560 u[5] + 752 u[6] + 418 u[7] + 512 u[8] + 537 u[9] + 294 u[10]
   + 234 u[11] + 455 u[12] + 875 u[13] + 975 u[14] + 619 u[15] + 168 u[16]
   + 703 u[17] + 908 u[18] + 301 u[19] <= 1933
 primal_lower305: 116 u[0] + 464 u[1] + 558 u[2] + 23 u[3] + 704 u[4]
   + 774 u[5] + 921 u[6] + 592 u[7] + 153 u[8] + 118 u[9] + 400 u[10]
   + 311 u[11] + 984 u[12] + 496 u[13] + 681 u[14] + 313 u[15] + 769 u[16]
   + 836 u[17] + 917 u[18] + 642 u[19] <= 5386
 primal_lower306: 44 u[0] + 125 u[1] + 951 u[2] + 252 u[3] + 505 u[4]
   + 98 u[5] + 218 u[6] + 836 u[7] + 786 u[8] + 891 u[9] + 440 u[10]
   + 940 u[11] + 233 u[12] + 637 u[13] + 73 u[14] + 501 u[15] + 610 u[16]
   + 273 u[17] + 62 u[18] + 87 u[19] <= 951
 primal_lower307: 451 u[0] + 44 u[1] + 606 u[2] + 595 u[3] + 880 u[4]
   + 161 u[5] + 313 u[6] + 291 u[7] + 785 u[8] + 114 u[9] + 783 u[10]
   + 83 u[11] + 512 u[12] + 36 u[13] + 720 u[14] + 772 u[15] + 129 u[16]
   + 864 u[17] + 525 u[18] + 454 u[19] <= 1519
 primal_lower308: 929 u[0] + 293 u[1] + 267 u[2] + 980 u[3] + 645 u[4]
   + 611 u[5] + 710 u[6] + 437 u[7] + 710 u[8] + 211 u[9] + 53 u[10]
   + 820 u[11] + 157 u[12] + 61 u[13] + 174 u[14] + 862 u[15] + 222 u[16]
   + 233 u[17] + 946 u[18] + 415 u[19] <= 1622
 primal_lower309: 388 u[0] + 88 u[1] + 718 u[2] + 183 u[3] + 912 u[4]
   + 526 u[5] + 785 u[6] + 496 u[7] + 593 u[8] + 894 u[9] + 464 u[10]
   + 591 u[11] + 584 u[12] + 624 u[13] + 457 u[14] + 777 u[15] + 321 u[16]
   + 916 u[17] + 485 u[18] + 514 u[19] <= 3772
 primal_lower310: 926 u[0] + 146 u[1] + 800 u[2] + 657 u[3] + 650 u[4]
   + 880 u[5] + 659 u[6] + 986 u[7] + 235 u[8] + 128 u[9] + 682 u[10]
   + 161 u[11] + 498 u[12] + 682 u[13] + 123 u[14] + 755 u[15] + 963 u[16]
   + 406 u[17] + 511 u[18] + 700 u[19] <= 1924
 primal_lower311: 590 u[0] + 858 u[1] + 824 u[2] + 73 u[3] + 530 u[4]
   + 960 u[5] + 707 u[6] + 554 u[7] + 147 u[8] + 256 u[9] + 922 u[10]
   + 313 u[11] + 426 u[12] + 418 u[13] + 115 u[14] + 979 u[15] + 611 u[16]
   + 102 u[17] + 743 u[18] + 500 u[19] <= 7085
 primal_lower312: 684 u[0] + 997 u[1] + 199 u[2] + 396 u[3] + 209 u[4]
   + 658 u[5] + 594 u[6] + 372 u[7] + 314 u[8] + 915 u[9] + 544 u[10]
   + 372 u[11] + 609 u[12] + 277 u[13] + 825 u[14] + 917 u[15] + 602 u[16]
   + 33 u[17] + 902 u[18] + 407 u[19] <= 3608
 primal_lower313: 404 u[0] + 872 u[1] + 686 u[2] + 271 u[3] + 864 u[4]
   + 294 u[5] + u[6] + 288 u[7] + 465 u[8] + 542 u[9] + 464 u[10]
   + 823 u[11] + 80 u[12] + 928 u[13] + 481 u[14] + 721 u[15] + 497 u[16]
   + 196 u[17] + 13 u[18] + 802 u[19] <= 4846
 primal_lower314: 15 u[0] + 296 u[1] + 698 u[2] + 775 u[3] + 180 u[4]
   + 741 u[5] + 69 u[6] + 135 u[7] + 93 u[8] + 726 u[9] + 811 u[10]
   + 551 u[11] + 12 u[12] + 432 u[13] + 988 u[14] + 184 u[15] + 565 u[16]
   + 140 u[17] + 89 u[18] + 258 u[19] <= 5172
 primal_lower315: 248 u[0] + 924 u[1] + 970 u[2] + 731 u[3] + 396 u[4]
   + 762 u[5] + 381 u[6] + 540 u[7] + 765 u[8] + 442 u[9] + 476 u[10]
   + 859 u[11] + 116 u[12] + 828 u[13] + 293 u[14] + 845 u[15] + 493 u[16]
   + 432 u[17] + 857 u[18] + 598 u[19] <= 5978
 primal_lower316: 254 u[0] + 151 u[1] + 241 u[2] + 382 u[3] + 411 u[4]
   + 348 u[5] + 516 u[6] + 502 u[7] + 316 u[8] + 805 u[9] + 842 u[10]
   + 318 u[11] + 523 u[12] + 983 u[13] + 83 u[14] + 447 u[15] + 628 u[16]
   + 339 u[17] + 888 u[18] + 969 u[19] <= 4973
 primal_lower317: 762 u[0] + 123 u[1] + 157 u[2] + 658 u[3] + 575 u[4]
   + 288 u[5] + 776 u[6] + 890 u[7] + 504 u[8] + 897 u[9] + 622 u[10]
   + 442 u[11] + 663 u[12] + 763 u[13] + 247 u[14] + 235 u[15] + 872 u[16]
   + 855 u[17] + 868 u[18] + 245 u[19] <= 1907
 primal_lower318: 100 u[0] + 661 u[1] + 927 u[2] + 556 u[3] + 265 u[4]
   + 674 u[5] + 538 u[6] + 916 u[7] + 658 u[8] + 699 u[9] + 888 u[10]
   + 268 u[11] + 17 u[12] + 925 u[13] + 329 u[14] + 949 u[15] + 306 u[16]
   + 545 u[17] + 326 u[18] + 239 u[19] <= 3595
 primal_lower319: 471 u[0] + 243 u[1] + 49 u[2] + 50 u[3] + 307 u[4]
   + 369 u[5] + 676 u[6] + 67 u[7] + 52 u[8] + 305 u[9] + 283 u[10]
   + 674 u[11] + 299 u[12] + 723 u[13] + 980 u[14] + 236 u[15] + 148 u[16]
   + 599 u[17] + 920 u[18] + 949 u[19] <= 4200
 primal_lower320: 71 u[0] + 923 u[1] + 177 u[2] + 202 u[3] + 547 u[4]
   + 297 u[5] + 484 u[6] + 307 u[7] + 44 u[8] + 753 u[9] + 883 u[10]
   + 442 u[11] + 283 u[12] + 43 u[13] + 332 u[14] + 52 u[15] + 596 u[16]
   + 911 u[17] + 488 u[18] + 317 u[19] <= 4076
 primal_lower321: 834 u[0] + 766 u[1] + 580 u[2] + 413 u[3] + 230 u[4]
   + 692 u[5] + 415 u[6] + 934 u[7] + 935 u[8] + 180 u[9] + 942 u[10]
   + 989 u[11] + 750 u[12] + 302 u[13] + 895 u[14] + 999 u[15] + 375 u[16]
   + 914 u[17] + 499 u[18] + 464 u[19] <= 2184
 primal_lower322: 962 u[0] + 686 u[1] + 36 u[2] + 613 u[3] + 46 u[4]
   + 764 u[5] + 647 u[6] + 670 u[7] + 599 u[8] + 212 u[9] + 614 u[10]
   + 21 u[11] + 510 u[12] + 94 u[13] + 439 u[14] + 111 u[15] + 319 u[16]
   + 938 u[17] + 483 u[18] + 928 u[19] <= 4846
 primal_lower323: 713 u[0] + 549 u[1] + 67 u[2] + 156 u[3] + 797 u[4]
   + 435 u[5] + 110 u[6] + 981 u[7] + 622 u[8] + 715 u[9] + 853 u[10]
   + 276 u[11] + 613 u[12] + 333 u[13] + 974 u[14] + 750 u[15] + 198 u[16]
   + 313 u[17] + 930 u[18] + 231 u[19] <= 7077
 primal_lower324: 962 u[0] + 651 u[1] + 845 u[2] + 482 u[3] + 71 u[4]
   + 744 u[5] + 616 u[6] + 914 u[7] + 648 u[8] + 425 u[9] + 766 u[10]
   + 354 u[11] + 999 u[12] + 611 u[13] + 583 u[14] + 571 u[15] + 560 u[16]
   + 879 u[17] + 140 u[18] + 757 u[19] <= 999
 primal_lower325: 452 u[0] + 880 u[1] + 70 u[2] + 535 u[3] + 960 u[4]
   + 918 u[5] + 481 u[6] + 376 u[7] + 441 u[8] + 254 u[9] + 856 u[10]
   + 383 u[11] + 624 u[12] + 656 u[13] + 873 u[14] + 161 u[15] + 553 u[16]
   + 876 u[17] + 933 u[18] + 562 u[19] <= 1974
 primal_lower326: 997 u[0] + 982 u[1] + 832 u[2] + 197 u[3] + 138 u[4]
   + 147 u[5] + 699 u[6] + 893 u[7] + 267 u[8] + 204 u[9] + 473 u[10]
   + 189 u[11] + 522 u[12] + 910 u[13] + 130 u[14] + 542 u[15] + 723 u[16]
   + 58 u[17] + 887 u[18] + 80 u[19] <= 6580
 primal_lower327: 802 u[0] + 515 u[1] + 925 u[2] + 354 u[3] + 559 u[4]
   + 304 u[5] + 848 u[6] + 634 u[7] + 344 u[8] + 425 u[9] + 318 u[10]
   + 162 u[11] + 583 u[12] + 347 u[13] + 231 u[14] + 35 u[15] + 216 u[16]
   + 871 u[17] + 276 u[18] + 333 u[19] <= 4541
 primal_lower328: 723 u[0] + 215 u[1] + 909 u[2] + 982 u[3] + 839 u[4]
   + 21 u[5] + 792 u[6] + 359 u[7] + 168 u[8] + 733 u[9] + 55 u[10]
   + 734 u[11] + 935 u[12] + 231 u[13] + 704 u[14] + 872 u[15] + 512 u[16]
   + 139 u[17] + 428 u[18] + 377 u[19] <= 5364
 primal_lower329: 441 u[0] + 34 u[1] + 52 u[2] + 193 u[3] + 502 u[4]
   + 279 u[5] + 463 u[6] + 433 u[7] + 407 u[8] + 672 u[9] + 165 u[10]
   + 489 u[11] + 246 u[12] + 762 u[13] + 886 u[14] + 66 u[15] + 919 u[16]
   + 494 u[17] + 171 u[18] + 588 u[19] <= 1377
 primal_lower330: 422 u[0] + 311 u[1] + 561 u[2] + 510 u[3] + 67 u[4]
   + 332 u[5] + 460 u[6] + 118 u[7] + 988 u[8] + 749 u[9] + 794 u[10]
   + 742 u[11] + 259 u[12] + 175 u[13] + 315 u[14] + 967 u[15] + 20 u[16]
   + 835 u[17] + 424 u[18] + 609 u[19] <= 4829
 primal_lower331: 548 u[0] + 656 u[1] + 182 u[2] + 223 u[3] + 824 u[4]
   + 918 u[5] + 289 u[6] + 416 u[7] + 969 u[8] + 214 u[9] + 968 u[10]
   + 183 u[11] + 328 u[12] + 464 u[13] + 33 u[14] + 337 u[15] + 17 u[16]
   + 156 u[17] + 373 u[18] + 514 u[19] <= 969
 primal_lower332: 702 u[0] + 346 u[1] + 64 u[2] + 105 u[3] + 226 u[4]
   + 272 u[5] + 995 u[6] + 370 u[7] + 283 u[8] + 224 u[9] + 922 u[10]
   + 401 u[11] + 418 u[12] + 474 u[13] + 539 u[14] + 99 u[15] + 11 u[16]
   + 174 u[17] + 447 u[18] + 756 u[19] <= 5218
 primal_lower333: 173 u[0] + 897 u[1] + 207 u[2] + 336 u[3] + 889 u[4]
   + 615 u[5] + 482 u[6] + 529 u[7] + 626 u[8] + 79 u[9] + 713 u[10]
   + 320 u[11] + 145 u[12] + 265 u[13] + 914 u[14] + 122 u[15] + 450 u[16]
   + 549 u[17] + 734 u[18] + 715 u[19] <= 1626
 primal_lower334: 524 u[0] + 149 u[1] + 487 u[2] + 660 u[3] + 209 u[4]
   + 554 u[5] + 930 u[6] + 620 u[7] + 906 u[8] + 907 u[9] + 928 u[10]
   + 228 u[11] + 161 u[12] + 549 u[13] + 961 u[14] + 893 u[15] + 386 u[16]
   + 513 u[17] + 910 u[18] + 775 u[19] <= 4083
 primal_lower335: 522 u[0] + 150 u[1] + 868 u[2] + 125 u[3] + 6 u[4]
   + 988 u[5] + 519 u[6] + 102 u[7] + 423 u[8] + 924 u[9] + 182 u[10]
   + 405 u[11] + 534 u[12] + 422 u[13] + 855 u[14] + 199 u[15] + 759 u[16]
   + 610 u[17] + 363 u[18] + 344 u[19] <= 3100
 primal_lower336: 911 u[0] + 347 u[1] + 145 u[2] + 106 u[3] + 571 u[4]
   + 33 u[5] + 252 u[6] + 827 u[7] + 12 u[8] + 529 u[9] + 571 u[10]
   + 682 u[11] + 955 u[12] + 251 u[13] + 196 u[14] + 612 u[15] + 228 u[16]
   + 255 u[17] + 88 u[18] + 805 u[19] <= 955
 primal_lower337: 787 u[0] + 351 u[1] + 53 u[2] + 366 u[3] + 487 u[4]
   + 413 u[5] + 240 u[6] + 415 u[7] + 496 u[8] + 565 u[9] + 55 u[10]
   + 934 u[11] + 439 u[12] + 375 u[13] + 440 u[14] + 160 u[15] + 576 u[16]
   + 987 u[17] + 548 u[18] + 961 u[19] <= 4824
 primal_lower338: 6 u[0] + 55 u[1] + 9 u[2] + 998 u[3] + 211 u[4]
   + 196 u[5] + 884 u[6] + 894 u[7] + 276 u[8] + 125 u[9] + 170 u[10]
   + 142 u[11] + 611 u[12] + 815 u[13] + 923 u[14] + 447 u[15] + 588 u[16]
   + 131 u[17] + 608 u[18] + 777 u[19] <= 4433
 primal_lower339: 358 u[0] + 623 u[1] + 569 u[2] + 822 u[3] + 763 u[4]
   + 284 u[5] + 388 u[6] + 462 u[7] + 900 u[8] + 493 u[9] + 570 u[10]
   + 70 u[11] + 643 u[12] + 751 u[13] + 971 u[14] + 143 u[15] + 524 u[16]
   + 803 u[17] + 616 u[18] + 89 u[19] <= 1807
 primal_lower340: 556 u[0] + 968 u[1] + 790 u[2] + 807 u[3] + 288 u[4]
   + 990 u[5] + 761 u[6] + 280 u[7] + 425 u[8] + 150 u[9] + 304 u[10]
   + 655 u[11] + 808 u[12] + 736 u[13] + 593 u[14] + 833 u[15] + 193 u[16]
   + 940 u[17] + 109 u[18] + 714 u[19] <= 1983
 primal_lower341: 390 u[0] + 858 u[1] + 696 u[2] + 937 u[3] + 946 u[4]
   + 984 u[5] + 91 u[6] + 698 u[7] + 971 u[8] + 40 u[9] + 858 u[10]
   + 849 u[11] + 578 u[12] + 490 u[13] + 491 u[14] + 179 u[15] + 211 u[16]
   + 798 u[17] + 559 u[18] + 356 u[19] <= 1996
 primal_lower342: 583 u[0] + 832 u[1] + 202 u[2] + 935 u[3] + 228 u[4]
   + 757 u[5] + 269 u[6] + 847 u[7] + 901 u[8] + 846 u[9] + 939 u[10]
   + 295 u[11] + 740 u[12] + 336 u[13] + 292 u[14] + 768 u[15] + 469 u[16]
   + 764 u[17] + 41 u[18] + 266 u[19] <= 5655
 primal_lower343: 575 u[0] + 624 u[1] + 954 u[2] + 823 u[3] + 508 u[4]
   + 221 u[5] + 229 u[6] + 15 u[7] + 205 u[8] + 14 u[9] + 579 u[10]
   + 751 u[11] + 876 u[12] + 480 u[13] + 804 u[14] + 832 u[15] + 837 u[16]
   + 100 u[17] + 137 u[18] + 786 u[19] <= 6900
 primal_lower344: 807 u[0] + 659 u[1] + 561 u[2] + 562 u[3] + 371 u[4]
   + 513 u[5] + 236 u[6] + 851 u[7] + 340 u[8] + 633 u[9] + 931 u[10]
   + 746 u[11] + 939 u[12] + 75 u[13] + 980 u[14] + 84 u[15] + 124 u[16]
   + 639 u[17] + 128 u[18] + 869 u[19] <= 1841
 primal_lower345: 191 u[0] + 344 u[1] + 122 u[2] + 111 u[3] + 780 u[4]
   + 173 u[5] + 853 u[6] + 559 u[7] + 469 u[8] + 638 u[9] + 763 u[10]
   + 7 u[11] + 108 u[12] + 704 u[13] + 356 u[14] + 736 u[15] + 709 u[16]
   + 164 u[17] + 729 u[18] + 690 u[19] <= 3068
 primal_lower346: 393 u[0] + 477 u[1] + 603 u[2] + 764 u[3] + 29 u[4]
   + 427 u[5] + 302 u[6] + 981 u[7] + 478 u[8] + 3 u[9] + 149 u[10]
   + 868 u[11] + 557 u[12] + 949 u[13] + 830 u[14] + 750 u[15] + 182 u[16]
   + 905 u[17] + 906 u[18] + 703 u[19] <= 981
 primal_lower347: 531 u[0] + 415 u[1] + 653 u[2] + 902 u[3] + 719 u[4]
   + 901 u[5] + 296 u[6] + 967 u[7] + 224 u[8] + 637 u[9] + 159 u[10]
   + 646 u[11] + 559 u[12] + 207 u[13] + 816 u[14] + 936 u[15] + 880 u[16]
   + 275 u[17] + 636 u[18] + 201 u[19] <= 5780
 primal_lower348: 214 u[0] + 671 u[1] + 833 u[2] + 350 u[3] + 171 u[4]
   + 484 u[5] + 876 u[6] + 790 u[7] + 236 u[8] + 381 u[9] + 314 u[10]
   + 526 u[11] + 27 u[12] + 815 u[13] + 171 u[14] + 207 u[15] + 828 u[16]
   + 251 u[17] + 120 u[18] + 409 u[19] <= 4337
 primal_lower349: 679 u[0] + 120 u[1] + 458 u[2] + 719 u[3] + 60 u[4]
   + 37 u[5] + 469 u[6] + 295 u[7] + 229 u[8] + 862 u[9] + 27 u[10]
   + 607 u[11] + 756 u[12] + 728 u[13] + 804 u[14] + 40 u[15] + 813 u[16]
   + 180 u[17] + 473 u[18] + 98 u[19] <= 1409
 primal_lower350: 208 u[0] + 220 u[1] + 626 u[2] + 187 u[3] + 892 u[4]
   + 146 u[5] + 837 u[6] + 140 u[7] + 589 u[8] + 762 u[9] + 612 u[10]
   + 795 u[11] + 468 u[12] + 612 u[13] + 709 u[14] + 21 u[15] + 749 u[16]
   + 312 u[17] + 161 u[18] + 334 u[19] <= 892
 primal_lower351: 182 u[0] + 522 u[1] + 312 u[2] + 89 u[3] + 882 u[4]
   + 24 u[5] + 67 u[6] + 634 u[7] + 235 u[8] + 472 u[9] + 826 u[10]
   + 17 u[11] + 482 u[12] + 570 u[13] + 531 u[14] + 883 u[15] + 683 u[16]
   + 958 u[17] + 959 u[18] + 164 u[19] <= 1582
 primal_lower352: 497 u[0] + 405 u[1] + 651 u[2] + 572 u[3] + 981 u[4]
   + 195 u[5] + 278 u[6] + 709 u[7] + 766 u[8] + 171 u[9] + 653 u[10]
   + 124 u[11] + 957 u[12] + 581 u[13] + 862 u[14] + 982 u[15] + 510 u[16]
   + 601 u[17] + 266 u[18] + 399 u[19] <= 5580
 primal_lower353: 870 u[0] + 818 u[1] + 768 u[2] + 273 u[3] + 402 u[4]
   + 664 u[5] + 603 u[6] + 834 u[7] + 483 u[8] + 320 u[9] + 42 u[10]
   + 361 u[11] + 882 u[12] + 298 u[13] + 563 u[14] + 451 u[15] + 803 u[16]
   + 774 u[17] + 463 u[18] + 572 u[19] <= 3748
 primal_lower354: 484 u[0] + 88 u[1] + 766 u[2] + 383 u[3] + 232 u[4]
   + 278 u[5] + 689 u[6] + 416 u[7] + 217 u[8] + 918 u[9] + 104 u[10]
   + 663 u[11] + 632 u[12] + 672 u[13] + 289 u[14] + 537 u[15] + 537 u[16]
   + 36 u[17] + 45 u[18] + 170 u[19] <= 918
 primal_lower355: 228 u[0] + 968 u[1] + 326 u[2] + 999 u[3] + 888 u[4]
   + 774 u[5] + 881 u[6] + 280 u[7] + 617 u[8] + 102 u[9] + 736 u[10]
   + 255 u[11] + 208 u[12] + 768 u[13] + 249 u[14] + 361 u[15] + 257 u[16]
   + 148 u[17] + 901 u[18] + 954 u[19] <= 5450
 primal_lower356: 295 u[0] + 240 u[1] + 34 u[2] + 575 u[3] + 300 u[4]
   + 245 u[5] + 325 u[6] + 655 u[7] + 453 u[8] + 534 u[9] + 211 u[10]
   + 471 u[11] + 292 u[12] + 976 u[13] + 76 u[14] + 408 u[15] + 157 u[16]
   + 228 u[17] + 713 u[18] + 650 u[19] <= 2612
 primal_lower357: 65 u[0] + 498 u[1] + 372 u[2] + 169 u[3] + 830 u[4]
   + 255 u[5] + 487 u[6] + 481 u[7] + 199 u[8] + 744 u[9] + 933 u[10]
   + 617 u[11] + 478 u[12] + 26 u[13] + 30 u[14] + 298 u[15] + 319 u[16]
   + 150 u[17] + 523 u[18] + 76 u[19] <= 3775
 primal_lower358: 308 u[0] + 216 u[1] + 542 u[2] + 647 u[3] + 688 u[4]
   + 646 u[5] + 265 u[6] + 232 u[7] + 673 u[8] + 942 u[9] + 240 u[10]
   + 79 u[11] + 168 u[12] + 64 u[13] + 753 u[14] + 737 u[15] + 177 u[16]
   + 620 u[17] + 309 u[18] + 58 u[19] <= 942
 primal_lower359: 628 u[0] + 877 u[1] + 967 u[2] + 604 u[3] + 905 u[4]
   + 834 u[5] + 370 u[6] + 980 u[7] + 538 u[8] + 171 u[9] + 624 u[10]
   + 508 u[11] + 169 u[12] + 229 u[13] + 433 u[14] + 53 u[15] + 850 u[16]
   + 793 u[17] + 758 u[18] + 959 u[19] <= 2041
 primal_lower360: 596 u[0] + 544 u[1] + 598 u[2] + 423 u[3] + 40 u[4]
   + 190 u[5] + 697 u[6] + 520 u[7] + 209 u[8] + 566 u[9] + 472 u[10]
   + 687 u[11] + 80 u[12] + 56 u[13] + 185 u[14] + 777 u[15] + 121 u[16]
   + 324 u[17] + 557 u[18] + 258 u[19] <= 777
 primal_lower361: 857 u[0] + 389 u[1] + 67 u[2] + 100 u[3] + 389 u[4]
   + 211 u[5] + 270 u[6] + 61 u[7] + 62 u[8] + 819 u[9] + 133 u[10]
   + 724 u[11] + 221 u[12] + 709 u[13] + 950 u[14] + 54 u[15] + 486 u[16]
   + 521 u[17] + 274 u[18] + 871 u[19] <= 1361
 primal_lower362: 606 u[0] + 498 u[1] + 728 u[2] + 289 u[3] + 50 u[4]
   + 816 u[5] + 259 u[6] + 122 u[7] + 491 u[8] + 432 u[9] + 698 u[10]
   + 465 u[11] + 506 u[12] + 418 u[13] + 811 u[14] + 923 u[15] + 691 u[16]
   + 598 u[17] + 743 u[18] + 12 u[19] <= 1692
 primal_lower363: 871 u[0] + 280 u[1] + 226 u[2] + 775 u[3] + 268 u[4]
   + 845 u[5] + 773 u[6] + 119 u[7] + 173 u[8] + 638 u[9] + 59 u[10]
   + 959 u[11] + 444 u[12] + 272 u[13] + 156 u[14] + 808 u[15] + 557 u[16]
   + 172 u[17] + 25 u[18] + 674 u[19] <= 959
 primal_lower364: 921 u[0] + 202 u[1] + 732 u[2] + 313 u[3] + 94 u[4]
   + 351 u[5] + 807 u[6] + 329 u[7] + 703 u[8] + 16 u[9] + 261 u[10]
   + 937 u[11] + 918 u[12] + 906 u[13] + 126 u[14] + 778 u[15] + 727 u[16]
   + 862 u[17] + 363 u[18] + 484 u[19] <= 5415
 primal_lower365: 211 u[0] + 439 u[1] + 397 u[2] + 94 u[3] + 463 u[4]
   + 37 u[5] + 592 u[6] + 303 u[7] + 168 u[8] + 725 u[9] + 95 u[10]
   + 478 u[11] + 279 u[12] + 975 u[13] + 544 u[14] + 640 u[15] + 184 u[16]
   + 971 u[17] + 484 u[18] + 657 u[19] <= 2912
 primal_lower366: 415 u[0] + 40 u[1] + 690 u[2] + 191 u[3] + 460 u[4]
   + 437 u[5] + 85 u[6] + 335 u[7] + 853 u[8] + 438 u[9] + 547 u[10]
   + 31 u[11] + 764 u[12] + 496 u[13] + 60 u[14] + 832 u[15] + 925 u[16]
   + 276 u[17] + 153 u[18] + 106 u[19] <= 1355
 primal_lower367: 991 u[0] + 456 u[1] + 922 u[2] + 311 u[3] + 196 u[4]
   + 29 u[5] + 205 u[6] + 295 u[7] + 709 u[8] + 430 u[9] + 675 u[10]
   + 831 u[11] + 460 u[12] + 528 u[13] + 556 u[14] + 376 u[15] + 525 u[16]
   + 204 u[17] + 697 u[18] + 586 u[19] <= 3327
 primal_lower368: 924 u[0] + 848 u[1] + 70 u[2] + 215 u[3] + 896 u[4]
   + 134 u[5] + 513 u[6] + 808 u[7] + 697 u[8] + 670 u[9] + 592 u[10]
   + 455 u[11] + 824 u[12] + 896 u[13] + 377 u[14] + 9 u[15] + 593 u[16]
   + 804 u[17] + 541 u[18] + 490 u[19] <= 3785
 primal_lower369: 304 u[0] + 569 u[1] + 91 u[2] + 232 u[3] + 69 u[4]
   + 934 u[5] + 110 u[6] + 168 u[7] + 862 u[8] + 983 u[9] + 492 u[10]
   + 680 u[11] + 749 u[12] + 865 u[13] + 45 u[14] + 265 u[15] + 462 u[16]
   + 965 u[17] + 930 u[18] + 979 u[19] <= 1792
 primal_lower370: 953 u[0] + 370 u[1] + 644 u[2] + 113 u[3] + 222 u[4]
   + 631 u[5] + 199 u[6] + 289 u[7] + 871 u[8] + 456 u[9] + 69 u[10]
   + 985 u[11] + 606 u[12] + 490 u[13] + 262 u[14] + 202 u[15] + 223 u[16]
   + 822 u[17] + 771 u[18] + 220 u[19] <= 1566
 primal_lower371: 458 u[0] + 475 u[1] + 149 u[2] + 570 u[3] + 671 u[4]
   + 168 u[5] + 184 u[6] + 442 u[7] + 616 u[8] + 153 u[9] + 974 u[10]
   + 2 u[11] + 791 u[12] + 163 u[13] + 663 u[14] + 347 u[15] + 728 u[16]
   + 791 u[17] + 420 u[18] + 413 u[19] <= 6118
 primal_lower372: 854 u[0] + 410 u[1] + 840 u[2] + 105 u[3] + 26 u[4]
   + 80 u[5] + 251 u[6] + 346 u[7] + 555 u[8] + 368 u[9] + 706 u[10]
   + 249 u[11] + 738 u[12] + 730 u[13] + 147 u[14] + 459 u[15] + 211 u[16]
   + 478 u[17] + 975 u[18] + 932 u[19] <= 6306
 primal_lower373: 449 u[0] + 522 u[1] + 940 u[2] + 833 u[3] + 478 u[4]
   + 663 u[5] + 71 u[6] + 233 u[7] + 343 u[8] + 592 u[9] + 165 u[10]
   + 105 u[11] + 494 u[12] + 10 u[13] + 302 u[14] + 442 u[15] + 7 u[16]
   + 230 u[17] + 627 u[18] + 732 u[19] <= 2746
 primal_lower374: 490 u[0] + 406 u[1] + 460 u[2] + 701 u[3] + 398 u[4]
   + 140 u[5] + 951 u[6] + 390 u[7] + 7 u[8] + 644 u[9] + 710 u[10]
   + 605 u[11] + 582 u[12] + 30 u[13] + 143 u[14] + 239 u[15] + 71 u[16]
   + 98 u[17] + 587 u[18] + 824 u[19] <= 1412
 primal_lower375: 744 u[0] + 497 u[1] + 907 u[2] + 232 u[3] + 13 u[4]
   + 94 u[5] + 742 u[6] + 992 u[7] + 342 u[8] + 223 u[9] + 116 u[10]
   + 736 u[11] + 445 u[12] + 609 u[13] + 597 u[14] + 569 u[15] + 822 u[16]
   + 669 u[17] + 378 u[18] + 699 u[19] <= 1737
 primal_lower376: 383 u[0] + 283 u[1] + 9 u[2] + 442 u[3] + 883 u[4]
   + 361 u[5] + 588 u[6] + 627 u[7] + 964 u[8] + 673 u[9] + 59 u[10]
   + 770 u[11] + 939 u[12] + 131 u[13] + 196 u[14] + 92 u[15] + 580 u[16]
   + 551 u[17] + 320 u[18] + 189 u[19] <= 1506
 primal_lower377: 117 u[0] + 65 u[1] + 183 u[2] + 128 u[3] + 97 u[4]
   + 127 u[5] + 362 u[6] + 473 u[7] + 746 u[8] + 327 u[9] + 433 u[10]
   + 504 u[11] + 865 u[12] + 561 u[13] + 202 u[14] + 770 u[15] + 826 u[16]
   + 413 u[17] + 654 u[18] + 443 u[19] <= 2765
 primal_lower378: 419 u[0] + 727 u[1] + 845 u[2] + 814 u[3] + 959 u[4]
   + 909 u[5] + 280 u[6] + 591 u[7] + 624 u[8] + 765 u[9] + 351 u[10]
   + 390 u[11] + 791 u[12] + 199 u[13] + 832 u[14] + 936 u[15] + 808 u[16]
   + 787 u[17] + 420 u[18] + 433 u[19] <= 2146
 primal_lower379: 562 u[0] + 147 u[1] + 125 u[2] + 522 u[3] + 735 u[4]
   + 488 u[5] + 560 u[6] + 658 u[7] + 312 u[8] + 985 u[9] + 894 u[10]
   + 2 u[11] + 439 u[12] + 3 u[13] + 519 u[14] + 435 u[15] + 424 u[16]
   + 823 u[17] + 476 u[18] + 669 u[19] <= 985
 primal_lower380: 749 u[0] + 230 u[1] + 584 u[2] + 845 u[3] + 538 u[4]
   + 803 u[5] + 11 u[6] + 845 u[7] + 707 u[8] + 804 u[9] + 409 u[10]
   + 421 u[11] + 74 u[12] + 46 u[13] + 98 u[14] + 446 u[15] + 515 u[16]
   + 546 u[17] + 279 u[18] + 424 u[19] <= 3124
 primal_lower381: 376 u[0] + 449 u[1] + 387 u[2] + 304 u[3] + 773 u[4]
   + 158 u[5] + 150 u[6] + 920 u[7] + 718 u[8] + 263 u[9] + 76 u[10]
   + 752 u[11] + 253 u[12] + 49 u[13] + 373 u[14] + 881 u[15] + 246 u[16]
   + 213 u[17] + 618 u[18] + 955 u[19] <= 2971
 primal_lower382: 680 u[0] + 956 u[1] + 922 u[2] + 467 u[3] + 140 u[4]
   + 794 u[5] + 637 u[6] + 188 u[7] + 77 u[8] + 810 u[9] + 292 u[10]
   + 715 u[11] + 868 u[12] + 348 u[13] + 957 u[14] + 429 u[15] + 237 u[16]
   + 384 u[17] + 689 u[18] + 206 u[19] <= 7197
 primal_lower383: 397 u[0] + 529 u[1] + 703 u[2] + 368 u[3] + 681 u[4]
   + 239 u[5] + 922 u[6] + 601 u[7] + 418 u[8] + 351 u[9] + 913 u[10]
   + 896 u[11] + 49 u[12] + 73 u[13] + 250 u[14] + 266 u[15] + 34 u[16]
   + 997 u[17] + 854 u[18] + 883 u[19] <= 6949
 primal_lower384: 567 u[0] + 136 u[1] + 874 u[2] + 183 u[3] + 340 u[4]
   + 837 u[5] + 621 u[6] + 23 u[7] + 269 u[8] + 94 u[9] + 771 u[10]
   + 135 u[11] + 628 u[12] + 424 u[13] + 388 u[14] + 264 u[15] + 749 u[16]
   + 364 u[17] + 873 u[18] + 642 u[19] <= 4591
 primal_lower385: 271 u[0] + 123 u[1] + 953 u[2] + 850 u[3] + 843 u[4]
   + 657 u[5] + 604 u[6] + 419 u[7] + 332 u[8] + 921 u[9] + 139 u[10]
   + 154 u[11] + 851 u[12] + 43 u[13] + 924 u[14] + 436 u[15] + 796 u[16]
   + 783 u[17] + 1000 u[18] + 789 u[19] <= 1981
 primal_lower386: 857 u[0] + 210 u[1] + 732 u[2] + 257 u[3] + 334 u[4]
   + 575 u[5] + 799 u[6] + 193 u[7] + 743 u[8] + 704 u[9] + 677 u[10]
   + 705 u[11] + 966 u[12] + 994 u[13] + 742 u[14] + 194 u[15] + 695 u[16]
   + 334 u[17] + 587 u[18] + 300 u[19] <= 5799
 primal_lower387: 671 u[0] + 264 u[1] + 490 u[2] + 47 u[3] + 548 u[4]
   + 477 u[5] + 325 u[6] + 311 u[7] + 21 u[8] + 358 u[9] + 83 u[10]
   + 367 u[11] + 612 u[12] + 8 u[13] + 172 u[14] + 568 u[15] + 749 u[16]
   + 284 u[17] + 745 u[18] + 850 u[19] <= 2650
 primal_lower388: 632 u[0] + 204 u[1] + 610 u[2] + 443 u[3] + 124 u[4]
   + 618 u[5] + 757 u[6] + 804 u[7] + 501 u[8] + 818 u[9] + 484 u[10]
   + 603 u[11] + 884 u[12] + 412 u[13] + 741 u[14] + 133 u[15] + 621 u[16]
   + 368 u[17] + 265 u[18] + 694 u[19] <= 5358
 primal_lower389: 643 u[0] + 583 u[1] + 85 u[2] + 358 u[3] + 15 u[4]
   + 285 u[5] + 816 u[6] + 543 u[7] + 512 u[8] + 293 u[9] + 79 u[10]
   + 430 u[11] + 39 u[12] + 247 u[13] + 32 u[14] + 664 u[15] + 336 u[16]
   + 267 u[17] + 468 u[18] + 305 u[19] <= 2333
 primal_lower390: 666 u[0] + 454 u[1] + 76 u[2] + 37 u[3] + 998 u[4]
   + 572 u[5] + 735 u[6] + 814 u[7] + 383 u[8] + 556 u[9] + 662 u[10]
   + 253 u[11] + 678 u[12] + 494 u[13] + 511 u[14] + 791 u[15] + 215 u[16]
   + 122 u[17] + 227 u[18] + 448 u[19] <= 1615
 primal_lower391: 755 u[0] + 111 u[1] + 29 u[2] + 982 u[3] + 591 u[4]
   + 165 u[5] + 336 u[6] + 551 u[7] + 416 u[8] + 437 u[9] + 943 u[10]
   + 670 u[11] + 23 u[12] + 807 u[13] + 520 u[14] + 224 u[15] + 96 u[16]
   + 195 u[17] + 60 u[18] + 617 u[19] <= 1421
 primal_lower392: 272 u[0] + 473 u[1] + 403 u[2] + 368 u[3] + 253 u[4]
   + 110 u[5] + 838 u[6] + 416 u[7] + 150 u[8] + 375 u[9] + 796 u[10]
   + 576 u[11] + 77 u[12] + 337 u[13] + 669 u[14] + 841 u[15] + 14 u[16]
   + 493 u[17] + 786 u[18] + 35 u[19] <= 1380
 primal_lower393: 251 u[0] + 828 u[1] + 302 u[2] + 3 u[3] + 904 u[4]
   + 113 u[5] + 137 u[6] + 115 u[7] + 169 u[8] + 930 u[9] + 999 u[10]
   + 515 u[11] + 96 u[12] + 820 u[13] + 176 u[14] + 460 u[15] + 457 u[16]
   + 752 u[17] + 733 u[18] + 118 u[19] <= 2959
 primal_lower394: 157 u[0] + 201 u[1] + 879 u[2] + 584 u[3] + 193 u[4]
   + 695 u[5] + 834 u[6] + 513 u[7] + 994 u[8] + 327 u[9] + 545 u[10]
   + 968 u[11] + 33 u[12] + 353 u[13] + 10 u[14] + 618 u[15] + 730 u[16]
   + 957 u[17] + 566 u[18] + 91 u[19] <= 5124
 primal_lower395: 573 u[0] + 961 u[1] + 7 u[2] + 136 u[3] + 569 u[4]
   + 239 u[5] + 882 u[6] + 777 u[7] + 234 u[8] + 103 u[9] + 529 u[10]
   + 104 u[11] + 601 u[12] + 153 u[13] + 194 u[14] + 162 u[15] + 562 u[16]
   + 765 u[17] + 862 u[18] + 99 u[19] <= 2837
 primal_lower396: 541 u[0] + 270 u[1] + 240 u[2] + 109 u[3] + 434 u[4]
   + 219 u[5] + 851 u[6] + 277 u[7] + 915 u[8] + 124 u[9] + 849 u[10]
   + 901 u[11] + 330 u[12] + 862 u[13] + 746 u[14] + 294 u[15] + 379 u[16]
   + 882 u[17] + 911 u[18] + 880 u[19] <= 3671
 primal_lower397: 748 u[0] + 928 u[1] + 990 u[2] + 999 u[3] + 240 u[4]
   + 926 u[5] + 529 u[6] + 736 u[7] + 521 u[8] + 22 u[9] + 336 u[10]
   + 839 u[11] + 104 u[12] + 520 u[13] + 193 u[14] + 529 u[15] + 265 u[16]
   + 516 u[17] + 149 u[18] + 778 u[19] <= 3622
 primal_lower398: 881 u[0] + 317 u[1] + 403 u[2] + 444 u[3] + 173 u[4]
   + 875 u[5] + 926 u[6] + 173 u[7] + 38 u[8] + 963 u[9] + 717 u[10]
   + 244 u[11] + 829 u[12] + 885 u[13] + 94 u[14] + 982 u[15] + 662 u[16]
   + 185 u[17] + 402 u[18] + 199 u[19] <= 1732
 primal_lower399: 862 u[0] + 82 u[1] + 768 u[2] + 665 u[3] + 770 u[4]
   + 648 u[5] + 723 u[6] + 834 u[7] + 819 u[8] + 984 u[9] + 178 u[10]
   + 177 u[11] + 530 u[12] + 522 u[13] + 171 u[14] + 979 u[15] + 691 u[16]
   + 198 u[17] + 471 u[18] + 532 u[19] <= 3868
 primal_lower400: 726 u[0] + 815 u[1] + 233 u[2] + 270 u[3] + 891 u[4]
   + 836 u[5] + 612 u[6] + 646 u[7] + 700 u[8] + 165 u[9] + 218 u[10]
   + 22 u[11] + 579 u[12] + 543 u[13] + 547 u[14] + 343 u[15] + 132 u[16]
   + 579 u[17] + 528 u[18] + 233 u[19] <= 891
 primal_lower401: 14 u[0] + 95 u[1] + 17 u[2] + 590 u[3] + 299 u[4]
   + 940 u[5] + 892 u[6] + 182 u[7] + 812 u[8] + 325 u[9] + 394 u[10]
   + 502 u[11] + 299 u[12] + 271 u[13] + 971 u[14] + 871 u[15] + 44 u[16]
   + 203 u[17] + 376 u[18] + 481 u[19] <= 971
 primal_lower402: 121 u[0] + 117 u[1] + 555 u[2] + 188 u[3] + 397 u[4]
   + 643 u[5] + 950 u[6] + 981 u[7] + 142 u[8] + 915 u[9] + 389 u[10]
   + 804 u[11] + 685 u[12] + 805 u[13] + 838 u[14] + 606 u[15] + 614 u[16]
   + 657 u[17] + 226 u[18] + 247 u[19] <= 5440
 primal_lower403: 563 u[0] + 644 u[1] + 582 u[2] + 155 u[3] + 576 u[4]
   + 497 u[5] + 761 u[6] + 507 u[7] + 145 u[8] + 90 u[9] + 759 u[10]
   + 267 u[11] + 704 u[12] + 652 u[13] + 968 u[14] + 332 u[15] + 745 u[16]
   + 280 u[17] + 573 u[18] + 750 u[19] <= 7033
 primal_lower404: 998 u[0] + 439 u[1] + 585 u[2] + 430 u[3] + 99 u[4]
   + 588 u[5] + 476 u[6] + 550 u[7] + 140 u[8] + 941 u[9] + 282 u[10]
   + 302 u[11] + 987 u[12] + 863 u[13] + 323 u[14] + 999 u[15] + 684 u[16]
   + 659 u[17] + 96 u[18] + 105 u[19] <= 5273
 primal_lower405: 927 u[0] + 264 u[1] + 546 u[2] + 583 u[3] + 372 u[4]
   + 573 u[5] + 469 u[6] + 599 u[7] + 93 u[8] + 214 u[9] + 283 u[10]
   + 623 u[11] + 116 u[12] + 472 u[13] + 612 u[14] + 528 u[15] + 629 u[16]
   + 260 u[17] + 409 u[18] + 890 u[19] <= 3154
 primal_lower406: 79 u[0] + 928 u[1] + 186 u[2] + 663 u[3] + 852 u[4]
   + 21 u[5] + 269 u[6] + 839 u[7] + 437 u[8] + 358 u[9] + 259 u[10]
   + 135 u[11] + 460 u[12] + 824 u[13] + 908 u[14] + 936 u[15] + 293 u[16]
   + 924 u[17] + 913 u[18] + 850 u[19] <= 3711
 primal_lower407: 582 u[0] + 279 u[1] + 241 u[2] + 310 u[3] + 755 u[4]
   + 788 u[5] + 196 u[6] + 854 u[7] + 132 u[8] + 117 u[9] + 298 u[10]
   + 942 u[11] + 307 u[12] + 847 u[13] + 419 u[14] + 991 u[15] + 188 u[16]
   + 59 u[17] + 152 u[18] + 257 u[19] <= 1452
 primal_lower408: 566 u[0] + 90 u[1] + 352 u[2] + 193 u[3] + 122 u[4]
   + 408 u[5] + 547 u[6] + 618 u[7] + 675 u[8] + 840 u[9] + 282 u[10]
   + 809 u[11] + 218 u[12] + 498 u[13] + 467 u[14] + 491 u[15] + 939 u[16]
   + 998 u[17] + 239 u[18] + 244 u[19] <= 4798
 primal_lower409: 41 u[0] + 709 u[1] + 475 u[2] + 76 u[3] + 29 u[4]
   + 467 u[5] + 70 u[6] + 853 u[7] + 390 u[8] + 539 u[9] + 749 u[10]
   + 964 u[11] + 133 u[12] + 61 u[13] + 838 u[14] + 982 u[15] + 574 u[16]
   + 817 u[17] + 386 u[18] + 879 u[19] <= 3344
 primal_lower410: 139 u[0] + 167 u[1] + 117 u[2] + 182 u[3] + 863 u[4]
   + 269 u[5] + 616 u[6] + 127 u[7] + 56 u[8] + 749 u[9] + 231 u[10]
   + 950 u[11] + 447 u[12] + 151 u[13] + 104 u[14] + 928 u[15] + 280 u[16]
   + 99 u[17] + 540 u[18] + 9 u[19] <= 1170
 primal_lower411: 667 u[0] + 988 u[1] + 454 u[2] + 123 u[3] + 440 u[4]
   + 721 u[5] + 609 u[6] + 3 u[7] + 177 u[8] + 754 u[9] + 983 u[10]
   + 67 u[11] + 776 u[12] + 644 u[13] + 888 u[14] + 468 u[15] + 953 u[16]
   + 352 u[17] + 677 u[18] + 966 u[19] <= 1951
 primal_lower412: 940 u[0] + 893 u[1] + 895 u[2] + 460 u[3] + 97 u[4]
   + 602 u[5] + 306 u[6] + 628 u[7] + 626 u[8] + 475 u[9] + 384 u[10]
   + 508 u[11] + 497 u[12] + 133 u[13] + u[14] + 317 u[15] + 938 u[16]
   + 889 u[17] + 734 u[18] + 727 u[19] <= 7366
 primal_lower413: 584 u[0] + 44 u[1] + 514 u[2] + 795 u[3] + 884 u[4]
   + 698 u[5] + 109 u[6] + 428 u[7] + 693 u[8] + 682 u[9] + 484 u[10]
   + 715 u[11] + 204 u[12] + 692 u[13] + 53 u[14] + 109 u[15] + 477 u[16]
   + 144 u[17] + 681 u[18] + 22 u[19] <= 1502
 primal_lower414: 494 u[0] + 298 u[1] + 888 u[2] + 841 u[3] + 674 u[4]
   + 840 u[5] + 267 u[6] + 834 u[7] + 251 u[8] + 456 u[9] + 530 u[10]
   + 617 u[11] + 290 u[12] + 706 u[13] + 67 u[14] + 315 u[15] + 611 u[16]
   + 630 u[17] + 911 u[18] + 740 u[19] <= 3753
 primal_lower415: 452 u[0] + 824 u[1] + 566 u[2] + 351 u[3] + 136 u[4]
   + 150 u[5] + 417 u[6] + 232 u[7] + 505 u[8] + 630 u[9] + 272 u[10]
   + 295 u[11] + 456 u[12] + 816 u[13] + 449 u[14] + 281 u[15] + 977 u[16]
   + 628 u[17] + 949 u[18] + 826 u[19] <= 1702
 primal_lower416: 574 u[0] + 511 u[1] + 105 u[2] + 166 u[3] + 691 u[4]
   + 884 u[5] + 620 u[6] + 30 u[7] + 164 u[8] + 509 u[9] + 186 u[10]
   + 774 u[11] + 547 u[12] + 711 u[13] + 715 u[14] + 959 u[15] + 580 u[16]
   + 43 u[17] + 784 u[18] + 673 u[19] <= 3408
 primal_lower417: 399 u[0] + 539 u[1] + 225 u[2] + 34 u[3] + 115 u[4]
   + 649 u[5] + 772 u[6] + 251 u[7] + 868 u[8] + 9 u[9] + 171 u[10]
   + 554 u[11] + 947 u[12] + 515 u[13] + 316 u[14] + 500 u[15] + 276 u[16]
   + 303 u[17] + 952 u[18] + 917 u[19] <= 1552
 primal_lower418: 137 u[0] + 786 u[1] + 260 u[2] + 673 u[3] + 566 u[4]
   + 415 u[5] + 103 u[6] + 609 u[7] + 287 u[8] + 976 u[9] + 325 u[10]
   + 465 u[11] + 486 u[12] + 186 u[13] + 830 u[14] + 642 u[15] + 439 u[16]
   + 414 u[17] + 563 u[18] + 404 u[19] <= 3188
 primal_lower419: 714 u[0] + 174 u[1] + 60 u[2] + 717 u[3] + 390 u[4]
   + 860 u[5] + 919 u[6] + 182 u[7] + 655 u[8] + 276 u[9] + 606 u[10]
   + 573 u[11] + 254 u[12] + 686 u[13] + 415 u[14] + 527 u[15] + 335 u[16]
   + 698 u[17] + 275 u[18] + 224 u[19] <= 919
 primal_lower420: 605 u[0] + 385 u[1] + 879 u[2] + 632 u[3] + 233 u[4]
   + 671 u[5] + 650 u[6] + 945 u[7] + 450 u[8] + 119 u[9] + 113 u[10]
   + 680 u[11] + 369 u[12] + 649 u[13] + 722 u[14] + 50 u[15] + 626 u[16]
   + 541 u[17] + 390 u[18] + 899 u[19] <= 1768
 primal_lower421: 153 u[0] + 981 u[1] + 267 u[2] + 4 u[3] + 261 u[4]
   + 195 u[5] + 214 u[6] + 653 u[7] + 438 u[8] + 107 u[9] + 837 u[10]
   + 676 u[11] + 229 u[12] + 709 u[13] + 126 u[14] + 78 u[15] + 574 u[16]
   + 929 u[17] + 858 u[18] + 319 u[19] <= 4304
 primal_lower422: 283 u[0] + 575 u[1] + 573 u[2] + 22 u[3] + 55 u[4]
   + 901 u[5] + 232 u[6] + 759 u[7] + 424 u[8] + 533 u[9] + 263 u[10]
   + 998 u[11] + 343 u[12] + 951 u[13] + 48 u[14] + 400 u[15] + 408 u[16]
   + 883 u[17] + 668 u[18] + 265 u[19] <= 1597
 primal_lower423: 708 u[0] + 504 u[1] + 894 u[2] + 959 u[3] + 824 u[4]
   + 22 u[5] + 953 u[6] + 168 u[7] + 377 u[8] + 222 u[9] + 584 u[10]
   + 135 u[11] + 776 u[12] + 192 u[13] + 705 u[14] + 169 u[15] + 233 u[16]
   + 868 u[17] + 365 u[18] + 146 u[19] <= 4902
 primal_lower424: 819 u[0] + 7 u[1] + 821 u[2] + 262 u[3] + 839 u[4]
   + 413 u[5] + 240 u[6] + 159 u[7] + 672 u[8] + 949 u[9] + 695 u[10]
   + 470 u[11] + 7 u[12] + 375 u[13] + 32 u[14] + 488 u[15] + 1000 u[16]
   + 619 u[17] + 964 u[18] + 817 u[19] <= 3549
 primal_lower425: 372 u[0] + 544 u[1] + 22 u[2] + 359 u[3] + 904 u[4]
   + 198 u[5] + 529 u[6] + 456 u[7] + 145 u[8] + 518 u[9] + 520 u[10]
   + 487 u[11] + 280 u[12] + 776 u[13] + 633 u[14] + 537 u[15] + 561 u[16]
   + 716 u[17] + 357 u[18] + 986 u[19] <= 1650
 primal_lower426: 13 u[0] + 121 u[1] + 607 u[2] + 184 u[3] + 657 u[4]
   + 671 u[5] + 522 u[6] + 681 u[7] + 130 u[8] + 759 u[9] + 401 u[10]
   + 392 u[11] + 425 u[12] + 521 u[13] + 26 u[14] + 610 u[15] + 218 u[16]
   + 477 u[17] + 822 u[18] + 691 u[19] <= 2976
 primal_lower427: 220 u[0] + 645 u[1] + 815 u[2] + 92 u[3] + 193 u[4]
   + 50 u[5] + 970 u[6] + 92 u[7] + 194 u[8] + 491 u[9] + 504 u[10]
   + 140 u[11] + 841 u[12] + 989 u[13] + 729 u[14] + 517 u[15] + 466 u[16]
   + 769 u[17] + 806 u[18] + 151 u[19] <= 3224
 primal_lower428: 159 u[0] + 464 u[1] + 610 u[2] + 703 u[3] + 972 u[4]
   + 421 u[5] + 949 u[6] + 127 u[7] + 389 u[8] + 998 u[9] + 595 u[10]
   + 199 u[11] + 196 u[12] + 656 u[13] + 900 u[14] + 824 u[15] + 341 u[16]
   + 500 u[17] + 193 u[18] + 938 u[19] <= 1855
 primal_lower429: 767 u[0] + 219 u[1] + 937 u[2] + 578 u[3] + 467 u[4]
   + 921 u[5] + 796 u[6] + 219 u[7] + 868 u[8] + 433 u[9] + 651 u[10]
   + 186 u[11] + 571 u[12] + 531 u[13] + 540 u[14] + 604 u[15] + 812 u[16]
   + 751 u[17] + 872 u[18] + 373 u[19] <= 2016
 primal_lower430: 979 u[0] + 692 u[1] + 998 u[2] + 747 u[3] + 920 u[4]
   + 81 u[5] + 881 u[6] + 995 u[7] + 929 u[8] + 906 u[9] + 575 u[10]
   + 723 u[11] + 376 u[12] + 916 u[13] + 856 u[14] + 900 u[15] + 833 u[16]
   + 536 u[17] + 365 u[18] + 558 u[19] <= 7383
 primal_lower431: 928 u[0] + 249 u[1] + 859 u[2] + 312 u[3] + 53 u[4]
   + 494 u[5] + 278 u[6] + 424 u[7] + 934 u[8] + 263 u[9] + 980 u[10]
   + 376 u[11] + 69 u[12] + 537 u[13] + 517 u[14] + 329 u[15] + 70 u[16]
   + 581 u[17] + 514 u[18] + 283 u[19] <= 980
 primal_lower432: 548 u[0] + 536 u[1] + 214 u[2] + 351 u[3] + 136 u[4]
   + 374 u[5] + 217 u[6] + 624 u[7] + 233 u[8] + 854 u[9] + 80 u[10]
   + 127 u[11] + 536 u[12] + 520 u[13] + 601 u[14] + 337 u[15] + 873 u[16]
   + 644 u[17] + 637 u[18] + 306 u[19] <= 4374
 primal_lower433: 632 u[0] + 980 u[1] + 866 u[2] + 931 u[3] + 668 u[4]
   + 866 u[5] + 661 u[6] + 116 u[7] + 405 u[8] + 562 u[9] + 956 u[10]
   + 139 u[11] + 540 u[12] + 172 u[13] + 877 u[14] + 549 u[15] + 677 u[16]
   + 336 u[17] + 145 u[18] + 990 u[19] <= 4022
 primal_lower434: 565 u[0] + 14 u[1] + 344 u[2] + 341 u[3] + 642 u[4]
   + 699 u[5] + 835 u[6] + 893 u[7] + 755 u[8] + 380 u[9] + 961 u[10]
   + 109 u[11] + 586 u[12] + 302 u[13] + 282 u[14] + 78 u[15] + 163 u[16]
   + 370 u[17] + 807 u[18] + 752 u[19] <= 4939
 primal_lower435: 618 u[0] + 339 u[1] + 661 u[2] + 706 u[3] + 807 u[4]
   + 472 u[5] + 488 u[6] + 954 u[7] + 192 u[8] + 417 u[9] + 118 u[10]
   + 82 u[11] + 415 u[12] + 227 u[13] + 695 u[14] + 811 u[15] + 160 u[16]
   + 895 u[17] + 508 u[18] + 533 u[19] <= 1683
 primal_lower436: 708 u[0] + 453 u[1] + 287 u[2] + 236 u[3] + 905 u[4]
   + 802 u[5] + 90 u[6] + 652 u[7] + 258 u[8] + 179 u[9] + 16 u[10]
   + 532 u[11] + 897 u[12] + 565 u[13] + 681 u[14] + 189 u[15] + 66 u[16]
   + 417 u[17] + 926 u[18] + 295 u[19] <= 4577
 primal_lower437: 128 u[0] + 793 u[1] + 347 u[2] + 536 u[3] + 493 u[4]
   + 342 u[5] + 758 u[6] + 208 u[7] + 862 u[8] + 855 u[9] + 652 u[10]
   + 416 u[11] + 581 u[12] + 529 u[13] + 213 u[14] + 297 u[15] + 166 u[16]
   + 997 u[17] + 690 u[18] + 475 u[19] <= 3446
 primal_lower438: 237 u[0] + 910 u[1] + 520 u[2] + 61 u[3] + 306 u[4]
   + 139 u[5] + 331 u[6] + 861 u[7] + 571 u[8] + 228 u[9] + 33 u[10]
   + 781 u[11] + 562 u[12] + 534 u[13] + 866 u[14] + 238 u[15] + 491 u[16]
   + 458 u[17] + 151 u[18] + 656 u[19] <= 1489
 primal_lower439: 633 u[0] + 658 u[1] + 500 u[2] + 889 u[3] + 542 u[4]
   + 927 u[5] + 199 u[6] + 721 u[7] + 727 u[8] + 232 u[9] + 309 u[10]
   + 33 u[11] + 54 u[12] + 626 u[13] + 582 u[14] + 226 u[15] + 511 u[16]
   + 350 u[17] + 507 u[18] + 284 u[19] <= 1585
 primal_lower440: 916 u[0] + 925 u[1] + 775 u[2] + 68 u[3] + 977 u[4]
   + 666 u[5] + 642 u[6] + 436 u[7] + 42 u[8] + 107 u[9] + 744 u[10]
   + 756 u[11] + 761 u[12] + 333 u[13] + 577 u[14] + 437 u[15] + 274 u[16]
   + 217 u[17] + 94 u[18] + 527 u[19] <= 3424
 primal_lower441: 833 u[0] + 677 u[1] + 99 u[2] + 212 u[3] + 613 u[4]
   + 427 u[5] + 174 u[6] + 269 u[7] + 526 u[8] + 27 u[9] + 77 u[10]
   + 308 u[11] + 181 u[12] + 629 u[13] + 726 u[14] + 638 u[15] + 390 u[16]
   + 665 u[17] + 754 u[18] + 543 u[19] <= 833
 primal_lower442: 990 u[0] + 511 u[1] + 585 u[2] + 822 u[3] + 467 u[4]
   + 572 u[5] + 404 u[6] + 550 u[7] + 476 u[8] + 797 u[9] + 226 u[10]
   + 310 u[11] + 635 u[12] + 87 u[13] + 123 u[14] + 527 u[15] + 764 u[16]
   + 83 u[17] + 104 u[18] + 65 u[19] <= 6065
 primal_lower443: 129 u[0] + 453 u[1] + 339 u[2] + 228 u[3] + 253 u[4]
   + 595 u[5] + 790 u[6] + 165 u[7] + 38 u[8] + 11 u[9] + 253 u[10]
   + 380 u[11] + 733 u[12] + 365 u[13] + 510 u[14] + 614 u[15] + 62 u[16]
   + 249 u[17] + 378 u[18] + 639 u[19] <= 3592
 primal_lower444: 239 u[0] + 227 u[1] + 833 u[2] + 850 u[3] + 91 u[4]
   + 705 u[5] + 60 u[6] + 35 u[7] + 892 u[8] + 217 u[9] + 443 u[10]
   + 218 u[11] + 571 u[12] + 467 u[13] + 108 u[14] + 84 u[15] + 212 u[16]
   + 535 u[17] + 368 u[18] + 357 u[19] <= 3756
 primal_lower445: 565 u[0] + 833 u[1] + 439 u[2] + 664 u[3] + 873 u[4]
   + 351 u[5] + 274 u[6] + 217 u[7] + 914 u[8] + 863 u[9] + 665 u[10]
   + 752 u[11] + 665 u[12] + 617 u[13] + 242 u[14] + 618 u[15] + 778 u[16]
   + 965 u[17] + 358 u[18] + 547 u[19] <= 2033
 primal_lower446: 612 u[0] + 749 u[1] + 95 u[2] + 940 u[3] + 617 u[4]
   + 770 u[5] + 794 u[6] + 516 u[7] + 834 u[8] + 99 u[9] + 208 u[10]
   + 948 u[11] + 537 u[12] + 741 u[13] + 305 u[14] + 525 u[15] + 970 u[16]
   + 777 u[17] + 374 u[18] + 759 u[19] <= 970
 primal_lower447: 58 u[0] + 499 u[1] + 181 u[2] + 106 u[3] + 247 u[4]
   + 392 u[5] + 352 u[6] + 162 u[7] + 440 u[8] + 25 u[9] + 798 u[10]
   + 290 u[11] + 911 u[12] + 475 u[13] + 311 u[14] + 747 u[15] + 880 u[16]
   + 455 u[17] + 844 u[18] + 501 u[19] <= 2891
 primal_lower448: 397 u[0] + 529 u[1] + 703 u[2] + 368 u[3] + 681 u[4]
   + 239 u[5] + 922 u[6] + 601 u[7] + 418 u[8] + 351 u[9] + 913 u[10]
   + 896 u[11] + 49 u[12] + 73 u[13] + 250 u[14] + 266 u[15] + 34 u[16]
   + 997 u[17] + 854 u[18] + 883 u[19] <= 3474
 primal_lower449: 967 u[0] + 323 u[1] + 233 u[2] + 186 u[3] + 795 u[4]
   + 433 u[5] + 36 u[6] + 107 u[7] + 612 u[8] + 753 u[9] + 75 u[10]
   + 386 u[11] + 651 u[12] + 67 u[13] + 236 u[14] + 964 u[15] + 948 u[16]
   + 175 u[17] + 888 u[18] + 853 u[19] <= 4844
 primal_lower450: 468 u[0] + 557 u[1] + 7 u[2] + 556 u[3] + 625 u[4]
   + 210 u[5] + 738 u[6] + 204 u[7] + 98 u[8] + 475 u[9] + 704 u[10]
   + 4 u[11] + 401 u[12] + 421 u[13] + 473 u[14] + 565 u[15] + 922 u[16]
   + 801 u[17] + 854 u[18] + 887 u[19] <= 6646
 primal_lower451: 33 u[0] + 997 u[1] + 571 u[2] + 468 u[3] + 141 u[4]
   + 819 u[5] + 782 u[6] + 477 u[7] + 710 u[8] + 315 u[9] + 29 u[10]
   + 804 u[11] + 213 u[12] + 453 u[13] + 534 u[14] + 510 u[15] + 606 u[16]
   + 897 u[17] + 186 u[18] + 407 u[19] <= 3317
 primal_lower452: 663 u[0] + 680 u[1] + 202 u[2] + 15 u[3] + 60 u[4]
   + 565 u[5] + 421 u[6] + 983 u[7] + 189 u[8] + 638 u[9] + 443 u[10]
   + 703 u[11] + 204 u[12] + 608 u[13] + 76 u[14] + 488 u[15] + 533 u[16]
   + 444 u[17] + 609 u[18] + 722 u[19] <= 4623
 primal_lower453: 511 u[0] + 544 u[1] + 314 u[2] + 431 u[3] + 492 u[4]
   + 597 u[5] + 653 u[6] + 911 u[7] + 813 u[8] + 614 u[9] + 355 u[10]
   + 639 u[11] + 540 u[12] + 176 u[13] + 684 u[14] + 616 u[15] + 349 u[16]
   + 500 u[17] + u[18] + 938 u[19] <= 1779
 primal_lower454: 450 u[0] + 259 u[1] + 941 u[2] + 570 u[3] + 719 u[4]
   + 624 u[5] + 8 u[6] + 914 u[7] + 248 u[8] + 17 u[9] + 86 u[10]
   + 770 u[11] + 279 u[12] + 43 u[13] + 783 u[14] + 363 u[15] + 488 u[16]
   + 111 u[17] + 748 u[18] + 197 u[19] <= 4309
 primal_lower455: 90 u[0] + 219 u[1] + 21 u[2] + 50 u[3] + 487 u[4]
   + 840 u[5] + 952 u[6] + 418 u[7] + 16 u[8] + 937 u[9] + 214 u[10]
   + 82 u[11] + 39 u[12] + 267 u[13] + 271 u[14] + 219 u[15] + 936 u[16]
   + 943 u[17] + 756 u[18] + 989 u[19] <= 2915
 primal_lower456: 21 u[0] + 326 u[1] + 992 u[2] + 701 u[3] + 26 u[4]
   + 267 u[5] + 35 u[6] + 773 u[7] + 987 u[8] + 460 u[9] + 777 u[10]
   + 253 u[11] + 802 u[12] + 446 u[13] + 162 u[14] + 374 u[15] + 779 u[16]
   + 906 u[17] + 759 u[18] + 928 u[19] <= 3591
 primal_lower457: 59 u[0] + 580 u[1] + 894 u[2] + 419 u[3] + 632 u[4]
   + 649 u[5] + 265 u[6] + 323 u[7] + 985 u[8] + 66 u[9] + 327 u[10]
   + 283 u[11] + 832 u[12] + 692 u[13] + 896 u[14] + 60 u[15] + 449 u[16]
   + 880 u[17] + 821 u[18] + 70 u[19] <= 6788
 primal_lower458: 666 u[0] + 630 u[1] + 356 u[2] + 93 u[3] + 318 u[4]
   + 76 u[5] + 871 u[6] + 750 u[7] + 55 u[8] + 348 u[9] + 326 u[10]
   + 397 u[11] + 638 u[12] + 278 u[13] + 367 u[14] + 671 u[15] + 935 u[16]
   + 882 u[17] + 755 u[18] + 392 u[19] <= 3268
 primal_lower459: 565 u[0] + 65 u[1] + 143 u[2] + 64 u[3] + 561 u[4]
   + 919 u[5] + 506 u[6] + 601 u[7] + 874 u[8] + 231 u[9] + 529 u[10]
   + 904 u[11] + 465 u[12] + 121 u[13] + 306 u[14] + 58 u[15] + 138 u[16]
   + 821 u[17] + 246 u[18] + 603 u[19] <= 2906
 primal_lower460: 249 u[0] + 778 u[1] + 884 u[2] + 745 u[3] + 782 u[4]
   + 135 u[5] + 55 u[6] + 81 u[7] + 759 u[8] + 904 u[9] + 493 u[10]
   + 897 u[11] + 590 u[12] + 874 u[13] + 854 u[14] + 594 u[15] + 47 u[16]
   + 398 u[17] + 747 u[18] + 836 u[19] <= 5851
 primal_lower461: 90 u[0] + 302 u[1] + 956 u[2] + 309 u[3] + 30 u[4]
   + 948 u[5] + 319 u[6] + 758 u[7] + 439 u[8] + 252 u[9] + 838 u[10]
   + 669 u[11] + 326 u[12] + 638 u[13] + 799 u[14] + 759 u[15] + 407 u[16]
   + 834 u[17] + 571 u[18] + 384 u[19] <= 1771
 primal_lower462: 428 u[0] + 840 u[1] + 726 u[2] + 207 u[3] + 528 u[4]
   + 526 u[5] + 889 u[6] + 784 u[7] + 593 u[8] + 54 u[9] + 104 u[10]
   + 495 u[11] + 680 u[12] + 608 u[13] + 689 u[14] + 281 u[15] + 33 u[16]
   + 716 u[17] + 29 u[18] + 378 u[19] <= 889
 primal_lower463: 471 u[0] + 392 u[1] + 898 u[2] + 839 u[3] + 908 u[4]
   + 533 u[5] + 317 u[6] + 807 u[7] + 237 u[8] + 406 u[9] + 715 u[10]
   + 127 u[11] + 140 u[12] + 168 u[13] + 732 u[14] + 648 u[15] + 973 u[16]
   + 716 u[17] + 809 u[18] + 426 u[19] <= 3754
 primal_lower464: 290 u[0] + 606 u[1] + 900 u[2] + 621 u[3] + 70 u[4]
   + 844 u[5] + 871 u[6] + 902 u[7] + 487 u[8] + 524 u[9] + 454 u[10]
   + 309 u[11] + 318 u[12] + 54 u[13] + 271 u[14] + 511 u[15] + 343 u[16]
   + 18 u[17] + 723 u[18] + 192 u[19] <= 3102
 primal_lower465: 790 u[0] + 18 u[1] + 704 u[2] + 321 u[3] + 946 u[4]
   + 944 u[5] + 787 u[6] + 474 u[7] + 475 u[8] + 56 u[9] + 314 u[10]
   + 873 u[11] + 2 u[12] + 722 u[13] + 451 u[14] + 731 u[15] + 643 u[16]
   + 118 u[17] + 367 u[18] + 532 u[19] <= 3422
 primal_lower466: 632 u[0] + 836 u[1] + 722 u[2] + 411 u[3] + 780 u[4]
   + 250 u[5] + 221 u[6] + 4 u[7] + 229 u[8] + 234 u[9] + 348 u[10]
   + 979 u[11] + 988 u[12] + 940 u[13] + 525 u[14] + 37 u[15] + 645 u[16]
   + 16 u[17] + 993 u[18] + 590 u[19] <= 5190
 primal_lower467: 668 u[0] + 373 u[1] + 903 u[2] + 580 u[3] + 633 u[4]
   + 194 u[5] + 682 u[6] + 756 u[7] + 946 u[8] + 803 u[9] + 488 u[10]
   + 156 u[11] + 705 u[12] + 613 u[13] + 489 u[14] + 413 u[15] + 930 u[16]
   + 121 u[17] + 998 u[18] + 383 u[19] <= 5917
 primal_lower468: 601 u[0] + 986 u[1] + 124 u[2] + 401 u[3] + 246 u[4]
   + 727 u[5] + 559 u[6] + 217 u[7] + 383 u[8] + 784 u[9] + 949 u[10]
   + 369 u[11] + 118 u[12] + 290 u[13] + 630 u[14] + 458 u[15] + 679 u[16]
   + 326 u[17] + 803 u[18] + 556 u[19] <= 3402
 primal_lower469: 161 u[0] + 298 u[1] + 660 u[2] + 505 u[3] + 894 u[4]
   + 327 u[5] + 663 u[6] + 841 u[7] + 167 u[8] + 864 u[9] + 573 u[10]
   + 713 u[11] + 942 u[12] + 122 u[13] + 302 u[14] + 986 u[15] + 671 u[16]
   + 46 u[17] + 571 u[18] + 28 u[19] <= 3444
 primal_lower470: 592 u[0] + 612 u[1] + 274 u[2] + 883 u[3] + 884 u[4]
   + 730 u[5] + 149 u[6] + 692 u[7] + 197 u[8] + 194 u[9] + 788 u[10]
   + 715 u[11] + 380 u[12] + 876 u[13] + 5 u[14] + 69 u[15] + 413 u[16]
   + 744 u[17] + 345 u[18] + 94 u[19] <= 4818
 primal_lower471: 721 u[0] + 370 u[1] + 36 u[2] + 505 u[3] + 142 u[4]
   + 167 u[5] + 223 u[6] + 17 u[7] + 879 u[8] + 432 u[9] + 757 u[10]
   + 657 u[11] + 246 u[12] + 570 u[13] + 750 u[14] + 490 u[15] + 503 u[16]
   + 342 u[17] + 123 u[18] + 308 u[19] <= 879
 primal_lower472: 555 u[0] + 927 u[1] + 53 u[2] + 734 u[3] + 239 u[4]
   + 813 u[5] + 856 u[6] + 199 u[7] + 296 u[8] + 525 u[9] + 215 u[10]
   + 894 u[11] + 823 u[12] + 143 u[13] + 288 u[14] + 472 u[15] + 112 u[16]
   + 715 u[17] + 644 u[18] + 17 u[19] <= 1586
 primal_lower473: 963 u[0] + 431 u[1] + 805 u[2] + 238 u[3] + 519 u[4]
   + 733 u[5] + 720 u[6] + 663 u[7] + 368 u[8] + 941 u[9] + 255 u[10]
   + 566 u[11] + 943 u[12] + 391 u[13] + 312 u[14] + 80 u[15] + 408 u[16]
   + 643 u[17] + 564 u[18] + 129 u[19] <= 1778
 primal_lower474: 363 u[0] + 516 u[1] + 918 u[2] + 91 u[3] + 856 u[4]
   + 105 u[5] + 153 u[6] + 299 u[7] + 769 u[8] + 802 u[9] + 807 u[10]
   + 771 u[11] + 672 u[12] + 828 u[13] + 160 u[14] + 460 u[15] + 529 u[16]
   + 48 u[17] + 949 u[18] + 78 u[19] <= 1695
 primal_lower475: 162 u[0] + 646 u[1] + 268 u[2] + 349 u[3] + 942 u[4]
   + 364 u[5] + 31 u[6] + 142 u[7] + 815 u[8] + 868 u[9] + 814 u[10]
   + 333 u[11] + 366 u[12] + 518 u[13] + 807 u[14] + 471 u[15] + 359 u[16]
   + 386 u[17] + 971 u[18] + 16 u[19] <= 1604
 primal_lower476: 863 u[0] + 939 u[1] + 737 u[2] + 466 u[3] + 699 u[4]
   + 153 u[5] + 732 u[6] + 115 u[7] + 268 u[8] + 961 u[9] + 987 u[10]
   + 898 u[11] + 107 u[12] + 691 u[13] + 84 u[14] + 900 u[15] + 316 u[16]
   + 591 u[17] + 328 u[18] + 397 u[19] <= 987
 primal_lower477: 263 u[0] + 427 u[1] + 657 u[2] + 834 u[3] + 899 u[4]
   + 209 u[5] + 956 u[6] + 611 u[7] + 628 u[8] + 145 u[9] + 139 u[10]
   + 122 u[11] + 299 u[12] + 771 u[13] + 788 u[14] + 404 u[15] + 236 u[16]
   + 255 u[17] + 88 u[18] + 805 u[19] <= 1589
 primal_lower478: 749 u[0] + 881 u[1] + 167 u[2] + 192 u[3] + 681 u[4]
   + 959 u[5] + 642 u[6] + 545 u[7] + 58 u[8] + 799 u[9] + 977 u[10]
   + 800 u[11] + 649 u[12] + 841 u[13] + 594 u[14] + 962 u[15] + 18 u[16]
   + 205 u[17] + 878 u[18] + 435 u[19] <= 4010
 primal_lower479: 80 u[0] + 297 u[1] + 107 u[2] + 368 u[3] + 557 u[4]
   + 806 u[5] + 670 u[6] + 528 u[7] + 878 u[8] + 391 u[9] + 428 u[10]
   + 368 u[11] + 349 u[12] + 577 u[13] + 173 u[14] + 953 u[15] + 990 u[16]
   + 453 u[17] + 762 u[18] + 403 u[19] <= 6758
 primal_lower480: 766 u[0] + 895 u[1] + 617 u[2] + 734 u[3] + 163 u[4]
   + 444 u[5] + 828 u[6] + 542 u[7] + 12 u[8] + 541 u[9] + 554 u[10]
   + 398 u[11] + 771 u[12] + 495 u[13] + 739 u[14] + 311 u[15] + 268 u[16]
   + 875 u[17] + 456 u[18] + 953 u[19] <= 1893
 primal_lower481: 180 u[0] + 661 u[1] + 831 u[2] + 20 u[3] + 241 u[4]
   + 970 u[5] + 858 u[6] + 724 u[7] + 778 u[8] + 107 u[9] + 808 u[10]
   + 4 u[11] + 617 u[12] + 381 u[13] + 217 u[14] + 61 u[15] + 266 u[16]
   + 769 u[17] + 558 u[18] + 415 u[19] <= 6310
 primal_lower482: 100 u[0] + 557 u[1] + 759 u[2] + 84 u[3] + 521 u[4]
   + 522 u[5] + 106 u[6] + 76 u[7] + 898 u[8] + 787 u[9] + 528 u[10]
   + 340 u[11] + 401 u[12] + 317 u[13] + 257 u[14] + 389 u[15] + 570 u[16]
   + 425 u[17] + 494 u[18] + 711 u[19] <= 4421
 primal_lower483: 307 u[0] + 471 u[1] + 581 u[2] + 830 u[3] + 407 u[4]
   + 869 u[5] + 192 u[6] + 47 u[7] + 96 u[8] + 213 u[9] + 791 u[10]
   + 726 u[11] + 735 u[12] + 767 u[13] + 880 u[14] + 768 u[15] + 896 u[16]
   + 723 u[17] + 228 u[18] + 49 u[19] <= 3525
 primal_lower484: 822 u[0] + 130 u[1] + 112 u[2] + 129 u[3] + 442 u[4]
   + 264 u[5] + 115 u[6] + 98 u[7] + 707 u[8] + 872 u[9] + 346 u[10]
   + 833 u[11] + 714 u[12] + 466 u[13] + 163 u[14] + 83 u[15] + 371 u[16]
   + 830 u[17] + 791 u[18] + 532 u[19] <= 2940
 primal_lower485: 163 u[0] + 671 u[1] + 477 u[2] + 478 u[3] + 503 u[4]
   + 661 u[5] + 264 u[6] + 159 u[7] + 616 u[8] + 477 u[9] + 567 u[10]
   + 238 u[11] + 119 u[12] + 895 u[13] + 968 u[14] + 904 u[15] + 160 u[16]
   + 563 u[17] + 964 u[18] + 657 u[19] <= 5252
 primal_lower486: 732 u[0] + 637 u[1] + 583 u[2] + 84 u[3] + 225 u[4]
   + 810 u[5] + 122 u[6] + 164 u[7] + 474 u[8] + 899 u[9] + 376 u[10]
   + 580 u[11] + 393 u[12] + 653 u[13] + 217 u[14] + 581 u[15] + 810 u[16]
   + 705 u[17] + 174 u[18] + 687 u[19] <= 3302
 primal_lower487: 92 u[0] + 328 u[1] + 6 u[2] + 111 u[3] + 952 u[4]
   + 46 u[5] + 33 u[6] + 664 u[7] + 409 u[8] + 926 u[9] + 816 u[10]
   + 183 u[11] + 72 u[12] + 104 u[13] + 9 u[14] + 921 u[15] + 929 u[16]
   + 380 u[17] + 141 u[18] + 474 u[19] <= 2532
 primal_lower488: 998 u[0] + 418 u[1] + 80 u[2] + 569 u[3] + 442 u[4]
   + 648 u[5] + 635 u[6] + 162 u[7] + 155 u[8] + 104 u[9] + 546 u[10]
   + 881 u[11] + 330 u[12] + 506 u[13] + 563 u[14] + 467 u[15] + 675 u[16]
   + 278 u[17] + 455 u[18] + 348 u[19] <= 3086
 primal_lower489: 869 u[0] + 686 u[1] + 528 u[2] + 77 u[3] + 746 u[4]
   + 891 u[5] + 603 u[6] + 853 u[7] + 275 u[8] + 284 u[9] + 329 u[10]
   + 845 u[11] + 410 u[12] + 382 u[13] + 978 u[14] + 478 u[15] + 387 u[16]
   + 50 u[17] + 671 u[18] + 968 u[19] <= 978
 primal_lower490: 830 u[0] + 386 u[1] + 296 u[2] + 369 u[3] + 730 u[4]
   + 80 u[5] + 491 u[6] + 706 u[7] + 683 u[8] + 424 u[9] + 482 u[10]
   + 489 u[11] + 162 u[12] + 210 u[13] + 323 u[14] + 19 u[15] + 907 u[16]
   + 710 u[17] + 167 u[18] + 428 u[19] <= 4446
 primal_lower491: 612 u[0] + 237 u[1] + 63 u[2] + 388 u[3] + 385 u[4]
   + 978 u[5] + 818 u[6] + 412 u[7] + 194 u[8] + 995 u[9] + 848 u[10]
   + 164 u[11] + 897 u[12] + 37 u[13] + 737 u[14] + 109 u[15] + 770 u[16]
   + 297 u[17] + 758 u[18] + 447 u[19] <= 1691
 primal_lower492: 276 u[0] + 293 u[1] + 799 u[2] + 380 u[3] + 217 u[4]
   + 354 u[5] + 226 u[6] + 652 u[7] + 938 u[8] + 547 u[9] + 312 u[10]
   + 452 u[11] + 769 u[12] + 957 u[13] + 833 u[14] + 725 u[15] + 506 u[16]
   + 729 u[17] + 846 u[18] + 967 u[19] <= 1963
 primal_lower493: 414 u[0] + 954 u[1] + 272 u[2] + 609 u[3] + 554 u[4]
   + 440 u[5] + 779 u[6] + 546 u[7] + 299 u[8] + 816 u[9] + 194 u[10]
   + 745 u[11] + 554 u[12] + 66 u[13] + 75 u[14] + 619 u[15] + 563 u[16]
   + 54 u[17] + 631 u[18] + 652 u[19] <= 3278
 primal_lower494: 736 u[0] + 753 u[1] + 947 u[2] + 544 u[3] + 957 u[4]
   + 262 u[5] + 534 u[6] + 488 u[7] + 814 u[8] + 967 u[9] + 532 u[10]
   + 864 u[11] + 637 u[12] + 569 u[13] + 813 u[14] + 49 u[15] + 294 u[16]
   + 461 u[17] + 618 u[18] + 307 u[19] <= 8097
 primal_lower495: 646 u[0] + 994 u[1] + 856 u[2] + 265 u[3] + 778 u[4]
   + 176 u[5] + 763 u[6] + 706 u[7] + 899 u[8] + 64 u[9] + 562 u[10]
   + 305 u[11] + 42 u[12] + 802 u[13] + 867 u[14] + 283 u[15] + 771 u[16]
   + 734 u[17] + 791 u[18] + 436 u[19] <= 3913
 primal_lower496: 176 u[0] + 201 u[1] + 755 u[2] + 176 u[3] + 365 u[4]
   + 222 u[5] + 278 u[6] + 920 u[7] + 606 u[8] + 615 u[9] + 236 u[10]
   + 392 u[11] + 429 u[12] + 281 u[13] + 325 u[14] + 9 u[15] + 78 u[16]
   + 469 u[17] + 450 u[18] + 75 u[19] <= 4705
 primal_lower497: 997 u[0] + 609 u[1] + 239 u[2] + 896 u[3] + 81 u[4]
   + 231 u[5] + 962 u[6] + 465 u[7] + 986 u[8] + 847 u[9] + 513 u[10]
   + 272 u[11] + 529 u[12] + 225 u[13] + 514 u[14] + 738 u[15] + 954 u[16]
   + 909 u[17] + 70 u[18] + 899 u[19] <= 3978
 primal_lower498: 612 u[0] + 581 u[1] + 775 u[2] + 964 u[3] + 529 u[4]
   + 274 u[5] + 986 u[6] + 84 u[7] + 26 u[8] + 419 u[9] + 264 u[10]
   + 492 u[11] + 33 u[12] + 221 u[13] + 841 u[14] + 501 u[15] + 666 u[16]
   + 841 u[17] + 614 u[18] + 359 u[19] <= 6721
 primal_lower499: 294 u[0] + 303 u[1] + 465 u[2] + 974 u[3] + 995 u[4]
   + 412 u[5] + 660 u[6] + 606 u[7] + 892 u[8] + 13 u[9] + 290 u[10]
   + 638 u[11] + 923 u[12] + 991 u[13] + 843 u[14] + 415 u[15] + 812 u[16]
   + 123 u[17] + 80 u[18] + 481 u[19] <= 3736
 primal_lower500: 773 u[0] + 102 u[1] + 416 u[2] + 197 u[3] + 690 u[4]
   + 699 u[5] + 795 u[6] + 813 u[7] + 747 u[8] + 324 u[9] + 217 u[10]
   + 853 u[11] + 514 u[12] + 382 u[13] + 818 u[14] + 302 u[15] + 923 u[16]
   + 770 u[17] + 231 u[18] + 16 u[19] <= 3527
 primal_lower501: 391 u[0] + 400 u[1] + 754 u[2] + 239 u[3] + 188 u[4]
   + 109 u[5] + 725 u[6] + 559 u[7] + 581 u[8] + 286 u[9] + 603 u[10]
   + 559 u[11] + 932 u[12] + 472 u[13] + 596 u[14] + 416 u[15] + 877 u[16]
   + 908 u[17] + 897 u[18] + 762 u[19] <= 7502
 primal_lower502: 308 u[0] + 365 u[1] + 391 u[2] + 436 u[3] + 481 u[4]
   + 810 u[5] + 98 u[6] + 972 u[7] + 858 u[8] + 43 u[9] + 864 u[10]
   + 724 u[11] + 9 u[12] + 317 u[13] + 505 u[14] + 149 u[15] + 810 u[16]
   + 737 u[17] + 6 u[18] + 343 u[19] <= 972
 primal_lower503: 263 u[0] + 504 u[1] + 666 u[2] + 687 u[3] + 572 u[4]
   + 917 u[5] + 669 u[6] + 335 u[7] + 357 u[8] + 414 u[9] + 651 u[10]
   + 631 u[11] + 932 u[12] + 968 u[13] + 972 u[14] + 816 u[15] + 13 u[16]
   + 692 u[17] + 521 u[18] + 298 u[19] <= 1979
 primal_lower504: 533 u[0] + 81 u[1] + 271 u[2] + 184 u[3] + 9 u[4]
   + 15 u[5] + 978 u[6] + 945 u[7] + 34 u[8] + 679 u[9] + 193 u[10]
   + 976 u[11] + 129 u[12] + 273 u[13] + 778 u[14] + 778 u[15] + 226 u[16]
   + 37 u[17] + 70 u[18] + 515 u[19] <= 978
 primal_lower505: 480 u[0] + 508 u[1] + 642 u[2] + 827 u[3] + 20 u[4]
   + 282 u[5] + 261 u[6] + 932 u[7] + 853 u[8] + 210 u[9] + 260 u[10]
   + 915 u[11] + 132 u[12] + 508 u[13] + 941 u[14] + 165 u[15] + 269 u[16]
   + 72 u[17] + 385 u[18] + 998 u[19] <= 3220
 primal_lower506: 458 u[0] + 214 u[1] + 372 u[2] + 253 u[3] + 70 u[4]
   + 980 u[5] + 383 u[6] + 110 u[7] + 399 u[8] + 44 u[9] + 374 u[10]
   + 453 u[11] + 750 u[12] + 158 u[13] + 895 u[14] + 303 u[15] + 495 u[16]
   + 330 u[17] + 571 u[18] + 896 u[19] <= 2836
 primal_lower507: 890 u[0] + 910 u[1] + 180 u[2] + 661 u[3] + 734 u[4]
   + 588 u[5] + 7 u[6] + 646 u[7] + 151 u[8] + 84 u[9] + 582 u[10]
   + 957 u[11] + 950 u[12] + 638 u[13] + 207 u[14] + 375 u[15] + 207 u[16]
   + 962 u[17] + 59 u[18] + 104 u[19] <= 6594
 primal_lower508: 571 u[0] + 788 u[1] + 950 u[2] + 219 u[3] + 408 u[4]
   + 585 u[5] + 201 u[6] + 827 u[7] + 249 u[8] + 586 u[9] + 343 u[10]
   + 747 u[11] + 816 u[12] + 524 u[13] + 280 u[14] + 316 u[15] + 937 u[16]
   + 472 u[17] + 981 u[18] + 982 u[19] <= 5891
 primal_lower509: 540 u[0] + 557 u[1] + 415 u[2] + 20 u[3] + 393 u[4]
   + 138 u[5] + 474 u[6] + 916 u[7] + 642 u[8] + 667 u[9] + 456 u[10]
   + 340 u[11] + 305 u[12] + 117 u[13] + 377 u[14] + 885 u[15] + 978 u[16]
   + 809 u[17] + 206 u[18] + 415 u[19] <= 1608
 primal_lower510: 270 u[0] + 842 u[1] + 864 u[2] + 865 u[3] + 394 u[4]
   + 720 u[5] + 963 u[6] + 698 u[7] + 131 u[8] + 976 u[9] + 994 u[10]
   + 993 u[11] + 346 u[12] + 682 u[13] + 587 u[14] + 51 u[15] + 555 u[16]
   + 942 u[17] + 511 u[18] + 708 u[19] <= 8728
 primal_lower511: 630 u[0] + 722 u[1] + 840 u[2] + 81 u[3] + 602 u[4]
   + 688 u[5] + 747 u[6] + 130 u[7] + 19 u[8] + 472 u[9] + 730 u[10]
   + 393 u[11] + 666 u[12] + 82 u[13] + 387 u[14] + 243 u[15] + 859 u[16]
   + 590 u[17] + 63 u[18] + 28 u[19] <= 4486
 primal_lower512: 324 u[0] + 645 u[1] + 975 u[2] + 676 u[3] + 913 u[4]
   + 170 u[5] + 650 u[6] + 916 u[7] + 394 u[8] + 539 u[9] + 504 u[10]
   + 612 u[11] + 777 u[12] + 989 u[13] + 737 u[14] + 69 u[15] + 586 u[16]
   + 105 u[17] + 246 u[18] + 455 u[19] <= 7521
 primal_lower513: 411 u[0] + 999 u[1] + 413 u[2] + 262 u[3] + 391 u[4]
   + 573 u[5] + 936 u[6] + 151 u[7] + 616 u[8] + 525 u[9] + 295 u[10]
   + 566 u[11] + 23 u[12] + 375 u[13] + 384 u[14] + 536 u[15] + 560 u[16]
   + 627 u[17] + 940 u[18] + 905 u[19] <= 3496
 primal_lower514: 853 u[0] + 57 u[1] + 527 u[2] + 992 u[3] + 265 u[4]
   + 687 u[5] + 682 u[6] + 609 u[7] + 90 u[8] + 591 u[9] + 257 u[10]
   + 144 u[11] + 217 u[12] + 505 u[13] + 242 u[14] + 74 u[15] + 922 u[16]
   + 149 u[17] + 222 u[18] + 59 u[19] <= 992
 primal_lower515: 446 u[0] + 458 u[1] + 936 u[2] + 97 u[3] + 594 u[4]
   + 200 u[5] + 11 u[6] + 482 u[7] + 435 u[8] + 376 u[9] + 890 u[10]
   + 241 u[11] + 922 u[12] + 570 u[13] + 923 u[14] + 579 u[15] + 539 u[16]
   + 734 u[17] + 127 u[18] + 756 u[19] <= 5158
 primal_lower516: 507 u[0] + 335 u[1] + 605 u[2] + 174 u[3] + 791 u[4]
   + 941 u[5] + 472 u[6] + 183 u[7] + 416 u[8] + 69 u[9] + 351 u[10]
   + 798 u[11] + 623 u[12] + 655 u[13] + 568 u[14] + 616 u[15] + 808 u[16]
   + 67 u[17] + 844 u[18] + 961 u[19] <= 1797
 primal_lower517: 723 u[0] + 175 u[1] + 205 u[2] + 390 u[3] + 151 u[4]
   + 453 u[5] + 368 u[6] + 975 u[7] + 208 u[8] + 365 u[9] + 999 u[10]
   + 582 u[11] + 943 u[12] + 727 u[13] + 448 u[14] + 432 u[15] + 960 u[16]
   + 91 u[17] + 540 u[18] + 129 u[19] <= 1644
 primal_lower518: 684 u[0] + 336 u[1] + 206 u[2] + 511 u[3] + 640 u[4]
   + 406 u[5] + 561 u[6] + 416 u[7] + 137 u[8] + 758 u[9] + 944 u[10]
   + 215 u[11] + 456 u[12] + 440 u[13] + 529 u[14] + 409 u[15] + 705 u[16]
   + 780 u[17] + 213 u[18] + 242 u[19] <= 3196
 primal_lower519: 206 u[0] + 639 u[1] + 393 u[2] + 622 u[3] + 339 u[4]
   + 612 u[5] + 596 u[6] + 870 u[7] + 164 u[8] + 85 u[9] + 706 u[10]
   + 142 u[11] + 923 u[12] + 503 u[13] + 683 u[14] + 855 u[15] + 44 u[16]
   + 403 u[17] + 672 u[18] + 217 u[19] <= 4837
 primal_lower520: 161 u[0] + 474 u[1] + 132 u[2] + 561 u[3] + 406 u[4]
   + 831 u[5] + 799 u[6] + 969 u[7] + 839 u[8] + 656 u[9] + 45 u[10]
   + 857 u[11] + 902 u[12] + 906 u[13] + 966 u[14] + 866 u[15] + 391 u[16]
   + 806 u[17] + 291 u[18] + 164 u[19] <= 8014
 primal_lower521: 224 u[0] + 548 u[1] + 146 u[2] + 363 u[3] + 700 u[4]
   + 594 u[5] + 725 u[6] + 860 u[7] + 597 u[8] + 978 u[9] + 28 u[10]
   + 795 u[11] + 820 u[12] + 980 u[13] + 613 u[14] + 941 u[15] + 429 u[16]
   + 896 u[17] + 681 u[18] + 670 u[19] <= 8392
 primal_lower522: 498 u[0] + 299 u[1] + 461 u[2] + 178 u[3] + 55 u[4]
   + 328 u[5] + 992 u[6] + 634 u[7] + 528 u[8] + u[9] + 726 u[10]
   + 122 u[11] + 231 u[12] + 323 u[13] + 679 u[14] + 171 u[15] + 424 u[16]
   + 423 u[17] + 44 u[18] + 693 u[19] <= 2603
 primal_lower523: 399 u[0] + 67 u[1] + 977 u[2] + 530 u[3] + 27 u[4]
   + 937 u[5] + 804 u[6] + 419 u[7] + 836 u[8] + 321 u[9] + 59 u[10]
   + 194 u[11] + 435 u[12] + 435 u[13] + 220 u[14] + 36 u[15] + 564 u[16]
   + 831 u[17] + 848 u[18] + 285 u[19] <= 4612
 primal_lower524: 976 u[0] + 881 u[1] + 11 u[2] + 272 u[3] + 381 u[4]
   + 126 u[5] + 894 u[6] + 824 u[7] + 582 u[8] + 87 u[9] + 900 u[10]
   + 624 u[11] + 69 u[12] + 337 u[13] + 493 u[14] + 817 u[15] + 926 u[16]
   + 85 u[17] + 202 u[18] + 587 u[19] <= 5037
 primal_lower525: 943 u[0] + 32 u[1] + 794 u[2] + 727 u[3] + 836 u[4]
   + 653 u[5] + 821 u[6] + 519 u[7] + 637 u[8] + 654 u[9] + 755 u[10]
   + 999 u[11] + 572 u[12] + 560 u[13] + 300 u[14] + 544 u[15] + 525 u[16]
   + 492 u[17] + 657 u[18] + 122 u[19] <= 6071
 primal_lower526: 194 u[0] + 302 u[1] + 36 u[2] + 245 u[3] + 294 u[4]
   + 364 u[5] + 31 u[6] + 886 u[7] + 991 u[8] + 252 u[9] + 454 u[10]
   + 61 u[11] + 934 u[12] + 326 u[13] + 399 u[14] + 799 u[15] + 783 u[16]
   + 18 u[17] + 387 u[18] + 872 u[19] <= 4314
 primal_lower527: 285 u[0] + 545 u[1] + 119 u[2] + 832 u[3] + 153 u[4]
   + 39 u[5] + 74 u[6] + 329 u[7] + 266 u[8] + 583 u[9] + 465 u[10]
   + 424 u[11] + 113 u[12] + 769 u[13] + 834 u[14] + 682 u[15] + 162 u[16]
   + 989 u[17] + 62 u[18] + 427 u[19] <= 4076
 primal_lower528: 527 u[0] + 123 u[1] + 9 u[2] + 386 u[3] + 475 u[4]
   + 945 u[5] + 940 u[6] + 707 u[7] + 404 u[8] + 777 u[9] + 339 u[10]
   + 218 u[11] + 355 u[12] + 315 u[13] + 364 u[14] + 588 u[15] + 868 u[16]
   + 759 u[17] + 664 u[18] + 637 u[19] <= 1733
 primal_lower529: 556 u[0] + 952 u[1] + 262 u[2] + 863 u[3] + 800 u[4]
   + 302 u[5] + 897 u[6] + 216 u[7] + 905 u[8] + 942 u[9] + 968 u[10]
   + 799 u[11] + 768 u[12] + 520 u[13] + 449 u[14] + 713 u[15] + 913 u[16]
   + 892 u[17] + 637 u[18] + 658 u[19] <= 7006
 primal_lower530: 590 u[0] + 567 u[1] + 753 u[2] + 894 u[3] + 667 u[4]
   + 492 u[5] + 76 u[6] + 286 u[7] + 604 u[8] + 941 u[9] + 298 u[10]
   + 390 u[11] + 163 u[12] + 143 u[13] + 83 u[14] + 295 u[15] + 412 u[16]
   + 379 u[17] + 904 u[18] + 889 u[19] <= 1637
 primal_lower531: 411 u[0] + 415 u[1] + 157 u[2] + 774 u[3] + 847 u[4]
   + 325 u[5] + 32 u[6] + 839 u[7] + 520 u[8] + 589 u[9] + 823 u[10]
   + 838 u[11] + 175 u[12] + 615 u[13] + 56 u[14] + 928 u[15] + 504 u[16]
   + 659 u[17] + 60 u[18] + 609 u[19] <= 5088
 primal_lower532: 711 u[0] + 88 u[1] + 802 u[2] + 655 u[3] + 932 u[4]
   + 445 u[5] + 941 u[6] + 695 u[7] + 933 u[8] + 206 u[9] + 27 u[10]
   + 487 u[11] + 52 u[12] + 360 u[13] + 188 u[14] + 392 u[15] + 445 u[16]
   + 916 u[17] + 369 u[18] + 130 u[19] <= 1629
 primal_lower533: 163 u[0] + 591 u[1] + 877 u[2] + 486 u[3] + 935 u[4]
   + 525 u[5] + 608 u[6] + 583 u[7] + 696 u[8] + 741 u[9] + 647 u[10]
   + 126 u[11] + 519 u[12] + 887 u[13] + 456 u[14] + 832 u[15] + 248 u[16]
   + 659 u[17] + 188 u[18] + 161 u[19] <= 3642
 primal_lower534: 239 u[0] + 936 u[1] + 762 u[2] + 863 u[3] + 228 u[4]
   + 237 u[5] + 237 u[6] + 767 u[7] + 349 u[8] + 94 u[9] + 819 u[10]
   + 295 u[11] + 308 u[12] + 192 u[13] + 76 u[14] + 400 u[15] + 13 u[16]
   + 812 u[17] + 529 u[18] + 746 u[19] <= 4451
 primal_lower535: 117 u[0] + 217 u[1] + 895 u[2] + 512 u[3] + 241 u[4]
   + 423 u[5] + 530 u[6] + 145 u[7] + 386 u[8] + 751 u[9] + 849 u[10]
   + 832 u[11] + u[12] + 745 u[13] + 306 u[14] + 162 u[15] + 722 u[16]
   + 957 u[17] + 318 u[18] + 355 u[19] <= 4732
 primal_lower536: 874 u[0] + 219 u[1] + 557 u[2] + 178 u[3] + 751 u[4]
   + 216 u[5] + 560 u[6] + 450 u[7] + 528 u[8] + 913 u[9] + 430 u[10]
   + 282 u[11] + 127 u[12] + 747 u[13] + 703 u[14] + 963 u[15] + 280 u[16]
   + 359 u[17] + 436 u[18] + 365 u[19] <= 4969
 primal_lower537: 172 u[0] + 165 u[1] + 183 u[2] + 516 u[3] + 9 u[4]
   + 906 u[5] + 522 u[6] + 364 u[7] + 186 u[8] + 91 u[9] + 1000 u[10]
   + 220 u[11] + 977 u[12] + 373 u[13] + 49 u[14] + 613 u[15] + 506 u[16]
   + 617 u[17] + 782 u[18] + 759 u[19] <= 3003
 primal_lower538: 246 u[0] + 327 u[1] + 409 u[2] + 246 u[3] + 523 u[4]
   + 676 u[5] + 876 u[6] + 534 u[7] + 412 u[8] + 765 u[9] + 954 u[10]
   + 62 u[11] + 787 u[12] + 815 u[13] + 763 u[14] + 535 u[15] + 252 u[16]
   + 75 u[17] + 536 u[18] + 457 u[19] <= 5125
 primal_lower539: 859 u[0] + 15 u[1] + 901 u[2] + 334 u[3] + 343 u[4]
   + 53 u[5] + 944 u[6] + 151 u[7] + 72 u[8] + 637 u[9] + 919 u[10]
   + 630 u[11] + 663 u[12] + 151 u[13] + 632 u[14] + 944 u[15] + 152 u[16]
   + 275 u[17] + 4 u[18] + 121 u[19] <= 2933
 primal_lower540: 588 u[0] + 64 u[1] + 478 u[2] + 671 u[3] + 296 u[4]
   + 622 u[5] + 225 u[6] + 32 u[7] + 137 u[8] + 758 u[9] + 192 u[10]
   + 759 u[11] + 480 u[12] + 264 u[13] + 161 u[14] + 257 u[15] + 641 u[16]
   + 604 u[17] + 61 u[18] + 466 u[19] <= 5170
 primal_lower541: 46 u[0] + 503 u[1] + 281 u[2] + 494 u[3] + 827 u[4]
   + 172 u[5] + 828 u[6] + 782 u[7] + 52 u[8] + 85 u[9] + 450 u[10]
   + 950 u[11] + 699 u[12] + 239 u[13] + 331 u[14] + 319 u[15] + 700 u[16]
   + 587 u[17] + 1000 u[18] + 601 u[19] <= 3315
 primal_lower542: 295 u[0] + 544 u[1] + 850 u[2] + 559 u[3] + 756 u[4]
   + 973 u[5] + 261 u[6] + 943 u[7] + 325 u[8] + 590 u[9] + 571 u[10]
   + 647 u[11] + 436 u[12] + 656 u[13] + 116 u[14] + 360 u[15] + 693 u[16]
   + 916 u[17] + 681 u[18] + 506 u[19] <= 1946
 primal_lower543: u[0] + 645 u[1] + 811 u[2] + 556 u[3] + 245 u[4]
   + 547 u[5] + 718 u[6] + 21 u[7] + 406 u[8] + 179 u[9] + 749 u[10]
   + 444 u[11] + 981 u[12] + 325 u[13] + 790 u[14] + 134 u[15] + 526 u[16]
   + 761 u[17] + 738 u[18] + 23 u[19] <= 1600
 primal_lower544: 829 u[0] + 366 u[1] + 792 u[2] + 509 u[3] + 74 u[4]
   + 139 u[5] + 459 u[6] + 317 u[7] + 891 u[8] + 588 u[9] + 745 u[10]
   + 69 u[11] + 506 u[12] + 662 u[13] + 562 u[14] + 678 u[15] + 899 u[16]
   + 330 u[17] + 527 u[18] + 672 u[19] <= 3538
 primal_lower545: 451 u[0] + 972 u[1] + 574 u[2] + 659 u[3] + 568 u[4]
   + 705 u[5] + 577 u[6] + 83 u[7] + 521 u[8] + 474 u[9] + 671 u[10]
   + 139 u[11] + 304 u[12] + 980 u[13] + 152 u[14] + 772 u[15] + 81 u[16]
   + 376 u[17] + 261 u[18] + 662 u[19] <= 3327
 primal_lower546: 197 u[0] + 969 u[1] + 687 u[2] + 200 u[3] + 753 u[4]
   + 895 u[5] + 578 u[6] + 753 u[7] + 970 u[8] + 551 u[9] + 713 u[10]
   + 1000 u[11] + 497 u[12] + 673 u[13] + 602 u[14] + 370 u[15] + 658 u[16]
   + 341 u[17] + 206 u[18] + 635 u[19] <= 2041
 primal_lower547: 660 u[0] + 173 u[1] + 223 u[2] + 524 u[3] + 977 u[4]
   + 146 u[5] + 370 u[6] + 292 u[7] + 906 u[8] + 875 u[9] + 128 u[10]
   + 780 u[11] + 425 u[12] + 709 u[13] + 561 u[14] + 357 u[15] + 970 u[16]
   + 681 u[17] + 414 u[18] + 415 u[19] <= 7057
 primal_lower548: 775 u[0] + 579 u[1] + 481 u[2] + 290 u[3] + 499 u[4]
   + 81 u[5] + 412 u[6] + 859 u[7] + 604 u[8] + 89 u[9] + 763 u[10]
   + 578 u[11] + 443 u[12] + 883 u[13] + 772 u[14] + 100 u[15] + 84 u[16]
   + 751 u[17] + 888 u[18] + 797 u[19] <= 3576
 primal_lower549: 29 u[0] + 198 u[1] + 680 u[2] + 125 u[3] + 834 u[4]
   + 323 u[5] + 235 u[6] + 629 u[7] + 715 u[8] + 980 u[9] + 57 u[10]
   + 157 u[11] + 178 u[12] + 190 u[13] + 938 u[14] + 966 u[15] + 123 u[16]
   + 42 u[17] + 767 u[18] + 40 u[19] <= 980
 primal_lower550: 628 u[0] + 477 u[1] + 751 u[2] + 228 u[3] + 937 u[4]
   + 578 u[5] + 138 u[6] + 164 u[7] + 770 u[8] + 123 u[9] + 432 u[10]
   + 92 u[11] + 865 u[12] + 205 u[13] + 713 u[14] + 589 u[15] + 186 u[16]
   + u[17] + 110 u[18] + 119 u[19] <= 2702
 primal_lower551: 997 u[0] + 726 u[1] + 952 u[2] + 341 u[3] + 250 u[4]
   + 507 u[5] + 99 u[6] + 381 u[7] + 675 u[8] + 484 u[9] + 889 u[10]
   + 933 u[11] + 962 u[12] + 118 u[13] + 762 u[14] + 590 u[15] + 283 u[16]
   + 394 u[17] + 391 u[18] + 640 u[19] <= 1895
 primal_lower552: 278 u[0] + 842 u[1] + 896 u[2] + 409 u[3] + 338 u[4]
   + 192 u[5] + 771 u[6] + 906 u[7] + 867 u[8] + 952 u[9] + 970 u[10]
   + 313 u[11] + 906 u[12] + 514 u[13] + 355 u[14] + 523 u[15] + 523 u[16]
   + 6 u[17] + 767 u[18] + 540 u[19] <= 1978
 primal_lower553: 864 u[0] + 748 u[1] + 578 u[2] + 139 u[3] + 60 u[4]
   + 762 u[5] + 405 u[6] + 4 u[7] + 437 u[8] + 218 u[9] + 212 u[10]
   + 507 u[11] + 100 u[12] + 780 u[13] + 133 u[14] + 629 u[15] + 37 u[16]
   + 960 u[17] + 905 u[18] + 846 u[19] <= 4662
 primal_lower554: 44 u[0] + 448 u[1] + 158 u[2] + 967 u[3] + 992 u[4]
   + 454 u[5] + 545 u[6] + 928 u[7] + 633 u[8] + 670 u[9] + 120 u[10]
   + 847 u[11] + 904 u[12] + 464 u[13] + 609 u[14] + 553 u[15] + 497 u[16]
   + 628 u[17] + 469 u[18] + 434 u[19] <= 992
 primal_lower555: 792 u[0] + 844 u[1] + 106 u[2] + 419 u[3] + 156 u[4]
   + 466 u[5] + 189 u[6] + 932 u[7] + 141 u[8] + 778 u[9] + 908 u[10]
   + 139 u[11] + 28 u[12] + 308 u[13] + 885 u[14] + 501 u[15] + 173 u[16]
   + 96 u[17] + 609 u[18] + 486 u[19] <= 1492
 primal_lower556: 367 u[0] + 408 u[1] + 346 u[2] + 39 u[3] + 324 u[4]
   + 805 u[5] + 277 u[6] + 743 u[7] + 13 u[8] + 614 u[9] + 435 u[10]
   + 783 u[11] + 572 u[12] + 504 u[13] + 84 u[14] + 536 u[15] + 69 u[16]
   + 772 u[17] + 273 u[18] + 802 u[19] <= 2922
 primal_lower557: 238 u[0] + 562 u[1] + 944 u[2] + 889 u[3] + 810 u[4]
   + 904 u[5] + 827 u[6] + 450 u[7] + 91 u[8] + 480 u[9] + 634 u[10]
   + 769 u[11] + 322 u[12] + 610 u[13] + 411 u[14] + 675 u[15] + 523 u[16]
   + 486 u[17] + 327 u[18] + 308 u[19] <= 7506
 primal_lower558: 990 u[0] + 927 u[1] + 329 u[2] + 334 u[3] + 923 u[4]
   + 132 u[5] + 500 u[6] + 430 u[7] + 572 u[8] + 861 u[9] + 754 u[10]
   + 582 u[11] + 979 u[12] + 327 u[13] + 795 u[14] + 919 u[15] + 516 u[16]
   + 115 u[17] + 224 u[18] + 769 u[19] <= 990
 primal_lower559: 612 u[0] + 488 u[1] + 238 u[2] + 167 u[3] + 560 u[4]
   + 878 u[5] + 217 u[6] + 488 u[7] + 777 u[8] + 750 u[9] + 416 u[10]
   + 127 u[11] + 360 u[12] + 808 u[13] + 513 u[14] + 161 u[15] + 609 u[16]
   + 164 u[17] + 709 u[18] + 810 u[19] <= 4926
 primal_lower560: 522 u[0] + 635 u[1] + 389 u[2] + 954 u[3] + 63 u[4]
   + 736 u[5] + 416 u[6] + 122 u[7] + 928 u[8] + 97 u[9] + 310 u[10]
   + 226 u[11] + 727 u[12] + 475 u[13] + 295 u[14] + 635 u[15] + 936 u[16]
   + 103 u[17] + 332 u[18] + 373 u[19] <= 4637
 primal_lower561: 505 u[0] + 42 u[1] + 580 u[2] + 193 u[3] + 750 u[4]
   + 743 u[5] + 527 u[6] + 441 u[7] + 887 u[8] + 192 u[9] + 85 u[10]
   + 385 u[11] + 238 u[12] + 82 u[13] + 222 u[14] + 770 u[15] + 231 u[16]
   + 454 u[17] + 419 u[18] + 828 u[19] <= 1429
 primal_lower562: 498 u[0] + 206 u[1] + 924 u[2] + 381 u[3] + 86 u[4]
   + 932 u[5] + 223 u[6] + 38 u[7] + 471 u[8] + 524 u[9] + 878 u[10]
   + 757 u[11] + 558 u[12] + 910 u[13] + 351 u[14] + 831 u[15] + 367 u[16]
   + 746 u[17] + 139 u[18] + 144 u[19] <= 6642
 primal_lower563: 813 u[0] + 78 u[1] + 440 u[2] + 381 u[3] + 218 u[4]
   + 155 u[5] + 771 u[6] + 677 u[7] + 491 u[8] + 788 u[9] + 577 u[10]
   + 301 u[11] + 282 u[12] + 918 u[13] + 130 u[14] + 710 u[15] + 515 u[16]
   + 946 u[17] + 711 u[18] + 208 u[19] <= 5055
 primal_lower564: 270 u[0] + 879 u[1] + 705 u[2] + 670 u[3] + 731 u[4]
   + 156 u[5] + 668 u[6] + 150 u[7] + 252 u[8] + 21 u[9] + 66 u[10]
   + 462 u[11] + 43 u[12] + 255 u[13] + 491 u[14] + 511 u[15] + 844 u[16]
   + 371 u[17] + 432 u[18] + 329 u[19] <= 2768
 primal_lower565: 916 u[0] + 304 u[1] + 486 u[2] + 775 u[3] + 96 u[4]
   + 790 u[5] + 841 u[6] + 672 u[7] + 825 u[8] + 318 u[9] + 8 u[10]
   + 559 u[11] + 408 u[12] + 1000 u[13] + 537 u[14] + 561 u[15] + 929 u[16]
   + 820 u[17] + 293 u[18] + 610 u[19] <= 5874
 primal_lower566: 302 u[0] + 143 u[1] + 825 u[2] + 862 u[3] + 371 u[4]
   + 772 u[5] + 164 u[6] + 638 u[7] + 316 u[8] + 261 u[9] + 514 u[10]
   + 750 u[11] + 699 u[12] + 183 u[13] + 307 u[14] + 447 u[15] + 468 u[16]
   + 627 u[17] + 712 u[18] + 49 u[19] <= 1568
 primal_lower567: 859 u[0] + 959 u[1] + 477 u[2] + 798 u[3] + 167 u[4]
   + 797 u[5] + 848 u[6] + 703 u[7] + 784 u[8] + 61 u[9] + 527 u[10]
   + 814 u[11] + 823 u[12] + 431 u[13] + 232 u[14] + 384 u[15] + 512 u[16]
   + 179 u[17] + 836 u[18] + 9 u[19] <= 1866
 primal_lower568: 571 u[0] + 439 u[1] + 341 u[2] + 374 u[3] + 359 u[4]
   + 741 u[5] + 640 u[6] + 719 u[7] + 600 u[8] + 389 u[9] + 911 u[10]
   + 934 u[11] + 583 u[12] + 319 u[13] + 584 u[14] + 832 u[15] + 440 u[16]
   + 131 u[17] + 772 u[18] + 185 u[19] <= 5432
 primal_lower569: 890 u[0] + 926 u[1] + 708 u[2] + 605 u[3] + 222 u[4]
   + 84 u[5] + 871 u[6] + 710 u[7] + 671 u[8] + 100 u[9] + 918 u[10]
   + 5 u[11] + 990 u[12] + 854 u[13] + 351 u[14] + 495 u[15] + 487 u[16]
   + 202 u[17] + 531 u[18] + 160 u[19] <= 1796
 primal_lower570: 752 u[0] + 313 u[1] + 171 u[2] + 312 u[3] + 645 u[4]
   + 86 u[5] + 654 u[6] + 400 u[7] + 590 u[8] + 359 u[9] + 4 u[10]
   + 824 u[11] + 789 u[12] + 633 u[13] + 973 u[14] + 601 u[15] + 334 u[16]
   + 709 u[17] + 26 u[18] + 891 u[19] <= 3355
 primal_lower571: 410 u[0] + 339 u[1] + 421 u[2] + 570 u[3] + 823 u[4]
   + 128 u[5] + 96 u[6] + 194 u[7] + 440 u[8] + 369 u[9] + 694 u[10]
   + 410 u[11] + 871 u[12] + 539 u[13] + 87 u[14] + 27 u[15] + 664 u[16]
   + 375 u[17] + 252 u[18] + 741 u[19] <= 2816
 primal_lower572: 942 u[0] + 591 u[1] + 761 u[2] + 630 u[3] + 363 u[4]
   + 900 u[5] + 908 u[6] + 926 u[7] + 92 u[8] + 933 u[9] + 282 u[10]
   + 550 u[11] + 339 u[12] + 823 u[13] + 251 u[14] + 207 u[15] + 844 u[16]
   + 131 u[17] + 728 u[18] + 961 u[19] <= 4054
 primal_lower573: 218 u[0] + 35 u[1] + 509 u[2] + 802 u[3] + 727 u[4]
   + 896 u[5] + 160 u[6] + 66 u[7] + 512 u[8] + 881 u[9] + 246 u[10]
   + 898 u[11] + 439 u[12] + 763 u[13] + 383 u[14] + 747 u[15] + 888 u[16]
   + 255 u[17] + 356 u[18] + 957 u[19] <= 1789
 primal_lower574: 831 u[0] + 320 u[1] + 2 u[2] + 375 u[3] + 684 u[4]
   + 589 u[5] + 437 u[6] + 15 u[7] + 405 u[8] + 622 u[9] + 419 u[10]
   + 447 u[11] + 236 u[12] + 264 u[13] + 204 u[14] + 840 u[15] + 181 u[16]
   + 388 u[17] + 833 u[18] + 970 u[19] <= 3020
 primal_lower575: 734 u[0] + 170 u[1] + 72 u[2] + 521 u[3] + 210 u[4]
   + 256 u[5] + 27 u[6] + 658 u[7] + 619 u[8] + 48 u[9] + 314 u[10]
   + 121 u[11] + 162 u[12] + 682 u[13] + 379 u[14] + 939 u[15] + 611 u[16]
   + 590 u[17] + 999 u[18] + 580 u[19] <= 5794
 primal_lower576: 201 u[0] + 154 u[1] + 300 u[2] + 457 u[3] + 902 u[4]
   + 375 u[5] + 975 u[6] + 49 u[7] + 383 u[8] + 176 u[9] + 381 u[10]
   + 817 u[11] + 982 u[12] + 26 u[13] + 630 u[14] + 370 u[15] + 55 u[16]
   + 118 u[17] + 571 u[18] + 236 u[19] <= 2719
 primal_lower577: 380 u[0] + 725 u[1] + 311 u[2] + 876 u[3] + 337 u[4]
   + 426 u[5] + 642 u[6] + 116 u[7] + 210 u[8] + 915 u[9] + 368 u[10]
   + 324 u[11] + 225 u[12] + 533 u[13] + 873 u[14] + 301 u[15] + 978 u[16]
   + 489 u[17] + 310 u[18] + 655 u[19] <= 3331
 primal_lower578: 416 u[0] + 297 u[1] + 875 u[2] + 368 u[3] + 357 u[4]
   + 198 u[5] + 134 u[6] + 432 u[7] + 70 u[8] + 271 u[9] + 548 u[10]
   + 168 u[11] + 645 u[12] + 497 u[13] + 501 u[14] + 217 u[15] + 22 u[16]
   + 653 u[17] + 658 u[18] + 619 u[19] <= 3973
 primal_lower579: 829 u[0] + 873 u[1] + 231 u[2] + 144 u[3] + 137 u[4]
   + 679 u[5] + 650 u[6] + 905 u[7] + 874 u[8] + 63 u[9] + 897 u[10]
   + 96 u[11] + 529 u[12] + 225 u[13] + 706 u[14] + 682 u[15] + 178 u[16]
   + 669 u[17] + 974 u[18] + 475 u[19] <= 3605
 primal_lower580: 631 u[0] + 219 u[1] + 297 u[2] + 714 u[3] + 251 u[4]
   + 697 u[5] + 948 u[6] + 171 u[7] + 660 u[8] + 577 u[9] + 595 u[10]
   + 658 u[11] + 931 u[12] + 539 u[13] + 836 u[14] + 140 u[15] + 180 u[16]
   + 47 u[17] + 160 u[18] + 301 u[19] <= 3184
 primal_lower581: 477 u[0] + 926 u[1] + 960 u[2] + 805 u[3] + 274 u[4]
   + 467 u[5] + 947 u[6] + 101 u[7] + 467 u[8] + 292 u[9] + 41 u[10]
   + 365 u[11] + 850 u[12] + 622 u[13] + 506 u[14] + 862 u[15] + 587 u[16]
   + 394 u[17] + 767 u[18] + 272 u[19] <= 3660
 primal_lower582: 63 u[0] + 88 u[1] + 714 u[2] + 391 u[3] + 76 u[4]
   + 485 u[5] + 181 u[6] + 903 u[7] + 629 u[8] + 86 u[9] + 675 u[10]
   + 815 u[11] + 796 u[12] + 872 u[13] + 460 u[14] + 112 u[15] + 541 u[16]
   + 204 u[17] + 401 u[18] + 826 u[19] <= 3106
 primal_lower583: 906 u[0] + 419 u[1] + 605 u[2] + 706 u[3] + 311 u[4]
   + 192 u[5] + 456 u[6] + 234 u[7] + 1000 u[8] + 625 u[9] + 294 u[10]
   + 314 u[11] + 223 u[12] + 883 u[13] + 343 u[14] + 755 u[15] + 272 u[16]
   + 951 u[17] + 220 u[18] + 645 u[19] <= 3451
 primal_lower584: 916 u[0] + 469 u[1] + 135 u[2] + 156 u[3] + 833 u[4]
   + 346 u[5] + 314 u[6] + 364 u[7] + 986 u[8] + 483 u[9] + 160 u[10]
   + 332 u[11] + 617 u[12] + 589 u[13] + 649 u[14] + 413 u[15] + 970 u[16]
   + 329 u[17] + 86 u[18] + 575 u[19] <= 1620
 primal_lower585: 808 u[0] + 193 u[1] + 939 u[2] + 648 u[3] + 813 u[4]
   + 662 u[5] + 918 u[6] + 40 u[7] + 942 u[8] + 831 u[9] + 60 u[10]
   + 560 u[11] + 845 u[12] + 225 u[13] + 357 u[14] + 761 u[15] + 54 u[16]
   + 869 u[17] + 770 u[18] + 387 u[19] <= 1947
 primal_lower586: 334 u[0] + 183 u[1] + 281 u[2] + 574 u[3] + 11 u[4]
   + 340 u[5] + 340 u[6] + 942 u[7] + 740 u[8] + 485 u[9] + 818 u[10]
   + 846 u[11] + 531 u[12] + 991 u[13] + 475 u[14] + 311 u[15] + 276 u[16]
   + 3 u[17] + 496 u[18] + 881 u[19] <= 1643
 primal_lower587: 481 u[0] + 962 u[1] + 532 u[2] + 273 u[3] + 630 u[4]
   + 783 u[5] + 703 u[6] + 657 u[7] + 887 u[8] + 624 u[9] + 277 u[10]
   + 537 u[11] + 302 u[12] + 722 u[13] + 974 u[14] + 450 u[15] + 159 u[16]
   + 246 u[17] + 435 u[18] + 396 u[19] <= 3676
 primal_lower588: 254 u[0] + 967 u[1] + 201 u[2] + 462 u[3] + 643 u[4]
   + 164 u[5] + 652 u[6] + 6 u[7] + 180 u[8] + 917 u[9] + 370 u[10]
   + 6 u[11] + 171 u[12] + 247 u[13] + 475 u[14] + 495 u[15] + 44 u[16]
   + 163 u[17] + 656 u[18] + 321 u[19] <= 967
 primal_lower589: 377 u[0] + 125 u[1] + 987 u[2] + 588 u[3] + 285 u[4]
   + 611 u[5] + 822 u[6] + 637 u[7] + 678 u[8] + 675 u[9] + 397 u[10]
   + 36 u[11] + 581 u[12] + 221 u[13] + 30 u[14] + 830 u[15] + 358 u[16]
   + 857 u[17] + 402 u[18] + 799 u[19] <= 6864
 primal_lower590: 893 u[0] + 670 u[1] + 368 u[2] + 413 u[3] + 354 u[4]
   + 323 u[5] + 131 u[6] + 109 u[7] + 379 u[8] + 52 u[9] + 497 u[10]
   + 453 u[11] + 186 u[12] + 398 u[13] + 546 u[14] + 478 u[15] + 139 u[16]
   + 962 u[17] + 783 u[18] + 224 u[19] <= 5572
 primal_lower591: 749 u[0] + 62 u[1] + 264 u[2] + 869 u[3] + 450 u[4]
   + 307 u[5] + 203 u[6] + 413 u[7] + 899 u[8] + 124 u[9] + 273 u[10]
   + 157 u[11] + 570 u[12] + 526 u[13] + 826 u[14] + 422 u[15] + 403 u[16]
   + 610 u[17] + 327 u[18] + 832 u[19] <= 4643
 primal_lower592: 875 u[0] + 799 u[1] + 869 u[2] + 422 u[3] + 295 u[4]
   + 629 u[5] + 160 u[6] + 943 u[7] + 136 u[8] + 285 u[9] + 727 u[10]
   + 54 u[11] + 159 u[12] + 455 u[13] + 464 u[14] + 888 u[15] + 328 u[16]
   + 555 u[17] + 532 u[18] + 409 u[19] <= 1664
 primal_lower593: 524 u[0] + 621 u[1] + 735 u[2] + 164 u[3] + 297 u[4]
   + 266 u[5] + 90 u[6] + 452 u[7] + 938 u[8] + 595 u[9] + 40 u[10]
   + 780 u[11] + 673 u[12] + 629 u[13] + 249 u[14] + 357 u[15] + 906 u[16]
   + 793 u[17] + 14 u[18] + 407 u[19] <= 1588
 primal_lower594: 955 u[0] + 591 u[1] + 637 u[2] + 158 u[3] + 143 u[4]
   + 373 u[5] + 216 u[6] + 631 u[7] + 136 u[8] + 501 u[9] + 31 u[10]
   + 454 u[11] + 975 u[12] + 199 u[13] + 848 u[14] + 48 u[15] + 752 u[16]
   + 139 u[17] + 932 u[18] + 561 u[19] <= 975
 primal_lower595: 714 u[0] + 555 u[1] + 885 u[2] + 554 u[3] + 327 u[4]
   + 296 u[5] + 760 u[6] + 194 u[7] + 256 u[8] + 793 u[9] + 286 u[10]
   + 450 u[11] + 223 u[12] + 563 u[13] + 639 u[14] + 891 u[15] + 648 u[16]
   + 823 u[17] + 676 u[18] + 381 u[19] <= 5457
 primal_lower596: 198 u[0] + 215 u[1] + 777 u[2] + 54 u[3] + 419 u[4]
   + 4 u[5] + 188 u[6] + 718 u[7] + 28 u[8] + 901 u[9] + 10 u[10]
   + 494 u[11] + 299 u[12] + 551 u[13] + 83 u[14] + 215 u[15] + 332 u[16]
   + 931 u[17] + 160 u[18] + 353 u[19] <= 931
 primal_lower597: 600 u[0] + 468 u[1] + 162 u[2] + 907 u[3] + 940 u[4]
   + 778 u[5] + 517 u[6] + 788 u[7] + 757 u[8] + 650 u[9] + 540 u[10]
   + 683 u[11] + 388 u[12] + 476 u[13] + 421 u[14] + 221 u[15] + 349 u[16]
   + 488 u[17] + 257 u[18] + 718 u[19] <= 7405
 primal_lower598: 218 u[0] + 147 u[1] + 325 u[2] + 978 u[3] + 183 u[4]
   + 624 u[5] + 96 u[6] + 354 u[7] + 384 u[8] + 129 u[9] + 606 u[10]
   + 74 u[11] + 775 u[12] + 443 u[13] + 231 u[14] + 699 u[15] + 424 u[16]
   + 943 u[17] + 324 u[18] + 621 u[19] <= 978
 primal_lower599: 476 u[0] + 181 u[1] + 999 u[2] + 988 u[3] + 993 u[4]
   + 498 u[5] + 874 u[6] + 916 u[7] + 890 u[8] + 563 u[9] + 400 u[10]
   + 820 u[11] + 417 u[12] + 325 u[13] + 633 u[14] + 85 u[15] + 498 u[16]
   + 689 u[17] + 878 u[18] + 71 u[19] <= 4064
 primal_lower600: 709 u[0] + 366 u[1] + 568 u[2] + 837 u[3] + 466 u[4]
   + 267 u[5] + 163 u[6] + 77 u[7] + 835 u[8] + 588 u[9] + 601 u[10]
   + 341 u[11] + 642 u[12] + 382 u[13] + 18 u[14] + 990 u[15] + 459 u[16]
   + 58 u[17] + 767 u[18] + 896 u[19] <= 3343
 primal_lower601: 220 u[0] + 701 u[1] + 127 u[2] + 84 u[3] + 825 u[4]
   + 10 u[5] + 34 u[6] + 236 u[7] + 130 u[8] + 115 u[9] + 280 u[10]
   + 228 u[11] + 9 u[12] + 829 u[13] + 345 u[14] + 397 u[15] + 42 u[16]
   + 17 u[17] + 790 u[18] + 79 u[19] <= 2749
 primal_lower602: 613 u[0] + 334 u[1] + 384 u[2] + 101 u[3] + 714 u[4]
   + 627 u[5] + 563 u[6] + 525 u[7] + 907 u[8] + 100 u[9] + 905 u[10]
   + 285 u[11] + 186 u[12] + 782 u[13] + 682 u[14] + 862 u[15] + 747 u[16]
   + 306 u[17] + 831 u[18] + 504 u[19] <= 907
 primal_lower603: 506 u[0] + 339 u[1] + 469 u[2] + 770 u[3] + 143 u[4]
   + 72 u[5] + 1000 u[6] + 922 u[7] + 64 u[8] + 393 u[9] + 142 u[10]
   + 482 u[11] + 919 u[12] + 587 u[13] + 919 u[14] + 595 u[15] + 880 u[16]
   + 495 u[17] + 812 u[18] + 397 u[19] <= 5453
 primal_lower604: 799 u[0] + 115 u[1] + 977 u[2] + 930 u[3] + 763 u[4]
   + 361 u[5] + 564 u[6] + 715 u[7] + 468 u[8] + 89 u[9] + 155 u[10]
   + 850 u[11] + 523 u[12] + 987 u[13] + 140 u[14] + 636 u[15] + 460 u[16]
   + 655 u[17] + 880 u[18] + 989 u[19] <= 2009
 primal_lower605: 415 u[0] + 851 u[1] + 945 u[2] + 810 u[3] + 979 u[4]
   + 705 u[5] + 20 u[6] + 211 u[7] + 708 u[8] + 969 u[9] + 59 u[10]
   + 426 u[11] + 931 u[12] + 547 u[13] + 52 u[14] + 980 u[15] + 548 u[16]
   + 303 u[17] + 376 u[18] + 573 u[19] <= 3802
 primal_lower606: 332 u[0] + 13 u[1] + 895 u[2] + 252 u[3] + 201 u[4]
   + 818 u[5] + 994 u[6] + 116 u[7] + 594 u[8] + 99 u[9] + 616 u[10]
   + 172 u[11] + 233 u[12] + 101 u[13] + 721 u[14] + 445 u[15] + 722 u[16]
   + 329 u[17] + 774 u[18] + 391 u[19] <= 1469
 primal_lower607: 933 u[0] + 129 u[1] + 463 u[2] + 584 u[3] + 745 u[4]
   + 247 u[5] + 930 u[6] + 433 u[7] + 474 u[8] + 639 u[9] + 289 u[10]
   + 824 u[11] + 25 u[12] + 17 u[13] + 698 u[14] + 378 u[15] + 930 u[16]
   + 861 u[17] + 910 u[18] + 27 u[19] <= 7024
 primal_lower608: 887 u[0] + 875 u[1] + 449 u[2] + 674 u[3] + 739 u[4]
   + 689 u[5] + 924 u[6] + 787 u[7] + 900 u[8] + 9 u[9] + 379 u[10]
   + 586 u[11] + 299 u[12] + 819 u[13] + 980 u[14] + 708 u[15] + 356 u[16]
   + 479 u[17] + 968 u[18] + 429 u[19] <= 8624
 primal_lower609: 950 u[0] + 559 u[1] + 737 u[2] + 286 u[3] + 139 u[4]
   + 188 u[5] + 988 u[6] + 6 u[7] + 364 u[8] + 493 u[9] + 586 u[10]
   + 966 u[11] + 819 u[12] + 31 u[13] + 923 u[14] + 631 u[15] + 252 u[16]
   + 715 u[17] + 424 u[18] + 873 u[19] <= 5465
 primal_lower610: 506 u[0] + 62 u[1] + 892 u[2] + 861 u[3] + 406 u[4]
   + 492 u[5] + 367 u[6] + 830 u[7] + 679 u[8] + 28 u[9] + 822 u[10]
   + 805 u[11] + 702 u[12] + 438 u[13] + 983 u[14] + 303 u[15] + 431 u[16]
   + 642 u[17] + 867 u[18] + 392 u[19] <= 5754
 primal_lower611: 807 u[0] + 331 u[1] + 457 u[2] + 578 u[3] + 171 u[4]
   + 417 u[5] + 708 u[6] + 131 u[7] + 484 u[8] + 273 u[9] + 235 u[10]
   + 354 u[11] + 979 u[12] + 227 u[13] + 236 u[14] + 940 u[15] + 636 u[16]
   + 679 u[17] + 368 u[18] + 637 u[19] <= 6432
 primal_lower612: 129 u[0] + 85 u[1] + 259 u[2] + 196 u[3] + 717 u[4]
   + 419 u[5] + 254 u[6] + 173 u[7] + 574 u[8] + 427 u[9] + 309 u[10]
   + 948 u[11] + 837 u[12] + 893 u[13] + 294 u[14] + 710 u[15] + 86 u[16]
   + 89 u[17] + 106 u[18] + 535 u[19] <= 4020
 primal_lower613: 835 u[0] + 596 u[1] + 926 u[2] + 947 u[3] + 440 u[4]
   + 49 u[5] + 929 u[6] + 211 u[7] + 897 u[8] + 274 u[9] + 903 u[10]
   + 19 u[11] + 208 u[12] + 748 u[13] + 704 u[14] + 260 u[15] + 105 u[16]
   + 664 u[17] + 525 u[18] + 670 u[19] <= 5455
 primal_lower614: 423 u[0] + 24 u[1] + 194 u[2] + 791 u[3] + 916 u[4]
   + 413 u[5] + 29 u[6] + 479 u[7] + 453 u[8] + 206 u[9] + 187 u[10]
   + 303 u[11] + 92 u[12] + 920 u[13] + 876 u[14] + 376 u[15] + 613 u[16]
   + 100 u[17] + 937 u[18] + 74 u[19] <= 2802
 primal_lower615: 882 u[0] + 214 u[1] + 884 u[2] + 453 u[3] + 790 u[4]
   + 948 u[5] + 167 u[6] + 30 u[7] + 639 u[8] + 116 u[9] + 582 u[10]
   + 925 u[11] + 398 u[12] + 366 u[13] + 71 u[14] + 343 u[15] + 647 u[16]
   + 434 u[17] + 147 u[18] + 312 u[19] <= 3116
 primal_lower616: 321 u[0] + 178 u[1] + 700 u[2] + 585 u[3] + 518 u[4]
   + 319 u[5] + 831 u[6] + 609 u[7] + 71 u[8] + 144 u[9] + 245 u[10]
   + 649 u[11] + 606 u[12] + 594 u[13] + 478 u[14] + 378 u[15] + 575 u[16]
   + 198 u[17] + 939 u[18] + 204 u[19] <= 4571
 primal_lower617: 353 u[0] + 802 u[1] + 332 u[2] + 137 u[3] + 246 u[4]
   + 431 u[5] + 135 u[6] + 337 u[7] + 751 u[8] + 64 u[9] + 829 u[10]
   + 393 u[11] + 958 u[12] + 42 u[13] + 566 u[14] + 338 u[15] + 311 u[16]
   + 390 u[17] + 979 u[18] + 516 u[19] <= 1485
 primal_lower618: 88 u[0] + 420 u[1] + 970 u[2] + 571 u[3] + 540 u[4]
   + 954 u[5] + 77 u[6] + 268 u[7] + 189 u[8] + 858 u[9] + 276 u[10]
   + 235 u[11] + 996 u[12] + 92 u[13] + 725 u[14] + 405 u[15] + 173 u[16]
   + 456 u[17] + 721 u[18] + 70 u[19] <= 4542
 primal_lower619: 745 u[0] + 277 u[1] + 867 u[2] + 988 u[3] + 269 u[4]
   + 891 u[5] + 846 u[6] + 741 u[7] + 62 u[8] + 739 u[9] + 605 u[10]
   + 756 u[11] + 389 u[12] + 389 u[13] + 134 u[14] + 78 u[15] + 670 u[16]
   + 625 u[17] + 802 u[18] + 71 u[19] <= 5472
 primal_lower620: 860 u[0] + 400 u[1] + 430 u[2] + 439 u[3] + 992 u[4]
   + 38 u[5] + 985 u[6] + 600 u[7] + 681 u[8] + 734 u[9] + 616 u[10]
   + 991 u[11] + 920 u[12] + 240 u[13] + 65 u[14] + 209 u[15] + 257 u[16]
   + 196 u[17] + 949 u[18] + 354 u[19] <= 7304
 primal_lower621: 316 u[0] + 261 u[1] + 255 u[2] + 508 u[3] + 681 u[4]
   + 130 u[5] + 474 u[6] + 148 u[7] + 26 u[8] + 915 u[9] + 672 u[10]
   + 924 u[11] + 953 u[12] + 349 u[13] + 393 u[14] + 61 u[15] + 234 u[16]
   + 489 u[17] + 622 u[18] + 839 u[19] <= 4625
 primal_lower622: 362 u[0] + 131 u[1] + 389 u[2] + 794 u[3] + 207 u[4]
   + 120 u[5] + 112 u[6] + 850 u[7] + 352 u[8] + 705 u[9] + 918 u[10]
   + 602 u[11] + 607 u[12] + 739 u[13] + 535 u[14] + 195 u[15] + 616 u[16]
   + 127 u[17] + 196 u[18] + 845 u[19] <= 1567
 primal_lower623: 428 u[0] + 61 u[1] + 799 u[2] + 932 u[3] + 633 u[4]
   + 146 u[5] + 458 u[6] + 732 u[7] + 42 u[8] + 795 u[9] + 648 u[10]
   + 84 u[11] + 729 u[12] + 109 u[13] + 201 u[14] + 693 u[15] + 906 u[16]
   + 321 u[17] + 990 u[18] + 647 u[19] <= 5177
 primal_lower624: 499 u[0] + 708 u[1] + 86 u[2] + 283 u[3] + 640 u[4]
   + 681 u[5] + 625 u[6] + 707 u[7] + 929 u[8] + 402 u[9] + 759 u[10]
   + 315 u[11] + 920 u[12] + 388 u[13] + 200 u[14] + 628 u[15] + 481 u[16]
   + 1000 u[17] + 781 u[18] + 494 u[19] <= 5763
 primal_lower625: 557 u[0] + 414 u[1] + 528 u[2] + 365 u[3] + 666 u[4]
   + 291 u[5] + 67 u[6] + 501 u[7] + 595 u[8] + 452 u[9] + 793 u[10]
   + 397 u[11] + 330 u[12] + 686 u[13] + 42 u[14] + 70 u[15] + 667 u[16]
   + 290 u[17] + 391 u[18] + 760 u[19] <= 1477
 primal_lower626: 333 u[0] + 577 u[1] + 679 u[2] + 552 u[3] + 257 u[4]
   + 735 u[5] + 922 u[6] + 545 u[7] + 874 u[8] + 455 u[9] + 577 u[10]
   + 88 u[11] + 417 u[12] + 785 u[13] + 338 u[14] + 442 u[15] + 490 u[16]
   + 477 u[17] + 590 u[18] + 379 u[19] <= 3504
 primal_lower627: 707 u[0] + 596 u[1] + 590 u[2] + 83 u[3] + 432 u[4]
   + 809 u[5] + 857 u[6] + 67 u[7] + 457 u[8] + 442 u[9] + 207 u[10]
   + 83 u[11] + 456 u[12] + 516 u[13] + 984 u[14] + 780 u[15] + 569 u[16]
   + 176 u[17] + 693 u[18] + 54 u[19] <= 3186
 primal_lower628: 852 u[0] + 261 u[1] + 959 u[2] + 644 u[3] + 65 u[4]
   + 498 u[5] + 746 u[6] + 908 u[7] + 394 u[8] + 11 u[9] + 48 u[10]
   + 996 u[11] + 905 u[12] + 197 u[13] + 345 u[14] + 317 u[15] + 858 u[16]
   + 993 u[17] + 894 u[18] + 199 u[19] <= 3696
 primal_lower629: 24 u[0] + 580 u[1] + 682 u[2] + 91 u[3] + 116 u[4]
   + 474 u[5] + 237 u[6] + 996 u[7] + 869 u[8] + 970 u[9] + 108 u[10]
   + 523 u[11] + 180 u[12] + 364 u[13] + 637 u[14] + 213 u[15] + 845 u[16]
   + 280 u[17] + 801 u[18] + 606 u[19] <= 996
 primal_lower630: 289 u[0] + 642 u[1] + 900 u[2] + 753 u[3] + 46 u[4]
   + 863 u[5] + 95 u[6] + 657 u[7] + 631 u[8] + 120 u[9] + 493 u[10]
   + 977 u[11] + 830 u[12] + 538 u[13] + 126 u[14] + 50 u[15] + 103 u[16]
   + 78 u[17] + 259 u[18] + 556 u[19] <= 4503
 primal_lower631: 129 u[0] + 741 u[1] + 547 u[2] + 620 u[3] + 573 u[4]
   + 123 u[5] + 894 u[6] + 693 u[7] + 934 u[8] + 3 u[9] + 85 u[10]
   + 620 u[11] + 701 u[12] + 709 u[13] + 190 u[14] + 126 u[15] + 190 u[16]
   + 545 u[17] + 250 u[18] + 623 u[19] <= 4648
 primal_lower632: 807 u[0] + 720 u[1] + 770 u[2] + 823 u[3] + 908 u[4]
   + 21 u[5] + 309 u[6] + 623 u[7] + 93 u[8] + 646 u[9] + 531 u[10]
   + 127 u[11] + 204 u[12] + 936 u[13] + 996 u[14] + 56 u[15] + 685 u[16]
   + 876 u[17] + 465 u[18] + 682 u[19] <= 1879
 primal_lower633: 628 u[0] + 965 u[1] + 607 u[2] + 132 u[3] + 161 u[4]
   + 490 u[5] + 746 u[6] + 948 u[7] + 778 u[8] + 67 u[9] + 456 u[10]
   + 580 u[11] + 745 u[12] + 621 u[13] + 361 u[14] + 493 u[15] + 114 u[16]
   + 673 u[17] + 118 u[18] + 431 u[19] <= 5057
 primal_lower634: 113 u[0] + 634 u[1] + 180 u[2] + 817 u[3] + 134 u[4]
   + 999 u[5] + 543 u[6] + 617 u[7] + 23 u[8] + 576 u[9] + 405 u[10]
   + 481 u[11] + 534 u[12] + 770 u[13] + 822 u[14] + 130 u[15] + 319 u[16]
   + 910 u[17] + 507 u[18] + 180 u[19] <= 3231
 primal_lower635: 533 u[0] + 174 u[1] + 808 u[2] + 981 u[3] + 978 u[4]
   + 219 u[5] + 747 u[6] + 541 u[7] + 91 u[8] + 348 u[9] + 41 u[10]
   + 533 u[11] + 802 u[12] + 686 u[13] + 106 u[14] + 118 u[15] + 283 u[16]
   + 714 u[17] + 783 u[18] + 64 u[19] <= 4775
 primal_lower636: 308 u[0] + 717 u[1] + 671 u[2] + 876 u[3] + 881 u[4]
   + 786 u[5] + 802 u[6] + 12 u[7] + 154 u[8] + 371 u[9] + 88 u[10]
   + 28 u[11] + 537 u[12] + 453 u[13] + 361 u[14] + 613 u[15] + 570 u[16]
   + 505 u[17] + 374 u[18] + 767 u[19] <= 6582
 primal_lower637: 284 u[0] + 856 u[1] + 662 u[2] + 199 u[3] + 504 u[4]
   + 30 u[5] + 873 u[6] + 288 u[7] + 625 u[8] + 478 u[9] + 600 u[10]
   + 159 u[11] + 848 u[12] + 312 u[13] + 385 u[14] + 785 u[15] + 649 u[16]
   + 532 u[17] + 157 u[18] + 154 u[19] <= 1563
 primal_lower638: 502 u[0] + 807 u[1] + 281 u[2] + 150 u[3] + 499 u[4]
   + 164 u[5] + 716 u[6] + 214 u[7] + 980 u[8] + 213 u[9] + 74 u[10]
   + 654 u[11] + 195 u[12] + 311 u[13] + 243 u[14] + 223 u[15] + 516 u[16]
   + 555 u[17] + 624 u[18] + 449 u[19] <= 4185
 primal_lower639: 660 u[0] + 264 u[1] + 726 u[2] + 647 u[3] + 776 u[4]
   + 126 u[5] + 465 u[6] + 192 u[7] + 793 u[8] + 94 u[9] + 944 u[10]
   + 535 u[11] + 104 u[12] + 32 u[13] + 841 u[14] + 969 u[15] + 497 u[16]
   + 988 u[17] + 741 u[18] + 322 u[19] <= 988
 primal_lower640: 928 u[0] + 412 u[1] + 394 u[2] + 371 u[3] + 972 u[4]
   + 738 u[5] + 109 u[6] + 340 u[7] + 85 u[8] + 314 u[9] + 716 u[10]
   + 75 u[11] + 956 u[12] + 724 u[13] + 365 u[14] + 941 u[15] + 453 u[16]
   + 376 u[17] + 105 u[18] + 174 u[19] <= 3182
 primal_lower641: 152 u[0] + 124 u[1] + 570 u[2] + 43 u[3] + 788 u[4]
   + 202 u[5] + 981 u[6] + 876 u[7] + 445 u[8] + 370 u[9] + 220 u[10]
   + 35 u[11] + 788 u[12] + 660 u[13] + 429 u[14] + 669 u[15] + 77 u[16]
   + 880 u[17] + 625 u[18] + 270 u[19] <= 4602
 primal_lower642: 40 u[0] + 633 u[1] + 659 u[2] + 224 u[3] + 549 u[4]
   + 758 u[5] + 358 u[6] + 320 u[7] + 662 u[8] + 79 u[9] + 428 u[10]
   + 264 u[11] + 309 u[12] + 865 u[13] + 653 u[14] + 569 u[15] + 798 u[16]
   + 189 u[17] + 762 u[18] + 387 u[19] <= 3168
 primal_lower643: 38 u[0] + 274 u[1] + 528 u[2] + 521 u[3] + 258 u[4]
   + 504 u[5] + 947 u[6] + 370 u[7] + 563 u[8] + 416 u[9] + 546 u[10]
   + 985 u[11] + 370 u[12] + 218 u[13] + 83 u[14] + 851 u[15] + 59 u[16]
   + 542 u[17] + 455 u[18] + 364 u[19] <= 2964
 primal_lower644: 566 u[0] + 178 u[1] + 992 u[2] + 721 u[3] + 378 u[4]
   + 256 u[5] + 115 u[6] + 586 u[7] + 915 u[8] + 736 u[9] + 114 u[10]
   + 881 u[11] + 794 u[12] + 890 u[13] + 395 u[14] + 931 u[15] + 203 u[16]
   + 878 u[17] + 599 u[18] + 908 u[19] <= 2006
 primal_lower645: 669 u[0] + 798 u[1] + 328 u[2] + 277 u[3] + 162 u[4]
   + 747 u[5] + 955 u[6] + 589 u[7] + 515 u[8] + 268 u[9] + 241 u[10]
   + 477 u[11] + 762 u[12] + 14 u[13] + 178 u[14] + 310 u[15] + 203 u[16]
   + 90 u[17] + 639 u[18] + 864 u[19] <= 4543
 primal_lower646: 436 u[0] + 784 u[1] + 526 u[2] + 215 u[3] + 104 u[4]
   + 742 u[5] + 601 u[6] + 736 u[7] + 233 u[8] + 454 u[9] + 688 u[10]
   + 807 u[11] + 400 u[12] + 720 u[13] + 249 u[14] + 193 u[15] + 361 u[16]
   + 684 u[17] + 925 u[18] + 98 u[19] <= 4978
 primal_lower647: 88 u[0] + 276 u[1] + 906 u[2] + 699 u[3] + 108 u[4]
   + 42 u[5] + 413 u[6] + 44 u[7] + 661 u[8] + 386 u[9] + 52 u[10]
   + 155 u[11] + 580 u[12] + 980 u[13] + 397 u[14] + 405 u[15] + 77 u[16]
   + 480 u[17] + 193 u[18] + 294 u[19] <= 1206
 primal_lower648: 701 u[0] + 710 u[1] + 168 u[2] + 221 u[3] + 402 u[4]
   + 387 u[5] + 555 u[6] + 845 u[7] + 91 u[8] + 180 u[9] + 465 u[10]
   + 269 u[11] + 890 u[12] + 806 u[13] + 138 u[14] + 590 u[15] + 259 u[16]
   + 386 u[17] + 551 u[18] + 160 u[19] <= 4387
 primal_lower649: 335 u[0] + 859 u[1] + 801 u[2] + 210 u[3] + 67 u[4]
   + 281 u[5] + 428 u[6] + 963 u[7] + 244 u[8] + 657 u[9] + 947 u[10]
   + 858 u[11] + 723 u[12] + 43 u[13] + 916 u[14] + 748 u[15] + 452 u[16]
   + 495 u[17] + 656 u[18] + 909 u[19] <= 5796
 primal_lower650: 269 u[0] + 769 u[1] + 719 u[2] + 608 u[3] + 265 u[4]
   + 143 u[5] + 586 u[6] + 905 u[7] + 858 u[8] + 839 u[9] + 465 u[10]
   + 168 u[11] + 9 u[12] + 417 u[13] + 754 u[14] + 810 u[15] + 850 u[16]
   + 933 u[17] + 46 u[18] + 651 u[19] <= 933
 primal_lower651: 995 u[0] + 199 u[1] + 581 u[2] + 118 u[3] + 135 u[4]
   + 461 u[5] + 656 u[6] + 695 u[7] + 416 u[8] + 189 u[9] + 255 u[10]
   + 278 u[11] + 655 u[12] + 71 u[13] + 944 u[14] + 360 u[15] + 368 u[16]
   + 963 u[17] + 948 u[18] + 841 u[19] <= 3376
 primal_lower652: 308 u[0] + 117 u[1] + 887 u[2] + 444 u[3] + 849 u[4]
   + 42 u[5] + 34 u[6] + 828 u[7] + 922 u[8] + 419 u[9] + 88 u[10]
   + 444 u[11] + 841 u[12] + 477 u[13] + 81 u[14] + 77 u[15] + 234 u[16]
   + 297 u[17] + 214 u[18] + 607 u[19] <= 1368
 primal_lower653: 482 u[0] + 115 u[1] + 85 u[2] + 330 u[3] + 135 u[4]
   + 496 u[5] + 544 u[6] + 26 u[7] + 888 u[8] + 305 u[9] + 726 u[10]
   + 474 u[11] + 431 u[12] + 995 u[13] + 127 u[14] + 763 u[15] + 776 u[16]
   + 159 u[17] + 676 u[18] + 757 u[19] <= 4645
 primal_lower654: 798 u[0] + 839 u[1] + 593 u[2] + 214 u[3] + 27 u[4]
   + 972 u[5] + 124 u[6] + 814 u[7] + 84 u[8] + 725 u[9] + 26 u[10]
   + 174 u[11] + 307 u[12] + 839 u[13] + 203 u[14] + 151 u[15] + 820 u[16]
   + 803 u[17] + 744 u[18] + 985 u[19] <= 5121
 primal_lower655: 564 u[0] + 608 u[1] + 582 u[2] + 23 u[3] + 600 u[4]
   + 478 u[5] + 729 u[6] + 944 u[7] + u[8] + 494 u[9] + 720 u[10]
   + 599 u[11] + 192 u[12] + 168 u[13] + 113 u[14] + 793 u[15] + 177 u[16]
   + 220 u[17] + 37 u[18] + 578 u[19] <= 1436
 primal_lower656: 815 u[0] + 720 u[1] + 882 u[2] + 15 u[3] + 308 u[4]
   + 197 u[5] + 85 u[6] + 527 u[7] + 669 u[8] + 670 u[9] + 891 u[10]
   + 527 u[11] + 92 u[12] + 696 u[13] + 980 u[14] + 40 u[15] + 781 u[16]
   + 92 u[17] + 345 u[18] + 330 u[19] <= 4831
 primal_lower657: 205 u[0] + 441 u[1] + 47 u[2] + 704 u[3] + 241 u[4]
   + 591 u[5] + 322 u[6] + 681 u[7] + 578 u[8] + 263 u[9] + 185 u[10]
   + 760 u[11] + 705 u[12] + 705 u[13] + 874 u[14] + 818 u[15] + 466 u[16]
   + 837 u[17] + 190 u[18] + 723 u[19] <= 1722
 primal_lower658: 909 u[0] + 638 u[1] + 376 u[2] + 613 u[3] + 74 u[4]
   + 83 u[5] + 211 u[6] + 397 u[7] + 387 u[8] + 588 u[9] + 969 u[10]
   + 997 u[11] + 226 u[12] + 438 u[13] + 178 u[14] + 374 u[15] + 707 u[16]
   + 418 u[17] + 543 u[18] + 968 u[19] <= 1682
 primal_lower659: 514 u[0] + 662 u[1] + 788 u[2] + 677 u[3] + 838 u[4]
   + 604 u[5] + 911 u[6] + 110 u[7] + 487 u[8] + 4 u[9] + 182 u[10]
   + 597 u[11] + 286 u[12] + 174 u[13] + 247 u[14] + 631 u[15] + 863 u[16]
   + 66 u[17] + 99 u[18] + 200 u[19] <= 4470
 primal_lower660: 526 u[0] + 31 u[1] + 473 u[2] + 590 u[3] + 507 u[4]
   + 740 u[5] + 172 u[6] + 110 u[7] + 156 u[8] + 109 u[9] + 490 u[10]
   + 854 u[11] + 683 u[12] + 903 u[13] + 35 u[14] + 55 u[15] + 812 u[16]
   + 891 u[17] + 760 u[18] + 281 u[19] <= 6118
 primal_lower661: 726 u[0] + 559 u[1] + 353 u[2] + 222 u[3] + 3 u[4]
   + 196 u[5] + 820 u[6] + 942 u[7] + 300 u[8] + 637 u[9] + 634 u[10]
   + 766 u[11] + 827 u[12] + 751 u[13] + 371 u[14] + 391 u[15] + 500 u[16]
   + 107 u[17] + 32 u[18] + 793 u[19] <= 4965
 primal_lower662: 455 u[0] + 59 u[1] + 865 u[2] + 394 u[3] + 387 u[4]
   + 537 u[5] + 228 u[6] + 459 u[7] + 412 u[8] + 609 u[9] + 283 u[10]
   + 834 u[11] + 499 u[12] + 587 u[13] + 428 u[14] + 828 u[15] + 500 u[16]
   + 335 u[17] + 744 u[18] + 13 u[19] <= 1576
 primal_lower663: 192 u[0] + 369 u[1] + 331 u[2] + 240 u[3] + 341 u[4]
   + 662 u[5] + 86 u[6] + 576 u[7] + 270 u[8] + 55 u[9] + 516 u[10]
   + 912 u[11] + 861 u[12] + 273 u[13] + 517 u[14] + 977 u[15] + 318 u[16]
   + 341 u[17] + 722 u[18] + 331 u[19] <= 2963
 primal_lower664: 522 u[0] + 435 u[1] + 821 u[2] + 898 u[3] + 807 u[4]
   + 56 u[5] + 688 u[6] + 562 u[7] + 464 u[8] + 193 u[9] + 310 u[10]
   + 250 u[11] + 143 u[12] + 523 u[13] + 543 u[14] + 563 u[15] + 264 u[16]
   + 879 u[17] + 820 u[18] + 861 u[19] <= 3534
 primal_lower665: 524 u[0] + 40 u[1] + 422 u[2] + 919 u[3] + 560 u[4]
   + 662 u[5] + 297 u[6] + 960 u[7] + 329 u[8] + 222 u[9] + 744 u[10]
   + 7 u[11] + 448 u[12] + 920 u[13] + 489 u[14] + 433 u[15] + 49 u[16]
   + 596 u[17] + 725 u[18] + 362 u[19] <= 6472
 primal_lower666: 531 u[0] + 692 u[1] + 38 u[2] + 811 u[3] + 456 u[4]
   + 289 u[5] + 737 u[6] + 867 u[7] + 609 u[8] + 2 u[9] + 479 u[10]
   + 323 u[11] + 584 u[12] + 356 u[13] + 752 u[14] + 420 u[15] + 521 u[16]
   + 128 u[17] + 773 u[18] + 398 u[19] <= 1627
 primal_lower667: 631 u[0] + 944 u[1] + 834 u[2] + 127 u[3] + 332 u[4]
   + 429 u[5] + 957 u[6] + 663 u[7] + 93 u[8] + 518 u[9] + 883 u[10]
   + 863 u[11] + 36 u[12] + 600 u[13] + 972 u[14] + 88 u[15] + 389 u[16]
   + 908 u[17] + 417 u[18] + 370 u[19] <= 5527
 primal_lower668: 853 u[0] + 974 u[1] + 592 u[2] + 733 u[3] + 914 u[4]
   + 579 u[5] + 315 u[6] + 269 u[7] + 667 u[8] + 276 u[9] + 441 u[10]
   + 557 u[11] + 930 u[12] + 134 u[13] + 714 u[14] + 534 u[15] + 259 u[16]
   + 66 u[17] + 407 u[18] + 472 u[19] <= 3562
 primal_lower669: 512 u[0] + 220 u[1] + 914 u[2] + 715 u[3] + 196 u[4]
   + 242 u[5] + 325 u[6] + 820 u[7] + 965 u[8] + 26 u[9] + 676 u[10]
   + 731 u[11] + 868 u[12] + 348 u[13] + 149 u[14] + 565 u[15] + 461 u[16]
   + 144 u[17] + 785 u[18] + 782 u[19] <= 5222
 primal_lower670: 292 u[0] + 288 u[1] + 238 u[2] + 847 u[3] + 848 u[4]
   + 454 u[5] + 609 u[6] + 136 u[7] + 625 u[8] + 774 u[9] + 824 u[10]
   + 687 u[11] + 928 u[12] + 528 u[13] + 377 u[14] + 281 u[15] + 969 u[16]
   + 20 u[17] + 437 u[18] + 562 u[19] <= 969
 primal_lower671: 477 u[0] + 729 u[1] + 63 u[2] + 536 u[3] + 561 u[4]
   + 727 u[5] + 746 u[6] + 473 u[7] + 650 u[8] + 711 u[9] + 25 u[10]
   + 880 u[11] + 561 u[12] + 601 u[13] + 106 u[14] + 962 u[15] + 986 u[16]
   + 597 u[17] + 414 u[18] + 195 u[19] <= 3666
 primal_lower672: 951 u[0] + 776 u[1] + 946 u[2] + 415 u[3] + 700 u[4]
   + 677 u[5] + 29 u[6] + 23 u[7] + 973 u[8] + 102 u[9] + 339 u[10]
   + 871 u[11] + 572 u[12] + 600 u[13] + 84 u[14] + 64 u[15] + 53 u[16]
   + 892 u[17] + 417 u[18] + 514 u[19] <= 1666
 primal_lower673: 283 u[0] + 487 u[1] + 741 u[2] + 494 u[3] + 799 u[4]
   + 245 u[5] + 664 u[6] + 791 u[7] + 992 u[8] + 445 u[9] + 623 u[10]
   + 926 u[11] + 959 u[12] + 559 u[13] + 120 u[14] + 960 u[15] + 952 u[16]
   + 811 u[17] + 308 u[18] + 601 u[19] <= 2126
 primal_lower674: 302 u[0] + 282 u[1] + 264 u[2] + 305 u[3] + 546 u[4]
   + 648 u[5] + 595 u[6] + 122 u[7] + 675 u[8] + 8 u[9] + 106 u[10]
   + 425 u[11] + 154 u[12] + 394 u[13] + 259 u[14] + 867 u[15] + 899 u[16]
   + 958 u[17] + 511 u[18] + 372 u[19] <= 5794
 primal_lower675: 509 u[0] + 801 u[1] + 767 u[2] + 944 u[3] + 369 u[4]
   + 479 u[5] + 842 u[6] + 905 u[7] + 922 u[8] + 159 u[9] + 193 u[10]
   + 880 u[11] + 473 u[12] + 841 u[13] + 562 u[14] + 874 u[15] + 354 u[16]
   + 261 u[17] + 950 u[18] + 947 u[19] <= 6516
 primal_lower676: 117 u[0] + 182 u[1] + 896 u[2] + 381 u[3] + 266 u[4]
   + 403 u[5] + 499 u[6] + 389 u[7] + 435 u[8] + 964 u[9] + 809 u[10]
   + 165 u[11] + 298 u[12] + 262 u[13] + 642 u[14] + 622 u[15] + 963 u[16]
   + 898 u[17] + 975 u[18] + 184 u[19] <= 1725
 primal_lower677: 701 u[0] + 89 u[1] + 879 u[2] + 928 u[3] + 521 u[4]
   + 511 u[5] + 946 u[6] + 81 u[7] + 874 u[8] + 199 u[9] + 921 u[10]
   + 264 u[11] + 537 u[12] + 281 u[13] + 906 u[14] + 714 u[15] + 722 u[16]
   + 989 u[17] + 750 u[18] + 243 u[19] <= 2009
 primal_lower678: 306 u[0] + 323 u[1] + 733 u[2] + 42 u[3] + 615 u[4]
   + 704 u[5] + 552 u[6] + 306 u[7] + 912 u[8] + 113 u[9] + 358 u[10]
   + 82 u[11] + 895 u[12] + 323 u[13] + 935 u[14] + 355 u[15] + 72 u[16]
   + 799 u[17] + 532 u[18] + 573 u[19] <= 1588
 primal_lower679: 314 u[0] + 374 u[1] + 372 u[2] + 309 u[3] + 478 u[4]
   + 396 u[5] + 223 u[6] + 30 u[7] + 959 u[8] + 940 u[9] + 94 u[10]
   + 5 u[11] + 334 u[12] + 974 u[13] + 919 u[14] + 807 u[15] + 207 u[16]
   + 122 u[17] + 227 u[18] + 448 u[19] <= 2844
 primal_lower680: 926 u[0] + 791 u[1] + 265 u[2] + 406 u[3] + 731 u[4]
   + 636 u[5] + 636 u[6] + 70 u[7] + 892 u[8] + 77 u[9] + 946 u[10]
   + 462 u[11] + 611 u[12] + 303 u[13] + 275 u[14] + 143 u[15] + 388 u[16]
   + 611 u[17] + 920 u[18] + 809 u[19] <= 1816
 primal_lower681: 689 u[0] + 957 u[1] + 67 u[2] + 332 u[3] + 709 u[4]
   + 387 u[5] + 894 u[6] + 981 u[7] + 822 u[8] + 91 u[9] + 877 u[10]
   + 724 u[11] + 557 u[12] + 389 u[13] + 182 u[14] + 142 u[15] + 54 u[16]
   + 969 u[17] + 146 u[18] + 111 u[19] <= 5040
 primal_lower682: 57 u[0] + 626 u[1] + 684 u[2] + 553 u[3] + 830 u[4]
   + 199 u[5] + 287 u[6] + 625 u[7] + 471 u[8] + 32 u[9] + 461 u[10]
   + 713 u[11] + 102 u[12] + 282 u[13] + 254 u[14] + 898 u[15] + 975 u[16]
   + 14 u[17] + 707 u[18] + 772 u[19] <= 3180
 primal_lower683: 592 u[0] + 289 u[1] + 795 u[2] + 712 u[3] + 133 u[4]
   + 670 u[5] + 46 u[6] + 712 u[7] + 702 u[8] + 559 u[9] + 916 u[10]
   + 728 u[11] + 573 u[12] + 929 u[13] + 445 u[14] + 697 u[15] + 398 u[16]
   + 237 u[17] + 506 u[18] + 315 u[19] <= 5477
 primal_lower684: 787 u[0] + 260 u[1] + 550 u[2] + 243 u[3] + 688 u[4]
   + 625 u[5] + 337 u[6] + 707 u[7] + 609 u[8] + 346 u[9] + 431 u[10]
   + 179 u[11] + 568 u[12] + 244 u[13] + 160 u[14] + 548 u[15] + 241 u[16]
   + 680 u[17] + 221 u[18] + 862 u[19] <= 3095
 primal_lower685: 600 u[0] + 73 u[1] + 731 u[2] + 256 u[3] + 141 u[4]
   + 966 u[5] + 262 u[6] + 488 u[7] + 646 u[8] + 423 u[9] + 748 u[10]
   + 832 u[11] + 701 u[12] + 593 u[13] + 509 u[14] + 169 u[15] + 414 u[16]
   + 837 u[17] + 778 u[18] + 579 u[19] <= 5373
 primal_lower686: 839 u[0] + 472 u[1] + 746 u[2] + 303 u[3] + 772 u[4]
   + 357 u[5] + 605 u[6] + 703 u[7] + 165 u[8] + 22 u[9] + 3 u[10]
   + 903 u[11] + 740 u[12] + 88 u[13] + 268 u[14] + 896 u[15] + 237 u[16]
   + 804 u[17] + 753 u[18] + 714 u[19] <= 1731
 primal_lower687: 327 u[0] + 947 u[1] + 409 u[2] + 194 u[3] + 571 u[4]
   + 465 u[5] + 996 u[6] + 915 u[7] + 556 u[8] + 769 u[9] + 611 u[10]
   + 802 u[11] + 739 u[12] + 795 u[13] + 884 u[14] + 716 u[15] + 748 u[16]
   + 503 u[17] + 760 u[18] + 549 u[19] <= 6628
 primal_lower688: 208 u[0] + 985 u[1] + 59 u[2] + 1000 u[3] + 661 u[4]
   + 446 u[5] + 78 u[6] + 824 u[7] + 982 u[8] + 71 u[9] + 764 u[10]
   + 960 u[11] + 373 u[12] + 177 u[13] + 101 u[14] + 409 u[15] + 318 u[16]
   + 29 u[17] + 114 u[18] + 651 u[19] <= 4605
 primal_lower689: 374 u[0] + 375 u[1] + 401 u[2] + 374 u[3] + 283 u[4]
   + 972 u[5] + 908 u[6] + 430 u[7] + 276 u[8] + 869 u[9] + 514 u[10]
   + 318 u[11] + 731 u[12] + 503 u[13] + 491 u[14] + 719 u[15] + 820 u[16]
   + 643 u[17] + 768 u[18] + 641 u[19] <= 3803
 primal_lower690: 943 u[0] + 672 u[1] + 474 u[2] + 751 u[3] + 556 u[4]
   + 157 u[5] + 821 u[6] + 87 u[7] + 829 u[8] + 974 u[9] + 811 u[10]
   + 543 u[11] + 260 u[12] + 40 u[13] + 836 u[14] + 520 u[15] + 221 u[16]
   + 556 u[17] + 705 u[18] + 530 u[19] <= 5643
 primal_lower691: 825 u[0] + 930 u[1] + 4 u[2] + 473 u[3] + 750 u[4]
   + 759 u[5] + 663 u[6] + 945 u[7] + 703 u[8] + 208 u[9] + 317 u[10]
   + 481 u[11] + 750 u[12] + 730 u[13] + 758 u[14] + 818 u[15] + 663 u[16]
   + 686 u[17] + 211 u[18] + 900 u[19] <= 6287
 primal_lower692: 7 u[0] + 475 u[1] + 729 u[2] + 426 u[3] + 835 u[4]
   + 201 u[5] + 956 u[6] + 99 u[7] + 836 u[8] + 9 u[9] + 907 u[10]
   + 978 u[11] + 379 u[12] + 195 u[13] + 212 u[14] + 252 u[15] + 68 u[16]
   + 303 u[17] + 896 u[18] + 181 u[19] <= 2981
 primal_lower693: 301 u[0] + 486 u[1] + 696 u[2] + 765 u[3] + 154 u[4]
   + 651 u[5] + 659 u[6] + 421 u[7] + 787 u[8] + 428 u[9] + 897 u[10]
   + 277 u[11] + 842 u[12] + 278 u[13] + 362 u[14] + 110 u[15] + 643 u[16]
   + 802 u[17] + 991 u[18] + 512 u[19] <= 3687
 primal_lower694: 842 u[0] + 323 u[1] + 437 u[2] + 178 u[3] + 999 u[4]
   + 72 u[5] + 824 u[6] + 66 u[7] + 280 u[8] + 209 u[9] + 542 u[10]
   + 154 u[11] + 847 u[12] + 171 u[13] + 887 u[14] + 611 u[15] + 696 u[16]
   + 111 u[17] + 804 u[18] + 933 u[19] <= 4993
 primal_lower695: 29 u[0] + 510 u[1] + 64 u[2] + 165 u[3] + 546 u[4]
   + 731 u[5] + 707 u[6] + 285 u[7] + 243 u[8] + 132 u[9] + 417 u[10]
   + 693 u[11] + 906 u[12] + 822 u[13] + 730 u[14] + 990 u[15] + 331 u[16]
   + 954 u[17] + 55 u[18] + 216 u[19] <= 6350
 primal_lower696: 772 u[0] + 173 u[1] + 415 u[2] + 652 u[3] + 641 u[4]
   + 738 u[5] + 858 u[6] + 324 u[7] + 842 u[8] + 899 u[9] + 296 u[10]
   + 380 u[11] + 729 u[12] + 349 u[13] + 337 u[14] + 573 u[15] + 442 u[16]
   + 889 u[17] + 110 u[18] + 359 u[19] <= 3592
 primal_lower697: 413 u[0] + 137 u[1] + 471 u[2] + 48 u[3] + 769 u[4]
   + 207 u[5] + 778 u[6] + 153 u[7] + 266 u[8] + 255 u[9] + 441 u[10]
   + 256 u[11] + 913 u[12] + 713 u[13] + 442 u[14] + 650 u[15] + 426 u[16]
   + 669 u[17] + 478 u[18] + 659 u[19] <= 6096
 primal_lower698: 917 u[0] + 593 u[1] + 807 u[2] + 488 u[3] + 425 u[4]
   + 439 u[5] + 586 u[6] + 785 u[7] + 538 u[8] + 423 u[9] + 65 u[10]
   + 680 u[11] + 697 u[12] + 553 u[13] + 290 u[14] + 314 u[15] + 714 u[16]
   + 637 u[17] + 366 u[18] + 667 u[19] <= 917
 primal_lower699: 966 u[0] + 103 u[1] + 353 u[2] + 462 u[3] + 883 u[4]
   + 812 u[5] + 468 u[6] + 350 u[7] + 164 u[8] + 821 u[9] + 338 u[10]
   + 798 u[11] + 603 u[12] + 759 u[13] + 723 u[14] + 551 u[15] + 76 u[16]
   + 763 u[17] + 736 u[18] + 777 u[19] <= 3835
 primal_lower700: 226 u[0] + 598 u[1] + 372 u[2] + 621 u[3] + 822 u[4]
   + 380 u[5] + 999 u[6] + 894 u[7] + 7 u[8] + 4 u[9] + 534 u[10]
   + 413 u[11] + 326 u[12] + 926 u[13] + 935 u[14] + 615 u[15] + 31 u[16]
   + 58 u[17] + 667 u[18] + 952 u[19] <= 3460
 primal_lower701: 567 u[0] + 3 u[1] + 553 u[2] + 338 u[3] + 227 u[4]
   + 169 u[5] + 844 u[6] + 347 u[7] + 412 u[8] + 201 u[9] + 675 u[10]
   + 346 u[11] + 827 u[12] + 387 u[13] + 780 u[14] + 972 u[15] + 204 u[16]
   + 487 u[17] + 456 u[18] + 221 u[19] <= 972
 primal_lower702: 61 u[0] + u[1] + 455 u[2] + 328 u[3] + 617 u[4] + 71 u[5]
   + 202 u[6] + 225 u[7] + 906 u[8] + 207 u[9] + 97 u[10] + 728 u[11]
   + 593 u[12] + 353 u[13] + 426 u[14] + 978 u[15] + 650 u[16] + 421 u[17]
   + 494 u[18] + 923 u[19] <= 1456
 primal_lower703: 701 u[0] + 73 u[1] + 351 u[2] + 984 u[3] + 841 u[4]
   + 15 u[5] + 890 u[6] + 209 u[7] + 546 u[8] + 183 u[9] + 393 u[10]
   + 408 u[11] + 497 u[12] + 65 u[13] + 762 u[14] + 594 u[15] + 442 u[16]
   + 749 u[17] + 470 u[18] + 187 u[19] <= 3120
 primal_lower704: 890 u[0] + 926 u[1] + 708 u[2] + 605 u[3] + 222 u[4]
   + 84 u[5] + 871 u[6] + 710 u[7] + 671 u[8] + 100 u[9] + 918 u[10]
   + 5 u[11] + 990 u[12] + 854 u[13] + 351 u[14] + 495 u[15] + 487 u[16]
   + 202 u[17] + 531 u[18] + 160 u[19] <= 5390
 primal_lower705: 777 u[0] + 18 u[1] + 20 u[2] + 793 u[3] + 358 u[4]
   + 471 u[5] + 479 u[6] + 577 u[7] + 623 u[8] + 488 u[9] + 565 u[10]
   + 161 u[11] + 174 u[12] + 538 u[13] + 854 u[14] + 890 u[15] + 543 u[16]
   + 110 u[17] + 163 u[18] + 124 u[19] <= 5817
 primal_lower706: 162 u[0] + 267 u[1] + 365 u[2] + 642 u[3] + 823 u[4]
   + 48 u[5] + 832 u[6] + 906 u[7] + 32 u[8] + 657 u[9] + 550 u[10]
   + 338 u[11] + 719 u[12] + 851 u[13] + 847 u[14] + 347 u[15] + 704 u[16]
   + 783 u[17] + 580 u[18] + 933 u[19] <= 933
 primal_lower707: 742 u[0] + 719 u[1] + 361 u[2] + 422 u[3] + 723 u[4]
   + 956 u[5] + 900 u[6] + 230 u[7] + 308 u[8] + 173 u[9] + 914 u[10]
   + 310 u[11] + 867 u[12] + 791 u[13] + 811 u[14] + 287 u[15] + 68 u[16]
   + 563 u[17] + 792 u[18] + 537 u[19] <= 1912
 primal_lower708: 480 u[0] + 300 u[1] + 506 u[2] + 907 u[3] + 700 u[4]
   + 922 u[5] + 997 u[6] + 4 u[7] + 733 u[8] + 210 u[9] + 452 u[10]
   + 771 u[11] + 156 u[12] + 604 u[13] + 437 u[14] + 21 u[15] + 733 u[16]
   + 624 u[17] + 361 u[18] + 782 u[19] <= 5350
 primal_lower709: 205 u[0] + 481 u[1] + 943 u[2] + 296 u[3] + 929 u[4]
   + 159 u[5] + 554 u[6] + 65 u[7] + 346 u[8] + 631 u[9] + 241 u[10]
   + 912 u[11] + 697 u[12] + 209 u[13] + 938 u[14] + 450 u[15] + 826 u[16]
   + 693 u[17] + 78 u[18] + 971 u[19] <= 3541
 primal_lower710: 238 u[0] + 122 u[1] + 24 u[2] + 921 u[3] + 154 u[4]
   + 80 u[5] + 363 u[6] + 442 u[7] + 363 u[8] + 64 u[9] + 578 u[10]
   + 201 u[11] + 218 u[12] + 82 u[13] + 627 u[14] + 579 u[15] + 499 u[16]
   + 646 u[17] + 599 u[18] + 412 u[19] <= 3606
 primal_lower711: 194 u[0] + 902 u[1] + 820 u[2] + 677 u[3] + 326 u[4]
   + 108 u[5] + 991 u[6] + 70 u[7] + 223 u[8] + 204 u[9] + 454 u[10]
   + 645 u[11] + 630 u[12] + 302 u[13] + 871 u[14] + 335 u[15] + 119 u[16]
   + 226 u[17] + 547 u[18] + 224 u[19] <= 1478
 primal_lower712: 616 u[0] + 412 u[1] + 74 u[2] + 299 u[3] + 916 u[4]
   + 170 u[5] + 813 u[6] + 644 u[7] + 973 u[8] + 74 u[9] + 484 u[10]
   + 203 u[11] + 804 u[12] + 348 u[13] + 157 u[14] + 117 u[15] + 773 u[16]
   + 672 u[17] + 225 u[18] + 894 u[19] <= 1611
 primal_lower713: 445 u[0] + 414 u[1] + 336 u[2] + 429 u[3] + 2 u[4]
   + 891 u[5] + 579 u[6] + 661 u[7] + 659 u[8] + 428 u[9] + 817 u[10]
   + 797 u[11] + 834 u[12] + 46 u[13] + 266 u[14] + 46 u[15] + 387 u[16]
   + 890 u[17] + 695 u[18] + 624 u[19] <= 5123
 primal_lower714: 937 u[0] + 53 u[1] + 27 u[2] + 68 u[3] + 645 u[4]
   + 835 u[5] + 750 u[6] + 701 u[7] + 22 u[8] + 915 u[9] + 165 u[10]
   + 820 u[11] + 333 u[12] + 245 u[13] + 126 u[14] + 822 u[15] + 158 u[16]
   + 25 u[17] + 610 u[18] + 679 u[19] <= 2978
 primal_lower715: 49 u[0] + 949 u[1] + 51 u[2] + 724 u[3] + 373 u[4]
   + 83 u[5] + 806 u[6] + 701 u[7] + 582 u[8] + 835 u[9] + 973 u[10]
   + 300 u[11] + 213 u[12] + 277 u[13] + 830 u[14] + 478 u[15] + 702 u[16]
   + 305 u[17] + 666 u[18] + 95 u[19] <= 1665
 primal_lower716: 744 u[0] + 329 u[1] + 667 u[2] + 712 u[3] + 189 u[4]
   + 302 u[5] + 710 u[6] + 256 u[7] + 182 u[8] + 783 u[9] + 364 u[10]
   + 552 u[11] + 461 u[12] + 209 u[13] + 349 u[14] + 57 u[15] + 646 u[16]
   + 77 u[17] + 242 u[18] + 923 u[19] <= 2918
 primal_lower717: 744 u[0] + 441 u[1] + 483 u[2] + 696 u[3] + 645 u[4]
   + 838 u[5] + 646 u[6] + 544 u[7] + 54 u[8] + 839 u[9] + 724 u[10]
   + 728 u[11] + 605 u[12] + 889 u[13] + 197 u[14] + 9 u[15] + 990 u[16]
   + 573 u[17] + 18 u[18] + 587 u[19] <= 1875
 primal_lower718: 282 u[0] + 22 u[1] + 612 u[2] + 397 u[3] + 582 u[4]
   + 124 u[5] + 159 u[6] + 574 u[7] + 655 u[8] + 612 u[9] + 814 u[10]
   + 645 u[11] + 102 u[12] + 654 u[13] + 175 u[14] + 431 u[15] + 319 u[16]
   + 986 u[17] + 587 u[18] + 64 u[19] <= 4398
 primal_lower719: 258 u[0] + 966 u[1] + 852 u[2] + 477 u[3] + 206 u[4]
   + 340 u[5] + 927 u[6] + 414 u[7] + 639 u[8] + 348 u[9] + 150 u[10]
   + 629 u[11] + 790 u[12] + 462 u[13] + 823 u[14] + 111 u[15] + 199 u[16]
   + 434 u[17] + 587 u[18] + 392 u[19] <= 1667
 primal_lower720: 140 u[0] + 701 u[1] + 415 u[2] + 620 u[3] + 849 u[4]
   + 714 u[5] + 522 u[6] + 620 u[7] + 10 u[8] + 899 u[9] + 360 u[10]
   + 492 u[11] + 409 u[12] + 373 u[13] + 265 u[14] + 285 u[15] + 82 u[16]
   + 985 u[17] + 366 u[18] + 903 u[19] <= 1668
 primal_lower721: 149 u[0] + 278 u[1] + 584 u[2] + 245 u[3] + 274 u[4]
   + 227 u[5] + 963 u[6] + 141 u[7] + 147 u[8] + 764 u[9] + 505 u[10]
   + 269 u[11] + 970 u[12] + 790 u[13] + 210 u[14] + 46 u[15] + 411 u[16]
   + 370 u[17] + 119 u[18] + 936 u[19] <= 5598
 primal_lower722: 130 u[0] + 691 u[1] + 861 u[2] + 218 u[3] + 471 u[4]
   + 24 u[5] + 672 u[6] + 570 u[7] + 632 u[8] + 457 u[9] + 742 u[10]
   + 706 u[11] + 951 u[12] + 291 u[13] + 431 u[14] + 387 u[15] + 872 u[16]
   + 615 u[17] + 12 u[18] + 845 u[19] <= 3526
 primal_lower723: 661 u[0] + 225 u[1] + 863 u[2] + 920 u[3] + 257 u[4]
   + 975 u[5] + 906 u[6] + 505 u[7] + 194 u[8] + 983 u[9] + 921 u[10]
   + 992 u[11] + 297 u[12] + 617 u[13] + 826 u[14] + 258 u[15] + 666 u[16]
   + 501 u[17] + 430 u[18] + 715 u[19] <= 6356
 primal_lower724: 515 u[0] + 575 u[1] + 181 u[2] + 630 u[3] + 135 u[4]
   + 365 u[5] + 208 u[6] + 839 u[7] + 416 u[8] + 365 u[9] + 575 u[10]
   + 326 u[11] + 703 u[12] + 63 u[13] + 560 u[14] + 112 u[15] + 128 u[16]
   + 363 u[17] + 124 u[18] + 177 u[19] <= 1226
 primal_lower725: 714 u[0] + 699 u[1] + 949 u[2] + 618 u[3] + 759 u[4]
   + 208 u[5] + 424 u[6] + 418 u[7] + 784 u[8] + 73 u[9] + 510 u[10]
   + 530 u[11] + 447 u[12] + 675 u[13] + 775 u[14] + 891 u[15] + 552 u[16]
   + 799 u[17] + 204 u[18] + 965 u[19] <= 5997
 primal_lower726: 149 u[0] + 441 u[1] + 311 u[2] + 496 u[3] + 193 u[4]
   + 471 u[5] + 794 u[6] + 249 u[7] + 490 u[8] + 623 u[9] + 241 u[10]
   + 160 u[11] + 857 u[12] + 169 u[13] + 58 u[14] + 658 u[15] + 794 u[16]
   + 165 u[17] + 710 u[18] + 827 u[19] <= 4428
 primal_lower727: 802 u[0] + 427 u[1] + 93 u[2] + 826 u[3] + 303 u[4]
   + 648 u[5] + 280 u[6] + 666 u[7] + 104 u[8] + 529 u[9] + 678 u[10]
   + 90 u[11] + 199 u[12] + 955 u[13] + 303 u[14] + 595 u[15] + 952 u[16]
   + 991 u[17] + 916 u[18] + 669 u[19] <= 991
 primal_lower728: 572 u[0] + 85 u[1] + 647 u[2] + 988 u[3] + 801 u[4]
   + 914 u[5] + 482 u[6] + 308 u[7] + 618 u[8] + 787 u[9] + 208 u[10]
   + 844 u[11] + 689 u[12] + 29 u[13] + 785 u[14] + 141 u[15] + 586 u[16]
   + 705 u[17] + 566 u[18] + 743 u[19] <= 988
 primal_lower729: 350 u[0] + 858 u[1] + 104 u[2] + 273 u[3] + 50 u[4]
   + 512 u[5] + 147 u[6] + 378 u[7] + 579 u[8] + 400 u[9] + 250 u[10]
   + 585 u[11] + 178 u[12] + 546 u[13] + 619 u[14] + 283 u[15] + 795 u[16]
   + 214 u[17] + 215 u[18] + 940 u[19] <= 940
 primal_lower730: 764 u[0] + 421 u[1] + 887 u[2] + 100 u[3] + 521 u[4]
   + 34 u[5] + 922 u[6] + 260 u[7] + 42 u[8] + 547 u[9] + 712 u[10]
   + 340 u[11] + 337 u[12] + 549 u[13] + 993 u[14] + 981 u[15] + 50 u[16]
   + 265 u[17] + 838 u[18] + 455 u[19] <= 6678
 primal_lower731: 834 u[0] + 262 u[1] + 196 u[2] + 373 u[3] + 518 u[4]
   + 92 u[5] + 751 u[6] + 278 u[7] + 599 u[8] + 28 u[9] + 774 u[10]
   + 645 u[11] + 22 u[12] + 670 u[13] + 103 u[14] + 975 u[15] + 167 u[16]
   + 2 u[17] + 211 u[18] + 288 u[19] <= 3894
 primal_lower732: 760 u[0] + 9 u[1] + 275 u[2] + 520 u[3] + 589 u[4]
   + 534 u[5] + 302 u[6] + 208 u[7] + 294 u[8] + 327 u[9] + 4 u[10]
   + 856 u[11] + 341 u[12] + 713 u[13] + 109 u[14] + 441 u[15] + 86 u[16]
   + 429 u[17] + 130 u[18] + 683 u[19] <= 3805
 primal_lower733: 755 u[0] + 708 u[1] + 142 u[2] + 819 u[3] + 272 u[4]
   + 777 u[5] + 769 u[6] + 995 u[7] + u[8] + 66 u[9] + 959 u[10]
   + 379 u[11] + 616 u[12] + 852 u[13] + 448 u[14] + 780 u[15] + 361 u[16]
   + 976 u[17] + 253 u[18] + 342 u[19] <= 1878
 primal_lower734: 212 u[0] + 45 u[1] + 727 u[2] + 468 u[3] + 761 u[4]
   + 130 u[5] + 426 u[6] + 4 u[7] + 386 u[8] + 515 u[9] + 144 u[10]
   + 156 u[11] + 257 u[12] + 253 u[13] + 465 u[14] + 997 u[15] + 842 u[16]
   + 345 u[17] + 574 u[18] + 343 u[19] <= 2683
 primal_lower735: 521 u[0] + 786 u[1] + 652 u[2] + 881 u[3] + 14 u[4]
   + 751 u[5] + 511 u[6] + 41 u[7] + 799 u[8] + 472 u[9] + 29 u[10]
   + 657 u[11] + 934 u[12] + 882 u[13] + 990 u[14] + 274 u[15] + 855 u[16]
   + 878 u[17] + 59 u[18] + 868 u[19] <= 1975
 primal_lower736: 385 u[0] + 709 u[1] + 275 u[2] + 620 u[3] + 773 u[4]
   + 523 u[5] + 534 u[6] + 157 u[7] + 510 u[8] + 395 u[9] + 37 u[10]
   + 892 u[11] + 989 u[12] + 621 u[13] + 126 u[14] + 718 u[15] + 574 u[16]
   + 889 u[17] + 538 u[18] + 927 u[19] <= 1865
 primal_lower737: 652 u[0] + 405 u[1] + 87 u[2] + 380 u[3] + 913 u[4]
   + 242 u[5] + 794 u[6] + 468 u[7] + 938 u[8] + 267 u[9] + 16 u[10]
   + 612 u[11] + 665 u[12] + 573 u[13] + 857 u[14] + 517 u[15] + 362 u[16]
   + 473 u[17] + 238 u[18] + 639 u[19] <= 3366
 primal_lower738: 725 u[0] + 574 u[1] + 848 u[2] + 493 u[3] + 130 u[4]
   + 275 u[5] + 11 u[6] + 309 u[7] + 459 u[8] + 396 u[9] + 937 u[10]
   + 13 u[11] + 874 u[12] + 878 u[13] + 466 u[14] + 590 u[15] + 251 u[16]
   + 786 u[17] + 927 u[18] + 400 u[19] <= 5171
 primal_lower739: 858 u[0] + 155 u[1] + 341 u[2] + 586 u[3] + 519 u[4]
   + 928 u[5] + 376 u[6] + 634 u[7] + 624 u[8] + 385 u[9] + 318 u[10]
   + 498 u[11] + 119 u[12] + 363 u[13] + 583 u[14] + 363 u[15] + 584 u[16]
   + 607 u[17] + 804 u[18] + 445 u[19] <= 5045
 primal_lower740: 466 u[0] + 278 u[1] + 476 u[2] + 845 u[3] + 902 u[4]
   + 92 u[5] + 983 u[6] + 22 u[7] + 727 u[8] + 548 u[9] + 934 u[10]
   + 837 u[11] + 62 u[12] + 782 u[13] + 31 u[14] + 919 u[15] + 95 u[16]
   + 866 u[17] + 131 u[18] + 168 u[19] <= 5082
 primal_lower741: 75 u[0] + 831 u[1] + 405 u[2] + 742 u[3] + 959 u[4]
   + 197 u[5] + 440 u[6] + 511 u[7] + 264 u[8] + 821 u[9] + 423 u[10]
   + 582 u[11] + 551 u[12] + 55 u[13] + 616 u[14] + 568 u[15] + 352 u[16]
   + 835 u[17] + 908 u[18] + 913 u[19] <= 1841
 primal_lower742: 87 u[0] + 160 u[1] + 194 u[2] + 255 u[3] + 748 u[4]
   + 765 u[5] + 277 u[6] + 127 u[7] + 973 u[8] + 750 u[9] + 675 u[10]
   + 495 u[11] + 148 u[12] + 280 u[13] + 148 u[14] + 552 u[15] + 941 u[16]
   + 996 u[17] + 873 u[18] + 554 u[19] <= 1666
 primal_lower743: 27 u[0] + 260 u[1] + 270 u[2] + 43 u[3] + 168 u[4]
   + 73 u[5] + 897 u[6] + 691 u[7] + 177 u[8] + 202 u[9] + 103 u[10]
   + 715 u[11] + 816 u[12] + 116 u[13] + 656 u[14] + 244 u[15] + 57 u[16]
   + 376 u[17] + 557 u[18] + 422 u[19] <= 1145
 primal_lower744: 81 u[0] + 293 u[1] + 243 u[2] + 580 u[3] + 13 u[4]
   + 675 u[5] + 142 u[6] + 597 u[7] + 230 u[8] + 875 u[9] + 445 u[10]
   + 684 u[11] + 53 u[12] + 645 u[13] + 822 u[14] + 782 u[15] + 918 u[16]
   + 25 u[17] + 794 u[18] + 967 u[19] <= 1644
 primal_lower745: 285 u[0] + 446 u[1] + 656 u[2] + 629 u[3] + 122 u[4]
   + 435 u[5] + 843 u[6] + 925 u[7] + 515 u[8] + 252 u[9] + 313 u[10]
   + 789 u[11] + 786 u[12] + 182 u[13] + 162 u[14] + 22 u[15] + 219 u[16]
   + 666 u[17] + 967 u[18] + 976 u[19] <= 6793
 primal_lower746: 546 u[0] + 635 u[1] + 837 u[2] + 882 u[3] + 615 u[4]
   + 560 u[5] + 776 u[6] + 138 u[7] + 8 u[8] + 929 u[9] + 198 u[10]
   + 154 u[11] + 871 u[12] + 827 u[13] + 223 u[14] + 75 u[15] + 288 u[16]
   + 407 u[17] + 348 u[18] + 501 u[19] <= 1636
 primal_lower747: 316 u[0] + 312 u[1] + 782 u[2] + 583 u[3] + 144 u[4]
   + 646 u[5] + 369 u[6] + 776 u[7] + 497 u[8] + 718 u[9] + 48 u[10]
   + 447 u[11] + 696 u[12] + 48 u[13] + 201 u[14] + 721 u[15] + 273 u[16]
   + 788 u[17] + 437 u[18] + 66 u[19] <= 2956
 primal_lower748: 767 u[0] + 856 u[1] + 754 u[2] + 815 u[3] + 836 u[4]
   + 293 u[5] + 269 u[6] + 47 u[7] + 221 u[8] + 430 u[9] + 723 u[10]
   + 47 u[11] + 772 u[12] + 272 u[13] + 724 u[14] + 600 u[15] + 437 u[16]
   + 388 u[17] + 953 u[18] + 154 u[19] <= 1726
 primal_lower749: 989 u[0] + 33 u[1] + 519 u[2] + 728 u[3] + 849 u[4]
   + 191 u[5] + 786 u[6] + 505 u[7] + 810 u[8] + 31 u[9] + 681 u[10]
   + 584 u[11] + 705 u[12] + 777 u[13] + 170 u[14] + 730 u[15] + 602 u[16]
   + 293 u[17] + 446 u[18] + 283 u[19] <= 1785
 primal_lower750: 664 u[0] + 292 u[1] + 922 u[2] + 443 u[3] + 876 u[4]
   + 570 u[5] + 493 u[6] + 188 u[7] + 749 u[8] + 522 u[9] + 180 u[10]
   + 539 u[11] + 164 u[12] + 988 u[13] + 557 u[14] + 485 u[15] + 205 u[16]
   + 424 u[17] + 897 u[18] + 126 u[19] <= 5142
 primal_lower751: 522 u[0] + 230 u[1] + 468 u[2] + 117 u[3] + 382 u[4]
   + 124 u[5] + 175 u[6] + 678 u[7] + 343 u[8] + 468 u[9] + 102 u[10]
   + 517 u[11] + 134 u[12] + 430 u[13] + 175 u[14] + 271 u[15] + 671 u[16]
   + 514 u[17] + 139 u[18] + 648 u[19] <= 3554
 primal_lower752: 803 u[0] + 207 u[1] + 53 u[2] + 582 u[3] + 751 u[4]
   + 445 u[5] + 384 u[6] + 415 u[7] + 824 u[8] + 45 u[9] + 167 u[10]
   + 110 u[11] + 143 u[12] + 735 u[13] + 840 u[14] + 104 u[15] + 800 u[16]
   + 947 u[17] + 340 u[18] + 41 u[19] <= 5824
 primal_lower753: 807 u[0] + 920 u[1] + 418 u[2] + 527 u[3] + 620 u[4]
   + 405 u[5] + 813 u[6] + 879 u[7] + 397 u[8] + 790 u[9] + 723 u[10]
   + 567 u[11] + 924 u[12] + 8 u[13] + 772 u[14] + 448 u[15] + 485 u[16]
   + 444 u[17] + 793 u[18] + 10 u[19] <= 7833
 primal_lower754: 620 u[0] + 96 u[1] + 894 u[2] + 655 u[3] + 248 u[4]
   + 670 u[5] + 489 u[6] + 136 u[7] + 241 u[8] + 822 u[9] + 584 u[10]
   + 87 u[11] + 336 u[12] + 688 u[13] + 721 u[14] + 561 u[15] + 905 u[16]
   + 812 u[17] + 453 u[18] + 130 u[19] <= 3382
 primal_lower755: 605 u[0] + 985 u[1] + 663 u[2] + 64 u[3] + 265 u[4]
   + 415 u[5] + 418 u[6] + 321 u[7] + 682 u[8] + 71 u[9] + 113 u[10]
   + 264 u[11] + 65 u[12] + 625 u[13] + 2 u[14] + 586 u[15] + 962 u[16]
   + 749 u[17] + 550 u[18] + 59 u[19] <= 1410
 primal_lower756: 576 u[0] + 156 u[1] + 410 u[2] + 587 u[3] + 132 u[4]
   + 250 u[5] + 461 u[6] + 620 u[7] + 989 u[8] + 906 u[9] + 484 u[10]
   + 683 u[11] + 652 u[12] + 420 u[13] + 917 u[14] + 269 u[15] + 917 u[16]
   + 616 u[17] + 577 u[18] + 230 u[19] <= 7234
 primal_lower757: 145 u[0] + 530 u[1] + 220 u[2] + 169 u[3] + 430 u[4]
   + 247 u[5] + 311 u[6] + 113 u[7] + 623 u[8] + 232 u[9] + 909 u[10]
   + 337 u[11] + 486 u[12] + 226 u[13] + 422 u[14] + 162 u[15] + 967 u[16]
   + 814 u[17] + 323 u[18] + 796 u[19] <= 1410
 primal_lower758: 884 u[0] + 768 u[1] + 686 u[2] + 751 u[3] + 624 u[4]
   + 334 u[5] + 105 u[6] + 912 u[7] + 385 u[8] + 102 u[9] + 256 u[10]
   + 79 u[11] + 632 u[12] + 944 u[13] + 185 u[14] + 233 u[15] + 457 u[16]
   + 700 u[17] + 613 u[18] + 770 u[19] <= 1736
 primal_lower759: 891 u[0] + 660 u[1] + 846 u[2] + 555 u[3] + 920 u[4]
   + 913 u[5] + 281 u[6] + 459 u[7] + 737 u[8] + 394 u[9] + 47 u[10]
   + 795 u[11] + 480 u[12] + 956 u[13] + 480 u[14] + 244 u[15] + 89 u[16]
   + 656 u[17] + 685 u[18] + 190 u[19] <= 5639
 primal_lower760: 490 u[0] + 366 u[1] + 564 u[2] + 301 u[3] + 710 u[4]
   + 572 u[5] + 719 u[6] + 6 u[7] + 47 u[8] + 276 u[9] + 654 u[10]
   + 645 u[11] + 590 u[12] + 526 u[13] + 887 u[14] + 799 u[15] + 711 u[16]
   + 50 u[17] + 699 u[18] + 768 u[19] <= 3460
 primal_lower761: 43 u[0] + 612 u[1] + 886 u[2] + 219 u[3] + 912 u[4]
   + 889 u[5] + 377 u[6] + 35 u[7] + 977 u[8] + 530 u[9] + 855 u[10]
   + 739 u[11] + 792 u[12] + 652 u[13] + 456 u[14] + 164 u[15] + 881 u[16]
   + 424 u[17] + 61 u[18] + 326 u[19] <= 7220
 primal_lower762: 956 u[0] + 805 u[1] + 399 u[2] + 668 u[3] + 185 u[4]
   + 594 u[5] + 322 u[6] + 772 u[7] + 890 u[8] + 579 u[9] + 272 u[10]
   + 964 u[11] + 369 u[12] + 333 u[13] + 17 u[14] + 333 u[15] + 738 u[16]
   + 289 u[17] + 510 u[18] + 735 u[19] <= 3576
 primal_lower763: 465 u[0] + 618 u[1] + 484 u[2] + 153 u[3] + 142 u[4]
   + 839 u[5] + 951 u[6] + 873 u[7] + 743 u[8] + 392 u[9] + 333 u[10]
   + 681 u[11] + 910 u[12] + 946 u[13] + 734 u[14] + 410 u[15] + 199 u[16]
   + 614 u[17] + 443 u[18] + 196 u[19] <= 5563
 primal_lower764: 725 u[0] + 57 u[1] + 191 u[2] + 320 u[3] + 449 u[4]
   + 639 u[5] + 610 u[6] + 465 u[7] + 650 u[8] + 759 u[9] + 753 u[10]
   + 16 u[11] + 465 u[12] + 273 u[13] + 522 u[14] + 594 u[15] + 386 u[16]
   + 661 u[17] + 582 u[18] + 635 u[19] <= 3250
 primal_lower765: 965 u[0] + 873 u[1] + 871 u[2] + 8 u[3] + 353 u[4]
   + 95 u[5] + 306 u[6] + 145 u[7] + 82 u[8] + 919 u[9] + 761 u[10]
   + 432 u[11] + 169 u[12] + 409 u[13] + 410 u[14] + 146 u[15] + 810 u[16]
   + 373 u[17] + 878 u[18] + 547 u[19] <= 965
 primal_lower766: 203 u[0] + 311 u[1] + 557 u[2] + 974 u[3] + 119 u[4]
   + 637 u[5] + 208 u[6] + 47 u[7] + 200 u[8] + 437 u[9] + 39 u[10]
   + 46 u[11] + 207 u[12] + 319 u[13] + 376 u[14] + 776 u[15] + 272 u[16]
   + 19 u[17] + 164 u[18] + 481 u[19] <= 4261
 primal_lower767: 15 u[0] + 880 u[1] + 682 u[2] + 807 u[3] + 460 u[4]
   + 477 u[5] + 197 u[6] + 559 u[7] + 349 u[8] + 422 u[9] + 91 u[10]
   + 7 u[11] + 340 u[12] + 72 u[13] + 100 u[14] + 280 u[15] + 493 u[16]
   + 956 u[17] + 345 u[18] + 738 u[19] <= 1378
 primal_lower768: 578 u[0] + 838 u[1] + 748 u[2] + 813 u[3] + 718 u[4]
   + 860 u[5] + 7 u[6] + 854 u[7] + 127 u[8] + 156 u[9] + 46 u[10]
   + 869 u[11] + 262 u[12] + 894 u[13] + 23 u[14] + 39 u[15] + 351 u[16]
   + 426 u[17] + 291 u[18] + 408 u[19] <= 3102
 primal_lower769: 681 u[0] + 234 u[1] + 340 u[2] + 49 u[3] + 238 u[4]
   + 599 u[5] + 751 u[6] + 977 u[7] + 439 u[8] + 624 u[9] + 645 u[10]
   + 193 u[11] + 886 u[12] + 586 u[13] + 942 u[14] + 642 u[15] + 599 u[16]
   + 606 u[17] + 211 u[18] + 660 u[19] <= 3634
 primal_lower770: 225 u[0] + 146 u[1] + 516 u[2] + 849 u[3] + 574 u[4]
   + 679 u[5] + 231 u[6] + 865 u[7] + 951 u[8] + 656 u[9] + 549 u[10]
   + 593 u[11] + 342 u[12] + 994 u[13] + 142 u[14] + 250 u[15] + 671 u[16]
   + 446 u[17] + 3 u[18] + 4 u[19] <= 4843
 primal_lower771: 276 u[0] + 869 u[1] + 487 u[2] + 4 u[3] + 697 u[4]
   + 922 u[5] + 402 u[6] + 404 u[7] + 378 u[8] + 387 u[9] + 976 u[10]
   + 12 u[11] + 33 u[12] + 765 u[13] + 409 u[14] + 261 u[15] + 890 u[16]
   + 281 u[17] + 214 u[18] + 751 u[19] <= 976
 primal_lower772: 965 u[0] + 353 u[1] + 687 u[2] + 568 u[3] + 697 u[4]
   + 295 u[5] + 2 u[6] + 537 u[7] + 578 u[8] + 511 u[9] + 873 u[10]
   + 152 u[11] + 73 u[12] + 441 u[13] + 450 u[14] + 682 u[15] + 194 u[16]
   + 69 u[17] + 302 u[18] + 691 u[19] <= 965
 primal_lower773: 554 u[0] + 491 u[1] + 805 u[2] + 362 u[3] + 127 u[4]
   + 312 u[5] + 920 u[6] + 122 u[7] + 216 u[8] + 433 u[9] + 142 u[10]
   + 202 u[11] + 15 u[12] + 547 u[13] + 855 u[14] + 547 u[15] + 160 u[16]
   + 495 u[17] + 76 u[18] + 557 u[19] <= 3969
 primal_lower774: 564 u[0] + 813 u[1] + 935 u[2] + 804 u[3] + 25 u[4]
   + 602 u[5] + 242 u[6] + 828 u[7] + 122 u[8] + 27 u[9] + 928 u[10]
   + 332 u[11] + 201 u[12] + 261 u[13] + 481 u[14] + 277 u[15] + 770 u[16]
   + 585 u[17] + 910 u[18] + 791 u[19] <= 6998
 primal_lower775: 888 u[0] + 420 u[1] + 842 u[2] + 435 u[3] + 956 u[4]
   + 786 u[5] + 269 u[6] + 412 u[7] + 205 u[8] + 642 u[9] + 20 u[10]
   + 771 u[11] + 340 u[12] + 164 u[13] + 101 u[14] + 605 u[15] + 773 u[16]
   + 960 u[17] + 537 u[18] + 926 u[19] <= 1842
 primal_lower776: 909 u[0] + 865 u[1] + 375 u[2] + 744 u[3] + 49 u[4]
   + 103 u[5] + 242 u[6] + 153 u[7] + 530 u[8] + 183 u[9] + 9 u[10]
   + 664 u[11] + 737 u[12] + 921 u[13] + 842 u[14] + 914 u[15] + 466 u[16]
   + 477 u[17] + 886 u[18] + 139 u[19] <= 1701
 primal_lower777: 192 u[0] + 697 u[1] + 515 u[2] + 872 u[3] + 997 u[4]
   + 270 u[5] + 198 u[6] + 184 u[7] + 774 u[8] + 271 u[9] + 404 u[10]
   + 384 u[11] + 957 u[12] + 241 u[13] + 669 u[14] + 441 u[15] + 934 u[16]
   + 645 u[17] + 106 u[18] + 187 u[19] <= 1656
 primal_lower778: 108 u[0] + 696 u[1] + 230 u[2] + 879 u[3] + 448 u[4]
   + 870 u[5] + 153 u[6] + 768 u[7] + 185 u[8] + 510 u[9] + 288 u[10]
   + 143 u[11] + 416 u[12] + 168 u[13] + 977 u[14] + 281 u[15] + 969 u[16]
   + 820 u[17] + 549 u[18] + 58 u[19] <= 6344
 primal_lower779: 446 u[0] + 450 u[1] + 368 u[2] + 41 u[3] + 338 u[4]
   + 328 u[5] + 283 u[6] + 114 u[7] + 779 u[8] + 472 u[9] + 890 u[10]
   + 265 u[11] + 530 u[12] + 618 u[13] + 171 u[14] + 507 u[15] + 675 u[16]
   + 318 u[17] + 615 u[18] + 244 u[19] <= 5634
 primal_lower780: 755 u[0] + 999 u[1] + 213 u[2] + 806 u[3] + 135 u[4]
   + 437 u[5] + 400 u[6] + 263 u[7] + 544 u[8] + 381 u[9] + 583 u[10]
   + 302 u[11] + 687 u[12] + 127 u[13] + 480 u[14] + 272 u[15] + 560 u[16]
   + 699 u[17] + 284 u[18] + 953 u[19] <= 1646
 primal_lower781: 971 u[0] + 908 u[1] + 62 u[2] + 203 u[3] + 720 u[4]
   + 977 u[5] + 665 u[6] + 219 u[7] + 793 u[8] + 234 u[9] + 743 u[10]
   + 619 u[11] + 248 u[12] + 444 u[13] + 984 u[14] + 428 u[15] + 817 u[16]
   + 936 u[17] + 901 u[18] + 102 u[19] <= 5987
 primal_lower782: 26 u[0] + 126 u[1] + 916 u[2] + 525 u[3] + 694 u[4]
   + 180 u[5] + 447 u[6] + 318 u[7] + 343 u[8] + 52 u[9] + 782 u[10]
   + 317 u[11] + 22 u[12] + 798 u[13] + 807 u[14] + 839 u[15] + 983 u[16]
   + 130 u[17] + 755 u[18] + 552 u[19] <= 4806
 primal_lower783: 781 u[0] + 454 u[1] + 808 u[2] + 829 u[3] + 490 u[4]
   + 851 u[5] + 275 u[6] + 949 u[7] + 619 u[8] + 868 u[9] + 993 u[10]
   + 749 u[11] + 930 u[12] + 470 u[13] + 850 u[14] + 750 u[15] + 779 u[16]
   + 946 u[17] + 479 u[18] + 896 u[19] <= 4922
 primal_lower784: 367 u[0] + 883 u[1] + 457 u[2] + 138 u[3] + 763 u[4]
   + 649 u[5] + 964 u[6] + 699 u[7] + 692 u[8] + 625 u[9] + 531 u[10]
   + 18 u[11] + 187 u[12] + 515 u[13] + 724 u[14] + 172 u[15] + 852 u[16]
   + 479 u[17] + 344 u[18] + 61 u[19] <= 3373
 primal_lower785: 380 u[0] + 869 u[1] + 567 u[2] + 748 u[3] + 961 u[4]
   + 338 u[5] + 306 u[6] + 340 u[7] + 738 u[8] + 387 u[9] + 592 u[10]
   + 404 u[11] + 641 u[12] + 645 u[13] + 201 u[14] + 301 u[15] + 74 u[16]
   + 465 u[17] + 30 u[18] + 239 u[19] <= 3075
 primal_lower786: 674 u[0] + 259 u[1] + 325 u[2] + 634 u[3] + 855 u[4]
   + 616 u[5] + 984 u[6] + 786 u[7] + 312 u[8] + 65 u[9] + 230 u[10]
   + 970 u[11] + 271 u[12] + 323 u[13] + 335 u[14] + 603 u[15] + 240 u[16]
   + 911 u[17] + 948 u[18] + 469 u[19] <= 1801
 primal_lower787: 628 u[0] + 5 u[1] + 503 u[2] + 724 u[3] + 849 u[4]
   + 58 u[5] + 170 u[6] + 332 u[7] + 738 u[8] + 435 u[9] + 320 u[10]
   + 540 u[11] + 545 u[12] + 125 u[13] + 425 u[14] + 933 u[15] + 474 u[16]
   + 529 u[17] + 6 u[18] + 679 u[19] <= 6012
 primal_lower788: 645 u[0] + 153 u[1] + 687 u[2] + 248 u[3] + 793 u[4]
   + 871 u[5] + 394 u[6] + 185 u[7] + 426 u[8] + 535 u[9] + 281 u[10]
   + 712 u[11] + 641 u[12] + 969 u[13] + 314 u[14] + 802 u[15] + 554 u[16]
   + 925 u[17] + 30 u[18] + 443 u[19] <= 1768
 primal_lower789: 291 u[0] + 447 u[1] + 69 u[2] + 638 u[3] + 863 u[4]
   + 149 u[5] + 240 u[6] + 615 u[7] + 960 u[8] + 53 u[9] + 735 u[10]
   + 902 u[11] + 719 u[12] + 887 u[13] + 824 u[14] + 800 u[15] + 752 u[16]
   + 19 u[17] + 676 u[18] + 377 u[19] <= 1836
 primal_lower790: 515 u[0] + 191 u[1] + 573 u[2] + 654 u[3] + 111 u[4]
   + 501 u[5] + 616 u[6] + 975 u[7] + 624 u[8] + 573 u[9] + 103 u[10]
   + 846 u[11] + 767 u[12] + 375 u[13] + 200 u[14] + 88 u[15] + 872 u[16]
   + 963 u[17] + 380 u[18] + 209 u[19] <= 5068
 primal_lower791: 997 u[0] + 937 u[1] + 423 u[2] + 528 u[3] + 737 u[4]
   + 839 u[5] + 266 u[6] + 73 u[7] + 490 u[8] + 63 u[9] + 401 u[10]
   + 744 u[11] + 433 u[12] + 193 u[13] + 474 u[14] + 202 u[15] + 570 u[16]
   + 213 u[17] + 454 u[18] + 755 u[19] <= 997
 primal_lower792: 268 u[0] + 277 u[1] + 967 u[2] + 244 u[3] + 521 u[4]
   + 682 u[5] + 586 u[6] + 684 u[7] + 34 u[8] + 315 u[9] + 616 u[10]
   + 388 u[11] + 33 u[12] + 981 u[13] + 705 u[14] + 813 u[15] + 130 u[16]
   + 273 u[17] + 494 u[18] + 455 u[19] <= 1577
 primal_lower793: 281 u[0] + 277 u[1] + 843 u[2] + 772 u[3] + 109 u[4]
   + 155 u[5] + 86 u[6] + 389 u[7] + 886 u[8] + 883 u[9] + 173 u[10]
   + 100 u[11] + 669 u[12] + 357 u[13] + 302 u[14] + 654 u[15] + 38 u[16]
   + 281 u[17] + 698 u[18] + 55 u[19] <= 886
 primal_lower794: 559 u[0] + 64 u[1] + 730 u[2] + 55 u[3] + 820 u[4]
   + 205 u[5] + 109 u[6] + 911 u[7] + 429 u[8] + 430 u[9] + 107 u[10]
   + 791 u[11] + 532 u[12] + 416 u[13] + 644 u[14] + 280 u[15] + 605 u[16]
   + 660 u[17] + 537 u[18] + 202 u[19] <= 4543
 primal_lower795: 455 u[0] + 875 u[1] + 825 u[2] + 282 u[3] + 619 u[4]
   + 545 u[5] + 364 u[6] + 963 u[7] + 276 u[8] + 913 u[9] + 811 u[10]
   + 714 u[11] + 955 u[12] + 851 u[13] + 820 u[14] + 876 u[15] + 108 u[16]
   + 351 u[17] + 512 u[18] + 557 u[19] <= 2112
 primal_lower796: 931 u[0] + 28 u[1] + 438 u[2] + 603 u[3] + 704 u[4]
   + 49 u[5] + 985 u[6] + 883 u[7] + 945 u[8] + 762 u[9] + 215 u[10]
   + 411 u[11] + 640 u[12] + 252 u[13] + 352 u[14] + 532 u[15] + 353 u[16]
   + 56 u[17] + 485 u[18] + 894 u[19] <= 3506
 primal_lower797: 462 u[0] + 386 u[1] + 48 u[2] + 897 u[3] + 434 u[4]
   + 392 u[5] + 667 u[6] + 578 u[7] + 483 u[8] + 544 u[9] + 306 u[10]
   + 825 u[11] + 162 u[12] + 106 u[13] + 107 u[14] + 843 u[15] + 555 u[16]
   + 334 u[17] + 807 u[18] + 444 u[19] <= 4690
 primal_lower798: 712 u[0] + 324 u[1] + 290 u[2] + 971 u[3] + 980 u[4]
   + 266 u[5] + 341 u[6] + 404 u[7] + 357 u[8] + 202 u[9] + 292 u[10]
   + 203 u[11] + 468 u[12] + 4 u[13] + 61 u[14] + 245 u[15] + 533 u[16]
   + 912 u[17] + 425 u[18] + 78 u[19] <= 1344
 primal_lower799: 116 u[0] + 240 u[1] + 622 u[2] + 511 u[3] + 248 u[4]
   + 22 u[5] + 825 u[6] + 712 u[7] + 57 u[8] + 862 u[9] + 872 u[10]
   + 39 u[11] + 832 u[12] + 256 u[13] + 9 u[14] + 729 u[15] + 825 u[16]
   + 804 u[17] + 797 u[18] + 938 u[19] <= 6877
 primal_lower800: 573 u[0] + 49 u[1] + 647 u[2] + 664 u[3] + 825 u[4]
   + 895 u[5] + 450 u[6] + 745 u[7] + 474 u[8] + 999 u[9] + 361 u[10]
   + 176 u[11] + 985 u[12] + 545 u[13] + 122 u[14] + 602 u[15] + 826 u[16]
   + 645 u[17] + 222 u[18] + 571 u[19] <= 3792
 primal_lower801: 711 u[0] + 499 u[1] + 841 u[2] + 898 u[3] + 675 u[4]
   + 649 u[5] + 836 u[6] + 947 u[7] + 20 u[8] + 881 u[9] + 539 u[10]
   + 466 u[11] + 107 u[12] + 387 u[13] + 652 u[14] + 884 u[15] + 596 u[16]
   + 151 u[17] + 944 u[18] + 949 u[19] <= 2105
 primal_lower802: 528 u[0] + 708 u[1] + 106 u[2] + 547 u[3] + 572 u[4]
   + 802 u[5] + 517 u[6] + 716 u[7] + 477 u[8] + 778 u[9] + 36 u[10]
   + 555 u[11] + 4 u[12] + 356 u[13] + 741 u[14] + 925 u[15] + 645 u[16]
   + 96 u[17] + 929 u[18] + 382 u[19] <= 929
 primal_lower803: 13 u[0] + 409 u[1] + 815 u[2] + 768 u[3] + 977 u[4]
   + 199 u[5] + 818 u[6] + 209 u[7] + 26 u[8] + 751 u[9] + 41 u[10]
   + 632 u[11] + 393 u[12] + 865 u[13] + 706 u[14] + 122 u[15] + 346 u[16]
   + 773 u[17] + 694 u[18] + 867 u[19] <= 1737
 primal_lower804: 675 u[0] + 876 u[1] + 750 u[2] + 139 u[3] + 192 u[4]
   + 169 u[5] + 257 u[6] + 619 u[7] + 881 u[8] + 530 u[9] + 983 u[10]
   + 99 u[11] + 328 u[12] + 916 u[13] + 24 u[14] + 500 u[15] + 705 u[16]
   + 880 u[17] + 781 u[18] + 758 u[19] <= 3687
 primal_lower805: 761 u[0] + 138 u[1] + 844 u[2] + 121 u[3] + 894 u[4]
   + 367 u[5] + 967 u[6] + 257 u[7] + 855 u[8] + 848 u[9] + 925 u[10]
   + 689 u[11] + 710 u[12] + 890 u[13] + 342 u[14] + 434 u[15] + 431 u[16]
   + 534 u[17] + 763 u[18] + 852 u[19] <= 2103
 primal_lower806: 414 u[0] + 594 u[1] + 32 u[2] + 281 u[3] + 730 u[4]
   + 648 u[5] + 555 u[6] + 810 u[7] + 139 u[8] + 184 u[9] + 250 u[10]
   + 369 u[11] + 378 u[12] + 666 u[13] + 635 u[14] + 107 u[15] + 387 u[16]
   + 270 u[17] + 495 u[18] + 684 u[19] <= 1438
 primal_lower807: 112 u[0] + 156 u[1] + 114 u[2] + 915 u[3] + 516 u[4]
   + 618 u[5] + 733 u[6] + 572 u[7] + 357 u[8] + 2 u[9] + 860 u[10]
   + 755 u[11] + 604 u[12] + 268 u[13] + 869 u[14] + 333 u[15] + 349 u[16]
   + 928 u[17] + 849 u[18] + 398 u[19] <= 3436
 primal_lower808: 235 u[0] + 548 u[1] + 718 u[2] + 763 u[3] + 664 u[4]
   + 945 u[5] + 585 u[6] + 171 u[7] + 633 u[8] + 242 u[9] + 359 u[10]
   + 627 u[11] + 328 u[12] + 148 u[13] + 944 u[14] + 540 u[15] + 681 u[16]
   + 192 u[17] + 685 u[18] + 198 u[19] <= 5103
 primal_lower809: 28 u[0] + 632 u[1] + 54 u[2] + 343 u[3] + 416 u[4]
   + 990 u[5] + 633 u[6] + 312 u[7] + 457 u[8] + 558 u[9] + 64 u[10]
   + 631 u[11] + 1000 u[12] + 608 u[13] + 273 u[14] + 49 u[15] + 825 u[16]
   + 524 u[17] + 373 u[18] + 602 u[19] <= 4686
 primal_lower810: 6 u[0] + 978 u[1] + 272 u[2] + 793 u[3] + 186 u[4]
   + 192 u[5] + 947 u[6] + 58 u[7] + 195 u[8] + 712 u[9] + 42 u[10]
   + 713 u[11] + 114 u[12] + 738 u[13] + 763 u[14] + 355 u[15] + 747 u[16]
   + 846 u[17] + 799 u[18] + 908 u[19] <= 3454
 primal_lower811: 11 u[0] + 983 u[1] + 549 u[2] + 398 u[3] + 279 u[4]
   + 37 u[5] + 872 u[6] + 487 u[7] + 288 u[8] + 29 u[9] + 255 u[10]
   + 702 u[11] + 343 u[12] + 375 u[13] + 776 u[14] + 304 u[15] + 352 u[16]
   + 435 u[17] + 476 u[18] + 937 u[19] <= 983
 primal_lower812: 410 u[0] + 11 u[1] + 237 u[2] + 938 u[3] + 167 u[4]
   + 520 u[5] + 792 u[6] + 586 u[7] + 936 u[8] + 961 u[9] + 614 u[10]
   + 938 u[11] + 775 u[12] + 571 u[13] + 935 u[14] + 563 u[15] + 48 u[16]
   + 879 u[17] + 868 u[18] + 885 u[19] <= 4211
 primal_lower813: 688 u[0] + 521 u[1] + 819 u[2] + 960 u[3] + 597 u[4]
   + 694 u[5] + 958 u[6] + 712 u[7] + 742 u[8] + 191 u[9] + 612 u[10]
   + 32 u[11] + 749 u[12] + 793 u[13] + 557 u[14] + 217 u[15] + 102 u[16]
   + 749 u[17] + 578 u[18] + 843 u[19] <= 6057
 primal_lower814: 267 u[0] + 407 u[1] + 917 u[2] + 310 u[3] + 623 u[4]
   + 757 u[5] + 648 u[6] + 215 u[7] + 112 u[8] + 853 u[9] + 791 u[10]
   + 206 u[11] + 583 u[12] + 839 u[13] + 640 u[14] + 920 u[15] + 40 u[16]
   + 667 u[17] + 580 u[18] + 193 u[19] <= 7045
 primal_lower815: 896 u[0] + 572 u[1] + 586 u[2] + 363 u[3] + 44 u[4]
   + 554 u[5] + 437 u[6] + 292 u[7] + 773 u[8] + 42 u[9] + 604 u[10]
   + 227 u[11] + 844 u[12] + 180 u[13] + 165 u[14] + 661 u[15] + 637 u[16]
   + 568 u[17] + 457 u[18] + 670 u[19] <= 1595
 primal_lower816: 743 u[0] + 216 u[1] + 626 u[2] + 55 u[3] + 372 u[4]
   + 965 u[5] + 909 u[6] + 271 u[7] + 141 u[8] + 278 u[9] + 779 u[10]
   + 575 u[11] + 132 u[12] + 248 u[13] + 260 u[14] + 184 u[15] + 389 u[16]
   + 20 u[17] + 889 u[18] + 810 u[19] <= 1477
 primal_lower817: 544 u[0] + 364 u[1] + 538 u[2] + 707 u[3] + 580 u[4]
   + 154 u[5] + 933 u[6] + 156 u[7] + 149 u[8] + 354 u[9] + 148 u[10]
   + 755 u[11] + 316 u[12] + 764 u[13] + 389 u[14] + 797 u[15] + 813 u[16]
   + 640 u[17] + 401 u[18] + 950 u[19] <= 5226
 primal_lower818: 366 u[0] + 351 u[1] + u[2] + 374 u[3] + 139 u[4]
   + 620 u[5] + 732 u[6] + 902 u[7] + 908 u[8] + 733 u[9] + 626 u[10]
   + 894 u[11] + 411 u[12] + 575 u[13] + 611 u[14] + 735 u[15] + 772 u[16]
   + 963 u[17] + 904 u[18] + 617 u[19] <= 6117
 primal_lower819: 813 u[0] + 921 u[1] + 831 u[2] + 536 u[3] + 361 u[4]
   + 119 u[5] + 210 u[6] + 569 u[7] + 842 u[8] + 591 u[9] + 145 u[10]
   + 680 u[11] + 857 u[12] + 521 u[13] + 434 u[14] + 226 u[15] + 18 u[16]
   + 605 u[17] + 310 u[18] + 411 u[19] <= 5000
 primal_lower820: 733 u[0] + 569 u[1] + 447 u[2] + 416 u[3] + 817 u[4]
   + 903 u[5] + 586 u[6] + 585 u[7] + 26 u[8] + 839 u[9] + 281 u[10]
   + 928 u[11] + 473 u[12] + 617 u[13] + 50 u[14] + 482 u[15] + 554 u[16]
   + 205 u[17] + 454 u[18] + 779 u[19] <= 3581
 primal_lower821: 264 u[0] + 377 u[1] + 971 u[2] + 240 u[3] + 797 u[4]
   + 110 u[5] + 734 u[6] + 680 u[7] + 326 u[8] + 599 u[9] + 988 u[10]
   + 208 u[11] + 549 u[12] + 353 u[13] + 29 u[14] + 665 u[15] + 918 u[16]
   + 325 u[17] + 658 u[18] + 219 u[19] <= 6673
 primal_lower822: 740 u[0] + 888 u[1] + 982 u[2] + 407 u[3] + 152 u[4]
   + 182 u[5] + 521 u[6] + 448 u[7] + 177 u[8] + 630 u[9] + 112 u[10]
   + 479 u[11] + 416 u[12] + 64 u[13] + 953 u[14] + 105 u[15] + 809 u[16]
   + 444 u[17] + 381 u[18] + 74 u[19] <= 4482
 primal_lower823: 577 u[0] + 453 u[1] + 299 u[2] + 356 u[3] + 525 u[4]
   + 387 u[5] + 742 u[6] + 101 u[7] + 166 u[8] + 107 u[9] + 541 u[10]
   + 780 u[11] + 333 u[12] + 117 u[13] + 614 u[14] + 94 u[15] + 374 u[16]
   + 657 u[17] + 162 u[18] + 799 u[19] <= 2728
 primal_lower824: 132 u[0] + 536 u[1] + 734 u[2] + 695 u[3] + 168 u[4]
   + 878 u[5] + 241 u[6] + 912 u[7] + 921 u[8] + 566 u[9] + 40 u[10]
   + 783 u[11] + 640 u[12] + 952 u[13] + 385 u[14] + 769 u[15] + 881 u[16]
   + 412 u[17] + 317 u[18] + 914 u[19] <= 3958
 primal_lower825: 660 u[0] + 392 u[1] + 262 u[2] + 767 u[3] + 720 u[4]
   + 350 u[5] + 265 u[6] + 352 u[7] + 185 u[8] + 358 u[9] + 640 u[10]
   + 567 u[11] + 480 u[12] + 928 u[13] + 25 u[14] + 41 u[15] + 121 u[16]
   + 724 u[17] + 989 u[18] + 42 u[19] <= 1478
 primal_lower826: 858 u[0] + 262 u[1] + 372 u[2] + 653 u[3] + 614 u[4]
   + 404 u[5] + 143 u[6] + 598 u[7] + 839 u[8] + 812 u[9] + 470 u[10]
   + 109 u[11] + 838 u[12] + 902 u[13] + 7 u[14] + 95 u[15] + 391 u[16]
   + 154 u[17] + 411 u[18] + 600 u[19] <= 3177
 primal_lower827: 766 u[0] + 895 u[1] + 617 u[2] + 734 u[3] + 163 u[4]
   + 444 u[5] + 828 u[6] + 542 u[7] + 12 u[8] + 541 u[9] + 554 u[10]
   + 398 u[11] + 771 u[12] + 495 u[13] + 739 u[14] + 311 u[15] + 268 u[16]
   + 875 u[17] + 456 u[18] + 953 u[19] <= 5681
 primal_lower828: 579 u[0] + 519 u[1] + 53 u[2] + 558 u[3] + 135 u[4]
   + 53 u[5] + 880 u[6] + 199 u[7] + 96 u[8] + 149 u[9] + 383 u[10]
   + 446 u[11] + 71 u[12] + 87 u[13] + 80 u[14] + 888 u[15] + 256 u[16]
   + 59 u[17] + 428 u[18] + 137 u[19] <= 2018
 primal_lower829: 656 u[0] + 148 u[1] + 554 u[2] + 187 u[3] + 44 u[4]
   + 482 u[5] + 53 u[6] + 868 u[7] + 645 u[8] + 26 u[9] + 596 u[10]
   + 251 u[11] + 860 u[12] + 116 u[13] + 245 u[14] + 501 u[15] + 13 u[16]
   + 232 u[17] + 489 u[18] + 894 u[19] <= 3930
 primal_lower830: 148 u[0] + 560 u[1] + 246 u[2] + 887 u[3] + 520 u[4]
   + 598 u[5] + 193 u[6] + 344 u[7] + 57 u[8] + 726 u[9] + 96 u[10]
   + 415 u[11] + 848 u[12] + 832 u[13] + 249 u[14] + 737 u[15] + 217 u[16]
   + 308 u[17] + 61 u[18] + 586 u[19] <= 1438
 primal_lower831: 836 u[0] + 21 u[1] + 271 u[2] + 996 u[3] + 321 u[4]
   + 898 u[5] + 426 u[6] + 156 u[7] + 818 u[8] + 691 u[9] + 272 u[10]
   + 260 u[11] + 937 u[12] + 221 u[13] + 369 u[14] + 837 u[15] + 442 u[16]
   + 289 u[17] + 542 u[18] + 335 u[19] <= 996
 primal_lower832: 67 u[0] + 76 u[1] + 350 u[2] + 923 u[3] + 864 u[4]
   + 713 u[5] + 601 u[6] + 683 u[7] + 577 u[8] + 890 u[9] + 135 u[10]
   + 875 u[11] + 472 u[12] + 892 u[13] + 64 u[14] + 700 u[15] + 209 u[16]
   + 32 u[17] + 597 u[18] + 726 u[19] <= 3482
 primal_lower833: 505 u[0] + 882 u[1] + 716 u[2] + 537 u[3] + 182 u[4]
   + 631 u[5] + 31 u[6] + 265 u[7] + 191 u[8] + 656 u[9] + 333 u[10]
   + 369 u[11] + 454 u[12] + 634 u[13] + 726 u[14] + 330 u[15] + 919 u[16]
   + 894 u[17] + 795 u[18] + 372 u[19] <= 3474
 primal_lower834: 235 u[0] + 807 u[1] + 653 u[2] + 406 u[3] + 903 u[4]
   + 525 u[5] + 712 u[6] + 615 u[7] + 872 u[8] + 93 u[9] + 735 u[10]
   + 758 u[11] + 183 u[12] + 871 u[13] + 472 u[14] + 664 u[15] + 384 u[16]
   + 283 u[17] + 148 u[18] + 73 u[19] <= 903
 primal_lower835: 651 u[0] + 687 u[1] + 557 u[2] + 22 u[3] + 159 u[4]
   + 613 u[5] + 24 u[6] + 479 u[7] + 656 u[8] + 229 u[9] + 607 u[10]
   + 758 u[11] + 351 u[12] + 615 u[13] + 88 u[14] + 16 u[15] + 168 u[16]
   + 603 u[17] + 988 u[18] + 289 u[19] <= 2853
 primal_lower836: 147 u[0] + 612 u[1] + 966 u[2] + 963 u[3] + 176 u[4]
   + 113 u[5] + 281 u[6] + 971 u[7] + 529 u[8] + 530 u[9] + 471 u[10]
   + 939 u[11] + 400 u[12] + 532 u[13] + 248 u[14] + 396 u[15] + 65 u[16]
   + 608 u[17] + 685 u[18] + 814 u[19] <= 971
 primal_lower837: 483 u[0] + 575 u[1] + 701 u[2] + 158 u[3] + 639 u[4]
   + 69 u[5] + 40 u[6] + 615 u[7] + 408 u[8] + 557 u[9] + 519 u[10]
   + 462 u[11] + 999 u[12] + 879 u[13] + 672 u[14] + 200 u[15] + 808 u[16]
   + 187 u[17] + 852 u[18] + 409 u[19] <= 1705
 primal_lower838: 834 u[0] + 934 u[1] + 12 u[2] + 933 u[3] + 862 u[4]
   + 484 u[5] + 447 u[6] + 670 u[7] + 95 u[8] + 812 u[9] + 886 u[10]
   + 173 u[11] + 926 u[12] + 702 u[13] + 143 u[14] + 511 u[15] + 551 u[16]
   + 698 u[17] + 635 u[18] + 432 u[19] <= 934
 primal_lower839: 65 u[0] + 426 u[1] + 340 u[2] + 233 u[3] + 518 u[4]
   + 799 u[5] + 559 u[6] + 465 u[7] + 935 u[8] + 912 u[9] + 821 u[10]
   + 673 u[11] + 270 u[12] + 970 u[13] + 462 u[14] + 298 u[15] + 271 u[16]
   + 662 u[17] + 259 u[18] + 92 u[19] <= 3343
 primal_lower840: 328 u[0] + 553 u[1] + 931 u[2] + 568 u[3] + 677 u[4]
   + 366 u[5] + 830 u[6] + 424 u[7] + 966 u[8] + 559 u[9] + 660 u[10]
   + 480 u[11] + 717 u[12] + 881 u[13] + 805 u[14] + 73 u[15] + 406 u[16]
   + 877 u[17] + 850 u[18] + 235 u[19] <= 2031
 primal_lower841: 159 u[0] + 755 u[1] + 681 u[2] + 882 u[3] + 835 u[4]
   + 81 u[5] + 580 u[6] + 395 u[7] + 932 u[8] + 313 u[9] + 219 u[10]
   + 122 u[11] + 459 u[12] + 931 u[13] + 932 u[14] + 316 u[15] + 540 u[16]
   + 223 u[17] + 32 u[18] + 549 u[19] <= 3312
 primal_lower842: 465 u[0] + 669 u[1] + 283 u[2] + 876 u[3] + 253 u[4]
   + 59 u[5] + 622 u[6] + 389 u[7] + 670 u[8] + 243 u[9] + 93 u[10]
   + 476 u[11] + 789 u[12] + 765 u[13] + 950 u[14] + 390 u[15] + 174 u[16]
   + 65 u[17] + 74 u[18] + 47 u[19] <= 1392
 primal_lower843: 558 u[0] + 927 u[1] + 513 u[2] + 942 u[3] + 803 u[4]
   + 988 u[5] + 940 u[6] + 606 u[7] + 756 u[8] + 765 u[9] + 186 u[10]
   + 710 u[11] + 635 u[12] + 359 u[13] + 635 u[14] + 87 u[15] + 268 u[16]
   + 987 u[17] + 768 u[18] + 897 u[19] <= 2221
 primal_lower844: 326 u[0] + 399 u[1] + 345 u[2] + 838 u[3] + 811 u[4]
   + 236 u[5] + 124 u[6] + 358 u[7] + 796 u[8] + 621 u[9] + 986 u[10]
   + 742 u[11] + 595 u[12] + 519 u[13] + 411 u[14] + 839 u[15] + 260 u[16]
   + 595 u[17] + 224 u[18] + 425 u[19] <= 6966
 primal_lower845: 411 u[0] + 255 u[1] + 485 u[2] + 310 u[3] + 471 u[4]
   + 21 u[5] + 728 u[6] + 663 u[7] + 16 u[8] + 53 u[9] + 879 u[10]
   + 822 u[11] + 583 u[12] + 167 u[13] + 560 u[14] + 488 u[15] + 1000 u[16]
   + 291 u[17] + 436 u[18] + 345 u[19] <= 5989
 primal_lower846: 938 u[0] + 262 u[1] + 276 u[2] + 309 u[3] + 782 u[4]
   + 508 u[5] + 655 u[6] + 214 u[7] + 959 u[8] + 28 u[9] + 390 u[10]
   + 845 u[11] + 630 u[12] + 358 u[13] + 895 u[14] + 207 u[15] + 351 u[16]
   + 186 u[17] + 835 u[18] + 776 u[19] <= 959
 primal_lower847: 250 u[0] + 382 u[1] + 564 u[2] + 445 u[3] + 718 u[4]
   + 620 u[5] + 23 u[6] + 894 u[7] + 807 u[8] + 628 u[9] + 510 u[10]
   + 773 u[11] + 574 u[12] + 870 u[13] + 727 u[14] + 223 u[15] + 175 u[16]
   + 402 u[17] + 451 u[18] + 72 u[19] <= 1684
 primal_lower848: 997 u[0] + 761 u[1] + 951 u[2] + 472 u[3] + 225 u[4]
   + 527 u[5] + 130 u[6] + 137 u[7] + 818 u[8] + 271 u[9] + 929 u[10]
   + 600 u[11] + 473 u[12] + 409 u[13] + 618 u[14] + 130 u[15] + 850 u[16]
   + 453 u[17] + 926 u[18] + 811 u[19] <= 3829
 primal_lower849: 675 u[0] + 732 u[1] + 606 u[2] + 619 u[3] + 304 u[4]
   + 745 u[5] + 817 u[6] + 507 u[7] + 513 u[8] + 10 u[9] + 567 u[10]
   + 939 u[11] + 584 u[12] + 684 u[13] + 672 u[14] + 988 u[15] + 481 u[16]
   + 560 u[17] + 437 u[18] + 358 u[19] <= 5899
 primal_lower850: 76 u[0] + 840 u[1] + 814 u[2] + 279 u[3] + 576 u[4]
   + 486 u[5] + 841 u[6] + 768 u[7] + 897 u[8] + 174 u[9] + 456 u[10]
   + 359 u[11] + 936 u[12] + 96 u[13] + 417 u[14] + 561 u[15] + 745 u[16]
   + 620 u[17] + 805 u[18] + 874 u[19] <= 5810
 primal_lower851: 79 u[0] + 672 u[1] + 114 u[2] + 615 u[3] + 772 u[4]
   + 381 u[5] + 669 u[6] + 135 u[7] + 845 u[8] + 830 u[9] + 675 u[10]
   + 879 u[11] + 708 u[12] + 32 u[13] + 732 u[14] + 984 u[15] + 853 u[16]
   + 260 u[17] + 417 u[18] + 602 u[19] <= 5627
 primal_lower852: 165 u[0] + 22 u[1] + 848 u[2] + 125 u[3] + 538 u[4]
   + 235 u[5] + 947 u[6] + 741 u[7] + 251 u[8] + 44 u[9] + 449 u[10]
   + 541 u[11] + 666 u[12] + 590 u[13] + 786 u[14] + 550 u[15] + 35 u[16]
   + 794 u[17] + 759 u[18] + 976 u[19] <= 1677
 primal_lower853: 286 u[0] + 754 u[1] + 368 u[2] + 73 u[3] + 482 u[4]
   + 712 u[5] + 979 u[6] + 842 u[7] + 203 u[8] + 888 u[9] + 690 u[10]
   + 449 u[11] + 218 u[12] + 882 u[13] + 603 u[14] + 67 u[15] + 355 u[16]
   + 150 u[17] + 287 u[18] + 524 u[19] <= 4906
 primal_lower854: 926 u[0] + 74 u[1] + 768 u[2] + 721 u[3] + 530 u[4]
   + 424 u[5] + 731 u[6] + 778 u[7] + 779 u[8] + 488 u[9] + 570 u[10]
   + 217 u[11] + 482 u[12] + 626 u[13] + 555 u[14] + 755 u[15] + 915 u[16]
   + 918 u[17] + 247 u[18] + 908 u[19] <= 926
 primal_lower855: 672 u[0] + 788 u[1] + 378 u[2] + 947 u[3] + 108 u[4]
   + 634 u[5] + 829 u[6] + 548 u[7] + 341 u[8] + 346 u[9] + 180 u[10]
   + 323 u[11] + 804 u[12] + 188 u[13] + 725 u[14] + 933 u[15] + 965 u[16]
   + 576 u[17] + 673 u[18] + 782 u[19] <= 7826
 primal_lower856: 441 u[0] + 250 u[1] + 228 u[2] + 841 u[3] + 702 u[4]
   + 351 u[5] + 831 u[6] + 753 u[7] + 847 u[8] + 832 u[9] + 693 u[10]
   + 593 u[11] + 6 u[12] + 50 u[13] + 806 u[14] + 578 u[15] + 999 u[16]
   + 302 u[17] + 779 u[18] + 780 u[19] <= 1943
 primal_lower857: 225 u[0] + 685 u[1] + 91 u[2] + 20 u[3] + 261 u[4]
   + 107 u[5] + 926 u[6] + 277 u[7] + 430 u[8] + 595 u[9] + 757 u[10]
   + 604 u[11] + 581 u[12] + 109 u[13] + 598 u[14] + 814 u[15] + 638 u[16]
   + 417 u[17] + 826 u[18] + 351 u[19] <= 4656
 primal_lower858: 9 u[0] + 362 u[1] + 420 u[2] + 433 u[3] + 38 u[4]
   + 743 u[5] + 399 u[6] + 217 u[7] + 95 u[8] + 792 u[9] + 485 u[10]
   + 897 u[11] + 998 u[12] + 762 u[13] + 494 u[14] + 506 u[15] + 287 u[16]
   + 670 u[17] + 291 u[18] + 572 u[19] <= 4735
 primal_lower859: 9 u[0] + 338 u[1] + 244 u[2] + 977 u[3] + 838 u[4]
   + 863 u[5] + 839 u[6] + 897 u[7] + 463 u[8] + 632 u[9] + 957 u[10]
   + 793 u[11] + 238 u[12] + 474 u[13] + 574 u[14] + 994 u[15] + 207 u[16]
   + 862 u[17] + 683 u[18] + 380 u[19] <= 8174
 primal_lower860: 229 u[0] + 326 u[1] + 232 u[2] + 29 u[3] + 818 u[4]
   + 419 u[5] + 619 u[6] + 533 u[7] + 739 u[8] + 508 u[9] + 393 u[10]
   + 925 u[11] + 346 u[12] + 134 u[13] + 770 u[14] + 158 u[15] + 467 u[16]
   + 426 u[17] + 15 u[18] + 528 u[19] <= 4307
 primal_lower861: 763 u[0] + 527 u[1] + 77 u[2] + 494 u[3] + 255 u[4]
   + 901 u[5] + 208 u[6] + 335 u[7] + 88 u[8] + 717 u[9] + 831 u[10]
   + 342 u[11] + 63 u[12] + 807 u[13] + 368 u[14] + 600 u[15] + 136 u[16]
   + 443 u[17] + 60 u[18] + 969 u[19] <= 1497
 primal_lower862: 478 u[0] + 642 u[1] + 456 u[2] + 489 u[3] + 666 u[4]
   + 488 u[5] + 851 u[6] + 202 u[7] + 579 u[8] + 72 u[9] + 418 u[10]
   + 417 u[11] + 170 u[12] + 490 u[13] + 227 u[14] + 443 u[15] + 251 u[16]
   + 86 u[17] + 439 u[18] + 172 u[19] <= 4018
 primal_lower863: 612 u[0] + 960 u[1] + 486 u[2] + 479 u[3] + 648 u[4]
   + 590 u[5] + 185 u[6] + 512 u[7] + 809 u[8] + 630 u[9] + 528 u[10]
   + 487 u[11] + 872 u[12] + 888 u[13] + 801 u[14] + 625 u[15] + 321 u[16]
   + 444 u[17] + 813 u[18] + 442 u[19] <= 4044
 primal_lower864: 493 u[0] + 150 u[1] + 848 u[2] + 861 u[3] + 74 u[4]
   + 867 u[5] + 627 u[6] + 93 u[7] + 67 u[8] + 356 u[9] + 905 u[10]
   + 973 u[11] + 450 u[12] + 454 u[13] + 314 u[14] + 902 u[15] + 787 u[16]
   + 514 u[17] + 23 u[18] + 456 u[19] <= 6809
 primal_lower865: 851 u[0] + 671 u[1] + 157 u[2] + 214 u[3] + 255 u[4]
   + 93 u[5] + 968 u[6] + 271 u[7] + 504 u[8] + 237 u[9] + 335 u[10]
   + 174 u[11] + 967 u[12] + 327 u[13] + 568 u[14] + 888 u[15] + 288 u[16]
   + 667 u[17] + 892 u[18] + 377 u[19] <= 1617
 primal_lower866: 567 u[0] + 315 u[1] + 129 u[2] + 378 u[3] + 939 u[4]
   + 577 u[5] + 316 u[6] + 195 u[7] + 940 u[8] + 161 u[9] + 843 u[10]
   + 690 u[11] + 555 u[12] + 19 u[13] + 380 u[14] + 996 u[15] + 412 u[16]
   + 399 u[17] + 744 u[18] + 589 u[19] <= 5072
 primal_lower867: 635 u[0] + 471 u[1] + 45 u[2] + 830 u[3] + 807 u[4]
   + 85 u[5] + 72 u[6] + 47 u[7] + 712 u[8] + 261 u[9] + 551 u[10]
   + 126 u[11] + 143 u[12] + 735 u[13] + 32 u[14] + 240 u[15] + 832 u[16]
   + 707 u[17] + 436 u[18] + 617 u[19] <= 832
 primal_lower868: 807 u[0] + 576 u[1] + 706 u[2] + 951 u[3] + 476 u[4]
   + 109 u[5] + 645 u[6] + 207 u[7] + 565 u[8] + 366 u[9] + 307 u[10]
   + 239 u[11] + 980 u[12] + 824 u[13] + 668 u[14] + 56 u[15] + 589 u[16]
   + 900 u[17] + 937 u[18] + 98 u[19] <= 1834
 primal_lower869: 856 u[0] + 169 u[1] + 995 u[2] + 184 u[3] + 285 u[4]
   + 590 u[5] + 702 u[6] + 112 u[7] + 614 u[8] + 79 u[9] + 396 u[10]
   + 136 u[11] + 173 u[12] + 401 u[13] + 437 u[14] + 641 u[15] + 614 u[16]
   + 917 u[17] + 314 u[18] + 603 u[19] <= 6145
 primal_lower870: 322 u[0] + 203 u[1] + 909 u[2] + 714 u[3] + 79 u[4]
   + 808 u[5] + 872 u[6] + 626 u[7] + 680 u[8] + 753 u[9] + 998 u[10]
   + 554 u[11] + 359 u[12] + 971 u[13] + 447 u[14] + 811 u[15] + 376 u[16]
   + 375 u[17] + 932 u[18] + 845 u[19] <= 6317
 primal_lower871: 752 u[0] + 657 u[1] + 883 u[2] + 888 u[3] + 789 u[4]
   + 382 u[5] + 822 u[6] + 72 u[7] + 422 u[8] + 975 u[9] + 420 u[10]
   + 152 u[11] + 925 u[12] + 817 u[13] + 77 u[14] + 993 u[15] + 230 u[16]
   + 253 u[17] + 882 u[18] + 611 u[19] <= 993
 primal_lower872: 580 u[0] + 325 u[1] + 223 u[2] + 444 u[3] + 145 u[4]
   + 338 u[5] + 218 u[6] + 156 u[7] + 618 u[8] + 83 u[9] + 624 u[10]
   + 372 u[11] + 769 u[12] + 437 u[13] + 777 u[14] + 637 u[15] + 906 u[16]
   + u[17] + 846 u[18] + 959 u[19] <= 3152
 primal_lower873: 303 u[0] + 507 u[1] + 41 u[2] + 298 u[3] + 363 u[4]
   + 9 u[5] + 364 u[6] + 699 u[7] + 940 u[8] + 521 u[9] + 667 u[10]
   + 498 u[11] + 491 u[12] + 723 u[13] + 172 u[14] + 372 u[15] + 372 u[16]
   + 359 u[17] + 16 u[18] + 717 u[19] <= 2810
 primal_lower874: 34 u[0] + 678 u[1] + 68 u[2] + 21 u[3] + 558 u[4]
   + 12 u[5] + 655 u[6] + 822 u[7] + 679 u[8] + 308 u[9] + 366 u[10]
   + 381 u[11] + 830 u[12] + 838 u[13] + 591 u[14] + 359 u[15] + 511 u[16]
   + 530 u[17] + 515 u[18] + 136 u[19] <= 1482
 primal_lower875: 928 u[0] + 721 u[1] + 107 u[2] + 816 u[3] + 333 u[4]
   + 14 u[5] + 246 u[6] + 256 u[7] + 966 u[8] + 951 u[9] + 92 u[10]
   + 736 u[11] + 389 u[12] + 617 u[13] + 805 u[14] + 985 u[15] + 782 u[16]
   + 861 u[17] + 426 u[18] + 915 u[19] <= 1991
 primal_lower876: 825 u[0] + 149 u[1] + 43 u[2] + 524 u[3] + 493 u[4]
   + 771 u[5] + 366 u[6] + 197 u[7] + 982 u[8] + 691 u[9] + 829 u[10]
   + 268 u[11] + 805 u[12] + 949 u[13] + 30 u[14] + 310 u[15] + 814 u[16]
   + 921 u[17] + 786 u[18] + 527 u[19] <= 7520
 primal_lower877: 854 u[0] + 943 u[1] + 297 u[2] + 870 u[3] + 651 u[4]
   + 108 u[5] + 484 u[6] + 142 u[7] + 532 u[8] + 261 u[9] + 418 u[10]
   + 182 u[11] + 515 u[12] + 671 u[13] + 451 u[14] + 895 u[15] + 292 u[16]
   + 995 u[17] + 608 u[18] + 377 u[19] <= 1757
 primal_lower878: 682 u[0] + 403 u[1] + 693 u[2] + 698 u[3] + 687 u[4]
   + 704 u[5] + 424 u[6] + 106 u[7] + 416 u[8] + 561 u[9] + 814 u[10]
   + 258 u[11] + 383 u[12] + 387 u[13] + 647 u[14] + 587 u[15] + 432 u[16]
   + 103 u[17] + 548 u[18] + 701 u[19] <= 1705
 primal_lower879: 622 u[0] + 319 u[1] + 729 u[2] + 374 u[3] + 339 u[4]
   + 828 u[5] + 372 u[6] + 366 u[7] + 676 u[8] + 125 u[9] + 770 u[10]
   + 166 u[11] + 699 u[12] + 295 u[13] + 547 u[14] + 327 u[15] + 156 u[16]
   + 307 u[17] + 192 u[18] + 921 u[19] <= 6086
 primal_lower880: 979 u[0] + 276 u[1] + 174 u[2] + 779 u[3] + 8 u[4]
   + 817 u[5] + 9 u[6] + 419 u[7] + 185 u[8] + 794 u[9] + 855 u[10]
   + 371 u[11] + 704 u[12] + 556 u[13] + 968 u[14] + 996 u[15] + 953 u[16]
   + 160 u[17] + 429 u[18] + 230 u[19] <= 7108
 primal_lower881: 796 u[0] + 869 u[1] + 47 u[2] + 404 u[3] + 737 u[4]
   + 834 u[5] + 282 u[6] + 52 u[7] + 50 u[8] + 675 u[9] + 824 u[10]
   + 748 u[11] + 729 u[12] + 21 u[13] + 417 u[14] + 869 u[15] + 66 u[16]
   + 697 u[17] + 350 u[18] + 631 u[19] <= 3366
 primal_lower882: 430 u[0] + 266 u[1] + 184 u[2] + 385 u[3] + 418 u[4]
   + 496 u[5] + 835 u[6] + 506 u[7] + 139 u[8] + 776 u[9] + 890 u[10]
   + 425 u[11] + 730 u[12] + 290 u[13] + 619 u[14] + 99 u[15] + 27 u[16]
   + 54 u[17] + 247 u[18] + 308 u[19] <= 5416
 primal_lower883: 586 u[0] + 478 u[1] + 540 u[2] + 29 u[3] + 30 u[4]
   + 348 u[5] + 783 u[6] + 326 u[7] + 895 u[8] + 500 u[9] + 270 u[10]
   + 813 u[11] + 646 u[12] + 134 u[13] + 735 u[14] + 999 u[15] + 335 u[16]
   + 706 u[17] + 411 u[18] + 272 u[19] <= 1639
 primal_lower884: 230 u[0] + 967 u[1] + 753 u[2] + 534 u[3] + 91 u[4]
   + 340 u[5] + 484 u[6] + 798 u[7] + 100 u[8] + 85 u[9] + 290 u[10]
   + 270 u[11] + 835 u[12] + 703 u[13] + 547 u[14] + 247 u[15] + 884 u[16]
   + 859 u[17] + 448 u[18] + 385 u[19] <= 6566
 primal_lower885: 516 u[0] + 477 u[1] + 559 u[2] + 100 u[3] + 465 u[4]
   + 178 u[5] + 650 u[6] + 324 u[7] + 642 u[8] + 99 u[9] + 456 u[10]
   + 492 u[11] + 561 u[12] + 565 u[13] + 937 u[14] + 373 u[15] + 906 u[16]
   + 601 u[17] + 414 u[18] + 175 u[19] <= 937
 primal_lower886: 968 u[0] + 364 u[1] + 50 u[2] + 907 u[3] + 300 u[4]
   + 122 u[5] + 717 u[6] + 76 u[7] + 389 u[8] + 426 u[9] + 356 u[10]
   + 419 u[11] + 772 u[12] + 972 u[13] + 565 u[14] + 837 u[15] + 965 u[16]
   + 744 u[17] + 977 u[18] + 174 u[19] <= 7400
 primal_lower887: 322 u[0] + 491 u[1] + 117 u[2] + 298 u[3] + 591 u[4]
   + 144 u[5] + 168 u[6] + 154 u[7] + 576 u[8] + 553 u[9] + 638 u[10]
   + 794 u[11] + 327 u[12] + 315 u[13] + 127 u[14] + 323 u[15] + 504 u[16]
   + 479 u[17] + 804 u[18] + 21 u[19] <= 3873
 primal_lower888: 13 u[0] + 166 u[1] + 208 u[2] + 45 u[3] + 58 u[4]
   + 787 u[5] + 955 u[6] + 501 u[7] + 907 u[8] + 900 u[9] + 473 u[10]
   + 837 u[11] + 322 u[12] + 46 u[13] + 682 u[14] + 950 u[15] + 371 u[16]
   + 322 u[17] + 255 u[18] + 16 u[19] <= 2938
 primal_lower889: 500 u[0] + 77 u[1] + 7 u[2] + 796 u[3] + 345 u[4]
   + 274 u[5] + 834 u[6] + 396 u[7] + 562 u[8] + 243 u[9] + 928 u[10]
   + 548 u[11] + 809 u[12] + 949 u[13] + 465 u[14] + 453 u[15] + 178 u[16]
   + 721 u[17] + 630 u[18] + 47 u[19] <= 4881
 primal_lower890: 991 u[0] + 235 u[1] + 41 u[2] + 586 u[3] + 91 u[4]
   + 601 u[5] + 636 u[6] + 347 u[7] + 260 u[8] + 689 u[9] + 131 u[10]
   + 242 u[11] + 411 u[12] + 219 u[13] + 236 u[14] + 964 u[15] + 844 u[16]
   + 599 u[17] + 544 u[18] + 317 u[19] <= 2994
 primal_lower891: 634 u[0] + 574 u[1] + 564 u[2] + 629 u[3] + 190 u[4]
   + 820 u[5] + 831 u[6] + 382 u[7] + 111 u[8] + 916 u[9] + 686 u[10]
   + 445 u[11] + 766 u[12] + 254 u[13] + 55 u[14] + 879 u[15] + 847 u[16]
   + 266 u[17] + 499 u[18] + 696 u[19] <= 1840
 primal_lower892: 823 u[0] + 123 u[1] + 993 u[2] + 914 u[3] + 571 u[4]
   + 865 u[5] + 652 u[6] + 483 u[7] + 12 u[8] + 17 u[9] + 43 u[10]
   + 754 u[11] + 59 u[12] + 291 u[13] + 820 u[14] + 956 u[15] + 484 u[16]
   + 375 u[17] + 408 u[18] + 437 u[19] <= 1680
 primal_lower893: 784 u[0] + 428 u[1] + 330 u[2] + 555 u[3] + 948 u[4]
   + 242 u[5] + 93 u[6] + 36 u[7] + 117 u[8] + 738 u[9] + 404 u[10]
   + 739 u[11] + 124 u[12] + 428 u[13] + 61 u[14] + 445 u[15] + 261 u[16]
   + 192 u[17] + 233 u[18] + 950 u[19] <= 1351
 primal_lower894: 246 u[0] + 962 u[1] + 384 u[2] + u[3] + 530 u[4]
   + 440 u[5] + 867 u[6] + 474 u[7] + 787 u[8] + 312 u[9] + 994 u[10]
   + 313 u[11] + 994 u[12] + 274 u[13] + 899 u[14] + 611 u[15] + 347 u[16]
   + 150 u[17] + 231 u[18] + 788 u[19] <= 5302
 primal_lower895: 935 u[0] + 248 u[1] + 858 u[2] + 183 u[3] + 636 u[4]
   + 549 u[5] + 413 u[6] + 743 u[7] + 693 u[8] + 982 u[9] + 923 u[10]
   + 895 u[11] + 636 u[12] + 88 u[13] + 428 u[14] + 72 u[15] + 509 u[16]
   + 84 u[17] + 193 u[18] + 666 u[19] <= 1789
 primal_lower896: 903 u[0] + 155 u[1] + 33 u[2] + 914 u[3] + 171 u[4]
   + 857 u[5] + 476 u[6] + 923 u[7] + 436 u[8] + 505 u[9] + 211 u[10]
   + 474 u[11] + 67 u[12] + 491 u[13] + 212 u[14] + 820 u[15] + 132 u[16]
   + 39 u[17] + 208 u[18] + 349 u[19] <= 2792
 primal_lower897: 523 u[0] + 252 u[1] + 814 u[2] + 651 u[3] + 592 u[4]
   + 481 u[5] + 689 u[6] + 955 u[7] + 305 u[8] + 562 u[9] + 63 u[10]
   + 547 u[11] + 784 u[12] + 876 u[13] + 984 u[14] + 532 u[15] + 401 u[16]
   + 72 u[17] + 165 u[18] + 854 u[19] <= 1850
 primal_lower898: 213 u[0] + 265 u[1] + 879 u[2] + 840 u[3] + 129 u[4]
   + 263 u[5] + 770 u[6] + 649 u[7] + 482 u[8] + 495 u[9] + 73 u[10]
   + 16 u[11] + 633 u[12] + 681 u[13] + 2 u[14] + 922 u[15] + 842 u[16]
   + 101 u[17] + 350 u[18] + 235 u[19] <= 1473
 primal_lower899: 647 u[0] + 760 u[1] + 130 u[2] + 751 u[3] + 908 u[4]
   + 893 u[5] + 677 u[6] + 279 u[7] + 461 u[8] + 630 u[9] + 939 u[10]
   + 79 u[11] + 940 u[12] + 456 u[13] + 308 u[14] + 592 u[15] + 61 u[16]
   + 820 u[17] + 321 u[18] + 202 u[19] <= 3618
 primal_lower900: 273 u[0] + 770 u[1] + 292 u[2] + 945 u[3] + 646 u[4]
   + 439 u[5] + 311 u[6] + 897 u[7] + 327 u[8] + 576 u[9] + 661 u[10]
   + 673 u[11] + 950 u[12] + 842 u[13] + 174 u[14] + 666 u[15] + 663 u[16]
   + 726 u[17] + 371 u[18] + 796 u[19] <= 3999
 primal_lower901: 573 u[0] + 889 u[1] + 975 u[2] + 200 u[3] + 449 u[4]
   + 783 u[5] + 146 u[6] + 569 u[7] + 778 u[8] + 463 u[9] + 417 u[10]
   + 160 u[11] + 393 u[12] + 97 u[13] + 626 u[14] + 162 u[15] + 514 u[16]
   + 277 u[17] + 598 u[18] + 307 u[19] <= 975
 primal_lower902: 730 u[0] + 683 u[1] + 565 u[2] + 410 u[3] + 615 u[4]
   + 168 u[5] + 144 u[6] + 658 u[7] + 960 u[8] + 865 u[9] + 510 u[10]
   + 10 u[11] + 855 u[12] + 51 u[13] + 575 u[14] + 419 u[15] + 528 u[16]
   + 839 u[17] + 60 u[18] + 389 u[19] <= 1672
 primal_lower903: 71 u[0] + 579 u[1] + 465 u[2] + 626 u[3] + 403 u[4]
   + u[5] + 316 u[6] + 635 u[7] + 212 u[8] + 329 u[9] + 467 u[10]
   + 114 u[11] + 147 u[12] + 859 u[13] + 228 u[14] + 660 u[15] + 700 u[16]
   + 367 u[17] + 824 u[18] + 405 u[19] <= 4204
 primal_lower904: 748 u[0] + 405 u[1] + 943 u[2] + 772 u[3] + 233 u[4]
   + 186 u[5] + 698 u[6] + 196 u[7] + 562 u[8] + 291 u[9] + 656 u[10]
   + 684 u[11] + 713 u[12] + 621 u[13] + 881 u[14] + 85 u[15] + 578 u[16]
   + 785 u[17] + 606 u[18] + 295 u[19] <= 5469
 primal_lower905: 827 u[0] + 687 u[1] + 317 u[2] + 878 u[3] + 647 u[4]
   + 661 u[5] + 248 u[6] + 15 u[7] + 400 u[8] + 661 u[9] + 167 u[10]
   + 566 u[11] + 191 u[12] + 311 u[13] + 808 u[14] + 80 u[15] + 344 u[16]
   + 755 u[17] + 972 u[18] + 121 u[19] <= 972
 primal_lower906: 102 u[0] + 87 u[1] + 385 u[2] + 734 u[3] + 963 u[4]
   + 836 u[5] + 484 u[6] + 638 u[7] + 204 u[8] + 613 u[9] + 674 u[10]
   + 198 u[11] + 67 u[12] + 415 u[13] + 67 u[14] + 575 u[15] + 300 u[16]
   + 883 u[17] + 544 u[18] + 169 u[19] <= 2979
 primal_lower907: 396 u[0] + 616 u[1] + 502 u[2] + 223 u[3] + 576 u[4]
   + 478 u[5] + 625 u[6] + 872 u[7] + 489 u[8] + 990 u[9] + 520 u[10]
   + 359 u[11] + 632 u[12] + 376 u[13] + 129 u[14] + 785 u[15] + 769 u[16]
   + 508 u[17] + 637 u[18] + 906 u[19] <= 3796
 primal_lower908: 872 u[0] + 188 u[1] + 722 u[2] + 651 u[3] + 468 u[4]
   + 866 u[5] + 677 u[6] + 220 u[7] + 93 u[8] + 418 u[9] + 244 u[10]
   + 203 u[11] + 764 u[12] + 948 u[13] + 877 u[14] + 197 u[15] + 29 u[16]
   + 672 u[17] + 697 u[18] + 574 u[19] <= 1730
 primal_lower909: 768 u[0] + 937 u[1] + 275 u[2] + 128 u[3] + 221 u[4]
   + 742 u[5] + 374 u[6] + 208 u[7] + 958 u[8] + 471 u[9] + 60 u[10]
   + 40 u[11] + 693 u[12] + 489 u[13] + 309 u[14] + 913 u[15] + 6 u[16]
   + 813 u[17] + 930 u[18] + 723 u[19] <= 6705
 primal_lower910: 439 u[0] + 208 u[1] + 378 u[2] + 447 u[3] + 836 u[4]
   + 53 u[5] + 285 u[6] + 87 u[7] + 93 u[8] + 902 u[9] + 187 u[10]
   + 951 u[11] + 84 u[12] + 248 u[13] + 236 u[14] + 784 u[15] + 261 u[16]
   + 364 u[17] + 305 u[18] + 10 u[19] <= 3579
 primal_lower911: 788 u[0] + 880 u[1] + 646 u[2] + 535 u[3] + 568 u[4]
   + 310 u[5] + 945 u[6] + 280 u[7] + 633 u[8] + 134 u[9] + 168 u[10]
   + 183 u[11] + 920 u[12] + 576 u[13] + 201 u[14] + 425 u[15] + 585 u[16]
   + 76 u[17] + 21 u[18] + 778 u[19] <= 3217
 primal_lower912: 832 u[0] + 777 u[1] + 563 u[2] + 416 u[3] + 645 u[4]
   + 30 u[5] + 406 u[6] + 672 u[7] + 278 u[8] + 359 u[9] + 228 u[10]
   + 752 u[11] + 509 u[12] + 217 u[13] + 397 u[14] + 297 u[15] + 334 u[16]
   + 989 u[17] + 42 u[18] + 995 u[19] <= 1623
 primal_lower913: 608 u[0] + 196 u[1] + 594 u[2] + 459 u[3] + 316 u[4]
   + 114 u[5] + 861 u[6] + 228 u[7] + 957 u[8] + 890 u[9] + 596 u[10]
   + 699 u[11] + 156 u[12] + 108 u[13] + 61 u[14] + 621 u[15] + 597 u[16]
   + 648 u[17] + 737 u[18] + 246 u[19] <= 1615
 primal_lower914: 49 u[0] + 858 u[1] + 548 u[2] + 409 u[3] + 766 u[4]
   + 295 u[5] + 711 u[6] + 801 u[7] + 503 u[8] + 424 u[9] + 349 u[10]
   + 545 u[11] + 534 u[12] + 954 u[13] + 550 u[14] + 866 u[15] + 367 u[16]
   + 806 u[17] + 339 u[18] + 188 u[19] <= 1810
 primal_lower915: 552 u[0] + 449 u[1] + 147 u[2] + 160 u[3] + 261 u[4]
   + 14 u[5] + 374 u[6] + 456 u[7] + 270 u[8] + 503 u[9] + 636 u[10]
   + 560 u[11] + 93 u[12] + 553 u[13] + 285 u[14] + 753 u[15] + 422 u[16]
   + 557 u[17] + 602 u[18] + 787 u[19] <= 787
 primal_lower916: 351 u[0] + 131 u[1] + 817 u[2] + 394 u[3] + 243 u[4]
   + 769 u[5] + 252 u[6] + 539 u[7] + 124 u[8] + 441 u[9] + 779 u[10]
   + 578 u[11] + 99 u[12] + 763 u[13] + 204 u[14] + 596 u[15] + 364 u[16]
   + 639 u[17] + 192 u[18] + 317 u[19] <= 2864
 primal_lower917: 947 u[0] + 175 u[1] + 589 u[2] + 454 u[3] + 287 u[4]
   + 445 u[5] + 536 u[6] + 39 u[7] + 464 u[8] + 413 u[9] + 143 u[10]
   + 782 u[11] + 935 u[12] + 7 u[13] + 1000 u[14] + 480 u[15] + 712 u[16]
   + 891 u[17] + 932 u[18] + 209 u[19] <= 1000
 primal_lower918: 366 u[0] + 567 u[1] + 177 u[2] + 830 u[3] + 339 u[4]
   + 500 u[5] + 100 u[6] + 222 u[7] + 540 u[8] + 893 u[9] + 346 u[10]
   + 190 u[11] + 363 u[12] + 863 u[13] + 531 u[14] + 247 u[15] + 852 u[16]
   + 771 u[17] + 512 u[18] + 809 u[19] <= 3339
 primal_lower919: 637 u[0] + 334 u[1] + 560 u[2] + 381 u[3] + 810 u[4]
   + 747 u[5] + 955 u[6] + 845 u[7] + 339 u[8] + 884 u[9] + 601 u[10]
   + 749 u[11] + 2 u[12] + 14 u[13] + 394 u[14] + 790 u[15] + 779 u[16]
   + 266 u[17] + 223 u[18] + 816 u[19] <= 5563
 primal_lower920: 308 u[0] + 461 u[1] + 599 u[2] + 828 u[3] + 993 u[4]
   + 338 u[5] + 202 u[6] + 308 u[7] + 754 u[8] + 843 u[9] + 504 u[10]
   + 772 u[11] + 977 u[12] + 661 u[13] + 185 u[14] + 661 u[15] + 938 u[16]
   + 841 u[17] + 878 u[18] + 519 u[19] <= 993
 primal_lower921: 93 u[0] + 534 u[1] + 392 u[2] + 565 u[3] + 738 u[4]
   + 395 u[5] + 411 u[6] + 245 u[7] + 699 u[8] + 908 u[9] + 57 u[10]
   + 717 u[11] + 74 u[12] + 478 u[13] + 426 u[14] + 134 u[15] + 51 u[16]
   + 306 u[17] + 207 u[18] + 136 u[19] <= 3783
 primal_lower922: 866 u[0] + 734 u[1] + 924 u[2] + 349 u[3] + 294 u[4]
   + 100 u[5] + 887 u[6] + 334 u[7] + 447 u[8] + 524 u[9] + 942 u[10]
   + 869 u[11] + 46 u[12] + 934 u[13] + 279 u[14] + 351 u[15] + 7 u[16]
   + 650 u[17] + 395 u[18] + 688 u[19] <= 1770
 primal_lower923: 576 u[0] + 212 u[1] + 914 u[2] + 579 u[3] + 764 u[4]
   + 18 u[5] + 333 u[6] + 764 u[7] + 925 u[8] + 338 u[9] + 260 u[10]
   + 771 u[11] + 820 u[12] + 260 u[13] + 533 u[14] + 149 u[15] + 493 u[16]
   + 864 u[17] + 561 u[18] + 966 u[19] <= 5550
 primal_lower924: 26 u[0] + 115 u[1] + 93 u[2] + 850 u[3] + 919 u[4]
   + 40 u[5] + 592 u[6] + 882 u[7] + 832 u[8] + 425 u[9] + 462 u[10]
   + 946 u[11] + 271 u[12] + 603 u[13] + 63 u[14] + 811 u[15] + 304 u[16]
   + 879 u[17] + 828 u[18] + 573 u[19] <= 1752
 primal_lower925: 524 u[0] + 461 u[1] + 63 u[2] + 700 u[3] + 729 u[4]
   + 962 u[5] + 594 u[6] + 468 u[7] + 242 u[8] + 867 u[9] + 96 u[10]
   + 764 u[11] + 81 u[12] + 181 u[13] + 753 u[14] + 917 u[15] + 594 u[16]
   + 425 u[17] + 390 u[18] + 951 u[19] <= 5381
 primal_lower926: 773 u[0] + 9 u[1] + 879 u[2] + 400 u[3] + 721 u[4]
   + 495 u[5] + 26 u[6] + 217 u[7] + 690 u[8] + 847 u[9] + 561 u[10]
   + 488 u[11] + 841 u[12] + 969 u[13] + 490 u[14] + 962 u[15] + 866 u[16]
   + 93 u[17] + 518 u[18] + 467 u[19] <= 3770
 primal_lower927: 152 u[0] + 705 u[1] + 883 u[2] + 96 u[3] + 525 u[4]
   + 806 u[5] + 582 u[6] + 560 u[7] + 54 u[8] + 743 u[9] + 516 u[10]
   + 808 u[11] + 13 u[12] + 561 u[13] + 189 u[14] + 785 u[15] + 126 u[16]
   + 77 u[17] + 722 u[18] + 315 u[19] <= 6145
 primal_lower928: 109 u[0] + 230 u[1] + 720 u[2] + 317 u[3] + 434 u[4]
   + 315 u[5] + 59 u[6] + 69 u[7] + 331 u[8] + 660 u[9] + 225 u[10]
   + 877 u[11] + 186 u[12] + 390 u[13] + 330 u[14] + 638 u[15] + 771 u[16]
   + 706 u[17] + 567 u[18] + 952 u[19] <= 1481
 primal_lower929: 999 u[0] + 587 u[1] + 433 u[2] + 218 u[3] + 891 u[4]
   + 753 u[5] + 308 u[6] + 291 u[7] + 132 u[8] + 41 u[9] + 907 u[10]
   + 946 u[11] + 827 u[12] + 115 u[13] + 76 u[14] + 412 u[15] + 508 u[16]
   + 775 u[17] + 792 u[18] + 389 u[19] <= 6933
 primal_lower930: 807 u[0] + 755 u[1] + 769 u[2] + 146 u[3] + 883 u[4]
   + 41 u[5] + 532 u[6] + 379 u[7] + 236 u[8] + 433 u[9] + 571 u[10]
   + 794 u[11] + 907 u[12] + 419 u[13] + 660 u[14] + 596 u[15] + 252 u[16]
   + 935 u[17] + 808 u[18] + 45 u[19] <= 935
 primal_lower931: 714 u[0] + 43 u[1] + 661 u[2] + 2 u[3] + 903 u[4]
   + 504 u[5] + 784 u[6] + 90 u[7] + 616 u[8] + 497 u[9] + 926 u[10]
   + 666 u[11] + 583 u[12] + 859 u[13] + 879 u[14] + 475 u[15] + 448 u[16]
   + 343 u[17] + 868 u[18] + 877 u[19] <= 3912
 primal_lower932: 938 u[0] + 934 u[1] + 172 u[2] + 325 u[3] + 582 u[4]
   + 412 u[5] + 127 u[6] + 494 u[7] + 295 u[8] + 860 u[9] + 694 u[10]
   + 645 u[11] + 670 u[12] + 510 u[13] + 959 u[14] + 255 u[15] + 863 u[16]
   + 34 u[17] + 75 u[18] + 544 u[19] <= 6925
 primal_lower933: 859 u[0] + 308 u[1] + 86 u[2] + 643 u[3] + 24 u[4]
   + 641 u[5] + 217 u[6] + 3 u[7] + 433 u[8] + 258 u[9] + 767 u[10]
   + 435 u[11] + 248 u[12] + 828 u[13] + 736 u[14] + 868 u[15] + 201 u[16]
   + 520 u[17] + 45 u[18] + 806 u[19] <= 5950
 primal_lower934: 417 u[0] + 778 u[1] + 532 u[2] + 409 u[3] + 62 u[4]
   + 7 u[5] + 695 u[6] + 713 u[7] + 927 u[8] + 312 u[9] + 693 u[10]
   + 305 u[11] + 542 u[12] + 618 u[13] + 590 u[14] + 674 u[15] + 127 u[16]
   + 526 u[17] + 659 u[18] + 212 u[19] <= 927
 primal_lower935: 653 u[0] + 353 u[1] + 367 u[2] + 304 u[3] + 449 u[4]
   + 727 u[5] + 706 u[6] + 649 u[7] + 466 u[8] + 463 u[9] + 641 u[10]
   + 88 u[11] + 921 u[12] + 873 u[13] + 50 u[14] + 858 u[15] + 322 u[16]
   + 365 u[17] + 422 u[18] + 411 u[19] <= 5044
 primal_lower936: 716 u[0] + 216 u[1] + 718 u[2] + 919 u[3] + 256 u[4]
   + 158 u[5] + 465 u[6] + 848 u[7] + 409 u[8] + 206 u[9] + 112 u[10]
   + 215 u[11] + 368 u[12] + 680 u[13] + 985 u[14] + 321 u[15] + 73 u[16]
   + 444 u[17] + 749 u[18] + 994 u[19] <= 4926
 primal_lower937: 702 u[0] + 474 u[1] + 600 u[2] + 33 u[3] + 170 u[4]
   + 688 u[5] + 795 u[6] + 530 u[7] + 483 u[8] + 488 u[9] + 618 u[10]
   + 433 u[11] + 794 u[12] + 370 u[13] + 531 u[14] + 979 u[15] + 827 u[16]
   + 102 u[17] + 695 u[18] + 476 u[19] <= 3596
 primal_lower938: 590 u[0] + 858 u[1] + 824 u[2] + 73 u[3] + 530 u[4]
   + 960 u[5] + 707 u[6] + 554 u[7] + 147 u[8] + 256 u[9] + 922 u[10]
   + 313 u[11] + 426 u[12] + 418 u[13] + 115 u[14] + 979 u[15] + 611 u[16]
   + 102 u[17] + 743 u[18] + 500 u[19] <= 1771
 primal_lower939: 958 u[0] + 7 u[1] + 921 u[2] + 334 u[3] + 427 u[4]
   + 812 u[5] + 172 u[6] + 614 u[7] + 340 u[8] + 45 u[9] + 530 u[10]
   + 622 u[11] + 267 u[12] + 775 u[13] + 83 u[14] + 567 u[15] + 788 u[16]
   + 595 u[17] + 800 u[18] + 769 u[19] <= 3475
 primal_lower940: 655 u[0] + 640 u[1] + 194 u[2] + 423 u[3] + 972 u[4]
   + 821 u[5] + 413 u[6] + 695 u[7] + 653 u[8] + 246 u[9] + 27 u[10]
   + 151 u[11] + 708 u[12] + 344 u[13] + 836 u[14] + 64 u[15] + 77 u[16]
   + 372 u[17] + 841 u[18] + 18 u[19] <= 4575
 primal_lower941: 304 u[0] + 92 u[1] + 138 u[2] + 459 u[3] + 268 u[4]
   + 674 u[5] + 941 u[6] + 516 u[7] + 13 u[8] + 714 u[9] + 364 u[10]
   + 835 u[11] + 140 u[12] + 764 u[13] + 357 u[14] + 709 u[15] + 149 u[16]
   + 888 u[17] + 281 u[18] + 462 u[19] <= 4534
 primal_lower942: 780 u[0] + 368 u[1] + 582 u[2] + 439 u[3] + 392 u[4]
   + 46 u[5] + 969 u[6] + 160 u[7] + 257 u[8] + 246 u[9] + 448 u[10]
   + 271 u[11] + 912 u[12] + 40 u[13] + 673 u[14] + 537 u[15] + 609 u[16]
   + 532 u[17] + 149 u[18] + 442 u[19] <= 2950
 primal_lower943: 400 u[0] + 964 u[1] + 650 u[2] + 731 u[3] + 644 u[4]
   + 202 u[5] + 45 u[6] + 84 u[7] + 437 u[8] + 474 u[9] + 924 u[10]
   + 875 u[11] + 812 u[12] + 916 u[13] + 197 u[14] + 397 u[15] + 549 u[16]
   + 272 u[17] + 593 u[18] + 398 u[19] <= 1760
 primal_lower944: 700 u[0] + 64 u[1] + 862 u[2] + 799 u[3] + 960 u[4]
   + 214 u[5] + 713 u[6] + 64 u[7] + 265 u[8] + 782 u[9] + 168 u[10]
   + 359 u[11] + 784 u[12] + 904 u[13] + 937 u[14] + 281 u[15] + 113 u[16]
   + 812 u[17] + 757 u[18] + 602 u[19] <= 7426
 primal_lower945: 597 u[0] + 217 u[1] + 335 u[2] + 112 u[3] + 201 u[4]
   + 511 u[5] + 842 u[6] + 497 u[7] + 714 u[8] + 463 u[9] + u[10]
   + 96 u[11] + 305 u[12] + 489 u[13] + 298 u[14] + 554 u[15] + 354 u[16]
   + 541 u[17] + 374 u[18] + 475 u[19] <= 3988
 primal_lower946: 5 u[0] + 377 u[1] + 375 u[2] + 40 u[3] + 145 u[4]
   + 135 u[5] + 538 u[6] + 289 u[7] + 954 u[8] + 455 u[9] + 625 u[10]
   + 248 u[11] + 97 u[12] + 553 u[13] + 218 u[14] + 578 u[15] + 754 u[16]
   + 925 u[17] + 438 u[18] + 675 u[19] <= 954
 primal_lower947: 463 u[0] + 403 u[1] + 689 u[2] + 970 u[3] + 931 u[4]
   + 9 u[5] + 172 u[6] + 35 u[7] + 820 u[8] + 57 u[9] + 59 u[10]
   + 562 u[11] + 523 u[12] + 531 u[13] + 516 u[14] + 204 u[15] + 492 u[16]
   + 95 u[17] + 480 u[18] + 573 u[19] <= 4292
 primal_lower948: 99 u[0] + 860 u[1] + 654 u[2] + 747 u[3] + 160 u[4]
   + 937 u[5] + 401 u[6] + 779 u[7] + 953 u[8] + 538 u[9] + 663 u[10]
   + 635 u[11] + 416 u[12] + 788 u[13] + 840 u[14] + 100 u[15] + 449 u[16]
   + 400 u[17] + 261 u[18] + 302 u[19] <= 5491
 primal_lower949: 686 u[0] + 855 u[1] + 9 u[2] + 678 u[3] + 307 u[4]
   + 772 u[5] + 276 u[6] + 542 u[7] + 932 u[8] + 957 u[9] + 578 u[10]
   + 702 u[11] + 179 u[12] + 535 u[13] + 595 u[14] + 567 u[15] + 756 u[16]
   + 795 u[17] + 144 u[18] + 529 u[19] <= 3798
 primal_lower950: 494 u[0] + 135 u[1] + 353 u[2] + 590 u[3] + 755 u[4]
   + 596 u[5] + 436 u[6] + 726 u[7] + 908 u[8] + 405 u[9] + 794 u[10]
   + 918 u[11] + 403 u[12] + 519 u[13] + 219 u[14] + 703 u[15] + 36 u[16]
   + 835 u[17] + 128 u[18] + 849 u[19] <= 918
 primal_lower951: 933 u[0] + 57 u[1] + 431 u[2] + 648 u[3] + 433 u[4]
   + 791 u[5] + 2 u[6] + 225 u[7] + 210 u[8] + 807 u[9] + 177 u[10]
   + 880 u[11] + 9 u[12] + 961 u[13] + 130 u[14] + 378 u[15] + 882 u[16]
   + 373 u[17] + 646 u[18] + 235 u[19] <= 6138
 primal_lower952: 412 u[0] + 72 u[1] + 366 u[2] + 519 u[3] + 520 u[4]
   + 150 u[5] + 313 u[6] + 752 u[7] + 697 u[8] + 470 u[9] + 824 u[10]
   + 391 u[11] + 360 u[12] + 640 u[13] + 217 u[14] + 777 u[15] + 265 u[16]
   + 828 u[17] + 405 u[18] + 962 u[19] <= 962
 primal_lower953: 207 u[0] + 600 u[1] + 530 u[2] + 895 u[3] + 12 u[4]
   + 461 u[5] + 37 u[6] + 375 u[7] + 565 u[8] + 974 u[9] + 875 u[10]
   + 791 u[11] + 116 u[12] + 88 u[13] + 668 u[14] + 144 u[15] + 213 u[16]
   + 916 u[17] + 361 u[18] + 418 u[19] <= 6164
 primal_lower954: 634 u[0] + 179 u[1] + 133 u[2] + 978 u[3] + 583 u[4]
   + 8 u[5] + 576 u[6] + 890 u[7] + 1000 u[8] + 689 u[9] + 894 u[10]
   + 594 u[11] + 79 u[12] + 371 u[13] + 951 u[14] + 635 u[15] + 104 u[16]
   + 615 u[17] + 20 u[18] + 557 u[19] <= 1748
 primal_lower955: 647 u[0] + 728 u[1] + 802 u[2] + 407 u[3] + 476 u[4]
   + 5 u[5] + 173 u[6] + 455 u[7] + 157 u[8] + 358 u[9] + 691 u[10]
   + 95 u[11] + 532 u[12] + 904 u[13] + 996 u[14] + 32 u[15] + 373 u[16]
   + 188 u[17] + 945 u[18] + 466 u[19] <= 3143
 primal_lower956: 331 u[0] + 460 u[1] + 126 u[2] + 435 u[3] + 728 u[4]
   + 41 u[5] + 921 u[6] + 931 u[7] + 17 u[8] + 370 u[9] + 975 u[10]
   + 819 u[11] + 800 u[12] + 804 u[13] + 848 u[14] + 668 u[15] + 633 u[16]
   + 624 u[17] + 885 u[18] + 382 u[19] <= 975
 primal_lower957: 432 u[0] + 97 u[1] + 371 u[2] + 400 u[3] + 797 u[4]
   + 462 u[5] + 214 u[6] + 288 u[7] + 462 u[8] + 127 u[9] + 884 u[10]
   + 256 u[11] + 181 u[12] + 17 u[13] + 477 u[14] + 281 u[15] + 286 u[16]
   + 173 u[17] + 658 u[18] + 771 u[19] <= 1272
 primal_lower958: 795 u[0] + 988 u[1] + 982 u[2] + 795 u[3] + 256 u[4]
   + 961 u[5] + 681 u[6] + 147 u[7] + 617 u[8] + 586 u[9] + 487 u[10]
   + 195 u[11] + 528 u[12] + 876 u[13] + 608 u[14] + 948 u[15] + 489 u[16]
   + 840 u[17] + 509 u[18] + 390 u[19] <= 8452
 primal_lower959: 508 u[0] + 432 u[1] + 846 u[2] + 239 u[3] + 472 u[4]
   + 694 u[5] + 441 u[6] + 408 u[7] + 481 u[8] + 318 u[9] + 24 u[10]
   + 647 u[11] + 584 u[12] + 280 u[13] + 297 u[14] + 49 u[15] + 657 u[16]
   + 732 u[17] + 101 u[18] + 394 u[19] <= 2868
 primal_lower960: 665 u[0] + 629 u[1] + 515 u[2] + 420 u[3] + 957 u[4]
   + 467 u[5] + 198 u[6] + 53 u[7] + 886 u[8] + 91 u[9] + 293 u[10]
   + 788 u[11] + 645 u[12] + 997 u[13] + 318 u[14] + 750 u[15] + 214 u[16]
   + 513 u[17] + 370 u[18] + 943 u[19] <= 3570
 primal_lower961: 672 u[0] + 321 u[1] + 835 u[2] + 712 u[3] + 733 u[4]
   + 662 u[5] + 870 u[6] + 344 u[7] + 126 u[8] + 239 u[9] + 892 u[10]
   + 256 u[11] + 581 u[12] + 129 u[13] + 837 u[14] + 369 u[15] + 46 u[16]
   + 93 u[17] + 114 u[18] + 35 u[19] <= 4433
 primal_lower962: 59 u[0] + 303 u[1] + 317 u[2] + 510 u[3] + 895 u[4]
   + 261 u[5] + 824 u[6] + 231 u[7] + 792 u[8] + 701 u[9] + 7 u[10]
   + 414 u[11] + 615 u[12] + 543 u[13] + 960 u[14] + 768 u[15] + 808 u[16]
   + 27 u[17] + 876 u[18] + 65 u[19] <= 1662
 primal_lower963: 570 u[0] + 259 u[1] + 165 u[2] + 50 u[3] + 135 u[4]
   + 688 u[5] + 496 u[6] + 154 u[7] + 112 u[8] + 17 u[9] + 422 u[10]
   + 498 u[11] + 335 u[12] + 515 u[13] + 327 u[14] + 51 u[15] + 928 u[16]
   + 383 u[17] + 508 u[18] + 165 u[19] <= 3389
 primal_lower964: 560 u[0] + 4 u[1] + 362 u[2] + 467 u[3] + 644 u[4]
   + 306 u[5] + 709 u[6] + 836 u[7] + 845 u[8] + 482 u[9] + 540 u[10]
   + 827 u[11] + 260 u[12] + 836 u[13] + 869 u[14] + 229 u[15] + 765 u[16]
   + 792 u[17] + 585 u[18] + 838 u[19] <= 1959
 primal_lower965: 446 u[0] + 418 u[1] + 40 u[2] + 697 u[3] + 714 u[4]
   + 440 u[5] + 779 u[6] + 98 u[7] + 475 u[8] + 200 u[9] + 834 u[10]
   + 281 u[11] + 122 u[12] + 66 u[13] + 667 u[14] + 947 u[15] + 987 u[16]
   + 686 u[17] + 239 u[18] + 700 u[19] <= 4918
 primal_lower966: 849 u[0] + 810 u[1] + 484 u[2] + 337 u[3] + 614 u[4]
   + 39 u[5] + 759 u[6] + 361 u[7] + 47 u[8] + 680 u[9] + 509 u[10]
   + 161 u[11] + 102 u[12] + 330 u[13] + 254 u[14] + 66 u[15] + 63 u[16]
   + 478 u[17] + 683 u[18] + 628 u[19] <= 1375
 primal_lower967: 435 u[0] + 367 u[1] + 669 u[2] + 574 u[3] + 23 u[4]
   + 869 u[5] + 56 u[6] + 463 u[7] + 320 u[8] + 893 u[9] + 935 u[10]
   + 654 u[11] + 735 u[12] + 271 u[13] + 312 u[14] + 368 u[15] + 760 u[16]
   + 939 u[17] + 796 u[18] + 321 u[19] <= 1793
 primal_lower968: 273 u[0] + 765 u[1] + 587 u[2] + 676 u[3] + 933 u[4]
   + 891 u[5] + 110 u[6] + 269 u[7] + 510 u[8] + 995 u[9] + 645 u[10]
   + 380 u[11] + 661 u[12] + 821 u[13] + 774 u[14] + 574 u[15] + 62 u[16]
   + 737 u[17] + 826 u[18] + 719 u[19] <= 2034
 primal_lower969: 195 u[0] + 348 u[1] + 558 u[2] + 235 u[3] + 512 u[4]
   + 601 u[5] + 105 u[6] + 291 u[7] + 585 u[8] + 506 u[9] + 943 u[10]
   + 387 u[11] + 344 u[12] + 252 u[13] + 320 u[14] + 572 u[15] + 593 u[16]
   + 384 u[17] + 829 u[18] + 270 u[19] <= 1471
 primal_lower970: 858 u[0] + 939 u[1] + 165 u[2] + 130 u[3] + 319 u[4]
   + 856 u[5] + 8 u[6] + 314 u[7] + 992 u[8] + 225 u[9] + 790 u[10]
   + 394 u[11] + 359 u[12] + 75 u[13] + 471 u[14] + 851 u[15] + 504 u[16]
   + 799 u[17] + 196 u[18] + 253 u[19] <= 4749
 primal_lower971: 119 u[0] + 299 u[1] + 449 u[2] + 306 u[3] + 987 u[4]
   + 289 u[5] + 500 u[6] + 3 u[7] + 292 u[8] + 49 u[9] + 219 u[10]
   + 434 u[11] + 723 u[12] + 51 u[13] + 132 u[14] + 396 u[15] + 820 u[16]
   + 751 u[17] + 872 u[18] + 181 u[19] <= 987
 primal_lower972: 746 u[0] + 235 u[1] + 749 u[2] + 450 u[3] + 423 u[4]
   + 664 u[5] + 352 u[6] + 370 u[7] + 224 u[8] + 97 u[9] + 262 u[10]
   + 10 u[11] + 223 u[12] + 731 u[13] + 127 u[14] + 411 u[15] + 24 u[16]
   + 111 u[17] + 884 u[18] + 805 u[19] <= 2632
 primal_lower973: 248 u[0] + 700 u[1] + 226 u[2] + 219 u[3] + 940 u[4]
   + 10 u[5] + 477 u[6] + 660 u[7] + 669 u[8] + 186 u[9] + 140 u[10]
   + 587 u[11] + 772 u[12] + 588 u[13] + 621 u[14] + 453 u[15] + 549 u[16]
   + 592 u[17] + 737 u[18] + 894 u[19] <= 940
 primal_lower974: 814 u[0] + 551 u[1] + 529 u[2] + 366 u[3] + 859 u[4]
   + 92 u[5] + 412 u[6] + 398 u[7] + 692 u[8] + 733 u[9] + 722 u[10]
   + 462 u[11] + 595 u[12] + 87 u[13] + 467 u[14] + 95 u[15] + 948 u[16]
   + 787 u[17] + 200 u[18] + 289 u[19] <= 6732
 primal_lower975: 586 u[0] + 6 u[1] + 292 u[2] + 525 u[3] + 942 u[4]
   + 828 u[5] + 815 u[6] + 494 u[7] + 863 u[8] + 620 u[9] + 158 u[10]
   + 453 u[11] + 326 u[12] + 54 u[13] + 447 u[14] + 535 u[15] + 623 u[16]
   + 426 u[17] + 307 u[18] + 832 u[19] <= 1688
 primal_lower976: 151 u[0] + 176 u[1] + 290 u[2] + 119 u[3] + 252 u[4]
   + 909 u[5] + 877 u[6] + 695 u[7] + 917 u[8] + 174 u[9] + 595 u[10]
   + 751 u[11] + 532 u[12] + 360 u[13] + 236 u[14] + 328 u[15] + 117 u[16]
   + 988 u[17] + 441 u[18] + 498 u[19] <= 3135
 primal_lower977: 214 u[0] + 839 u[1] + 73 u[2] + 870 u[3] + 803 u[4]
   + 468 u[5] + 100 u[6] + 334 u[7] + 396 u[8] + 13 u[9] + 66 u[10]
   + 710 u[11] + 203 u[12] + 215 u[13] + 419 u[14] + 719 u[15] + 4 u[16]
   + 35 u[17] + 256 u[18] + 377 u[19] <= 4742
 primal_lower978: 772 u[0] + 264 u[1] + 110 u[2] + 775 u[3] + 248 u[4]
   + 526 u[5] + 953 u[6] + 32 u[7] + 921 u[8] + 118 u[9] + 920 u[10]
   + 135 u[11] + 408 u[12] + 672 u[13] + 617 u[14] + 993 u[15] + 777 u[16]
   + 388 u[17] + 437 u[18] + 458 u[19] <= 5262
 primal_lower979: 289 u[0] + 405 u[1] + 411 u[2] + 436 u[3] + 997 u[4]
   + 851 u[5] + 694 u[6] + 949 u[7] + 14 u[8] + 123 u[9] + 229 u[10]
   + 452 u[11] + 605 u[12] + 893 u[13] + 254 u[14] + 198 u[15] + 14 u[16]
   + 81 u[17] + 10 u[18] + 607 u[19] <= 2837
 primal_lower980: 637 u[0] + 209 u[1] + 887 u[2] + 48 u[3] + 217 u[4]
   + 463 u[5] + 682 u[6] + 425 u[7] + 786 u[8] + 943 u[9] + 697 u[10]
   + 400 u[11] + 113 u[12] + 49 u[13] + 754 u[14] + 890 u[15] + 226 u[16]
   + 957 u[17] + 942 u[18] + 723 u[19] <= 7365
 primal_lower981: 928 u[0] + 500 u[1] + 34 u[2] + 899 u[3] + 228 u[4]
   + 394 u[5] + 677 u[6] + 500 u[7] + 517 u[8] + 210 u[9] + 548 u[10]
   + 147 u[11] + 340 u[12] + 116 u[13] + 293 u[14] + 573 u[15] + 909 u[16]
   + 256 u[17] + 465 u[18] + 646 u[19] <= 4590
 primal_lower982: 141 u[0] + 329 u[1] + 271 u[2] + 776 u[3] + 793 u[4]
   + 271 u[5] + 50 u[6] + 753 u[7] + 690 u[8] + 591 u[9] + 713 u[10]
   + 664 u[11] + 153 u[12] + 657 u[13] + 250 u[14] + 234 u[15] + 290 u[16]
   + 605 u[17] + 678 u[18] + 331 u[19] <= 1540
 primal_lower983: 79 u[0] + 491 u[1] + 937 u[2] + 290 u[3] + 547 u[4]
   + 329 u[5] + 332 u[6] + 571 u[7] + 356 u[8] + 457 u[9] + 187 u[10]
   + 442 u[11] + 651 u[12] + 227 u[13] + 476 u[14] + 12 u[15] + 340 u[16]
   + 511 u[17] + 344 u[18] + 581 u[19] <= 1360
 primal_lower984: 437 u[0] + 902 u[1] + 80 u[2] + 141 u[3] + 826 u[4]
   + 627 u[5] + 603 u[6] + 349 u[7] + 91 u[8] + 348 u[9] + 289 u[10]
   + 77 u[11] + 826 u[12] + 510 u[13] + 738 u[14] + 966 u[15] + 219 u[16]
   + 538 u[17] + 823 u[18] + 288 u[19] <= 6452
 primal_lower985: 354 u[0] + 894 u[1] + 676 u[2] + 933 u[3] + 406 u[4]
   + 828 u[5] + 903 u[6] + 934 u[7] + 999 u[8] + 732 u[9] + 678 u[10]
   + 757 u[11] + 630 u[12] + 454 u[13] + 895 u[14] + 871 u[15] + 367 u[16]
   + 66 u[17] + 883 u[18] + 64 u[19] <= 8882
 primal_lower986: 256 u[0] + 644 u[1] + 834 u[2] + 419 u[3] + 708 u[4]
   + 226 u[5] + 189 u[6] + 612 u[7] + 309 u[8] + 586 u[9] + 724 u[10]
   + 899 u[11] + 492 u[12] + 508 u[13] + 181 u[14] + 365 u[15] + 877 u[16]
   + 368 u[17] + 825 u[18] + 614 u[19] <= 7090
 primal_lower987: 305 u[0] + 445 u[1] + 531 u[2] + 220 u[3] + 485 u[4]
   + 771 u[5] + 286 u[6] + 141 u[7] + 126 u[8] + 347 u[9] + 5 u[10]
   + 212 u[11] + 989 u[12] + 109 u[13] + 478 u[14] + 606 u[15] + 566 u[16]
   + 369 u[17] + 850 u[18] + 959 u[19] <= 4400
 primal_lower988: 465 u[0] + 653 u[1] + 483 u[2] + 284 u[3] + 117 u[4]
   + 667 u[5] + 982 u[6] + 629 u[7] + 694 u[8] + 987 u[9] + 373 u[10]
   + 348 u[11] + 421 u[12] + 429 u[13] + 590 u[14] + 950 u[15] + 958 u[16]
   + 673 u[17] + 978 u[18] + 367 u[19] <= 4016
 primal_lower989: u[0] + 850 u[1] + 164 u[2] + 337 u[3] + 862 u[4]
   + 479 u[5] + 423 u[6] + 905 u[7] + 527 u[8] + 904 u[9] + 957 u[10]
   + 177 u[11] + 990 u[12] + 418 u[13] + 158 u[14] + 618 u[15] + 119 u[16]
   + 126 u[17] + 419 u[18] + 236 u[19] <= 3223
 primal_lower990: 931 u[0] + 916 u[1] + 510 u[2] + 75 u[3] + 704 u[4]
   + 25 u[5] + 825 u[6] + 291 u[7] + 721 u[8] + 754 u[9] + 239 u[10]
   + 315 u[11] + 632 u[12] + 692 u[13] + 720 u[14] + 92 u[15] + 945 u[16]
   + 712 u[17] + 333 u[18] + 854 u[19] <= 945
 primal_lower991: 9 u[0] + 773 u[1] + 459 u[2] + 676 u[3] + 589 u[4]
   + 947 u[5] + 102 u[6] + 277 u[7] + 182 u[8] + 467 u[9] + 997 u[10]
   + 876 u[11] + 53 u[12] + 981 u[13] + 958 u[14] + 998 u[15] + 438 u[16]
   + 713 u[17] + 866 u[18] + 391 u[19] <= 1958
 primal_lower992: 805 u[0] + 761 u[1] + 855 u[2] + 880 u[3] + 585 u[4]
   + 831 u[5] + 130 u[6] + 297 u[7] + 570 u[8] + 31 u[9] + 841 u[10]
   + 264 u[11] + 377 u[12] + 313 u[13] + 954 u[14] + 802 u[15] + 418 u[16]
   + 21 u[17] + 806 u[18] + 499 u[19] <= 3680
 primal_lower993: 756 u[0] + 565 u[1] + 919 u[2] + 428 u[3] + 9 u[4]
   + 474 u[5] + 778 u[6] + 276 u[7] + 642 u[8] + 43 u[9] + 960 u[10]
   + 100 u[11] + 193 u[12] + 829 u[13] + 361 u[14] + 509 u[15] + 986 u[16]
   + 369 u[17] + 302 u[18] + 207 u[19] <= 986
 primal_lower994: 965 u[0] + 513 u[1] + 359 u[2] + 32 u[3] + 73 u[4]
   + 407 u[5] + 498 u[6] + 713 u[7] + 274 u[8] + 239 u[9] + 817 u[10]
   + 168 u[11] + 665 u[12] + 889 u[13] + 946 u[14] + 314 u[15] + 506 u[16]
   + 437 u[17] + 926 u[18] + 955 u[19] <= 7130
 primal_lower995: 790 u[0] + 55 u[1] + 737 u[2] + 126 u[3] + 283 u[4]
   + 380 u[5] + 492 u[6] + 926 u[7] + 788 u[8] + 101 u[9] + 386 u[10]
   + 342 u[11] + 507 u[12] + 487 u[13] + 355 u[14] + 191 u[15] + 932 u[16]
   + 547 u[17] + 96 u[18] + 153 u[19] <= 1445
 primal_lower996: 715 u[0] + 247 u[1] + 13 u[2] + 974 u[3] + 519 u[4]
   + 437 u[5] + 296 u[6] + 975 u[7] + 736 u[8] + 221 u[9] + 943 u[10]
   + 398 u[11] + 591 u[12] + 143 u[13] + 248 u[14] + 960 u[15] + 40 u[16]
   + 707 u[17] + 740 u[18] + 89 u[19] <= 4996
 primal_lower997: 196 u[0] + 117 u[1] + 695 u[2] + 316 u[3] + 185 u[4]
   + 450 u[5] + 546 u[6] + 796 u[7] + 794 u[8] + 395 u[9] + 112 u[10]
   + 844 u[11] + 345 u[12] + 837 u[13] + 305 u[14] + 53 u[15] + 762 u[16]
   + 897 u[17] + 518 u[18] + 471 u[19] <= 1605
 primal_lower998: 381 u[0] + 129 u[1] + 423 u[2] + 712 u[3] + 17 u[4]
   + 39 u[5] + 882 u[6] + 369 u[7] + 794 u[8] + 543 u[9] + 577 u[10]
   + 224 u[11] + 817 u[12] + 577 u[13] + 994 u[14] + 858 u[15] + 434 u[16]
   + 269 u[17] + 694 u[18] + 379 u[19] <= 5056
 primal_lower999: 196 u[0] + 949 u[1] + 183 u[2] + 340 u[3] + 97 u[4]
   + 954 u[5] + 738 u[6] + 364 u[7] + 986 u[8] + 715 u[9] + 976 u[10]
   + 580 u[11] + 33 u[12] + 317 u[13] + 841 u[14] + 29 u[15] + 650 u[16]
   + 961 u[17] + 566 u[18] + 879 u[19] <= 3784
 interdiction[0]: x[0] + u[0] <= 1
 interdiction[1]: x[1] + u[1] <= 1
 interdiction[2]: x[2] + u[2] <= 1
 interdiction[3]: x[3] + u[3] <= 1
 interdiction[4]: x[4] + u[4] <= 1
 interdiction[5]: x[5] + u[5] <= 1
 interdiction[6]: x[6] + u[6] <= 1
 interdiction[7]: x[7] + u[7] <= 1
 interdiction[8]: x[8] + u[8] <= 1
 interdiction[9]: x[9] + u[9] <= 1
 interdiction[10]: x[10] + u[10] <= 1
 interdiction[11]: x[11] + u[11] <= 1
 interdiction[12]: x[12] + u[12] <= 1
 interdiction[13]: x[13] + u[13] <= 1
 interdiction[14]: x[14] + u[14] <= 1
 interdiction[15]: x[15] + u[15] <= 1
 interdiction[16]: x[16] + u[16] <= 1
 interdiction[17]: x[17] + u[17] <= 1
 interdiction[18]: x[18] + u[18] <= 1
 interdiction[19]: x[19] + u[19] <= 1
 mccormick1[0]: - u[0] + z[0] <= 0
 mccormick1[1]: - u[1] + z[1] <= 0
 mccormick1[2]: - u[2] + z[2] <= 0
 mccormick1[3]: - u[3] + z[3] <= 0
 mccormick1[4]: - u[4] + z[4] <= 0
 mccormick1[5]: - u[5] + z[5] <= 0
 mccormick1[6]: - u[6] + z[6] <= 0
 mccormick1[7]: - u[7] + z[7] <= 0
 mccormick1[8]: - u[8] + z[8] <= 0
 mccormick1[9]: - u[9] + z[9] <= 0
 mccormick1[10]: - u[10] + z[10] <= 0
 mccormick1[11]: - u[11] + z[11] <= 0
 mccormick1[12]: - u[12] + z[12] <= 0
 mccormick1[13]: - u[13] + z[13] <= 0
 mccormick1[14]: - u[14] + z[14] <= 0
 mccormick1[15]: - u[15] + z[15] <= 0
 mccormick1[16]: - u[16] + z[16] <= 0
 mccormick1[17]: - u[17] + z[17] <= 0
 mccormick1[18]: - u[18] + z[18] <= 0
 mccormick1[19]: - u[19] + z[19] <= 0
 mccormick2[0]: - y[0] + z[0] <= 0
 mccormick2[1]: - y[1] + z[1] <= 0
 mccormick2[2]: - y[2] + z[2] <= 0
 mccormick2[3]: - y[3] + z[3] <= 0
 mccormick2[4]: - y[4] + z[4] <= 0
 mccormick2[5]: - y[5] + z[5] <= 0
 mccormick2[6]: - y[6] + z[6] <= 0
 mccormick2[7]: - y[7] + z[7] <= 0
 mccormick2[8]: - y[8] + z[8] <= 0
 mccormick2[9]: - y[9] + z[9] <= 0
 mccormick2[10]: - y[10] + z[10] <= 0
 mccormick2[11]: - y[11] + z[11] <= 0
 mccormick2[12]: - y[12] + z[12] <= 0
 mccormick2[13]: - y[13] + z[13] <= 0
 mccormick2[14]: - y[14] + z[14] <= 0
 mccormick2[15]: - y[15] + z[15] <= 0
 mccormick2[16]: - y[16] + z[16] <= 0
 mccormick2[17]: - y[17] + z[17] <= 0
 mccormick2[18]: - y[18] + z[18] <= 0
 mccormick2[19]: - y[19] + z[19] <= 0
 mccormick3[0]: y[0] + u[0] - z[0] <= 1
 mccormick3[1]: y[1] + u[1] - z[1] <= 1
 mccormick3[2]: y[2] + u[2] - z[2] <= 1
 mccormick3[3]: y[3] + u[3] - z[3] <= 1
 mccormick3[4]: y[4] + u[4] - z[4] <= 1
 mccormick3[5]: y[5] + u[5] - z[5] <= 1
 mccormick3[6]: y[6] + u[6] - z[6] <= 1
 mccormick3[7]: y[7] + u[7] - z[7] <= 1
 mccormick3[8]: y[8] + u[8] - z[8] <= 1
 mccormick3[9]: y[9] + u[9] - z[9] <= 1
 mccormick3[10]: y[10] + u[10] - z[10] <= 1
 mccormick3[11]: y[11] + u[11] - z[11] <= 1
 mccormick3[12]: y[12] + u[12] - z[12] <= 1
 mccormick3[13]: y[13] + u[13] - z[13] <= 1
 mccormick3[14]: y[14] + u[14] - z[14] <= 1
 mccormick3[15]: y[15] + u[15] - z[15] <= 1
 mccormick3[16]: y[16] + u[16] - z[16] <= 1
 mccormick3[17]: y[17] + u[17] - z[17] <= 1
 mccormick3[18]: y[18] + u[18] - z[18] <= 1
 mccormick3[19]: y[19] + u[19] - z[19] <= 1
Bounds
Binaries
 x[0] x[1] x[2] x[3] x[4] x[5] x[6] x[7] x[8] x[9] x[10] x[11] x[12] x[13]
 x[14] x[15] x[16] x[17] x[18] x[19] y[0] y[1] y[2] y[3] y[4] y[5] y[6]
 y[7] y[8] y[9] y[10] y[11] y[12] y[13] y[14] y[15] y[16] y[17] y[18] y[19]
 u[0] u[1] u[2] u[3] u[4] u[5] u[6] u[7] u[8] u[9] u[10] u[11] u[12] u[13]
 u[14] u[15] u[16] u[17] u[18] u[19] z[0] z[1] z[2] z[3] z[4] z[5] z[6]
 z[7] z[8] z[9] z[10] z[11] z[12] z[13] z[14] z[15] z[16] z[17] z[18] z[19]
End
