\ Model knapsack_20_100_1
\ LP format - for model browsing. Use MPS format to capture full model detail.
\ Signature: 0x6357969ace1194f9
Minimize
  10 x[0] + 10 x[1] + 10 x[2] + 10 x[3] + 10 x[4] + 10 x[5] + 10 x[6]
   + 10 x[7] + 10 x[8] + 10 x[9] + 10 x[10] + 10 x[11] + 10 x[12]
   + 10 x[13] + 10 x[14] + 10 x[15] + 10 x[16] + 10 x[17] + 10 x[18]
   + 10 x[19] - 550 y[0] - 431 y[1] - 680 y[2] - 700 y[3] - 962 y[4]
   - 697 y[5] - 994 y[6] - 732 y[7] - 335 y[8] - 891 y[9] - 855 y[10]
   - 779 y[11] - 195 y[12] - 274 y[13] - 223 y[14] - 292 y[15] - 758 y[16]
   - 882 y[17] - 147 y[18] - 778 y[19]
Subject To
 primal_upper: 664 y[0] + 644 y[1] + 202 y[2] + 883 y[3] + 276 y[4]
   + 546 y[5] + 389 y[6] + 228 y[7] + 45 y[8] + 850 y[9] + 404 y[10]
   + 35 y[11] + 692 y[12] + 124 y[13] + 413 y[14] + 949 y[15] + 965 y[16]
   + 384 y[17] + 265 y[18] + 550 y[19] + 66 z[0] + 64 z[1] + 20 z[2]
   + 88 z[3] + 28 z[4] + 55 z[5] + 39 z[6] + 23 z[7] + 4 z[8] + 85 z[9]
   + 40 z[10] + 4 z[11] + 69 z[12] + 12 z[13] + 41 z[14] + 95 z[15]
   + 96 z[16] + 38 z[17] + 26 z[18] + 55 z[19] <= 4754
 primal_lower0: 493 u[0] + 822 u[1] + 936 u[2] + 69 u[3] + 874 u[4]
   + 771 u[5] + 99 u[6] + 181 u[7] + 211 u[8] + 188 u[9] + 401 u[10]
   + 773 u[11] + 682 u[12] + 606 u[13] + 378 u[14] + 758 u[15] + 107 u[16]
   + 554 u[17] + 263 u[18] + 224 u[19] <= 936
 primal_lower1: 148 u[0] + 992 u[1] + 790 u[2] + 991 u[3] + 920 u[4]
   + 550 u[5] + 929 u[6] + 984 u[7] + 129 u[8] + 46 u[9] + 152 u[10]
   + 815 u[11] + 368 u[12] + 408 u[13] + 281 u[14] + 761 u[15] + 377 u[16]
   + 732 u[17] + 85 u[18] + 970 u[19] <= 992
 primal_lower2: 302 u[0] + 154 u[1] + 728 u[2] + 185 u[3] + 602 u[4]
   + 424 u[5] + 603 u[6] + 770 u[7] + 475 u[8] + 744 u[9] + 218 u[10]
   + 393 u[11] + 778 u[12] + 498 u[13] + 75 u[14] + 987 u[15] + 83 u[16]
   + 222 u[17] + 263 u[18] + 844 u[19] <= 987
 primal_lower3: 208 u[0] + 457 u[1] + 307 u[2] + 504 u[3] + 749 u[4]
   + 966 u[5] + 46 u[6] + 848 u[7] + 14 u[8] + 759 u[9] + 876 u[10]
   + 512 u[11] + 693 u[12] + 257 u[13] + 389 u[14] + 873 u[15] + 838 u[16]
   + 309 u[17] + 218 u[18] + 283 u[19] <= 966
 primal_lower4: 71 u[0] + 112 u[1] + 922 u[2] + 391 u[3] + 28 u[4]
   + 29 u[5] + 357 u[6] + 239 u[7] + 997 u[8] + 222 u[9] + 371 u[10]
   + 47 u[11] + 116 u[12] + 800 u[13] + 532 u[14] + 96 u[15] + 781 u[16]
   + 884 u[17] + 265 u[18] + 850 u[19] <= 997
 primal_lower5: 703 u[0] + 864 u[1] + 754 u[2] + 951 u[3] + 268 u[4]
   + 517 u[5] + 261 u[6] + 911 u[7] + 261 u[8] + 118 u[9] + 139 u[10]
   + 7 u[11] + 12 u[12] + 168 u[13] + 532 u[14] + 824 u[15] + 405 u[16]
   + 668 u[17] + 369 u[18] + 970 u[19] <= 970
 primal_lower6: 523 u[0] + 775 u[1] + 861 u[2] + 878 u[3] + 599 u[4]
   + 221 u[5] + 520 u[6] + 303 u[7] + 456 u[8] + 293 u[9] + 743 u[10]
   + 702 u[11] + 175 u[12] + 775 u[13] + 296 u[14] + 976 u[15] + 88 u[16]
   + 995 u[17] + 516 u[18] + 337 u[19] <= 995
 primal_lower7: 182 u[0] + 170 u[1] + 32 u[2] + 649 u[3] + 674 u[4]
   + 48 u[5] + 171 u[6] + 594 u[7] + 747 u[8] + 144 u[9] + 410 u[10]
   + 521 u[11] + 954 u[12] + 434 u[13] + 675 u[14] + 419 u[15] + 923 u[16]
   + 190 u[17] + 783 u[18] + 740 u[19] <= 954
 primal_lower8: 998 u[0] + 839 u[1] + 801 u[2] + 998 u[3] + 67 u[4]
   + 652 u[5] + 708 u[6] + 366 u[7] + 716 u[8] + 989 u[9] + 474 u[10]
   + 718 u[11] + 291 u[12] + 887 u[13] + 851 u[14] + 463 u[15] + 348 u[16]
   + 451 u[17] + 744 u[18] + 753 u[19] <= 998
 primal_lower9: 449 u[0] + 541 u[1] + 411 u[2] + 20 u[3] + 965 u[4]
   + 995 u[5] + 238 u[6] + 925 u[7] + 966 u[8] + 171 u[9] + 677 u[10]
   + 724 u[11] + 157 u[12] + 277 u[13] + 822 u[14] + 54 u[15] + 294 u[16]
   + 49 u[17] + 690 u[18] + 847 u[19] <= 995
 primal_lower10: 103 u[0] + 736 u[1] + 554 u[2] + 943 u[3] + 948 u[4]
   + 141 u[5] + 853 u[6] + 159 u[7] + 869 u[8] + 142 u[9] + 955 u[10]
   + 791 u[11] + 276 u[12] + 248 u[13] + 620 u[14] + 56 u[15] + 517 u[16]
   + 884 u[17] + 305 u[18] + 162 u[19] <= 955
 primal_lower11: 754 u[0] + 763 u[1] + 613 u[2] + 138 u[3] + 543 u[4]
   + 128 u[5] + 968 u[6] + 250 u[7] + 768 u[8] + 433 u[9] + 510 u[10]
   + 858 u[11] + 791 u[12] + 603 u[13] + 823 u[14] + 739 u[15] + 600 u[16]
   + 855 u[17] + 852 u[18] + 821 u[19] <= 968
 primal_lower12: 855 u[0] + 907 u[1] + 297 u[2] + 738 u[3] + 867 u[4]
   + 281 u[5] + 452 u[6] + 387 u[7] + 388 u[8] + 473 u[9] + 571 u[10]
   + 514 u[11] + 3 u[12] + 187 u[13] + 596 u[14] + 356 u[15] + 724 u[16]
   + 935 u[17] + 72 u[18] + 205 u[19] <= 935
 primal_lower13: 38 u[0] + 463 u[1] + 273 u[2] + 902 u[3] + 739 u[4]
   + 428 u[5] + 12 u[6] + 494 u[7] + 516 u[8] + 885 u[9] + 34 u[10]
   + 590 u[11] + 11 u[12] + 975 u[13] + 91 u[14] + 895 u[15] + 244 u[16]
   + 515 u[17] + 40 u[18] + 897 u[19] <= 975
 primal_lower14: 215 u[0] + 680 u[1] + 242 u[2] + 887 u[3] + 788 u[4]
   + 773 u[5] + 277 u[6] + 47 u[7] + 869 u[8] + 734 u[9] + 347 u[10]
   + 303 u[11] + 604 u[12] + 48 u[13] + 972 u[14] + 200 u[15] + 221 u[16]
   + 36 u[17] + 17 u[18] + 370 u[19] <= 972
 primal_lower15: 44 u[0] + 781 u[1] + 239 u[2] + 868 u[3] + 361 u[4]
   + 802 u[5] + 50 u[6] + 164 u[7] + 954 u[8] + 467 u[9] + 24 u[10]
   + 612 u[11] + 97 u[12] + 453 u[13] + 969 u[14] + 917 u[15] + 714 u[16]
   + 729 u[17] + 398 u[18] + 367 u[19] <= 969
 primal_lower16: 938 u[0] + 822 u[1] + 164 u[2] + 341 u[3] + 126 u[4]
   + 684 u[5] + 191 u[6] + 206 u[7] + 423 u[8] + 804 u[9] + 334 u[10]
   + 277 u[11] + 526 u[12] + 830 u[13] + 111 u[14] + 303 u[15] + 327 u[16]
   + 538 u[17] + 299 u[18] + 880 u[19] <= 938
 primal_lower17: 683 u[0] + 951 u[1] + 677 u[2] + 406 u[3] + 799 u[4]
   + 229 u[5] + 520 u[6] + 967 u[7] + 720 u[8] + 469 u[9] + 55 u[10]
   + 46 u[11] + 199 u[12] + 543 u[13] + 904 u[14] + 952 u[15] + 792 u[16]
   + 667 u[17] + 268 u[18] + 9 u[19] <= 967
 primal_lower18: 711 u[0] + 827 u[1] + 25 u[2] + 338 u[3] + 331 u[4]
   + 257 u[5] + 140 u[6] + 363 u[7] + 524 u[8] + 97 u[9] + 427 u[10]
   + 938 u[11] + 203 u[12] + 355 u[13] + 612 u[14] + 348 u[15] + 212 u[16]
   + 455 u[17] + 328 u[18] + 805 u[19] <= 938
 primal_lower19: 849 u[0] + 837 u[1] + 915 u[2] + 412 u[3] + 333 u[4]
   + 187 u[5] + 62 u[6] + 557 u[7] + 534 u[8] + 563 u[9] + 549 u[10]
   + 660 u[11] + 221 u[12] + 669 u[13] + 358 u[14] + 726 u[15] + 958 u[16]
   + 313 u[17] + 514 u[18] + 287 u[19] <= 958
 primal_lower20: 580 u[0] + 632 u[1] + 94 u[2] + 215 u[3] + 952 u[4]
   + 198 u[5] + 681 u[6] + 376 u[7] + 137 u[8] + 462 u[9] + 776 u[10]
   + 231 u[11] + 208 u[12] + 48 u[13] + 169 u[14] + 761 u[15] + 321 u[16]
   + 116 u[17] + 781 u[18] + 250 u[19] <= 952
 primal_lower21: 643 u[0] + 127 u[1] + 637 u[2] + 446 u[3] + 871 u[4]
   + 965 u[5] + 488 u[6] + 471 u[7] + 456 u[8] + 669 u[9] + 495 u[10]
   + 6 u[11] + 895 u[12] + 503 u[13] + 912 u[14] + 640 u[15] + 32 u[16]
   + 379 u[17] + 460 u[18] + 353 u[19] <= 965
 primal_lower22: 975 u[0] + 795 u[1] + 785 u[2] + 882 u[3] + 283 u[4]
   + 129 u[5] + 588 u[6] + 35 u[7] + 220 u[8] + 465 u[9] + 547 u[10]
   + 146 u[11] + 51 u[12] + 99 u[13] + 508 u[14] + 412 u[15] + 564 u[16]
   + 863 u[17] + 872 u[18] + 133 u[19] <= 975
 primal_lower23: 341 u[0] + 561 u[1] + 183 u[2] + 152 u[3] + 713 u[4]
   + 711 u[5] + 866 u[6] + 689 u[7] + 474 u[8] + 223 u[9] + 217 u[10]
   + 360 u[11] + 937 u[12] + 209 u[13] + 154 u[14] + 986 u[15] + 178 u[16]
   + 109 u[17] + 566 u[18] + 347 u[19] <= 986
 primal_lower24: 712 u[0] + 780 u[1] + 930 u[2] + 883 u[3] + 124 u[4]
   + 586 u[5] + 669 u[6] + 476 u[7] + 221 u[8] + 826 u[9] + 684 u[10]
   + 627 u[11] + 612 u[12] + 748 u[13] + 989 u[14] + 269 u[15] + 837 u[16]
   + 800 u[17] + 433 u[18] + 30 u[19] <= 989
 primal_lower25: 556 u[0] + 968 u[1] + 790 u[2] + 807 u[3] + 288 u[4]
   + 990 u[5] + 761 u[6] + 280 u[7] + 425 u[8] + 150 u[9] + 304 u[10]
   + 655 u[11] + 808 u[12] + 736 u[13] + 593 u[14] + 833 u[15] + 193 u[16]
   + 940 u[17] + 109 u[18] + 714 u[19] <= 990
 primal_lower26: 223 u[0] + 752 u[1] + 386 u[2] + 15 u[3] + 308 u[4]
   + 405 u[5] + 981 u[6] + 159 u[7] + 709 u[8] + 398 u[9] + 819 u[10]
   + 647 u[11] + 508 u[12] + 864 u[13] + 716 u[14] + 992 u[15] + 365 u[16]
   + 740 u[17] + 161 u[18] + 810 u[19] <= 992
 primal_lower27: 379 u[0] + 935 u[1] + 861 u[2] + 934 u[3] + 7 u[4]
   + 637 u[5] + 168 u[6] + 223 u[7] + 16 u[8] + 189 u[9] + 655 u[10]
   + 254 u[11] + 567 u[12] + 399 u[13] + 320 u[14] + 480 u[15] + 800 u[16]
   + 787 u[17] + 364 u[18] + 697 u[19] <= 935
 primal_lower28: 912 u[0] + 161 u[1] + 883 u[2] + 48 u[3] + 645 u[4]
   + 190 u[5] + 126 u[6] + 344 u[7] + 998 u[8] + 367 u[9] + 620 u[10]
   + 776 u[11] + 237 u[12] + 553 u[13] + 645 u[14] + 433 u[15] + 550 u[16]
   + 421 u[17] + 18 u[18] + 331 u[19] <= 998
 primal_lower29: 523 u[0] + 108 u[1] + 750 u[2] + 587 u[3] + 968 u[4]
   + 569 u[5] + 25 u[6] + 539 u[7] + 777 u[8] + 282 u[9] + 839 u[10]
   + 659 u[11] + 368 u[12] + 764 u[13] + 656 u[14] + 532 u[15] + 305 u[16]
   + 96 u[17] + 637 u[18] + 78 u[19] <= 968
 primal_lower30: 594 u[0] + 454 u[1] + 476 u[2] + 573 u[3] + 230 u[4]
   + 644 u[5] + 191 u[6] + 102 u[7] + 839 u[8] + 172 u[9] + 102 u[10]
   + 917 u[11] + 774 u[12] + 798 u[13] + 607 u[14] + 471 u[15] + 351 u[16]
   + 306 u[17] + 683 u[18] + 728 u[19] <= 917
 primal_lower31: 672 u[0] + 625 u[1] + 843 u[2] + 696 u[3] + 189 u[4]
   + 390 u[5] + 806 u[6] + 632 u[7] + 998 u[8] + 295 u[9] + 252 u[10]
   + 432 u[11] + 917 u[12] + 809 u[13] + 685 u[14] + 321 u[15] + 582 u[16]
   + 589 u[17] + 82 u[18] + 891 u[19] <= 998
 primal_lower32: 672 u[0] + 588 u[1] + 810 u[2] + 891 u[3] + 852 u[4]
   + 954 u[5] + 101 u[6] + 180 u[7] + 685 u[8] + 250 u[9] + 180 u[10]
   + 155 u[11] + 412 u[12] + 236 u[13] + 973 u[14] + 861 u[15] + 293 u[16]
   + 160 u[17] + 161 u[18] + 78 u[19] <= 973
 primal_lower33: 650 u[0] + 214 u[1] + 468 u[2] + 845 u[3] + 710 u[4]
   + 676 u[5] + 191 u[6] + 758 u[7] + 455 u[8] + 284 u[9] + 270 u[10]
   + 597 u[11] + 38 u[12] + 446 u[13] + 751 u[14] + 631 u[15] + 927 u[16]
   + 762 u[17] + 499 u[18] + 208 u[19] <= 927
 primal_lower34: 952 u[0] + 769 u[1] + 827 u[2] + 8 u[3] + 829 u[4]
   + 278 u[5] + 566 u[6] + 216 u[7] + 470 u[8] + 247 u[9] + 36 u[10]
   + 792 u[11] + 917 u[12] + 425 u[13] + 741 u[14] + 937 u[15] + 166 u[16]
   + 437 u[17] + 34 u[18] + 611 u[19] <= 952
 primal_lower35: 727 u[0] + 867 u[1] + 65 u[2] + 474 u[3] + 171 u[4]
   + 473 u[5] + 956 u[6] + 859 u[7] + 988 u[8] + 273 u[9] + 11 u[10]
   + 426 u[11] + 451 u[12] + 451 u[13] + 620 u[14] + 244 u[15] + 828 u[16]
   + 399 u[17] + 352 u[18] + 533 u[19] <= 988
 primal_lower36: 709 u[0] + 782 u[1] + 312 u[2] + 349 u[3] + 922 u[4]
   + 19 u[5] + 67 u[6] + 957 u[7] + 931 u[8] + 844 u[9] + 937 u[10]
   + 613 u[11] + 986 u[12] + 622 u[13] + 690 u[14] + 574 u[15] + 403 u[16]
   + 90 u[17] + 887 u[18] + 600 u[19] <= 986
 primal_lower37: 285 u[0] + 417 u[1] + 583 u[2] + 904 u[3] + 209 u[4]
   + 815 u[5] + 274 u[6] + 977 u[7] + 66 u[8] + 319 u[9] + 769 u[10]
   + 200 u[11] + 737 u[12] + 873 u[13] + 650 u[14] + 610 u[15] + 346 u[16]
   + 253 u[17] + 6 u[18] + 707 u[19] <= 977
 primal_lower38: 117 u[0] + 777 u[1] + 975 u[2] + 544 u[3] + 777 u[4]
   + 791 u[5] + 258 u[6] + 137 u[7] + 850 u[8] + 335 u[9] + 793 u[10]
   + 264 u[11] + 897 u[12] + 217 u[13] + 522 u[14] + 258 u[15] + 698 u[16]
   + 117 u[17] + 782 u[18] + 459 u[19] <= 975
 primal_lower39: 183 u[0] + 856 u[1] + 234 u[2] + 471 u[3] + 804 u[4]
   + 789 u[5] + 245 u[6] + 759 u[7] + 533 u[8] + 718 u[9] + 763 u[10]
   + 391 u[11] + 860 u[12] + 648 u[13] + 940 u[14] + 168 u[15] + 621 u[16]
   + 620 u[17] + 465 u[18] + 546 u[19] <= 940
 primal_lower40: 78 u[0] + 287 u[1] + 585 u[2] + 510 u[3] + 123 u[4]
   + 396 u[5] + 628 u[6] + 686 u[7] + 428 u[8] + 733 u[9] + 978 u[10]
   + 710 u[11] + 643 u[12] + 135 u[13] + 107 u[14] + 719 u[15] + 940 u[16]
   + 147 u[17] + 664 u[18] + 369 u[19] <= 978
 primal_lower41: 1000 u[0] + 676 u[1] + 106 u[2] + 419 u[3] + 508 u[4]
   + 826 u[5] + 549 u[6] + 148 u[7] + 733 u[8] + 194 u[9] + 772 u[10]
   + 627 u[11] + 204 u[12] + 596 u[13] + 53 u[14] + 773 u[15] + 493 u[16]
   + 24 u[17] + 537 u[18] + 310 u[19] <= 1000
 primal_lower42: 305 u[0] + 429 u[1] + 731 u[2] + 628 u[3] + 349 u[4]
   + 571 u[5] + 646 u[6] + 381 u[7] + 150 u[8] + 283 u[9] + 285 u[10]
   + 84 u[11] + 621 u[12] + 773 u[13] + 310 u[14] + 166 u[15] + 158 u[16]
   + 785 u[17] + 754 u[18] + 279 u[19] <= 785
 primal_lower43: 199 u[0] + 75 u[1] + 417 u[2] + 450 u[3] + 699 u[4]
   + 641 u[5] + 724 u[6] + 931 u[7] + 316 u[8] + 201 u[9] + 803 u[10]
   + 898 u[11] + 171 u[12] + 459 u[13] + 348 u[14] + 116 u[15] + 28 u[16]
   + 751 u[17] + 176 u[18] + 653 u[19] <= 931
 primal_lower44: 385 u[0] + 437 u[1] + 595 u[2] + 172 u[3] + 941 u[4]
   + 683 u[5] + 294 u[6] + 693 u[7] + 134 u[8] + 611 u[9] + 733 u[10]
   + 508 u[11] + 869 u[12] + 493 u[13] + 590 u[14] + 326 u[15] + 726 u[16]
   + 833 u[17] + 946 u[18] + 999 u[19] <= 999
 primal_lower45: 876 u[0] + 320 u[1] + 502 u[2] + 703 u[3] + 336 u[4]
   + 710 u[5] + 729 u[6] + 304 u[7] + 409 u[8] + 742 u[9] + 312 u[10]
   + 423 u[11] + 184 u[12] + 392 u[13] + 833 u[14] + 297 u[15] + 729 u[16]
   + 820 u[17] + 237 u[18] + 874 u[19] <= 876
 primal_lower46: 556 u[0] + 461 u[1] + 543 u[2] + 172 u[3] + 225 u[4]
   + 258 u[5] + 762 u[6] + 692 u[7] + 250 u[8] + 675 u[9] + 152 u[10]
   + 628 u[11] + 785 u[12] + 173 u[13] + 641 u[14] + 829 u[15] + 914 u[16]
   + 601 u[17] + 662 u[18] + 911 u[19] <= 914
 primal_lower47: 999 u[0] + 51 u[1] + 113 u[2] + 858 u[3] + 915 u[4]
   + 593 u[5] + 548 u[6] + 755 u[7] + 700 u[8] + 825 u[9] + 19 u[10]
   + 330 u[11] + 755 u[12] + 243 u[13] + 612 u[14] + 804 u[15] + 356 u[16]
   + 639 u[17] + 384 u[18] + 317 u[19] <= 999
 primal_lower48: 735 u[0] + 579 u[1] + 697 u[2] + 626 u[3] + 603 u[4]
   + 609 u[5] + 660 u[6] + 539 u[7] + 20 u[8] + 449 u[9] + 347 u[10]
   + 314 u[11] + 43 u[12] + 939 u[13] + 900 u[14] + 396 u[15] + 668 u[16]
   + 167 u[17] + 736 u[18] + 381 u[19] <= 939
 primal_lower49: 980 u[0] + 701 u[1] + 407 u[2] + 476 u[3] + 537 u[4]
   + 370 u[5] + 282 u[6] + 60 u[7] + 562 u[8] + 259 u[9] + 608 u[10]
   + 500 u[11] + 761 u[12] + 957 u[13] + 849 u[14] + 701 u[15] + 226 u[16]
   + 129 u[17] + 262 u[18] + 519 u[19] <= 980
 primal_lower50: 326 u[0] + 359 u[1] + 449 u[2] + 438 u[3] + 123 u[4]
   + 668 u[5] + 892 u[6] + 974 u[7] + 836 u[8] + 253 u[9] + 122 u[10]
   + 590 u[11] + 795 u[12] + 15 u[13] + 155 u[14] + 207 u[15] + 900 u[16]
   + 739 u[17] + 336 u[18] + 369 u[19] <= 974
 primal_lower51: 231 u[0] + 299 u[1] + 833 u[2] + 242 u[3] + 459 u[4]
   + 689 u[5] + 988 u[6] + 35 u[7] + 420 u[8] + 73 u[9] + 387 u[10]
   + 34 u[11] + 219 u[12] + 691 u[13] + 908 u[14] + 612 u[15] + 100 u[16]
   + 151 u[17] + 568 u[18] + 317 u[19] <= 988
 primal_lower52: 157 u[0] + 73 u[1] + 343 u[2] + 656 u[3] + 249 u[4]
   + 279 u[5] + 34 u[6] + 353 u[7] + 794 u[8] + 63 u[9] + 849 u[10]
   + 936 u[11] + 849 u[12] + 457 u[13] + 826 u[14] + 546 u[15] + 914 u[16]
   + 221 u[17] + 318 u[18] + 371 u[19] <= 936
 primal_lower53: 622 u[0] + 519 u[1] + 297 u[2] + 238 u[3] + 595 u[4]
   + 700 u[5] + 908 u[6] + 926 u[7] + 140 u[8] + 221 u[9] + 578 u[10]
   + 334 u[11] + 91 u[12] + 439 u[13] + 299 u[14] + 207 u[15] + 828 u[16]
   + 723 u[17] + 704 u[18] + 433 u[19] <= 926
 primal_lower54: 97 u[0] + 869 u[1] + 603 u[2] + 268 u[3] + 21 u[4]
   + 51 u[5] + 718 u[6] + 629 u[7] + 126 u[8] + 459 u[9] + 725 u[10]
   + 788 u[11] + 373 u[12] + 613 u[13] + 486 u[14] + 286 u[15] + 686 u[16]
   + 105 u[17] + 226 u[18] + 383 u[19] <= 869
 primal_lower55: 753 u[0] + 426 u[1] + 20 u[2] + 969 u[3] + 462 u[4]
   + 231 u[5] + 263 u[6] + 577 u[7] + 631 u[8] + 864 u[9] + 589 u[10]
   + 609 u[11] + 118 u[12] + 402 u[13] + 62 u[14] + 474 u[15] + 591 u[16]
   + 766 u[17] + 379 u[18] + 4 u[19] <= 969
 primal_lower56: 544 u[0] + 676 u[1] + 114 u[2] + 747 u[3] + 292 u[4]
   + 562 u[5] + 597 u[6] + 4 u[7] + 485 u[8] + 314 u[9] + 508 u[10]
   + 99 u[11] + 44 u[12] + 396 u[13] + 181 u[14] + 821 u[15] + 21 u[16]
   + 552 u[17] + 689 u[18] + 126 u[19] <= 821
 primal_lower57: 190 u[0] + 250 u[1] + 744 u[2] + 641 u[3] + 450 u[4]
   + 360 u[5] + 411 u[6] + 266 u[7] + 243 u[8] + 712 u[9] + 882 u[10]
   + 33 u[11] + 442 u[12] + 202 u[13] + 979 u[14] + 283 u[15] + 931 u[16]
   + 118 u[17] + 439 u[18] + 692 u[19] <= 979
 primal_lower58: 831 u[0] + 139 u[1] + 825 u[2] + 858 u[3] + 459 u[4]
   + 729 u[5] + 100 u[6] + 451 u[7] + 916 u[8] + 57 u[9] + 931 u[10]
   + 10 u[11] + 987 u[12] + 459 u[13] + 948 u[14] + 60 u[15] + 860 u[16]
   + 639 u[17] + 568 u[18] + 949 u[19] <= 987
 primal_lower59: 889 u[0] + 669 u[1] + 795 u[2] + 76 u[3] + 973 u[4]
   + 27 u[5] + 598 u[6] + 309 u[7] + 910 u[8] + 315 u[9] + 301 u[10]
   + 948 u[11] + 245 u[12] + 973 u[13] + 126 u[14] + 430 u[15] + 326 u[16]
   + 169 u[17] + 650 u[18] + 271 u[19] <= 973
 primal_lower60: 922 u[0] + 731 u[1] + 325 u[2] + 290 u[3] + 367 u[4]
   + 248 u[5] + 512 u[6] + 194 u[7] + 840 u[8] + 585 u[9] + 182 u[10]
   + 186 u[11] + 399 u[12] + 107 u[13] + 887 u[14] + 235 u[15] + 736 u[16]
   + 951 u[17] + 644 u[18] + 301 u[19] <= 951
 primal_lower61: 519 u[0] + 616 u[1] + 458 u[2] + 559 u[3] + 204 u[4]
   + 229 u[5] + 165 u[6] + 23 u[7] + 653 u[8] + 278 u[9] + 827 u[10]
   + 791 u[11] + 444 u[12] + 992 u[13] + 236 u[14] + 600 u[15] + 493 u[16]
   + 204 u[17] + 337 u[18] + 378 u[19] <= 992
 primal_lower62: 224 u[0] + 609 u[1] + 355 u[2] + 816 u[3] + 237 u[4]
   + 910 u[5] + 990 u[6] + 632 u[7] + 350 u[8] + 183 u[9] + 628 u[10]
   + 176 u[11] + 277 u[12] + 841 u[13] + 437 u[14] + 913 u[15] + 990 u[16]
   + 133 u[17] + 210 u[18] + 675 u[19] <= 990
 primal_lower63: 34 u[0] + 606 u[1] + 36 u[2] + 85 u[3] + 438 u[4]
   + 556 u[5] + 727 u[6] + 614 u[7] + 415 u[8] + 668 u[9] + 254 u[10]
   + 245 u[11] + 814 u[12] + 782 u[13] + 831 u[14] + 359 u[15] + 463 u[16]
   + 42 u[17] + 251 u[18] + 344 u[19] <= 831
 primal_lower64: 195 u[0] + 252 u[1] + 350 u[2] + 651 u[3] + 192 u[4]
   + 265 u[5] + 809 u[6] + 763 u[7] + 689 u[8] + 706 u[9] + 303 u[10]
   + 147 u[11] + 376 u[12] + 908 u[13] + 640 u[14] + 60 u[15] + 465 u[16]
   + 280 u[17] + 149 u[18] + 286 u[19] <= 908
 primal_lower65: 620 u[0] + 205 u[1] + 39 u[2] + 44 u[3] + 161 u[4]
   + 266 u[5] + 898 u[6] + 684 u[7] + 466 u[8] + 555 u[9] + 152 u[10]
   + 580 u[11] + 377 u[12] + 437 u[13] + 409 u[14] + 533 u[15] + 370 u[16]
   + 73 u[17] + 454 u[18] + 359 u[19] <= 898
 primal_lower66: 446 u[0] + 839 u[1] + 761 u[2] + 934 u[3] + 339 u[4]
   + 444 u[5] + 660 u[6] + 302 u[7] + 36 u[8] + 893 u[9] + 570 u[10]
   + 118 u[11] + 891 u[12] + 447 u[13] + 955 u[14] + 751 u[15] + 660 u[16]
   + 859 u[17] + 336 u[18] + 913 u[19] <= 955
 primal_lower67: 517 u[0] + 606 u[1] + 936 u[2] + 701 u[3] + 770 u[4]
   + 819 u[5] + 123 u[6] + 373 u[7] + 203 u[8] + 812 u[9] + 377 u[10]
   + 133 u[11] + 738 u[12] + 742 u[13] + 170 u[14] + 366 u[15] + 251 u[16]
   + 898 u[17] + 47 u[18] + 344 u[19] <= 936
 primal_lower68: 685 u[0] + 233 u[1] + 879 u[2] + 712 u[3] + 65 u[4]
   + 479 u[5] + 802 u[6] + 81 u[7] + 738 u[8] + 911 u[9] + 809 u[10]
   + 896 u[11] + 833 u[12] + 921 u[13] + 506 u[14] + 770 u[15] + 690 u[16]
   + 29 u[17] + 958 u[18] + 163 u[19] <= 958
 primal_lower69: 517 u[0] + 425 u[1] + 839 u[2] + 24 u[3] + u[4] + 663 u[5]
   + 562 u[6] + 505 u[7] + 362 u[8] + 295 u[9] + 81 u[10] + 968 u[11]
   + 817 u[12] + 865 u[13] + 130 u[14] + 714 u[15] + 866 u[16] + 301 u[17]
   + 598 u[18] + 947 u[19] <= 968
 primal_lower70: 554 u[0] + 347 u[1] + 661 u[2] + 842 u[3] + 47 u[4]
   + 696 u[5] + 288 u[6] + 818 u[7] + 40 u[8] + 105 u[9] + 534 u[10]
   + 42 u[11] + 463 u[12] + 315 u[13] + 311 u[14] + 35 u[15] + 128 u[16]
   + 175 u[17] + 732 u[18] + 349 u[19] <= 842
 primal_lower71: 859 u[0] + 127 u[1] + 909 u[2] + 318 u[3] + 799 u[4]
   + 589 u[5] + 880 u[6] + 439 u[7] + 944 u[8] + 693 u[9] + 279 u[10]
   + 998 u[11] + 999 u[12] + 831 u[13] + 480 u[14] + 896 u[15] + 688 u[16]
   + 771 u[17] + 972 u[18] + 785 u[19] <= 999
 primal_lower72: 33 u[0] + 346 u[1] + 260 u[2] + 769 u[3] + 646 u[4]
   + 367 u[5] + 927 u[6] + 473 u[7] + 7 u[8] + 560 u[9] + 653 u[10]
   + 697 u[11] + 966 u[12] + 778 u[13] + 254 u[14] + 314 u[15] + 231 u[16]
   + 582 u[17] + 211 u[18] + 828 u[19] <= 966
 primal_lower73: 503 u[0] + 944 u[1] + 306 u[2] + 455 u[3] + 516 u[4]
   + 381 u[5] + 885 u[6] + 519 u[7] + 653 u[8] + 686 u[9] + 187 u[10]
   + 927 u[11] + 284 u[12] + 368 u[13] + 252 u[14] + 608 u[15] + 853 u[16]
   + 420 u[17] + 585 u[18] + 754 u[19] <= 944
 primal_lower74: 858 u[0] + 763 u[1] + 693 u[2] + 882 u[3] + 807 u[4]
   + 544 u[5] + 872 u[6] + 378 u[7] + 320 u[8] + 433 u[9] + 126 u[10]
   + 250 u[11] + 207 u[12] + 291 u[13] + 615 u[14] + 971 u[15] + 784 u[16]
   + 39 u[17] + 476 u[18] + 309 u[19] <= 971
 primal_lower75: 698 u[0] + 534 u[1] + 236 u[2] + 957 u[3] + 326 u[4]
   + 708 u[5] + 335 u[6] + 502 u[7] + 959 u[8] + 956 u[9] + 22 u[10]
   + 501 u[11] + 310 u[12] + 614 u[13] + 935 u[14] + 95 u[15] + 383 u[16]
   + 354 u[17] + 899 u[18] + 336 u[19] <= 959
 primal_lower76: 259 u[0] + 879 u[1] + 133 u[2] + 270 u[3] + 767 u[4]
   + 805 u[5] + 808 u[6] + 839 u[7] + 216 u[8] + 757 u[9] + 735 u[10]
   + 438 u[11] + 535 u[12] + 279 u[13] + 160 u[14] + 912 u[15] + 592 u[16]
   + 75 u[17] + 428 u[18] + 993 u[19] <= 993
 primal_lower77: 254 u[0] + 735 u[1] + 417 u[2] + 222 u[3] + 499 u[4]
   + 892 u[5] + 644 u[6] + 926 u[7] + 572 u[8] + 693 u[9] + 122 u[10]
   + 774 u[11] + 43 u[12] + 623 u[13] + 195 u[14] + 543 u[15] + 556 u[16]
   + 155 u[17] + 952 u[18] + 641 u[19] <= 952
 primal_lower78: 183 u[0] + 755 u[1] + 129 u[2] + 810 u[3] + 579 u[4]
   + 905 u[5] + 748 u[6] + 603 u[7] + 820 u[8] + 145 u[9] + 107 u[10]
   + 858 u[11] + 603 u[12] + 283 u[13] + 860 u[14] + 756 u[15] + 700 u[16]
   + 527 u[17] + 48 u[18] + 485 u[19] <= 905
 primal_lower79: 836 u[0] + 728 u[1] + 166 u[2] + 143 u[3] + 96 u[4]
   + 822 u[5] + 121 u[6] + 1000 u[7] + 105 u[8] + 118 u[9] + 616 u[10]
   + 535 u[11] + 872 u[12] + 664 u[13] + 97 u[14] + 233 u[15] + 521 u[16]
   + 388 u[17] + 317 u[18] + 274 u[19] <= 1000
 primal_lower80: 137 u[0] + 637 u[1] + 411 u[2] + 884 u[3] + 773 u[4]
   + 251 u[5] + 462 u[6] + 869 u[7] + 102 u[8] + 875 u[9] + 893 u[10]
   + 820 u[11] + 645 u[12] + 933 u[13] + 78 u[14] + 230 u[15] + 614 u[16]
   + 297 u[17] + 866 u[18] + 927 u[19] <= 933
 primal_lower81: 399 u[0] + 600 u[1] + 434 u[2] + 487 u[3] + 652 u[4]
   + 965 u[5] + 37 u[6] + 23 u[7] + 621 u[8] + 214 u[9] + 963 u[10]
   + 127 u[11] + 212 u[12] + 376 u[13] + 332 u[14] + 472 u[15] + 645 u[16]
   + 348 u[17] + 289 u[18] + 730 u[19] <= 965
 primal_lower82: 902 u[0] + 290 u[1] + 688 u[2] + 249 u[3] + 986 u[4]
   + 672 u[5] + 931 u[6] + 82 u[7] + 331 u[8] + 816 u[9] + 402 u[10]
   + 585 u[11] + 98 u[12] + 370 u[13] + 547 u[14] + 827 u[15] + 643 u[16]
   + 230 u[17] + 839 u[18] + 972 u[19] <= 986
 primal_lower83: 288 u[0] + 641 u[1] + 59 u[2] + 80 u[3] + 685 u[4]
   + 254 u[5] + 230 u[6] + 960 u[7] + 270 u[8] + 863 u[9] + 268 u[10]
   + 368 u[11] + 837 u[12] + 449 u[13] + 885 u[14] + 129 u[15] + 382 u[16]
   + 517 u[17] + 682 u[18] + 107 u[19] <= 960
 primal_lower84: 256 u[0] + 596 u[1] + 898 u[2] + 291 u[3] + 140 u[4]
   + 138 u[5] + 853 u[6] + 836 u[7] + 29 u[8] + 58 u[9] + 948 u[10]
   + 787 u[11] + 908 u[12] + 620 u[13] + 317 u[14] + 365 u[15] + 973 u[16]
   + 344 u[17] + 353 u[18] + 390 u[19] <= 973
 primal_lower85: 763 u[0] + 39 u[1] + 221 u[2] + 590 u[3] + 223 u[4]
   + 181 u[5] + 408 u[6] + 551 u[7] + 80 u[8] + 773 u[9] + 999 u[10]
   + 854 u[11] + 375 u[12] + 391 u[13] + 720 u[14] + 696 u[15] + 208 u[16]
   + 771 u[17] + 52 u[18] + 657 u[19] <= 999
 primal_lower86: 288 u[0] + 369 u[1] + 379 u[2] + 632 u[3] + 661 u[4]
   + 414 u[5] + 990 u[6] + 496 u[7] + 894 u[8] + 79 u[9] + 964 u[10]
   + 176 u[11] + 909 u[12] + 321 u[13] + 349 u[14] + 737 u[15] + 534 u[16]
   + 653 u[17] + 282 u[18] + 987 u[19] <= 990
 primal_lower87: 256 u[0] + 17 u[1] + 619 u[2] + 720 u[3] + 765 u[4]
   + 142 u[5] + 926 u[6] + 40 u[7] + 590 u[8] + 943 u[9] + 684 u[10]
   + 816 u[11] + 677 u[12] + u[13] + 797 u[14] + 361 u[15] + 646 u[16]
   + 517 u[17] + 642 u[18] + 795 u[19] <= 943
 primal_lower88: 850 u[0] + 995 u[1] + 365 u[2] + 930 u[3] + 743 u[4]
   + 640 u[5] + 296 u[6] + 554 u[7] + 352 u[8] + 825 u[9] + 14 u[10]
   + 82 u[11] + 639 u[12] + 155 u[13] + 911 u[14] + 939 u[15] + 176 u[16]
   + 23 u[17] + 300 u[18] + 725 u[19] <= 995
 primal_lower89: 518 u[0] + 554 u[1] + 216 u[2] + 625 u[3] + 306 u[4]
   + 304 u[5] + 227 u[6] + 554 u[7] + 731 u[8] + 816 u[9] + 2 u[10]
   + 609 u[11] + 186 u[12] + 42 u[13] + 171 u[14] + 707 u[15] + 211 u[16]
   + 598 u[17] + 423 u[18] + 116 u[19] <= 816
 primal_lower90: 806 u[0] + 79 u[1] + 249 u[2] + 318 u[3] + 827 u[4]
   + 100 u[5] + 444 u[6] + 358 u[7] + 732 u[8] + 69 u[9] + 442 u[10]
   + 974 u[11] + 715 u[12] + 175 u[13] + 219 u[14] + 159 u[15] + 268 u[16]
   + 443 u[17] + 840 u[18] + 825 u[19] <= 974
 primal_lower91: 262 u[0] + 898 u[1] + 64 u[2] + 665 u[3] + 818 u[4]
   + 312 u[5] + 251 u[6] + 938 u[7] + 491 u[8] + 576 u[9] + 218 u[10]
   + 873 u[11] + 626 u[12] + 762 u[13] + 27 u[14] + 139 u[15] + 227 u[16]
   + 166 u[17] + 615 u[18] + 988 u[19] <= 988
 primal_lower92: 711 u[0] + 208 u[1] + 578 u[2] + 719 u[3] + 812 u[4]
   + 989 u[5] + 205 u[6] + 487 u[7] + 669 u[8] + 566 u[9] + 915 u[10]
   + 543 u[11] + 844 u[12] + 304 u[13] + 620 u[14] + 392 u[15] + 397 u[16]
   + 428 u[17] + 105 u[18] + 338 u[19] <= 989
 primal_lower93: 83 u[0] + 983 u[1] + 149 u[2] + 862 u[3] + 47 u[4]
   + 965 u[5] + 416 u[6] + 199 u[7] + 832 u[8] + 221 u[9] + 815 u[10]
   + 38 u[11] + 247 u[12] + 71 u[13] + 680 u[14] + 624 u[15] + 216 u[16]
   + 251 u[17] + 828 u[18] + 657 u[19] <= 983
 primal_lower94: 369 u[0] + 274 u[1] + 724 u[2] + 185 u[3] + 678 u[4]
   + 599 u[5] + 879 u[6] + 473 u[7] + 287 u[8] + 752 u[9] + 469 u[10]
   + 281 u[11] + 726 u[12] + 714 u[13] + 798 u[14] + 258 u[15] + 87 u[16]
   + 758 u[17] + 219 u[18] + 628 u[19] <= 879
 primal_lower95: 126 u[0] + 730 u[1] + 184 u[2] + 281 u[3] + 970 u[4]
   + 296 u[5] + 371 u[6] + 154 u[7] + 123 u[8] + 88 u[9] + 410 u[10]
   + 353 u[11] + 2 u[12] + 370 u[13] + 883 u[14] + 163 u[15] + 419 u[16]
   + 678 u[17] + 767 u[18] + 140 u[19] <= 970
 primal_lower96: 685 u[0] + 854 u[1] + 168 u[2] + 5 u[3] + 946 u[4]
   + 163 u[5] + 603 u[6] + 845 u[7] + 763 u[8] + 700 u[9] + 545 u[10]
   + 93 u[11] + 186 u[12] + 446 u[13] + 546 u[14] + 646 u[15] + 227 u[16]
   + 426 u[17] + 759 u[18] + 80 u[19] <= 946
 primal_lower97: 874 u[0] + 142 u[1] + 740 u[2] + 325 u[3] + 270 u[4]
   + 508 u[5] + 655 u[6] + 918 u[7] + 607 u[8] + 452 u[9] + 110 u[10]
   + 581 u[11] + 302 u[12] + 550 u[13] + 519 u[14] + 551 u[15] + 503 u[16]
   + 730 u[17] + 811 u[18] + 872 u[19] <= 918
 primal_lower98: 258 u[0] + 915 u[1] + 133 u[2] + 402 u[3] + 743 u[4]
   + 824 u[5] + 840 u[6] + 594 u[7] + 168 u[8] + 353 u[9] + 774 u[10]
   + 106 u[11] + 47 u[12] + 763 u[13] + 823 u[14] + 451 u[15] + 352 u[16]
   + 135 u[17] + 964 u[18] + 165 u[19] <= 964
 primal_lower99: 371 u[0] + 84 u[1] + 598 u[2] + 531 u[3] + 400 u[4]
   + 625 u[5] + 225 u[6] + 59 u[7] + 625 u[8] + 266 u[9] + 727 u[10]
   + 499 u[11] + 712 u[12] + 892 u[13] + 88 u[14] + 100 u[15] + 529 u[16]
   + 688 u[17] + 181 u[18] + 526 u[19] <= 892
 interdiction[0]: x[0] + u[0] <= 1
 interdiction[1]: x[1] + u[1] <= 1
 interdiction[2]: x[2] + u[2] <= 1
 interdiction[3]: x[3] + u[3] <= 1
 interdiction[4]: x[4] + u[4] <= 1
 interdiction[5]: x[5] + u[5] <= 1
 interdiction[6]: x[6] + u[6] <= 1
 interdiction[7]: x[7] + u[7] <= 1
 interdiction[8]: x[8] + u[8] <= 1
 interdiction[9]: x[9] + u[9] <= 1
 interdiction[10]: x[10] + u[10] <= 1
 interdiction[11]: x[11] + u[11] <= 1
 interdiction[12]: x[12] + u[12] <= 1
 interdiction[13]: x[13] + u[13] <= 1
 interdiction[14]: x[14] + u[14] <= 1
 interdiction[15]: x[15] + u[15] <= 1
 interdiction[16]: x[16] + u[16] <= 1
 interdiction[17]: x[17] + u[17] <= 1
 interdiction[18]: x[18] + u[18] <= 1
 interdiction[19]: x[19] + u[19] <= 1
 mccormick1[0]: - u[0] + z[0] <= 0
 mccormick1[1]: - u[1] + z[1] <= 0
 mccormick1[2]: - u[2] + z[2] <= 0
 mccormick1[3]: - u[3] + z[3] <= 0
 mccormick1[4]: - u[4] + z[4] <= 0
 mccormick1[5]: - u[5] + z[5] <= 0
 mccormick1[6]: - u[6] + z[6] <= 0
 mccormick1[7]: - u[7] + z[7] <= 0
 mccormick1[8]: - u[8] + z[8] <= 0
 mccormick1[9]: - u[9] + z[9] <= 0
 mccormick1[10]: - u[10] + z[10] <= 0
 mccormick1[11]: - u[11] + z[11] <= 0
 mccormick1[12]: - u[12] + z[12] <= 0
 mccormick1[13]: - u[13] + z[13] <= 0
 mccormick1[14]: - u[14] + z[14] <= 0
 mccormick1[15]: - u[15] + z[15] <= 0
 mccormick1[16]: - u[16] + z[16] <= 0
 mccormick1[17]: - u[17] + z[17] <= 0
 mccormick1[18]: - u[18] + z[18] <= 0
 mccormick1[19]: - u[19] + z[19] <= 0
 mccormick2[0]: - y[0] + z[0] <= 0
 mccormick2[1]: - y[1] + z[1] <= 0
 mccormick2[2]: - y[2] + z[2] <= 0
 mccormick2[3]: - y[3] + z[3] <= 0
 mccormick2[4]: - y[4] + z[4] <= 0
 mccormick2[5]: - y[5] + z[5] <= 0
 mccormick2[6]: - y[6] + z[6] <= 0
 mccormick2[7]: - y[7] + z[7] <= 0
 mccormick2[8]: - y[8] + z[8] <= 0
 mccormick2[9]: - y[9] + z[9] <= 0
 mccormick2[10]: - y[10] + z[10] <= 0
 mccormick2[11]: - y[11] + z[11] <= 0
 mccormick2[12]: - y[12] + z[12] <= 0
 mccormick2[13]: - y[13] + z[13] <= 0
 mccormick2[14]: - y[14] + z[14] <= 0
 mccormick2[15]: - y[15] + z[15] <= 0
 mccormick2[16]: - y[16] + z[16] <= 0
 mccormick2[17]: - y[17] + z[17] <= 0
 mccormick2[18]: - y[18] + z[18] <= 0
 mccormick2[19]: - y[19] + z[19] <= 0
 mccormick3[0]: y[0] + u[0] - z[0] <= 1
 mccormick3[1]: y[1] + u[1] - z[1] <= 1
 mccormick3[2]: y[2] + u[2] - z[2] <= 1
 mccormick3[3]: y[3] + u[3] - z[3] <= 1
 mccormick3[4]: y[4] + u[4] - z[4] <= 1
 mccormick3[5]: y[5] + u[5] - z[5] <= 1
 mccormick3[6]: y[6] + u[6] - z[6] <= 1
 mccormick3[7]: y[7] + u[7] - z[7] <= 1
 mccormick3[8]: y[8] + u[8] - z[8] <= 1
 mccormick3[9]: y[9] + u[9] - z[9] <= 1
 mccormick3[10]: y[10] + u[10] - z[10] <= 1
 mccormick3[11]: y[11] + u[11] - z[11] <= 1
 mccormick3[12]: y[12] + u[12] - z[12] <= 1
 mccormick3[13]: y[13] + u[13] - z[13] <= 1
 mccormick3[14]: y[14] + u[14] - z[14] <= 1
 mccormick3[15]: y[15] + u[15] - z[15] <= 1
 mccormick3[16]: y[16] + u[16] - z[16] <= 1
 mccormick3[17]: y[17] + u[17] - z[17] <= 1
 mccormick3[18]: y[18] + u[18] - z[18] <= 1
 mccormick3[19]: y[19] + u[19] - z[19] <= 1
Bounds
Binaries
 x[0] x[1] x[2] x[3] x[4] x[5] x[6] x[7] x[8] x[9] x[10] x[11] x[12] x[13]
 x[14] x[15] x[16] x[17] x[18] x[19] y[0] y[1] y[2] y[3] y[4] y[5] y[6]
 y[7] y[8] y[9] y[10] y[11] y[12] y[13] y[14] y[15] y[16] y[17] y[18] y[19]
 u[0] u[1] u[2] u[3] u[4] u[5] u[6] u[7] u[8] u[9] u[10] u[11] u[12] u[13]
 u[14] u[15] u[16] u[17] u[18] u[19] z[0] z[1] z[2] z[3] z[4] z[5] z[6]
 z[7] z[8] z[9] z[10] z[11] z[12] z[13] z[14] z[15] z[16] z[17] z[18] z[19]
End
