\ Model knapsack_60_100_4
\ LP format - for model browsing. Use MPS format to capture full model detail.
\ Signature: 0x261ea9d2ec6a482f
Minimize
  10 x[0] + 10 x[1] + 10 x[2] + 10 x[3] + 10 x[4] + 10 x[5] + 10 x[6]
   + 10 x[7] + 10 x[8] + 10 x[9] + 10 x[10] + 10 x[11] + 10 x[12]
   + 10 x[13] + 10 x[14] + 10 x[15] + 10 x[16] + 10 x[17] + 10 x[18]
   + 10 x[19] + 10 x[20] + 10 x[21] + 10 x[22] + 10 x[23] + 10 x[24]
   + 10 x[25] + 10 x[26] + 10 x[27] + 10 x[28] + 10 x[29] + 10 x[30]
   + 10 x[31] + 10 x[32] + 10 x[33] + 10 x[34] + 10 x[35] + 10 x[36]
   + 10 x[37] + 10 x[38] + 10 x[39] + 10 x[40] + 10 x[41] + 10 x[42]
   + 10 x[43] + 10 x[44] + 10 x[45] + 10 x[46] + 10 x[47] + 10 x[48]
   + 10 x[49] + 10 x[50] + 10 x[51] + 10 x[52] + 10 x[53] + 10 x[54]
   + 10 x[55] + 10 x[56] + 10 x[57] + 10 x[58] + 10 x[59] - 29 y[0]
   - 33 y[1] - 855 y[2] - 463 y[3] - 160 y[4] - 596 y[5] - 536 y[6]
   - 910 y[7] - 157 y[8] - 381 y[9] - 462 y[10] - 222 y[11] - 746 y[12]
   - 693 y[13] - 766 y[14] - 455 y[15] - 741 y[16] - 829 y[17] - 121 y[18]
   - 780 y[19] - 512 y[20] - 578 y[21] - 347 y[22] - 811 y[23] - 368 y[24]
   - 457 y[25] - 447 y[26] - 866 y[27] - 561 y[28] - 355 y[29] - 652 y[30]
   - 283 y[31] - 731 y[32] - 522 y[33] - 434 y[34] - 600 y[35] - 936 y[36]
   - 314 y[37] - 965 y[38] - 406 y[39] - 771 y[40] - 168 y[41] - 96 y[42]
   - 254 y[43] - 161 y[44] - 494 y[45] - 339 y[46] - 15 y[47] - 387 y[48]
   - 964 y[49] - 470 y[50] - 645 y[51] - 394 y[52] - 384 y[53] - 419 y[54]
   - 973 y[55] - 721 y[56] - 455 y[57] - 335 y[58] - 118 y[59]
Subject To
 primal_upper: 56 y[0] + 985 y[1] + 83 y[2] + 400 y[3] + 293 y[4]
   + 574 y[5] + 838 y[6] + 664 y[7] + 462 y[8] + 407 y[9] + 180 y[10]
   + 288 y[11] + 285 y[12] + 401 y[13] + 453 y[14] + 489 y[15] + 430 y[16]
   + 237 y[17] + 266 y[18] + 291 y[19] + 54 y[20] + 996 y[21] + 237 y[22]
   + 571 y[23] + 277 y[24] + 157 y[25] + 939 y[26] + 124 y[27] + 126 y[28]
   + 900 y[29] + 50 y[30] + 48 y[31] + 108 y[32] + 554 y[33] + 157 y[34]
   + 758 y[35] + 661 y[36] + 649 y[37] + 917 y[38] + 811 y[39] + 536 y[40]
   + 246 y[41] + 783 y[42] + 714 y[43] + 496 y[44] + 695 y[45] + 562 y[46]
   + 830 y[47] + 224 y[48] + 781 y[49] + 951 y[50] + 845 y[51] + 542 y[52]
   + 305 y[53] + 713 y[54] + 340 y[55] + 338 y[56] + 775 y[57] + 493 y[58]
   + 855 y[59] + 6 z[0] + 98 z[1] + 8 z[2] + 40 z[3] + 29 z[4] + 57 z[5]
   + 84 z[6] + 66 z[7] + 46 z[8] + 41 z[9] + 18 z[10] + 29 z[11] + 28 z[12]
   + 40 z[13] + 45 z[14] + 49 z[15] + 43 z[16] + 24 z[17] + 27 z[18]
   + 29 z[19] + 5 z[20] + 100 z[21] + 24 z[22] + 57 z[23] + 28 z[24]
   + 16 z[25] + 94 z[26] + 12 z[27] + 13 z[28] + 90 z[29] + 5 z[30]
   + 5 z[31] + 11 z[32] + 55 z[33] + 16 z[34] + 76 z[35] + 66 z[36]
   + 65 z[37] + 92 z[38] + 81 z[39] + 54 z[40] + 25 z[41] + 78 z[42]
   + 71 z[43] + 50 z[44] + 70 z[45] + 56 z[46] + 83 z[47] + 22 z[48]
   + 78 z[49] + 95 z[50] + 84 z[51] + 54 z[52] + 30 z[53] + 71 z[54]
   + 34 z[55] + 34 z[56] + 78 z[57] + 49 z[58] + 86 z[59] <= 5840
 primal_lower0: 640 u[0] + 785 u[1] + 35 u[2] + 880 u[3] + 69 u[4]
   + 206 u[5] + 134 u[6] + 392 u[7] + 686 u[8] + 215 u[9] + 140 u[10]
   + 584 u[11] + 805 u[12] + 73 u[13] + 485 u[14] + 41 u[15] + 574 u[16]
   + 781 u[17] + 434 u[18] + 387 u[19] + 70 u[20] + 108 u[21] + 389 u[22]
   + 811 u[23] + 477 u[24] + 453 u[25] + 91 u[26] + 508 u[27] + 926 u[28]
   + 900 u[29] + 298 u[30] + 768 u[31] + 300 u[32] + 842 u[33] + 941 u[34]
   + 726 u[35] + 989 u[36] + 529 u[37] + 381 u[38] + 467 u[39] + 400 u[40]
   + 934 u[41] + 167 u[42] + 322 u[43] + 184 u[44] + 191 u[45] + 130 u[46]
   + 126 u[47] + 704 u[48] + 789 u[49] + 887 u[50] + 493 u[51] + 422 u[52]
   + 881 u[53] + 601 u[54] + 540 u[55] + 106 u[56] + 527 u[57] + 965 u[58]
   + 55 u[59] <= 17246
 primal_lower1: 673 u[0] + 469 u[1] + 875 u[2] + 500 u[3] + 525 u[4]
   + 827 u[5] + 702 u[6] + 85 u[7] + 118 u[8] + 339 u[9] + 517 u[10]
   + 900 u[11] + 421 u[12] + 381 u[13] + 590 u[14] + 782 u[15] + 870 u[16]
   + 17 u[17] + 2 u[18] + 511 u[19] + 558 u[20] + 97 u[21] + 69 u[22]
   + 576 u[23] + 678 u[24] + 961 u[25] + 739 u[26] + 89 u[27] + 463 u[28]
   + 640 u[29] + 363 u[30] + 861 u[31] + 277 u[32] + 478 u[33] + 589 u[34]
   + 914 u[35] + 389 u[36] + 606 u[37] + 893 u[38] + 376 u[39] + 344 u[40]
   + 467 u[41] + 455 u[42] + 607 u[43] + 968 u[44] + 148 u[45] + 627 u[46]
   + 683 u[47] + 648 u[48] + 577 u[49] + 536 u[50] + 41 u[51] + 398 u[52]
   + 165 u[53] + 874 u[54] + 25 u[55] + 690 u[56] + 316 u[57] + 725 u[58]
   + 131 u[59] <= 968
 primal_lower2: 518 u[0] + 642 u[1] + 48 u[2] + 153 u[3] + 562 u[4]
   + 960 u[5] + 795 u[6] + 522 u[7] + 971 u[8] + 712 u[9] + 834 u[10]
   + 681 u[11] + 570 u[12] + 434 u[13] + 99 u[14] + 147 u[15] + 667 u[16]
   + 478 u[17] + 783 u[18] + 588 u[19] + 331 u[20] + 662 u[21] + 954 u[22]
   + 741 u[23] + 435 u[24] + 758 u[25] + 88 u[26] + 742 u[27] + 12 u[28]
   + 221 u[29] + 40 u[30] + 826 u[31] + 682 u[32] + 755 u[33] + 234 u[34]
   + 791 u[35] + 746 u[36] + 75 u[37] + 778 u[38] + 725 u[39] + 917 u[40]
   + 312 u[41] + 308 u[42] + 204 u[43] + 749 u[44] + 993 u[45] + 40 u[46]
   + 576 u[47] + 85 u[48] + 406 u[49] + 133 u[50] + 430 u[51] + 643 u[52]
   + 162 u[53] + 183 u[54] + 502 u[55] + 983 u[56] + 793 u[57] + 922 u[58]
   + 400 u[59] <= 18900
 primal_lower3: 100 u[0] + 277 u[1] + 511 u[2] + 580 u[3] + 241 u[4]
   + 810 u[5] + 946 u[6] + 52 u[7] + 866 u[8] + 907 u[9] + 416 u[10]
   + 788 u[11] + 81 u[12] + 237 u[13] + 969 u[14] + 733 u[15] + 50 u[16]
   + 145 u[17] + 582 u[18] + 271 u[19] + 922 u[20] + 496 u[21] + 681 u[22]
   + 87 u[23] + 953 u[24] + 41 u[25] + 23 u[26] + 296 u[27] + 338 u[28]
   + 672 u[29] + 582 u[30] + 956 u[31] + 792 u[32] + 694 u[33] + 465 u[34]
   + 106 u[35] + 161 u[36] + 53 u[37] + 289 u[38] + 959 u[39] + 260 u[40]
   + 258 u[41] + 235 u[42] + 950 u[43] + 676 u[44] + 539 u[45] + 822 u[46]
   + 922 u[47] + 676 u[48] + 729 u[49] + 219 u[50] + 457 u[51] + 58 u[52]
   + 221 u[53] + 493 u[54] + 464 u[55] + 710 u[56] + 499 u[57] + 993 u[58]
   + 795 u[59] <= 18062
 primal_lower4: 37 u[0] + 329 u[1] + 191 u[2] + 32 u[3] + 721 u[4]
   + 47 u[5] + 146 u[6] + 817 u[7] + 330 u[8] + 591 u[9] + 97 u[10]
   + 464 u[11] + 545 u[12] + 969 u[13] + 458 u[14] + 2 u[15] + 106 u[16]
   + 421 u[17] + 862 u[18] + 843 u[19] + 770 u[20] + 997 u[21] + 217 u[22]
   + 260 u[23] + 826 u[24] + 277 u[25] + 463 u[26] + 237 u[27] + 547 u[28]
   + 660 u[29] + 679 u[30] + 673 u[31] + 521 u[32] + 34 u[33] + 305 u[34]
   + 518 u[35] + 441 u[36] + 106 u[37] + 233 u[38] + 892 u[39] + 524 u[40]
   + 191 u[41] + 643 u[42] + 371 u[43] + 428 u[44] + 392 u[45] + 255 u[46]
   + 815 u[47] + 436 u[48] + 613 u[49] + 284 u[50] + 405 u[51] + 418 u[52]
   + 729 u[53] + 398 u[54] + 461 u[55] + 750 u[56] + 928 u[57] + 705 u[58]
   + 607 u[59] <= 11206
 primal_lower5: 278 u[0] + 463 u[1] + 993 u[2] + 702 u[3] + 219 u[4]
   + 876 u[5] + 572 u[6] + 478 u[7] + 84 u[8] + 741 u[9] + 706 u[10]
   + 318 u[11] + 259 u[12] + 847 u[13] + 587 u[14] + 399 u[15] + 60 u[16]
   + 403 u[17] + 568 u[18] + 457 u[19] + 780 u[20] + 890 u[21] + 763 u[22]
   + 169 u[23] + 763 u[24] + 523 u[25] + 809 u[26] + 690 u[27] + 756 u[28]
   + 226 u[29] + 848 u[30] + 206 u[31] + 58 u[32] + 800 u[33] + 971 u[34]
   + 620 u[35] + 539 u[36] + 207 u[37] + 291 u[38] + 33 u[39] + 326 u[40]
   + 324 u[41] + 165 u[42] + 816 u[43] + 478 u[44] + 701 u[45] + 144 u[46]
   + 244 u[47] + 46 u[48] + 179 u[49] + 573 u[50] + 915 u[51] + 780 u[52]
   + 151 u[53] + 575 u[54] + 402 u[55] + 272 u[56] + 133 u[57] + 931 u[58]
   + 45 u[59] <= 11660
 primal_lower6: 694 u[0] + 279 u[1] + 625 u[2] + 246 u[3] + 419 u[4]
   + 380 u[5] + 684 u[6] + 694 u[7] + 260 u[8] + 141 u[9] + 274 u[10]
   + 350 u[11] + 803 u[12] + 487 u[13] + 195 u[14] + 15 u[15] + 660 u[16]
   + 459 u[17] + 656 u[18] + 393 u[19] + 124 u[20] + 458 u[21] + 451 u[22]
   + 921 u[23] + 123 u[24] + 891 u[25] + 545 u[26] + 58 u[27] + 548 u[28]
   + 874 u[29] + 488 u[30] + 214 u[31] + 506 u[32] + 1000 u[33] + 883 u[34]
   + 740 u[35] + 795 u[36] + 991 u[37] + 379 u[38] + 857 u[39] + 198 u[40]
   + 244 u[41] + 949 u[42] + 608 u[43] + 454 u[44] + 69 u[45] + 592 u[46]
   + 484 u[47] + 110 u[48] + 67 u[49] + 653 u[50] + 851 u[51] + 268 u[52]
   + 47 u[53] + 487 u[54] + 50 u[55] + 680 u[56] + 613 u[57] + 83 u[58]
   + 357 u[59] <= 5684
 primal_lower7: 606 u[0] + 882 u[1] + 336 u[2] + 265 u[3] + 882 u[4]
   + 680 u[5] + 659 u[6] + 986 u[7] + 91 u[8] + 224 u[9] + 978 u[10]
   + 945 u[11] + 442 u[12] + 106 u[13] + 171 u[14] + 947 u[15] + 947 u[16]
   + 998 u[17] + 487 u[18] + 980 u[19] + 651 u[20] + 550 u[21] + 906 u[22]
   + 925 u[23] + 939 u[24] + 438 u[25] + 952 u[26] + 230 u[27] + 468 u[28]
   + 781 u[29] + 544 u[30] + 114 u[31] + 978 u[32] + 915 u[33] + 10 u[34]
   + 391 u[35] + 362 u[36] + 787 u[37] + 634 u[38] + 389 u[39] + 605 u[40]
   + 400 u[41] + 636 u[42] + 716 u[43] + 541 u[44] + 505 u[45] + 272 u[46]
   + 664 u[47] + 389 u[48] + 182 u[49] + 205 u[50] + 390 u[51] + 803 u[52]
   + 106 u[53] + 231 u[54] + 614 u[55] + 695 u[56] + 825 u[57] + 490 u[58]
   + 992 u[59] <= 13934
 primal_lower8: 6 u[0] + 311 u[1] + 81 u[2] + 46 u[3] + 99 u[4] + 836 u[5]
   + 676 u[6] + 406 u[7] + 676 u[8] + 653 u[9] + 754 u[10] + 398 u[11]
   + 171 u[12] + 607 u[13] + 99 u[14] + 399 u[15] + 28 u[16] + 795 u[17]
   + 104 u[18] + 217 u[19] + 420 u[20] + 778 u[21] + 811 u[22] + 233 u[23]
   + 363 u[24] + 515 u[25] + 825 u[26] + 626 u[27] + 548 u[28] + 410 u[29]
   + 632 u[30] + 454 u[31] + 490 u[32] + 952 u[33] + 715 u[34] + 804 u[35]
   + 819 u[36] + 191 u[37] + 163 u[38] + 673 u[39] + 62 u[40] + 916 u[41]
   + 509 u[42] + 344 u[43] + 254 u[44] + 173 u[45] + 568 u[46] + 28 u[47]
   + 430 u[48] + 227 u[49] + 181 u[50] + 643 u[51] + 124 u[52] + 495 u[53]
   + 903 u[54] + 146 u[55] + 160 u[56] + 13 u[57] + 299 u[58] + 677 u[59]
   <= 10374
 primal_lower9: 807 u[0] + 536 u[1] + 730 u[2] + 903 u[3] + 332 u[4]
   + 837 u[5] + 637 u[6] + 127 u[7] + 957 u[8] + 950 u[9] + 59 u[10]
   + 7 u[11] + 852 u[12] + 200 u[13] + 388 u[14] + 104 u[15] + 101 u[16]
   + 700 u[17] + 233 u[18] + 226 u[19] + 909 u[20] + 923 u[21] + 444 u[22]
   + 418 u[23] + 364 u[24] + 356 u[25] + 178 u[26] + 435 u[27] + 685 u[28]
   + 723 u[29] + 897 u[30] + 511 u[31] + 851 u[32] + 193 u[33] + 676 u[34]
   + 821 u[35] + 604 u[36] + 304 u[37] + 132 u[38] + 922 u[39] + 223 u[40]
   + 885 u[41] + 958 u[42] + 193 u[43] + 503 u[44] + 438 u[45] + 833 u[46]
   + 421 u[47] + 127 u[48] + 260 u[49] + 998 u[50] + 884 u[51] + 245 u[52]
   + 96 u[53] + 280 u[54] + 467 u[55] + 33 u[56] + 798 u[57] + 676 u[58]
   + 838 u[59] <= 6237
 primal_lower10: 403 u[0] + 284 u[1] + 726 u[2] + 515 u[3] + 608 u[4]
   + 305 u[5] + 897 u[6] + 539 u[7] + 745 u[8] + 26 u[9] + 975 u[10]
   + 803 u[11] + 136 u[12] + 148 u[13] + 752 u[14] + 404 u[15] + 649 u[16]
   + 432 u[17] + 589 u[18] + 622 u[19] + 241 u[20] + 479 u[21] + 880 u[22]
   + 950 u[23] + 32 u[24] + 232 u[25] + 342 u[26] + 311 u[27] + 393 u[28]
   + 847 u[29] + 29 u[30] + 515 u[31] + 327 u[32] + 645 u[33] + 248 u[34]
   + 945 u[35] + 552 u[36] + 492 u[37] + 1000 u[38] + 526 u[39] + 899 u[40]
   + 593 u[41] + 90 u[42] + 493 u[43] + 827 u[44] + 26 u[45] + 493 u[46]
   + 393 u[47] + 219 u[48] + 96 u[49] + 482 u[50] + 176 u[51] + 785 u[52]
   + 484 u[53] + 668 u[54] + 655 u[55] + 109 u[56] + 562 u[57] + 200 u[58]
   + 682 u[59] <= 5895
 primal_lower11: 422 u[0] + 338 u[1] + 992 u[2] + 777 u[3] + 786 u[4]
   + 480 u[5] + 955 u[6] + 314 u[7] + 475 u[8] + 632 u[9] + 834 u[10]
   + 433 u[11] + 378 u[12] + 706 u[13] + 419 u[14] + 435 u[15] + 915 u[16]
   + 670 u[17] + 255 u[18] + 268 u[19] + 67 u[20] + 150 u[21] + 666 u[22]
   + 29 u[23] + 155 u[24] + 774 u[25] + 768 u[26] + 646 u[27] + 900 u[28]
   + 589 u[29] + 832 u[30] + 954 u[31] + 122 u[32] + 931 u[33] + 450 u[34]
   + 511 u[35] + 418 u[36] + 835 u[37] + 330 u[38] + 173 u[39] + 109 u[40]
   + 48 u[41] + 628 u[42] + 60 u[43] + 765 u[44] + 233 u[45] + 840 u[46]
   + 536 u[47] + 85 u[48] + 390 u[49] + 229 u[50] + 990 u[51] + 467 u[52]
   + 178 u[53] + 575 u[54] + 870 u[55] + 319 u[56] + 457 u[57] + 874 u[58]
   + 344 u[59] <= 992
 primal_lower12: 652 u[0] + 917 u[1] + 119 u[2] + 124 u[3] + 145 u[4]
   + 226 u[5] + 770 u[6] + 380 u[7] + 578 u[8] + 371 u[9] + 568 u[10]
   + 204 u[11] + 113 u[12] + 277 u[13] + 425 u[14] + 933 u[15] + 370 u[16]
   + 953 u[17] + 854 u[18] + 143 u[19] + 338 u[20] + 720 u[21] + 633 u[22]
   + 439 u[23] + 433 u[24] + 937 u[25] + 31 u[26] + 120 u[27] + 226 u[28]
   + 232 u[29] + 46 u[30] + 436 u[31] + 568 u[32] + 422 u[33] + 33 u[34]
   + 410 u[35] + 897 u[36] + 181 u[37] + 993 u[38] + 607 u[39] + 884 u[40]
   + 730 u[41] + 683 u[42] + 966 u[43] + 412 u[44] + 723 u[45] + 670 u[46]
   + 746 u[47] + 548 u[48] + 265 u[49] + 387 u[50] + 801 u[51] + 74 u[52]
   + 157 u[53] + 877 u[54] + 208 u[55] + 30 u[56] + 667 u[57] + 737 u[58]
   + 411 u[59] <= 5760
 primal_lower13: 252 u[0] + 829 u[1] + 143 u[2] + 676 u[3] + 265 u[4]
   + 530 u[5] + 2 u[6] + 4 u[7] + 338 u[8] + 187 u[9] + 32 u[10]
   + 316 u[11] + 89 u[12] + 909 u[13] + 225 u[14] + 381 u[15] + 178 u[16]
   + 121 u[17] + 310 u[18] + 567 u[19] + 202 u[20] + 944 u[21] + 185 u[22]
   + 767 u[23] + 577 u[24] + 425 u[25] + 487 u[26] + 408 u[27] + 202 u[28]
   + 512 u[29] + 902 u[30] + 300 u[31] + 904 u[32] + 390 u[33] + 209 u[34]
   + 946 u[35] + 57 u[36] + 805 u[37] + 873 u[38] + 23 u[39] + 100 u[40]
   + 170 u[41] + 203 u[42] + 598 u[43] + 964 u[44] + 691 u[45] + 750 u[46]
   + 282 u[47] + 812 u[48] + 713 u[49] + 395 u[50] + 497 u[51] + 746 u[52]
   + 909 u[53] + 325 u[54] + 360 u[55] + 550 u[56] + 635 u[57] + 929 u[58]
   + 459 u[59] <= 5512
 primal_lower14: 547 u[0] + 348 u[1] + 470 u[2] + 971 u[3] + 656 u[4]
   + 641 u[5] + 153 u[6] + 499 u[7] + 281 u[8] + 386 u[9] + 591 u[10]
   + 523 u[11] + 896 u[12] + 764 u[13] + 592 u[14] + 292 u[15] + 689 u[16]
   + 672 u[17] + 53 u[18] + 774 u[19] + 881 u[20] + 359 u[21] + 112 u[22]
   + 430 u[23] + 112 u[24] + 760 u[25] + 598 u[26] + 455 u[27] + 777 u[28]
   + 607 u[29] + 925 u[30] + 539 u[31] + 519 u[32] + 333 u[33] + 808 u[34]
   + 153 u[35] + 832 u[36] + 52 u[37] + 936 u[38] + 134 u[39] + 595 u[40]
   + 297 u[41] + 898 u[42] + 181 u[43] + 515 u[44] + 922 u[45] + 597 u[46]
   + 849 u[47] + 459 u[48] + 400 u[49] + 962 u[50] + 368 u[51] + 201 u[52]
   + 980 u[53] + 4 u[54] + 311 u[55] + 109 u[56] + 698 u[57] + 776 u[58]
   + 930 u[59] <= 19303
 primal_lower15: 641 u[0] + 549 u[1] + 467 u[2] + 692 u[3] + 29 u[4]
   + 507 u[5] + 374 u[6] + 269 u[7] + 78 u[8] + 523 u[9] + 293 u[10]
   + 748 u[11] + 709 u[12] + 637 u[13] + 70 u[14] + 430 u[15] + 142 u[16]
   + 497 u[17] + 578 u[18] + 511 u[19] + 726 u[20] + 401 u[21] + 781 u[22]
   + 144 u[23] + 782 u[24] + 369 u[25] + 443 u[26] + 913 u[27] + 343 u[28]
   + 480 u[29] + 491 u[30] + 501 u[31] + 965 u[32] + 862 u[33] + 845 u[34]
   + 90 u[35] + 677 u[36] + 222 u[37] + 221 u[38] + 944 u[39] + 96 u[40]
   + 691 u[41] + 895 u[42] + 55 u[43] + 560 u[44] + 740 u[45] + 491 u[46]
   + 531 u[47] + 704 u[48] + 249 u[49] + 848 u[50] + 433 u[51] + 278 u[52]
   + 197 u[53] + 2 u[54] + 585 u[55] + 786 u[56] + 260 u[57] + 717 u[58]
   + 51 u[59] <= 965
 primal_lower16: 302 u[0] + 487 u[1] + 537 u[2] + 438 u[3] + 515 u[4]
   + 68 u[5] + 332 u[6] + 118 u[7] + 956 u[8] + 685 u[9] + 930 u[10]
   + 78 u[11] + 835 u[12] + 367 u[13] + 411 u[14] + 31 u[15] + 364 u[16]
   + 171 u[17] + 376 u[18] + 961 u[19] + 820 u[20] + 250 u[21] + 275 u[22]
   + 257 u[23] + 619 u[24] + 235 u[25] + 209 u[26] + 122 u[27] + 388 u[28]
   + 234 u[29] + 768 u[30] + 398 u[31] + 762 u[32] + 168 u[33] + 435 u[34]
   + 716 u[35] + 763 u[36] + 807 u[37] + 99 u[38] + 345 u[39] + 750 u[40]
   + 892 u[41] + 629 u[42] + 392 u[43] + 414 u[44] + 101 u[45] + 496 u[46]
   + 924 u[47] + 78 u[48] + 3 u[49] + 357 u[50] + 395 u[51] + 212 u[52]
   + 991 u[53] + 431 u[54] + 58 u[55] + 40 u[56] + 773 u[57] + 443 u[58]
   + 821 u[59] <= 991
 primal_lower17: 265 u[0] + 170 u[1] + 396 u[2] + 321 u[3] + 214 u[4]
   + 327 u[5] + 767 u[6] + 617 u[7] + 519 u[8] + 600 u[9] + 301 u[10]
   + 881 u[11] + 366 u[12] + 106 u[13] + 910 u[14] + 146 u[15] + 231 u[16]
   + 302 u[17] + 139 u[18] + 988 u[19] + 959 u[20] + 997 u[21] + 558 u[22]
   + 444 u[23] + 118 u[24] + 702 u[25] + 156 u[26] + 477 u[27] + 983 u[28]
   + 173 u[29] + 803 u[30] + 25 u[31] + 221 u[32] + 155 u[33] + 622 u[34]
   + 399 u[35] + 702 u[36] + 666 u[37] + 102 u[38] + 428 u[39] + 889 u[40]
   + 375 u[41] + 704 u[42] + 491 u[43] + 937 u[44] + 384 u[45] + 555 u[46]
   + 671 u[47] + 817 u[48] + 342 u[49] + 440 u[50] + 654 u[51] + 895 u[52]
   + 682 u[53] + 530 u[54] + 517 u[55] + 739 u[56] + 360 u[57] + 222 u[58]
   + 680 u[59] <= 6028
 primal_lower18: 765 u[0] + 65 u[1] + 271 u[2] + 200 u[3] + 145 u[4]
   + 87 u[5] + 314 u[6] + 457 u[7] + 50 u[8] + 447 u[9] + 785 u[10]
   + 368 u[11] + 121 u[12] + 49 u[13] + 930 u[14] + 50 u[15] + 538 u[16]
   + 125 u[17] + 430 u[18] + 747 u[19] + 74 u[20] + 5 u[21] + 41 u[22]
   + 68 u[23] + 642 u[24] + 557 u[25] + 31 u[26] + 765 u[27] + 955 u[28]
   + 996 u[29] + 951 u[30] + u[31] + 609 u[32] + 490 u[33] + 297 u[34]
   + 254 u[35] + 89 u[36] + 562 u[37] + 449 u[38] + 148 u[39] + 284 u[40]
   + 479 u[41] + 531 u[42] + 331 u[43] + 244 u[44] + 88 u[45] + 439 u[46]
   + 303 u[47] + 468 u[48] + 229 u[49] + 92 u[50] + 621 u[51] + 994 u[52]
   + 177 u[53] + 38 u[54] + 421 u[55] + 750 u[56] + 896 u[57] + 897 u[58]
   + 871 u[59] <= 996
 primal_lower19: 149 u[0] + 289 u[1] + 407 u[2] + 920 u[3] + 49 u[4]
   + 175 u[5] + 626 u[6] + 577 u[7] + 658 u[8] + 199 u[9] + 17 u[10]
   + 832 u[11] + 721 u[12] + 985 u[13] + 954 u[14] + 74 u[15] + 898 u[16]
   + 621 u[17] + 46 u[18] + 107 u[19] + 962 u[20] + 853 u[21] + 297 u[22]
   + 268 u[23] + 154 u[24] + 621 u[25] + 359 u[26] + 501 u[27] + 843 u[28]
   + 220 u[29] + 671 u[30] + 961 u[31] + 433 u[32] + 546 u[33] + 489 u[34]
   + 238 u[35] + 233 u[36] + 938 u[37] + 793 u[38] + 772 u[39] + 396 u[40]
   + 151 u[41] + 147 u[42] + 483 u[43] + 860 u[44] + 584 u[45] + 615 u[46]
   + 207 u[47] + 156 u[48] + 485 u[49] + 164 u[50] + 917 u[51] + 610 u[52]
   + 281 u[53] + 222 u[54] + 485 u[55] + 326 u[56] + 536 u[57] + 425 u[58]
   + 311 u[59] <= 5763
 primal_lower20: 288 u[0] + 380 u[1] + 202 u[2] + 115 u[3] + 436 u[4]
   + 554 u[5] + 653 u[6] + 932 u[7] + 405 u[8] + 706 u[9] + 476 u[10]
   + 547 u[11] + 852 u[12] + 516 u[13] + 93 u[14] + 765 u[15] + 213 u[16]
   + 904 u[17] + 17 u[18] + 966 u[19] + 293 u[20] + 152 u[21] + 972 u[22]
   + 351 u[23] + 325 u[24] + 728 u[25] + 634 u[26] + 64 u[27] + 126 u[28]
   + 759 u[29] + 442 u[30] + 236 u[31] + 676 u[32] + 5 u[33] + 372 u[34]
   + 513 u[35] + 140 u[36] + 453 u[37] + 700 u[38] + 855 u[39] + 951 u[40]
   + 946 u[41] + 734 u[42] + 814 u[43] + 807 u[44] + 707 u[45] + 946 u[46]
   + 18 u[47] + 167 u[48] + 864 u[49] + 255 u[50] + 336 u[51] + 373 u[52]
   + 764 u[53] + 937 u[54] + 928 u[55] + 897 u[56] + 587 u[57] + 420 u[58]
   + 714 u[59] <= 12792
 primal_lower21: 881 u[0] + 938 u[1] + 500 u[2] + 737 u[3] + 54 u[4]
   + 559 u[5] + 727 u[6] + 937 u[7] + 255 u[8] + 752 u[9] + 261 u[10]
   + 249 u[11] + 182 u[12] + 218 u[13] + 134 u[14] + 50 u[15] + 7 u[16]
   + 582 u[17] + 203 u[18] + 116 u[19] + 383 u[20] + 613 u[21] + 910 u[22]
   + 764 u[23] + 38 u[24] + 398 u[25] + 644 u[26] + 613 u[27] + 887 u[28]
   + 997 u[29] + 27 u[30] + 985 u[31] + 829 u[32] + 195 u[33] + 238 u[34]
   + 223 u[35] + 430 u[36] + 682 u[37] + 518 u[38] + 284 u[39] + 185 u[40]
   + 87 u[41] + 832 u[42] + 883 u[43] + 577 u[44] + 384 u[45] + 843 u[46]
   + 631 u[47] + 905 u[48] + 438 u[49] + 144 u[50] + 606 u[51] + 639 u[52]
   + 898 u[53] + 730 u[54] + 365 u[55] + 571 u[56] + 504 u[57] + 422 u[58]
   + 656 u[59] <= 6060
 primal_lower22: 972 u[0] + 584 u[1] + 662 u[2] + 487 u[3] + 424 u[4]
   + 622 u[5] + 337 u[6] + 128 u[7] + 945 u[8] + 646 u[9] + 64 u[10]
   + 711 u[11] + 768 u[12] + 616 u[13] + 449 u[14] + 377 u[15] + 121 u[16]
   + 772 u[17] + 685 u[18] + 946 u[19] + 649 u[20] + 44 u[21] + 88 u[22]
   + 203 u[23] + 937 u[24] + 164 u[25] + 430 u[26] + 340 u[27] + 274 u[28]
   + 163 u[29] + 686 u[30] + 104 u[31] + 584 u[32] + 537 u[33] + 704 u[34]
   + 613 u[35] + 352 u[36] + 609 u[37] + 192 u[38] + 75 u[39] + 347 u[40]
   + 350 u[41] + 298 u[42] + 42 u[43] + 267 u[44] + 231 u[45] + 622 u[46]
   + 374 u[47] + 315 u[48] + 4 u[49] + 843 u[50] + 452 u[51] + 665 u[52]
   + 312 u[53] + 693 u[54] + 620 u[55] + 965 u[56] + 223 u[57] + 272 u[58]
   + 742 u[59] <= 5540
 primal_lower23: 160 u[0] + 812 u[1] + 218 u[2] + 547 u[3] + 20 u[4]
   + 266 u[5] + 317 u[6] + 428 u[7] + 37 u[8] + 194 u[9] + 28 u[10]
   + 819 u[11] + 620 u[12] + 860 u[13] + 597 u[14] + 309 u[15] + 837 u[16]
   + 840 u[17] + 401 u[18] + 926 u[19] + 805 u[20] + 248 u[21] + 204 u[22]
   + 479 u[23] + 229 u[24] + 32 u[25] + 930 u[26] + 464 u[27] + 94 u[28]
   + 271 u[29] + 242 u[30] + 620 u[31] + 356 u[32] + 653 u[33] + 220 u[34]
   + 729 u[35] + 980 u[36] + 589 u[37] + 124 u[38] + 823 u[39] + 775 u[40]
   + 154 u[41] + 446 u[42] + 630 u[43] + 767 u[44] + 275 u[45] + 498 u[46]
   + 42 u[47] + 511 u[48] + 560 u[49] + 175 u[50] + 632 u[51] + 685 u[52]
   + 292 u[53] + 417 u[54] + 696 u[55] + 569 u[56] + 355 u[57] + 684 u[58]
   + 554 u[59] <= 16827
 primal_lower24: 795 u[0] + 311 u[1] + 381 u[2] + 510 u[3] + 551 u[4]
   + 317 u[5] + 8 u[6] + 239 u[7] + 656 u[8] + 173 u[9] + 167 u[10]
   + 910 u[11] + 7 u[12] + 703 u[13] + 144 u[14] + 1000 u[15] + 376 u[16]
   + 3 u[17] + 916 u[18] + 545 u[19] + 80 u[20] + 395 u[21] + 855 u[22]
   + 282 u[23] + 424 u[24] + 163 u[25] + 325 u[26] + 843 u[27] + 329 u[28]
   + 906 u[29] + 557 u[30] + 599 u[31] + 215 u[32] + 456 u[33] + 983 u[34]
   + 412 u[35] + 87 u[36] + 176 u[37] + 631 u[38] + 370 u[39] + 650 u[40]
   + 189 u[41] + 681 u[42] + 169 u[43] + 298 u[44] + 254 u[45] + 37 u[46]
   + 549 u[47] + 250 u[48] + 507 u[49] + 626 u[50] + 691 u[51] + 792 u[52]
   + 223 u[53] + 324 u[54] + 411 u[55] + 68 u[56] + 862 u[57] + 87 u[58]
   + 221 u[59] <= 5137
 primal_lower25: 17 u[0] + 490 u[1] + 988 u[2] + 97 u[3] + 926 u[4]
   + 631 u[5] + 7 u[6] + 585 u[7] + 223 u[8] + 32 u[9] + 349 u[10]
   + 249 u[11] + 934 u[12] + 490 u[13] + 638 u[14] + 50 u[15] + 71 u[16]
   + 278 u[17] + 603 u[18] + 124 u[19] + 871 u[20] + 669 u[21] + 526 u[22]
   + 908 u[23] + 326 u[24] + 998 u[25] + 116 u[26] + 453 u[27] + 999 u[28]
   + 765 u[29] + 83 u[30] + 113 u[31] + 965 u[32] + 955 u[33] + 822 u[34]
   + 615 u[35] + 446 u[36] + 410 u[37] + 846 u[38] + 484 u[39] + 321 u[40]
   + 167 u[41] + 568 u[42] + 3 u[43] + 513 u[44] + 600 u[45] + 339 u[46]
   + 887 u[47] + 881 u[48] + 534 u[49] + 704 u[50] + 894 u[51] + 999 u[52]
   + 794 u[53] + 250 u[54] + 389 u[55] + 451 u[56] + 800 u[57] + 878 u[58]
   + 88 u[59] <= 6242
 primal_lower26: 722 u[0] + 171 u[1] + 309 u[2] + 122 u[3] + 247 u[4]
   + 904 u[5] + 168 u[6] + 346 u[7] + 392 u[8] + 785 u[9] + 982 u[10]
   + 98 u[11] + 847 u[12] + 707 u[13] + 47 u[14] + 339 u[15] + 360 u[16]
   + 295 u[17] + 188 u[18] + 245 u[19] + 352 u[20] + 950 u[21] + 703 u[22]
   + 429 u[23] + 343 u[24] + 399 u[25] + 133 u[26] + 118 u[27] + 208 u[28]
   + 454 u[29] + 284 u[30] + 946 u[31] + 94 u[32] + 252 u[33] + 935 u[34]
   + 928 u[35] + 479 u[36] + 963 u[37] + 519 u[38] + 189 u[39] + 130 u[40]
   + 232 u[41] + 489 u[42] + 140 u[43] + 154 u[44] + 921 u[45] + 996 u[46]
   + 424 u[47] + 802 u[48] + 567 u[49] + 513 u[50] + 991 u[51] + 680 u[52]
   + 107 u[53] + 51 u[54] + 422 u[55] + 196 u[56] + 105 u[57] + 431 u[58]
   + 953 u[59] <= 16353
 primal_lower27: 665 u[0] + 506 u[1] + 684 u[2] + 761 u[3] + 918 u[4]
   + 791 u[5] + 599 u[6] + 329 u[7] + 503 u[8] + 408 u[9] + 421 u[10]
   + 49 u[11] + 558 u[12] + 314 u[13] + 534 u[14] + 770 u[15] + 191 u[16]
   + 574 u[17] + 667 u[18] + 300 u[19] + 167 u[20] + 309 u[21] + 118 u[22]
   + 244 u[23] + 366 u[24] + 262 u[25] + 732 u[26] + 893 u[27] + 815 u[28]
   + 317 u[29] + 107 u[30] + 929 u[31] + 557 u[32] + 35 u[33] + 726 u[34]
   + 87 u[35] + 166 u[36] + 402 u[37] + 358 u[38] + 300 u[39] + 257 u[40]
   + 183 u[41] + 816 u[42] + 547 u[43] + 865 u[44] + 208 u[45] + 595 u[46]
   + 591 u[47] + 633 u[48] + 302 u[49] + 736 u[50] + 22 u[51] + 607 u[52]
   + 474 u[53] + 330 u[54] + 45 u[55] + 163 u[56] + 944 u[57] + 406 u[58]
   + 912 u[59] <= 16840
 primal_lower28: 491 u[0] + 519 u[1] + 309 u[2] + 358 u[3] + 215 u[4]
   + 285 u[5] + 752 u[6] + 375 u[7] + 48 u[8] + 957 u[9] + 295 u[10]
   + 582 u[11] + 719 u[12] + 991 u[13] + 232 u[14] + 112 u[15] + 136 u[16]
   + 155 u[17] + 940 u[18] + 129 u[19] + 160 u[20] + 915 u[21] + 463 u[22]
   + 850 u[23] + 528 u[24] + 539 u[25] + 29 u[26] + 347 u[27] + 809 u[28]
   + 218 u[29] + 485 u[30] + 911 u[31] + 287 u[32] + 664 u[33] + 55 u[34]
   + 756 u[35] + 863 u[36] + 1000 u[37] + 167 u[38] + 530 u[39] + 538 u[40]
   + 477 u[41] + 649 u[42] + 705 u[43] + 618 u[44] + 614 u[45] + 957 u[46]
   + 261 u[47] + 554 u[48] + 619 u[49] + 490 u[50] + 683 u[51] + 824 u[52]
   + 423 u[53] + 964 u[54] + 67 u[55] + 484 u[56] + 910 u[57] + 47 u[58]
   + 37 u[59] <= 6019
 primal_lower29: 7 u[0] + 459 u[1] + 121 u[2] + 834 u[3] + 891 u[4]
   + 809 u[5] + 316 u[6] + 339 u[7] + 860 u[8] + 753 u[9] + 187 u[10]
   + 42 u[11] + 11 u[12] + 859 u[13] + 852 u[14] + 812 u[15] + 852 u[16]
   + 911 u[17] + 800 u[18] + 501 u[19] + 716 u[20] + 775 u[21] + 363 u[22]
   + 574 u[23] + 724 u[24] + 575 u[25] + 97 u[26] + 87 u[27] + 373 u[28]
   + 958 u[29] + 937 u[30] + 459 u[31] + 707 u[32] + 292 u[33] + 923 u[34]
   + 888 u[35] + 923 u[36] + 836 u[37] + 259 u[38] + 670 u[39] + 830 u[40]
   + 257 u[41] + 261 u[42] + 485 u[43] + 158 u[44] + 858 u[45] + 913 u[46]
   + 705 u[47] + 886 u[48] + 983 u[49] + 510 u[50] + 807 u[51] + 612 u[52]
   + 339 u[53] + 888 u[54] + 343 u[55] + 856 u[56] + 706 u[57] + 235 u[58]
   + 969 u[59] <= 14381
 primal_lower30: 484 u[0] + 576 u[1] + 542 u[2] + 831 u[3] + 1000 u[4]
   + 486 u[5] + 713 u[6] + 312 u[7] + 577 u[8] + 814 u[9] + 552 u[10]
   + 71 u[11] + 992 u[12] + 968 u[13] + 721 u[14] + 121 u[15] + 529 u[16]
   + 556 u[17] + 429 u[18] + 858 u[19] + 713 u[20] + 140 u[21] + 312 u[22]
   + 755 u[23] + 113 u[24] + 164 u[25] + 646 u[26] + 612 u[27] + 402 u[28]
   + 19 u[29] + 662 u[30] + 568 u[31] + 488 u[32] + 41 u[33] + 240 u[34]
   + 573 u[35] + 784 u[36] + 649 u[37] + 544 u[38] + 443 u[39] + 227 u[40]
   + 622 u[41] + 458 u[42] + 834 u[43] + 667 u[44] + 663 u[45] + 974 u[46]
   + 582 u[47] + 691 u[48] + 212 u[49] + 411 u[50] + 204 u[51] + 609 u[52]
   + 760 u[53] + 13 u[54] + 196 u[55] + 269 u[56] + 311 u[57] + 808 u[58]
   + 926 u[59] <= 18862
 primal_lower31: 999 u[0] + 347 u[1] + 81 u[2] + 114 u[3] + 491 u[4]
   + 801 u[5] + 572 u[6] + 843 u[7] + 60 u[8] + 721 u[9] + 659 u[10]
   + 546 u[11] + 307 u[12] + 539 u[13] + 44 u[14] + 388 u[15] + 348 u[16]
   + 159 u[17] + 768 u[18] + 5 u[19] + 220 u[20] + 183 u[21] + 859 u[22]
   + 902 u[23] + 52 u[24] + 623 u[25] + 817 u[26] + 431 u[27] + 93 u[28]
   + 86 u[29] + 377 u[30] + 523 u[31] + 963 u[32] + 508 u[33] + 851 u[34]
   + 976 u[35] + 595 u[36] + 796 u[37] + 627 u[38] + 598 u[39] + 974 u[40]
   + 825 u[41] + 869 u[42] + 285 u[43] + 150 u[44] + 234 u[45] + 537 u[46]
   + 937 u[47] + 414 u[48] + 951 u[49] + 382 u[50] + 623 u[51] + 140 u[52]
   + 803 u[53] + 168 u[54] + 975 u[55] + 632 u[56] + 642 u[57] + 979 u[58]
   + 265 u[59] <= 18994
 primal_lower32: 960 u[0] + 169 u[1] + 75 u[2] + 120 u[3] + 549 u[4]
   + 814 u[5] + 606 u[6] + 240 u[7] + 974 u[8] + 79 u[9] + 204 u[10]
   + 336 u[11] + 781 u[12] + 89 u[13] + 229 u[14] + 873 u[15] + 798 u[16]
   + 101 u[17] + 938 u[18] + 91 u[19] + 270 u[20] + 724 u[21] + 133 u[22]
   + 451 u[23] + 269 u[24] + 789 u[25] + 803 u[26] + 556 u[27] + 406 u[28]
   + 132 u[29] + 218 u[30] + 288 u[31] + 876 u[32] + 34 u[33] + 237 u[34]
   + 454 u[35] + 445 u[36] + 281 u[37] + 333 u[38] + 835 u[39] + 376 u[40]
   + 62 u[41] + 327 u[42] + 898 u[43] + 872 u[44] + 151 u[45] + 50 u[46]
   + 838 u[47] + 616 u[48] + 37 u[49] + 415 u[50] + 389 u[51] + 126 u[52]
   + 873 u[53] + 377 u[54] + 980 u[55] + 178 u[56] + 479 u[57] + 533 u[58]
   + 879 u[59] <= 5403
 primal_lower33: 972 u[0] + 661 u[1] + 591 u[2] + 692 u[3] + 449 u[4]
   + 626 u[5] + 466 u[6] + 772 u[7] + 26 u[8] + 867 u[9] + 192 u[10]
   + 140 u[11] + 265 u[12] + 693 u[13] + 609 u[14] + 277 u[15] + 770 u[16]
   + 57 u[17] + 494 u[18] + 815 u[19] + 666 u[20] + 400 u[21] + u[22]
   + 759 u[23] + 33 u[24] + 537 u[25] + 279 u[26] + 312 u[27] + 322 u[28]
   + 712 u[29] + 278 u[30] + 652 u[31] + 368 u[32] + 14 u[33] + 33 u[34]
   + 482 u[35] + 121 u[36] + 821 u[37] + 433 u[38] + 159 u[39] + 708 u[40]
   + 26 u[41] + 571 u[42] + 726 u[43] + 900 u[44] + 11 u[45] + 790 u[46]
   + 434 u[47] + 356 u[48] + 473 u[49] + 59 u[50] + 249 u[51] + 626 u[52]
   + 77 u[53] + 533 u[54] + 216 u[55] + 30 u[56] + 739 u[57] + 537 u[58]
   + 131 u[59] <= 5201
 primal_lower34: 673 u[0] + 373 u[1] + 475 u[2] + 108 u[3] + 13 u[4]
   + 491 u[5] + 406 u[6] + 557 u[7] + 414 u[8] + 347 u[9] + 685 u[10]
   + 660 u[11] + 453 u[12] + 37 u[13] + 910 u[14] + 270 u[15] + 742 u[16]
   + 913 u[17] + 130 u[18] + 335 u[19] + 238 u[20] + 937 u[21] + 989 u[22]
   + 976 u[23] + 958 u[24] + 889 u[25] + 683 u[26] + 465 u[27] + 663 u[28]
   + 560 u[29] + 403 u[30] + 629 u[31] + 501 u[32] + 414 u[33] + 437 u[34]
   + 650 u[35] + 85 u[36] + 534 u[37] + 765 u[38] + 616 u[39] + 616 u[40]
   + 771 u[41] + 39 u[42] + 807 u[43] + 800 u[44] + 484 u[45] + 635 u[46]
   + 547 u[47] + 824 u[48] + 25 u[49] + 544 u[50] + 833 u[51] + 582 u[52]
   + 997 u[53] + 274 u[54] + 545 u[55] + 682 u[56] + 28 u[57] + 229 u[58]
   + 387 u[59] <= 12813
 primal_lower35: 302 u[0] + 631 u[1] + 873 u[2] + 958 u[3] + 403 u[4]
   + 684 u[5] + 964 u[6] + 230 u[7] + 324 u[8] + 205 u[9] + 346 u[10]
   + 238 u[11] + 579 u[12] + 599 u[13] + 763 u[14] + 351 u[15] + 396 u[16]
   + 491 u[17] + 720 u[18] + 361 u[19] + 716 u[20] + 602 u[21] + 267 u[22]
   + 313 u[23] + 971 u[24] + 923 u[25] + 305 u[26] + 322 u[27] + 980 u[28]
   + 786 u[29] + 832 u[30] + 510 u[31] + 642 u[32] + 368 u[33] + 675 u[34]
   + 204 u[35] + 563 u[36] + 247 u[37] + 507 u[38] + 65 u[39] + 470 u[40]
   + 28 u[41] + 421 u[42] + 232 u[43] + 318 u[44] + 861 u[45] + 72 u[46]
   + 572 u[47] + 758 u[48] + 507 u[49] + 429 u[50] + 107 u[51] + 772 u[52]
   + 831 u[53] + 663 u[54] + 746 u[55] + 592 u[56] + 589 u[57] + 851 u[58]
   + 69 u[59] <= 12441
 primal_lower36: 184 u[0] + 364 u[1] + 514 u[2] + 779 u[3] + 228 u[4]
   + 938 u[5] + 109 u[6] + 44 u[7] + 877 u[8] + 450 u[9] + 140 u[10]
   + 219 u[11] + 876 u[12] + 300 u[13] + 133 u[14] + 93 u[15] + 621 u[16]
   + 328 u[17] + 297 u[18] + 798 u[19] + 189 u[20] + 280 u[21] + 676 u[22]
   + 631 u[23] + 685 u[24] + 576 u[25] + 538 u[26] + 344 u[27] + 726 u[28]
   + 991 u[29] + 146 u[30] + 196 u[31] + 300 u[32] + 541 u[33] + 420 u[34]
   + 33 u[35] + 420 u[36] + 773 u[37] + 596 u[38] + 183 u[39] + 183 u[40]
   + 250 u[41] + 534 u[42] + 646 u[43] + 943 u[44] + 571 u[45] + 602 u[46]
   + 642 u[47] + 487 u[48] + 184 u[49] + 207 u[50] + 240 u[51] + 501 u[52]
   + 308 u[53] + 897 u[54] + 1000 u[55] + 713 u[56] + 579 u[57] + 788 u[58]
   + 66 u[59] <= 16726
 primal_lower37: 603 u[0] + 772 u[1] + 710 u[2] + 747 u[3] + 224 u[4]
   + 193 u[5] + 313 u[6] + 179 u[7] + 929 u[8] + 186 u[9] + 871 u[10]
   + 755 u[11] + 480 u[12] + 492 u[13] + 832 u[14] + 108 u[15] + 977 u[16]
   + 600 u[17] + 973 u[18] + 886 u[19] + 545 u[20] + 927 u[21] + 88 u[22]
   + 62 u[23] + 760 u[24] + 632 u[25] + 486 u[26] + 463 u[27] + 713 u[28]
   + 687 u[29] + 845 u[30] + 123 u[31] + 295 u[32] + 717 u[33] + 880 u[34]
   + 857 u[35] + 560 u[36] + 108 u[37] + 232 u[38] + 126 u[39] + 707 u[40]
   + 721 u[41] + 698 u[42] + 989 u[43] + 667 u[44] + 58 u[45] + 429 u[46]
   + 977 u[47] + 603 u[48] + 560 u[49] + 578 u[50] + 72 u[51] + 873 u[52]
   + 660 u[53] + 196 u[54] + 783 u[55] + 501 u[56] + 26 u[57] + 112 u[58]
   + 474 u[59] <= 13048
 primal_lower38: 880 u[0] + 609 u[1] + 475 u[2] + 432 u[3] + 37 u[4]
   + 342 u[5] + 750 u[6] + 632 u[7] + 582 u[8] + 279 u[9] + 148 u[10]
   + 168 u[11] + 93 u[12] + 161 u[13] + 125 u[14] + 665 u[15] + 862 u[16]
   + 717 u[17] + 242 u[18] + 811 u[19] + 230 u[20] + 724 u[21] + 421 u[22]
   + 283 u[23] + 365 u[24] + 301 u[25] + 259 u[26] + 900 u[27] + 838 u[28]
   + 4 u[29] + 866 u[30] + 592 u[31] + 52 u[32] + 202 u[33] + 141 u[34]
   + 14 u[35] + 861 u[36] + 97 u[37] + 573 u[38] + 955 u[39] + 480 u[40]
   + 574 u[41] + 799 u[42] + 946 u[43] + 16 u[44] + 839 u[45] + 626 u[46]
   + 926 u[47] + 280 u[48] + 237 u[49] + 407 u[50] + 885 u[51] + 62 u[52]
   + 457 u[53] + 25 u[54] + 68 u[55] + 322 u[56] + 407 u[57] + 509 u[58]
   + 999 u[59] <= 11020
 primal_lower39: 458 u[0] + 819 u[1] + 861 u[2] + 146 u[3] + 815 u[4]
   + 464 u[5] + 544 u[6] + 922 u[7] + 448 u[8] + 577 u[9] + 198 u[10]
   + 330 u[11] + 735 u[12] + 347 u[13] + 767 u[14] + 931 u[15] + 624 u[16]
   + 335 u[17] + 276 u[18] + 133 u[19] + 656 u[20] + 14 u[21] + 639 u[22]
   + 237 u[23] + 455 u[24] + 199 u[25] + 989 u[26] + 174 u[27] + 880 u[28]
   + 710 u[29] + 60 u[30] + 130 u[31] + 358 u[32] + 396 u[33] + 807 u[34]
   + 384 u[35] + 135 u[36] + 467 u[37] + 127 u[38] + 997 u[39] + 154 u[40]
   + 336 u[41] + 321 u[42] + 844 u[43] + 42 u[44] + 545 u[45] + 212 u[46]
   + 544 u[47] + 82 u[48] + 567 u[49] + 33 u[50] + 831 u[51] + 896 u[52]
   + 411 u[53] + 795 u[54] + 278 u[55] + 212 u[56] + 305 u[57] + 799 u[58]
   + 145 u[59] <= 5579
 primal_lower40: 479 u[0] + 403 u[1] + 833 u[2] + 706 u[3] + 83 u[4]
   + 657 u[5] + 756 u[6] + 147 u[7] + 132 u[8] + 57 u[9] + 587 u[10]
   + 898 u[11] + 779 u[12] + 123 u[13] + 460 u[14] + 660 u[15] + 748 u[16]
   + 183 u[17] + 616 u[18] + 861 u[19] + 908 u[20] + 215 u[21] + 555 u[22]
   + 878 u[23] + 444 u[24] + 695 u[25] + 673 u[26] + 711 u[27] + 93 u[28]
   + 654 u[29] + 289 u[30] + 739 u[31] + 779 u[32] + 908 u[33] + 371 u[34]
   + 256 u[35] + 475 u[36] + 804 u[37] + 275 u[38] + 206 u[39] + 878 u[40]
   + 97 u[41] + 981 u[42] + 829 u[43] + 990 u[44] + 194 u[45] + 473 u[46]
   + 609 u[47] + 238 u[48] + 23 u[49] + 606 u[50] + 487 u[51] + 316 u[52]
   + 875 u[53] + 584 u[54] + 511 u[55] + 248 u[56] + 394 u[57] + 763 u[58]
   + 497 u[59] <= 990
 primal_lower41: 496 u[0] + 913 u[1] + 899 u[2] + 400 u[3] + 45 u[4]
   + 734 u[5] + 278 u[6] + 488 u[7] + 942 u[8] + 647 u[9] + 804 u[10]
   + 344 u[11] + 981 u[12] + 145 u[13] + 5 u[14] + 985 u[15] + 790 u[16]
   + 941 u[17] + 714 u[18] + 11 u[19] + 70 u[20] + 740 u[21] + 317 u[22]
   + 339 u[23] + 645 u[24] + 261 u[25] + 947 u[26] + 420 u[27] + 950 u[28]
   + 492 u[29] + 322 u[30] + 208 u[31] + 468 u[32] + 474 u[33] + 685 u[34]
   + 238 u[35] + 125 u[36] + 305 u[37] + 893 u[38] + 379 u[39] + 968 u[40]
   + 622 u[41] + 191 u[42] + 234 u[43] + 640 u[44] + 431 u[45] + 818 u[46]
   + 750 u[47] + 728 u[48] + 589 u[49] + 391 u[50] + 717 u[51] + 638 u[52]
   + 721 u[53] + 465 u[54] + 844 u[55] + 122 u[56] + 351 u[57] + 573 u[58]
   + 103 u[59] <= 12694
 primal_lower42: 565 u[0] + 942 u[1] + 312 u[2] + 405 u[3] + 330 u[4]
   + 243 u[5] + 907 u[6] + 877 u[7] + 491 u[8] + 740 u[9] + 849 u[10]
   + 165 u[11] + 378 u[12] + 246 u[13] + 714 u[14] + 78 u[15] + 115 u[16]
   + 882 u[17] + 543 u[18] + 960 u[19] + 579 u[20] + 617 u[21] + 922 u[22]
   + 432 u[23] + 906 u[24] + 98 u[25] + 928 u[26] + 985 u[27] + 59 u[28]
   + 617 u[29] + 855 u[30] + 973 u[31] + 185 u[32] + 295 u[33] + 858 u[34]
   + 803 u[35] + 642 u[36] + 230 u[37] + 82 u[38] + 688 u[39] + 277 u[40]
   + 107 u[41] + 972 u[42] + 391 u[43] + 845 u[44] + 356 u[45] + 823 u[46]
   + 883 u[47] + 485 u[48] + 858 u[49] + 356 u[50] + 946 u[51] + 987 u[52]
   + 254 u[53] + 6 u[54] + 265 u[55] + 335 u[56] + 772 u[57] + 66 u[58]
   + 964 u[59] <= 13377
 primal_lower43: 876 u[0] + 989 u[1] + 727 u[2] + 124 u[3] + 593 u[4]
   + 482 u[5] + 674 u[6] + 652 u[7] + 906 u[8] + 59 u[9] + 632 u[10]
   + 540 u[11] + 121 u[12] + 613 u[13] + 737 u[14] + 173 u[15] + 170 u[16]
   + 241 u[17] + 318 u[18] + 15 u[19] + 778 u[20] + 480 u[21] + 889 u[22]
   + 695 u[23] + 377 u[24] + 49 u[25] + 239 u[26] + 752 u[27] + 386 u[28]
   + 496 u[29] + 510 u[30] + 4 u[31] + 16 u[32] + 694 u[33] + 353 u[34]
   + 666 u[35] + 705 u[36] + 893 u[37] + 257 u[38] + 711 u[39] + 460 u[40]
   + 786 u[41] + 907 u[42] + 942 u[43] + 372 u[44] + 227 u[45] + 854 u[46]
   + 90 u[47] + 236 u[48] + 233 u[49] + 787 u[50] + 697 u[51] + 770 u[52]
   + 485 u[53] + 429 u[54] + 544 u[55] + 230 u[56] + 259 u[57] + 985 u[58]
   + 403 u[59] <= 12115
 primal_lower44: 596 u[0] + 432 u[1] + 670 u[2] + 895 u[3] + 40 u[4]
   + 166 u[5] + 537 u[6] + 928 u[7] + 985 u[8] + 366 u[9] + 496 u[10]
   + 591 u[11] + 72 u[12] + 496 u[13] + 361 u[14] + 145 u[15] + 713 u[16]
   + 980 u[17] + 405 u[18] + 218 u[19] + 201 u[20] + 164 u[21] + 176 u[22]
   + 395 u[23] + 769 u[24] + 836 u[25] + 550 u[26] + 148 u[27] + 58 u[28]
   + 347 u[29] + 726 u[30] + 808 u[31] + 784 u[32] + 857 u[33] + 904 u[34]
   + 501 u[35] + 48 u[36] + 561 u[37] + 680 u[38] + 859 u[39] + 947 u[40]
   + 854 u[41] + 482 u[42] + 170 u[43] + 971 u[44] + 679 u[45] + 950 u[46]
   + 750 u[47] + 355 u[48] + 444 u[49] + 211 u[50] + 388 u[51] + 89 u[52]
   + 120 u[53] + 685 u[54] + 932 u[55] + 549 u[56] + 719 u[57] + 688 u[58]
   + 350 u[59] <= 12718
 primal_lower45: 626 u[0] + 539 u[1] + 341 u[2] + 954 u[3] + 271 u[4]
   + 328 u[5] + 800 u[6] + 418 u[7] + 232 u[8] + 345 u[9] + 478 u[10]
   + 650 u[11] + 695 u[12] + 131 u[13] + 431 u[14] + 675 u[15] + 120 u[16]
   + 335 u[17] + 900 u[18] + 693 u[19] + 712 u[20] + 654 u[21] + 559 u[22]
   + 645 u[23] + 207 u[24] + 935 u[25] + 117 u[26] + 478 u[27] + 880 u[28]
   + 894 u[29] + 316 u[30] + 378 u[31] + 654 u[32] + 956 u[33] + 127 u[34]
   + 152 u[35] + 359 u[36] + 939 u[37] + 143 u[38] + 213 u[39] + 834 u[40]
   + 632 u[41] + 417 u[42] + 276 u[43] + 122 u[44] + 9 u[45] + 932 u[46]
   + 760 u[47] + 426 u[48] + 663 u[49] + 737 u[50] + 391 u[51] + 256 u[52]
   + 139 u[53] + 299 u[54] + 934 u[55] + 652 u[56] + 553 u[57] + 191 u[58]
   + 689 u[59] <= 6038
 primal_lower46: 882 u[0] + 326 u[1] + 892 u[2] + 629 u[3] + 246 u[4]
   + 676 u[5] + 103 u[6] + 318 u[7] + 511 u[8] + 364 u[9] + 942 u[10]
   + 293 u[11] + 734 u[12] + 46 u[13] + 111 u[14] + 295 u[15] + 991 u[16]
   + 122 u[17] + 923 u[18] + 976 u[19] + 87 u[20] + 122 u[21] + 534 u[22]
   + 569 u[23] + 471 u[24] + 218 u[25] + 68 u[26] + 898 u[27] + 912 u[28]
   + 177 u[29] + 356 u[30] + 334 u[31] + 702 u[32] + 799 u[33] + 30 u[34]
   + 251 u[35] + 638 u[36] + 31 u[37] + 150 u[38] + 761 u[39] + 209 u[40]
   + 260 u[41] + 176 u[42] + 664 u[43] + 553 u[44] + 493 u[45] + 756 u[46]
   + 900 u[47] + 865 u[48] + 250 u[49] + 345 u[50] + 690 u[51] + 503 u[52]
   + 750 u[53] + 547 u[54] + 730 u[55] + 827 u[56] + 493 u[57] + 454 u[58]
   + 940 u[59] <= 11957
 primal_lower47: 224 u[0] + 553 u[1] + 851 u[2] + 632 u[3] + 413 u[4]
   + 142 u[5] + 926 u[6] + 488 u[7] + 414 u[8] + 559 u[9] + 44 u[10]
   + 88 u[11] + 109 u[12] + 193 u[13] + 13 u[14] + 841 u[15] + 222 u[16]
   + 693 u[17] + 226 u[18] + 747 u[19] + 526 u[20] + 748 u[21] + 965 u[22]
   + 251 u[23] + 109 u[24] + 773 u[25] + 787 u[26] + 292 u[27] + 326 u[28]
   + 580 u[29] + 994 u[30] + 296 u[31] + 956 u[32] + 10 u[33] + 853 u[34]
   + 846 u[35] + 957 u[36] + 689 u[37] + 477 u[38] + 979 u[39] + 904 u[40]
   + 598 u[41] + 831 u[42] + 658 u[43] + 928 u[44] + 703 u[45] + 170 u[46]
   + 70 u[47] + 664 u[48] + 917 u[49] + 359 u[50] + 941 u[51] + 702 u[52]
   + 513 u[53] + 369 u[54] + 836 u[55] + 18 u[56] + 183 u[57] + 397 u[58]
   + 375 u[59] <= 6385
 primal_lower48: 385 u[0] + 386 u[1] + 876 u[2] + 97 u[3] + 286 u[4]
   + 975 u[5] + 207 u[6] + 873 u[7] + 663 u[8] + 808 u[9] + 357 u[10]
   + 985 u[11] + 318 u[12] + 794 u[13] + 782 u[14] + 666 u[15] + 687 u[16]
   + 534 u[17] + 323 u[18] + 772 u[19] + 207 u[20] + 149 u[21] + 846 u[22]
   + 692 u[23] + 646 u[24] + 182 u[25] + 564 u[26] + 373 u[27] + 919 u[28]
   + 989 u[29] + 587 u[30] + 161 u[31] + 125 u[32] + 795 u[33] + 638 u[34]
   + 655 u[35] + 918 u[36] + 978 u[37] + 198 u[38] + 396 u[39] + 49 u[40]
   + 287 u[41] + 752 u[42] + 715 u[43] + 537 u[44] + 816 u[45] + 219 u[46]
   + 255 u[47] + 225 u[48] + 822 u[49] + 480 u[50] + 278 u[51] + 39 u[52]
   + 122 u[53] + 170 u[54] + 917 u[55] + 187 u[56] + 576 u[57] + 734 u[58]
   + 88 u[59] <= 6212
 primal_lower49: 305 u[0] + 538 u[1] + 876 u[2] + 17 u[3] + 454 u[4]
   + 167 u[5] + 55 u[6] + 737 u[7] + 375 u[8] + 16 u[9] + 661 u[10]
   + 577 u[11] + 662 u[12] + 522 u[13] + 998 u[14] + 946 u[15] + 623 u[16]
   + 46 u[17] + 755 u[18] + 316 u[19] + 39 u[20] + 989 u[21] + 246 u[22]
   + 116 u[23] + 214 u[24] + 430 u[25] + 964 u[26] + 285 u[27] + 551 u[28]
   + 781 u[29] + 467 u[30] + 425 u[31] + 525 u[32] + 899 u[33] + 390 u[34]
   + 951 u[35] + 222 u[36] + 530 u[37] + 118 u[38] + 948 u[39] + 425 u[40]
   + 295 u[41] + 808 u[42] + 155 u[43] + 513 u[44] + 32 u[45] + 803 u[46]
   + 15 u[47] + 257 u[48] + 470 u[49] + 288 u[50] + 566 u[51] + 159 u[52]
   + 538 u[53] + 218 u[54] + 525 u[55] + 131 u[56] + 24 u[57] + 22 u[58]
   + 656 u[59] <= 10654
 primal_lower50: 154 u[0] + 243 u[1] + 157 u[2] + 450 u[3] + 679 u[4]
   + 504 u[5] + 656 u[6] + 378 u[7] + 472 u[8] + 713 u[9] + 854 u[10]
   + 106 u[11] + 399 u[12] + 731 u[13] + 967 u[14] + 363 u[15] + 656 u[16]
   + 103 u[17] + 908 u[18] + 909 u[19] + 440 u[20] + 982 u[21] + 783 u[22]
   + 133 u[23] + 999 u[24] + 647 u[25] + 269 u[26] + 590 u[27] + 960 u[28]
   + 742 u[29] + 596 u[30] + 18 u[31] + 758 u[32] + 332 u[33] + 671 u[34]
   + 104 u[35] + 559 u[36] + 739 u[37] + 431 u[38] + 301 u[39] + 74 u[40]
   + 40 u[41] + 393 u[42] + 796 u[43] + 706 u[44] + 521 u[45] + 724 u[46]
   + 744 u[47] + 330 u[48] + 207 u[49] + 737 u[50] + 495 u[51] + 520 u[52]
   + 211 u[53] + 947 u[54] + 326 u[55] + 908 u[56] + u[57] + 519 u[58]
   + 553 u[59] <= 12483
 primal_lower51: 181 u[0] + 334 u[1] + 568 u[2] + 709 u[3] + 402 u[4]
   + 291 u[5] + 3 u[6] + 701 u[7] + 91 u[8] + 4 u[9] + 337 u[10]
   + 221 u[11] + 842 u[12] + 622 u[13] + 522 u[14] + 838 u[15] + 499 u[16]
   + 986 u[17] + 375 u[18] + 632 u[19] + 51 u[20] + 449 u[21] + 506 u[22]
   + 416 u[23] + 146 u[24] + 890 u[25] + 680 u[26] + u[27] + 763 u[28]
   + 233 u[29] + 215 u[30] + 741 u[31] + 809 u[32] + 919 u[33] + 362 u[34]
   + 99 u[35] + 82 u[36] + 710 u[37] + 482 u[38] + 352 u[39] + 93 u[40]
   + 235 u[41] + 524 u[42] + 831 u[43] + 85 u[44] + 916 u[45] + 471 u[46]
   + 707 u[47] + 341 u[48] + 306 u[49] + 108 u[50] + 234 u[51] + 739 u[52]
   + 814 u[53] + 430 u[54] + 241 u[55] + 743 u[56] + 172 u[57] + 354 u[58]
   + 228 u[59] <= 10654
 primal_lower52: 81 u[0] + 549 u[1] + 315 u[2] + 628 u[3] + 901 u[4]
   + 123 u[5] + 742 u[6] + 301 u[7] + 630 u[8] + 595 u[9] + 29 u[10]
   + 940 u[11] + 613 u[12] + 437 u[13] + 998 u[14] + 926 u[15] + 550 u[16]
   + 689 u[17] + 290 u[18] + 215 u[19] + 358 u[20] + 49 u[21] + 405 u[22]
   + 992 u[23] + 238 u[24] + 665 u[25] + 123 u[26] + 921 u[27] + 175 u[28]
   + 432 u[29] + 499 u[30] + 125 u[31] + 773 u[32] + 502 u[33] + 733 u[34]
   + 650 u[35] + 797 u[36] + 886 u[37] + 557 u[38] + 128 u[39] + 32 u[40]
   + 539 u[41] + 615 u[42] + 151 u[43] + 528 u[44] + 332 u[45] + 147 u[46]
   + 291 u[47] + 472 u[48] + 81 u[49] + 440 u[50] + 457 u[51] + 598 u[52]
   + 373 u[53] + 34 u[54] + 177 u[55] + 298 u[56] + 476 u[57] + 533 u[58]
   + 643 u[59] <= 16666
 primal_lower53: 731 u[0] + 175 u[1] + 317 u[2] + 582 u[3] + 359 u[4]
   + 629 u[5] + 144 u[6] + 879 u[7] + 784 u[8] + 389 u[9] + 359 u[10]
   + 982 u[11] + 831 u[12] + 487 u[13] + 624 u[14] + 224 u[15] + 248 u[16]
   + 307 u[17] + 612 u[18] + 777 u[19] + 384 u[20] + 467 u[21] + 63 u[22]
   + 642 u[23] + 608 u[24] + 123 u[25] + 661 u[26] + 403 u[27] + 105 u[28]
   + 690 u[29] + 549 u[30] + 39 u[31] + 815 u[32] + 432 u[33] + 743 u[34]
   + 700 u[35] + 967 u[36] + 488 u[37] + 679 u[38] + 642 u[39] + 578 u[40]
   + 141 u[41] + 553 u[42] + 145 u[43] + 650 u[44] + 742 u[45] + 253 u[46]
   + 85 u[47] + 618 u[48] + 491 u[49] + 866 u[50] + 523 u[51] + 424 u[52]
   + 71 u[53] + 700 u[54] + 219 u[55] + 156 u[56] + 478 u[57] + 359 u[58]
   + 85 u[59] <= 17266
 primal_lower54: 307 u[0] + 108 u[1] + 398 u[2] + 259 u[3] + 776 u[4]
   + 49 u[5] + 857 u[6] + 683 u[7] + 641 u[8] + 210 u[9] + 863 u[10]
   + 587 u[11] + 128 u[12] + 316 u[13] + 64 u[14] + 764 u[15] + 713 u[16]
   + 360 u[17] + 501 u[18] + 830 u[19] + 857 u[20] + 599 u[21] + 440 u[22]
   + 446 u[23] + 40 u[24] + 296 u[25] + 726 u[26] + 439 u[27] + 481 u[28]
   + 807 u[29] + 525 u[30] + 67 u[31] + 695 u[32] + 197 u[33] + 296 u[34]
   + 969 u[35] + 696 u[36] + 620 u[37] + 432 u[38] + 686 u[39] + 179 u[40]
   + 857 u[41] + 354 u[42] + 613 u[43] + 955 u[44] + 914 u[45] + 621 u[46]
   + 649 u[47] + 371 u[48] + 512 u[49] + 34 u[50] + 144 u[51] + 25 u[52]
   + 612 u[53] + 396 u[54] + 215 u[55] + 309 u[56] + 610 u[57] + 880 u[58]
   + 58 u[59] <= 5807
 primal_lower55: 226 u[0] + 510 u[1] + 732 u[2] + 93 u[3] + 566 u[4]
   + 724 u[5] + 431 u[6] + 926 u[7] + 767 u[8] + 916 u[9] + 702 u[10]
   + 341 u[11] + 942 u[12] + 534 u[13] + 7 u[14] + 175 u[15] + 575 u[16]
   + 178 u[17] + 307 u[18] + 480 u[19] + 935 u[20] + 306 u[21] + 54 u[22]
   + 489 u[23] + 919 u[24] + 146 u[25] + 612 u[26] + 146 u[27] + 216 u[28]
   + 553 u[29] + 340 u[30] + 198 u[31] + 86 u[32] + 727 u[33] + 806 u[34]
   + 507 u[35] + 350 u[36] + 135 u[37] + 902 u[38] + 777 u[39] + 177 u[40]
   + 732 u[41] + 56 u[42] + 944 u[43] + 897 u[44] + 541 u[45] + 900 u[46]
   + 860 u[47] + 25 u[48] + 530 u[49] + 401 u[50] + 450 u[51] + 215 u[52]
   + 302 u[53] + 51 u[54] + 962 u[55] + 987 u[56] + 413 u[57] + 118 u[58]
   + 556 u[59] <= 5890
 primal_lower56: 199 u[0] + 379 u[1] + 425 u[2] + 434 u[3] + 155 u[4]
   + 369 u[5] + 660 u[6] + 219 u[7] + 188 u[8] + 257 u[9] + 163 u[10]
   + 74 u[11] + 507 u[12] + 139 u[13] + 196 u[14] + 68 u[15] + 372 u[16]
   + 439 u[17] + 952 u[18] + 509 u[19] + 268 u[20] + 215 u[21] + 363 u[22]
   + 926 u[23] + 444 u[24] + 687 u[25] + 369 u[26] + 815 u[27] + 997 u[28]
   + 406 u[29] + 729 u[30] + 203 u[31] + 123 u[32] + 924 u[33] + 435 u[34]
   + 88 u[35] + 531 u[36] + 452 u[37] + 51 u[38] + 62 u[39] + 206 u[40]
   + 89 u[41] + 141 u[42] + 797 u[43] + 830 u[44] + 466 u[45] + 89 u[46]
   + 409 u[47] + 270 u[48] + 95 u[49] + 342 u[50] + 951 u[51] + 756 u[52]
   + 883 u[53] + 216 u[54] + 55 u[55] + 280 u[56] + 506 u[57] + 971 u[58]
   + 417 u[59] <= 4912
 primal_lower57: 192 u[0] + 796 u[1] + 978 u[2] + 75 u[3] + 28 u[4]
   + 66 u[5] + 621 u[6] + 588 u[7] + 525 u[8] + 794 u[9] + 748 u[10]
   + 827 u[11] + 284 u[12] + 828 u[13] + 149 u[14] + 101 u[15] + 877 u[16]
   + 968 u[17] + 393 u[18] + 830 u[19] + 229 u[20] + 856 u[21] + 740 u[22]
   + 215 u[23] + 821 u[24] + 72 u[25] + 658 u[26] + 1000 u[27] + 782 u[28]
   + 479 u[29] + 578 u[30] + 548 u[31] + 532 u[32] + 845 u[33] + 652 u[34]
   + 577 u[35] + 900 u[36] + 797 u[37] + 604 u[38] + 647 u[39] + 839 u[40]
   + 786 u[41] + 230 u[42] + 990 u[43] + 511 u[44] + 891 u[45] + 466 u[46]
   + 674 u[47] + 647 u[48] + 912 u[49] + 559 u[50] + 240 u[51] + 693 u[52]
   + 468 u[53] + 817 u[54] + 456 u[55] + 705 u[56] + 371 u[57] + 900 u[58]
   + 146 u[59] <= 7100
 primal_lower58: 204 u[0] + 573 u[1] + 447 u[2] + 420 u[3] + 729 u[4]
   + 946 u[5] + 458 u[6] + 772 u[7] + 426 u[8] + 43 u[9] + 864 u[10]
   + 668 u[11] + 377 u[12] + 341 u[13] + 217 u[14] + 61 u[15] + 162 u[16]
   + u[17] + 406 u[18] + 879 u[19] + 490 u[20] + 504 u[21] + 825 u[22]
   + 743 u[23] + 993 u[24] + 169 u[25] + 103 u[26] + 760 u[27] + 738 u[28]
   + 728 u[29] + 702 u[30] + 612 u[31] + 736 u[32] + 638 u[33] + 873 u[34]
   + 378 u[35] + 473 u[36] + 957 u[37] + 729 u[38] + 391 u[39] + 236 u[40]
   + 426 u[41] + 619 u[42] + 678 u[43] + 300 u[44] + 779 u[45] + 606 u[46]
   + 570 u[47] + 220 u[48] + 801 u[49] + 19 u[50] + 233 u[51] + 738 u[52]
   + 309 u[53] + 909 u[54] + 552 u[55] + 326 u[56] + 731 u[57] + 33 u[58]
   + 899 u[59] <= 6304
 primal_lower59: 85 u[0] + 481 u[1] + 527 u[2] + 624 u[3] + 513 u[4]
   + 287 u[5] + 66 u[6] + 825 u[7] + 482 u[8] + 823 u[9] + 97 u[10]
   + 184 u[11] + 641 u[12] + 737 u[13] + 394 u[14] + 762 u[15] + 386 u[16]
   + 421 u[17] + 126 u[18] + 3 u[19] + 306 u[20] + 253 u[21] + 457 u[22]
   + 212 u[23] + 370 u[24] + 365 u[25] + 719 u[26] + 189 u[27] + 603 u[28]
   + 572 u[29] + 591 u[30] + 705 u[31] + 897 u[32] + 946 u[33] + 793 u[34]
   + 158 u[35] + 201 u[36] + 226 u[37] + 457 u[38] + 764 u[39] + 524 u[40]
   + 823 u[41] + 579 u[42] + 443 u[43] + 516 u[44] + 272 u[45] + 855 u[46]
   + 335 u[47] + 436 u[48] + 621 u[49] + 236 u[50] + 125 u[51] + 602 u[52]
   + 625 u[53] + 606 u[54] + 469 u[55] + 390 u[56] + 96 u[57] + 633 u[58]
   + 135 u[59] <= 11027
 primal_lower60: 932 u[0] + 309 u[1] + 607 u[2] + 236 u[3] + 609 u[4]
   + 882 u[5] + 402 u[6] + 300 u[7] + 794 u[8] + 755 u[9] + 744 u[10]
   + 652 u[11] + 281 u[12] + 733 u[13] + 905 u[14] + 429 u[15] + 722 u[16]
   + 49 u[17] + 598 u[18] + 599 u[19] + 266 u[20] + 864 u[21] + 553 u[22]
   + 255 u[23] + 985 u[24] + 945 u[25] + 999 u[26] + 64 u[27] + 914 u[28]
   + 704 u[29] + 334 u[30] + 740 u[31] + 1000 u[32] + 238 u[33] + 385 u[34]
   + 442 u[35] + 609 u[36] + 221 u[37] + 441 u[38] + 943 u[39] + 708 u[40]
   + 98 u[41] + 675 u[42] + 902 u[43] + 564 u[44] + 523 u[45] + 950 u[46]
   + 26 u[47] + 788 u[48] + 489 u[49] + 979 u[50] + 857 u[51] + 618 u[52]
   + 461 u[53] + 605 u[54] + 216 u[55] + 230 u[56] + 43 u[57] + 353 u[58]
   + 723 u[59] <= 13699
 primal_lower61: 240 u[0] + 33 u[1] + 811 u[2] + 928 u[3] + 101 u[4]
   + 990 u[5] + 206 u[6] + 992 u[7] + 414 u[8] + 151 u[9] + 684 u[10]
   + 144 u[11] + 269 u[12] + 625 u[13] + 997 u[14] + 833 u[15] + 670 u[16]
   + 477 u[17] + 786 u[18] + 179 u[19] + 470 u[20] + 4 u[21] + 93 u[22]
   + 203 u[23] + 221 u[24] + 773 u[25] + 755 u[26] + 244 u[27] + 94 u[28]
   + 84 u[29] + 330 u[30] + 208 u[31] + 68 u[32] + 330 u[33] + 853 u[34]
   + 470 u[35] + 557 u[36] + 737 u[37] + 117 u[38] + 931 u[39] + 600 u[40]
   + 902 u[41] + 503 u[42] + 394 u[43] + 976 u[44] + 55 u[45] + 770 u[46]
   + 390 u[47] + 912 u[48] + 653 u[49] + 951 u[50] + 317 u[51] + 478 u[52]
   + 809 u[53] + 673 u[54] + 148 u[55] + 2 u[56] + 271 u[57] + 557 u[58]
   + 647 u[59] <= 11632
 primal_lower62: 48 u[0] + 745 u[1] + 699 u[2] + 752 u[3] + 949 u[4]
   + 958 u[5] + 102 u[6] + 816 u[7] + 462 u[8] + 111 u[9] + 956 u[10]
   + 760 u[11] + 205 u[12] + 185 u[13] + 461 u[14] + 993 u[15] + 302 u[16]
   + 941 u[17] + 986 u[18] + 883 u[19] + 486 u[20] + 964 u[21] + 77 u[22]
   + 499 u[23] + 125 u[24] + 157 u[25] + 955 u[26] + 52 u[27] + 646 u[28]
   + 52 u[29] + 786 u[30] + 688 u[31] + 52 u[32] + 394 u[33] + 253 u[34]
   + 542 u[35] + 861 u[36] + 625 u[37] + 597 u[38] + 835 u[39] + 592 u[40]
   + 286 u[41] + 447 u[42] + 442 u[43] + 376 u[44] + 423 u[45] + 858 u[46]
   + 574 u[47] + 600 u[48] + 317 u[49] + 559 u[50] + 61 u[51] + 654 u[52]
   + 657 u[53] + 657 u[54] + 588 u[55] + 442 u[56] + 327 u[57] + 317 u[58]
   + 719 u[59] <= 12742
 primal_lower63: 527 u[0] + 312 u[1] + 754 u[2] + 767 u[3] + 956 u[4]
   + 677 u[5] + 813 u[6] + 831 u[7] + 357 u[8] + 246 u[9] + 827 u[10]
   + 15 u[11] + 996 u[12] + 264 u[13] + 372 u[14] + 440 u[15] + 53 u[16]
   + 732 u[17] + 249 u[18] + 170 u[19] + 581 u[20] + 387 u[21] + 52 u[22]
   + 986 u[23] + 796 u[24] + 108 u[25] + 882 u[26] + 411 u[27] + 189 u[28]
   + 331 u[29] + 281 u[30] + 895 u[31] + 627 u[32] + 113 u[33] + 356 u[34]
   + 461 u[35] + 532 u[36] + 960 u[37] + 860 u[38] + 258 u[39] + 151 u[40]
   + 877 u[41] + 54 u[42] + 513 u[43] + 599 u[44] + 206 u[45] + 913 u[46]
   + 893 u[47] + 127 u[48] + 876 u[49] + 318 u[50] + 596 u[51] + 853 u[52]
   + 232 u[53] + 296 u[54] + 539 u[55] + 473 u[56] + 694 u[57] + 420 u[58]
   + 982 u[59] <= 6207
 primal_lower64: 270 u[0] + 58 u[1] + 40 u[2] + 321 u[3] + 594 u[4]
   + 600 u[5] + 331 u[6] + 18 u[7] + 571 u[8] + 136 u[9] + 522 u[10]
   + 289 u[11] + 106 u[12] + 970 u[13] + 507 u[14] + 563 u[15] + 635 u[16]
   + 750 u[17] + 119 u[18] + 900 u[19] + 563 u[20] + 686 u[21] + 2 u[22]
   + 805 u[23] + 363 u[24] + 318 u[25] + 104 u[26] + 150 u[27] + 828 u[28]
   + 893 u[29] + 280 u[30] + 146 u[31] + 202 u[32] + 619 u[33] + 586 u[34]
   + 463 u[35] + 794 u[36] + 699 u[37] + 650 u[38] + 541 u[39] + 885 u[40]
   + 608 u[41] + 588 u[42] + 516 u[43] + 493 u[44] + 681 u[45] + 816 u[46]
   + 120 u[47] + 973 u[48] + 150 u[49] + 389 u[50] + 70 u[51] + 755 u[52]
   + 442 u[53] + 695 u[54] + 46 u[55] + 703 u[56] + 713 u[57] + 266 u[58]
   + 360 u[59] <= 973
 primal_lower65: 645 u[0] + 353 u[1] + 255 u[2] + 112 u[3] + 49 u[4]
   + 551 u[5] + 122 u[6] + 745 u[7] + 890 u[8] + 439 u[9] + 281 u[10]
   + 688 u[11] + 225 u[12] + 921 u[13] + 66 u[14] + 874 u[15] + 226 u[16]
   + 149 u[17] + 542 u[18] + 955 u[19] + 322 u[20] + 813 u[21] + 81 u[22]
   + 260 u[23] + 450 u[24] + 525 u[25] + 391 u[26] + 989 u[27] + 995 u[28]
   + 4 u[29] + 903 u[30] + 473 u[31] + 793 u[32] + 786 u[33] + 745 u[34]
   + 158 u[35] + 121 u[36] + 578 u[37] + 745 u[38] + 380 u[39] + 596 u[40]
   + 255 u[41] + 555 u[42] + 203 u[43] + 988 u[44] + 984 u[45] + 711 u[46]
   + 119 u[47] + 980 u[48] + 901 u[49] + 228 u[50] + 285 u[51] + 562 u[52]
   + 17 u[53] + 374 u[54] + 789 u[55] + 494 u[56] + 152 u[57] + 153 u[58]
   + 359 u[59] <= 17583
 primal_lower66: 165 u[0] + 294 u[1] + 528 u[2] + 573 u[3] + 562 u[4]
   + 75 u[5] + 187 u[6] + 205 u[7] + 627 u[8] + 828 u[9] + 753 u[10]
   + 733 u[11] + 594 u[12] + 718 u[13] + 322 u[14] + 942 u[15] + 883 u[16]
   + 850 u[17] + 351 u[18] + 96 u[19] + 819 u[20] + 241 u[21] + 650 u[22]
   + 408 u[23] + 674 u[24] + 82 u[25] + 856 u[26] + 809 u[27] + 403 u[28]
   + 313 u[29] + 151 u[30] + 61 u[31] + 921 u[32] + 767 u[33] + 138 u[34]
   + 803 u[35] + 714 u[36] + 974 u[37] + 426 u[38] + 208 u[39] + 245 u[40]
   + 571 u[41] + 508 u[42] + 383 u[43] + 853 u[44] + 300 u[45] + 167 u[46]
   + 115 u[47] + 629 u[48] + 82 u[49] + 996 u[50] + 338 u[51] + 979 u[52]
   + 398 u[53] + 958 u[54] + 377 u[55] + 527 u[56] + 404 u[57] + 370 u[58]
   + 532 u[59] <= 18261
 primal_lower67: 322 u[0] + 675 u[1] + 157 u[2] + 218 u[3] + 167 u[4]
   + 328 u[5] + 32 u[6] + 458 u[7] + 712 u[8] + 441 u[9] + 110 u[10]
   + 914 u[11] + 871 u[12] + 51 u[13] + 735 u[14] + 275 u[15] + 896 u[16]
   + 655 u[17] + 36 u[18] + 477 u[19] + 512 u[20] + 918 u[21] + 719 u[22]
   + 429 u[23] + 855 u[24] + 815 u[25] + 205 u[26] + 494 u[27] + 776 u[28]
   + 14 u[29] + 532 u[30] + 42 u[31] + 102 u[32] + 492 u[33] + 319 u[34]
   + 88 u[35] + 991 u[36] + 139 u[37] + 823 u[38] + 269 u[39] + 314 u[40]
   + 256 u[41] + 713 u[42] + 548 u[43] + 170 u[44] + 273 u[45] + 484 u[46]
   + 856 u[47] + 314 u[48] + 487 u[49] + 489 u[50] + 823 u[51] + 760 u[52]
   + 259 u[53] + 987 u[54] + 798 u[55] + 436 u[56] + 617 u[57] + 479 u[58]
   + 601 u[59] <= 991
 primal_lower68: 423 u[0] + 296 u[1] + 874 u[2] + 239 u[3] + 748 u[4]
   + 253 u[5] + 269 u[6] + 943 u[7] + 829 u[8] + 990 u[9] + 491 u[10]
   + 687 u[11] + 212 u[12] + 48 u[13] + 220 u[14] + 768 u[15] + 461 u[16]
   + 156 u[17] + 529 u[18] + 2 u[19] + 477 u[20] + 707 u[21] + 756 u[22]
   + 266 u[23] + 156 u[24] + 148 u[25] + 594 u[26] + 691 u[27] + 789 u[28]
   + 563 u[29] + 177 u[30] + 855 u[31] + 251 u[32] + 457 u[33] + 404 u[34]
   + 981 u[35] + 812 u[36] + 472 u[37] + 756 u[38] + 778 u[39] + 383 u[40]
   + 181 u[41] + 854 u[42] + 345 u[43] + 735 u[44] + 70 u[45] + 569 u[46]
   + 325 u[47] + 447 u[48] + 196 u[49] + 270 u[50] + 500 u[51] + 981 u[52]
   + 968 u[53] + 256 u[54] + 803 u[55] + 481 u[56] + 686 u[57] + 788 u[58]
   + 334 u[59] <= 18420
 primal_lower69: 715 u[0] + 687 u[1] + 125 u[2] + 942 u[3] + 175 u[4]
   + 69 u[5] + 760 u[6] + 983 u[7] + 272 u[8] + 637 u[9] + 999 u[10]
   + 966 u[11] + 695 u[12] + 671 u[13] + 32 u[14] + 864 u[15] + 64 u[16]
   + 547 u[17] + 276 u[18] + 985 u[19] + 920 u[20] + 835 u[21] + 799 u[22]
   + 514 u[23] + 1000 u[24] + 723 u[25] + 293 u[26] + 603 u[27] + 769 u[28]
   + 562 u[29] + 909 u[30] + 519 u[31] + 511 u[32] + 192 u[33] + 527 u[34]
   + 276 u[35] + 975 u[36] + 784 u[37] + 559 u[38] + 394 u[39] + 650 u[40]
   + 229 u[41] + 289 u[42] + 289 u[43] + 554 u[44] + 782 u[45] + 133 u[46]
   + 933 u[47] + 66 u[48] + 139 u[49] + 882 u[50] + 595 u[51] + 336 u[52]
   + 919 u[53] + 308 u[54] + 883 u[55] + 692 u[56] + 982 u[57] + 791 u[58]
   + 773 u[59] <= 14141
 primal_lower70: 705 u[0] + 930 u[1] + 780 u[2] + 801 u[3] + 334 u[4]
   + 695 u[5] + 175 u[6] + 897 u[7] + 647 u[8] + 208 u[9] + 173 u[10]
   + 753 u[11] + 886 u[12] + 450 u[13] + 22 u[14] + 130 u[15] + 223 u[16]
   + 414 u[17] + 451 u[18] + 932 u[19] + 847 u[20] + 485 u[21] + 14 u[22]
   + 532 u[23] + 678 u[24] + 542 u[25] + 628 u[26] + 437 u[27] + 999 u[28]
   + 517 u[29] + 763 u[30] + 297 u[31] + 357 u[32] + 483 u[33] + 446 u[34]
   + 535 u[35] + 206 u[36] + 626 u[37] + 398 u[38] + 620 u[39] + 473 u[40]
   + 775 u[41] + 384 u[42] + 19 u[43] + 473 u[44] + 600 u[45] + 803 u[46]
   + 807 u[47] + 617 u[48] + 574 u[49] + 928 u[50] + 974 u[51] + 951 u[52]
   + 170 u[53] + 210 u[54] + 645 u[55] + 595 u[56] + 624 u[57] + 70 u[58]
   + 224 u[59] <= 12772
 primal_lower71: 267 u[0] + 207 u[1] + 349 u[2] + 446 u[3] + 367 u[4]
   + 77 u[5] + 112 u[6] + 655 u[7] + 456 u[8] + 949 u[9] + 791 u[10]
   + 38 u[11] + 191 u[12] + 887 u[13] + 888 u[14] + 848 u[15] + 176 u[16]
   + 443 u[17] + 68 u[18] + 681 u[19] + 504 u[20] + 643 u[21] + 135 u[22]
   + 938 u[23] + 512 u[24] + 667 u[25] + 669 u[26] + 891 u[27] + 257 u[28]
   + 322 u[29] + 805 u[30] + 999 u[31] + 991 u[32] + 128 u[33] + 343 u[34]
   + 748 u[35] + 951 u[36] + 776 u[37] + 367 u[38] + 946 u[39] + 706 u[40]
   + 589 u[41] + 25 u[42] + 281 u[43] + 586 u[44] + 494 u[45] + 205 u[46]
   + 133 u[47] + 554 u[48] + 595 u[49] + 834 u[50] + 867 u[51] + 752 u[52]
   + 87 u[53] + 388 u[54] + 563 u[55] + 916 u[56] + 830 u[57] + 895 u[58]
   + 245 u[59] <= 6406
 primal_lower72: 897 u[0] + 562 u[1] + 796 u[2] + 361 u[3] + 630 u[4]
   + 23 u[5] + 447 u[6] + 553 u[7] + 431 u[8] + 864 u[9] + 317 u[10]
   + 465 u[11] + 86 u[12] + 74 u[13] + 470 u[14] + 362 u[15] + 679 u[16]
   + 494 u[17] + 107 u[18] + 140 u[19] + 415 u[20] + 221 u[21] + 30 u[22]
   + 772 u[23] + 502 u[24] + 86 u[25] + 708 u[26] + 765 u[27] + 247 u[28]
   + 861 u[29] + 427 u[30] + 9 u[31] + 821 u[32] + 715 u[33] + 478 u[34]
   + 143 u[35] + 830 u[36] + 170 u[37] + 566 u[38] + 764 u[39] + 601 u[40]
   + 335 u[41] + 488 u[42] + 459 u[43] + 529 u[44] + 688 u[45] + 827 u[46]
   + 407 u[47] + 833 u[48] + 870 u[49] + 808 u[50] + 694 u[51] + 975 u[52]
   + 34 u[53] + 74 u[54] + 173 u[55] + 915 u[56] + 408 u[57] + 182 u[58]
   + 176 u[59] <= 11505
 primal_lower73: 663 u[0] + 819 u[1] + 561 u[2] + 618 u[3] + 779 u[4]
   + 929 u[5] + 884 u[6] + 771 u[7] + 900 u[8] + 337 u[9] + 651 u[10]
   + 298 u[11] + 331 u[12] + 699 u[13] + 4 u[14] + 588 u[15] + 836 u[16]
   + 431 u[17] + 784 u[18] + 421 u[19] + 948 u[20] + 631 u[21] + 235 u[22]
   + 862 u[23] + 764 u[24] + 815 u[25] + 17 u[26] + 103 u[27] + 77 u[28]
   + 422 u[29] + 321 u[30] + 675 u[31] + 339 u[32] + 372 u[33] + 771 u[34]
   + 504 u[35] + 459 u[36] + 772 u[37] + 203 u[38] + 222 u[39] + 382 u[40]
   + 537 u[41] + 685 u[42] + 341 u[43] + 206 u[44] + 770 u[45] + 609 u[46]
   + 665 u[47] + 854 u[48] + 119 u[49] + 166 u[50] + 263 u[51] + 740 u[52]
   + 179 u[53] + 848 u[54] + 359 u[55] + 48 u[56] + 34 u[57] + 523 u[58]
   + 961 u[59] <= 6221
 primal_lower74: 388 u[0] + 253 u[1] + 287 u[2] + 916 u[3] + 193 u[4]
   + 378 u[5] + 482 u[6] + 300 u[7] + 106 u[8] + 203 u[9] + 424 u[10]
   + 92 u[11] + 465 u[12] + 93 u[13] + 545 u[14] + 309 u[15] + 426 u[16]
   + 81 u[17] + 654 u[18] + 855 u[19] + 810 u[20] + 368 u[21] + 953 u[22]
   + 511 u[23] + 385 u[24] + 977 u[25] + 255 u[26] + 640 u[27] + 306 u[28]
   + 496 u[29] + 254 u[30] + 812 u[31] + 920 u[32] + 774 u[33] + 153 u[34]
   + 34 u[35] + 601 u[36] + 549 u[37] + 513 u[38] + 319 u[39] + 148 u[40]
   + 722 u[41] + 803 u[42] + 646 u[43] + 596 u[44] + 67 u[45] + 918 u[46]
   + 242 u[47] + 444 u[48] + 185 u[49] + 691 u[50] + 377 u[51] + 690 u[52]
   + 693 u[53] + 317 u[54] + 1000 u[55] + 758 u[56] + 547 u[57] + 465 u[58]
   + 267 u[59] <= 5731
 primal_lower75: 720 u[0] + 913 u[1] + 475 u[2] + 272 u[3] + 181 u[4]
   + 726 u[5] + 254 u[6] + 360 u[7] + 6 u[8] + 695 u[9] + 948 u[10]
   + 352 u[11] + 973 u[12] + 425 u[13] + 557 u[14] + 225 u[15] + 542 u[16]
   + 741 u[17] + 106 u[18] + 283 u[19] + 702 u[20] + 404 u[21] + 29 u[22]
   + 323 u[23] + 501 u[24] + 181 u[25] + 675 u[26] + 340 u[27] + 102 u[28]
   + 588 u[29] + 434 u[30] + 120 u[31] + 660 u[32] + 410 u[33] + 453 u[34]
   + 414 u[35] + 277 u[36] + 393 u[37] + 797 u[38] + 867 u[39] + 232 u[40]
   + 398 u[41] + 103 u[42] + 634 u[43] + 968 u[44] + 271 u[45] + 794 u[46]
   + 446 u[47] + 536 u[48] + 533 u[49] + 831 u[50] + 269 u[51] + 110 u[52]
   + 289 u[53] + 929 u[54] + 284 u[55] + 594 u[56] + 303 u[57] + 85 u[58]
   + 943 u[59] <= 5595
 primal_lower76: 417 u[0] + 554 u[1] + 788 u[2] + 897 u[3] + 606 u[4]
   + 255 u[5] + 599 u[6] + 833 u[7] + 831 u[8] + 56 u[9] + 165 u[10]
   + 33 u[11] + 198 u[12] + 378 u[13] + 918 u[14] + 90 u[15] + 183 u[16]
   + 494 u[17] + 731 u[18] + 508 u[19] + 303 u[20] + 189 u[21] + 438 u[22]
   + 252 u[23] + 934 u[24] + 630 u[25] + 84 u[26] + 253 u[27] + 231 u[28]
   + 573 u[29] + 619 u[30] + 481 u[31] + 109 u[32] + 259 u[33] + 854 u[34]
   + 703 u[35] + 638 u[36] + 530 u[37] + 198 u[38] + 924 u[39] + 881 u[40]
   + 311 u[41] + 944 u[42] + 955 u[43] + 425 u[44] + 824 u[45] + 475 u[46]
   + 55 u[47] + 57 u[48] + 558 u[49] + 664 u[50] + 334 u[51] + 735 u[52]
   + 634 u[53] + 290 u[54] + 845 u[55] + 843 u[56] + 184 u[57] + 926 u[58]
   + 448 u[59] <= 955
 primal_lower77: 665 u[0] + 778 u[1] + 364 u[2] + 401 u[3] + 750 u[4]
   + 631 u[5] + 839 u[6] + 793 u[7] + 71 u[8] + 192 u[9] + 725 u[10]
   + 241 u[11] + 486 u[12] + 442 u[13] + 70 u[14] + 162 u[15] + 39 u[16]
   + 630 u[17] + 67 u[18] + 228 u[19] + 135 u[20] + 101 u[21] + 766 u[22]
   + 508 u[23] + 198 u[24] + 998 u[25] + 532 u[26] + 509 u[27] + 607 u[28]
   + 461 u[29] + 875 u[30] + 465 u[31] + 749 u[32] + 611 u[33] + 798 u[34]
   + 687 u[35] + 630 u[36] + 18 u[37] + 646 u[38] + 732 u[39] + 873 u[40]
   + 847 u[41] + 744 u[42] + 651 u[43] + 881 u[44] + 616 u[45] + 499 u[46]
   + 535 u[47] + 465 u[48] + 46 u[49] + 264 u[50] + 334 u[51] + 583 u[52]
   + 426 u[53] + 90 u[54] + 925 u[55] + 195 u[56] + 952 u[57] + 350 u[58]
   + 592 u[59] <= 6093
 primal_lower78: 833 u[0] + 658 u[1] + 436 u[2] + 25 u[3] + 318 u[4]
   + 95 u[5] + 7 u[6] + 577 u[7] + 711 u[8] + 448 u[9] + 565 u[10]
   + 497 u[11] + 710 u[12] + 554 u[13] + 206 u[14] + 218 u[15] + 911 u[16]
   + 846 u[17] + 691 u[18] + 428 u[19] + 967 u[20] + 917 u[21] + 206 u[22]
   + 604 u[23] + 14 u[24] + 262 u[25] + 684 u[26] + 245 u[27] + 631 u[28]
   + 301 u[29] + 219 u[30] + 529 u[31] + 333 u[32] + 715 u[33] + 110 u[34]
   + 279 u[35] + 198 u[36] + 578 u[37] + 414 u[38] + 508 u[39] + 289 u[40]
   + 927 u[41] + 144 u[42] + 547 u[43] + 569 u[44] + 856 u[45] + 915 u[46]
   + 623 u[47] + 753 u[48] + 998 u[49] + 736 u[50] + 286 u[51] + 847 u[52]
   + 890 u[53] + 994 u[54] + 973 u[55] + 259 u[56] + 144 u[57] + 766 u[58]
   + 504 u[59] <= 18880
 primal_lower79: 354 u[0] + 54 u[1] + 540 u[2] + 397 u[3] + 782 u[4]
   + 940 u[5] + 399 u[6] + 110 u[7] + 503 u[8] + 268 u[9] + 430 u[10]
   + 773 u[11] + 222 u[12] + 902 u[13] + 583 u[14] + 311 u[15] + 871 u[16]
   + 434 u[17] + 507 u[18] + 520 u[19] + 911 u[20] + 762 u[21] + 286 u[22]
   + 33 u[23] + 575 u[24] + 962 u[25] + 740 u[26] + 834 u[27] + 456 u[28]
   + 321 u[29] + 124 u[30] + 46 u[31] + 78 u[32] + 543 u[33] + 358 u[34]
   + 723 u[35] + 54 u[36] + 743 u[37] + 710 u[38] + 665 u[39] + 321 u[40]
   + 300 u[41] + 240 u[42] + 712 u[43] + 401 u[44] + 165 u[45] + 564 u[46]
   + 732 u[47] + 929 u[48] + 498 u[49] + 449 u[50] + 98 u[51] + 119 u[52]
   + 366 u[53] + 867 u[54] + 610 u[55] + 35 u[56] + 997 u[57] + 902 u[58]
   + 316 u[59] <= 5889
 primal_lower80: 963 u[0] + 959 u[1] + 557 u[2] + 734 u[3] + 239 u[4]
   + 21 u[5] + 752 u[6] + 831 u[7] + 336 u[8] + 61 u[9] + 143 u[10]
   + 14 u[11] + 431 u[12] + 311 u[13] + 24 u[14] + 424 u[15] + 696 u[16]
   + 363 u[17] + 460 u[18] + 497 u[19] + 856 u[20] + 587 u[21] + 327 u[22]
   + 714 u[23] + 912 u[24] + 211 u[25] + 837 u[26] + 659 u[27] + 745 u[28]
   + 90 u[29] + 101 u[30] + 391 u[31] + 79 u[32] + 344 u[33] + 231 u[34]
   + 964 u[35] + 167 u[36] + 832 u[37] + 599 u[38] + 674 u[39] + 114 u[40]
   + 629 u[41] + 297 u[42] + 145 u[43] + 298 u[44] + 814 u[45] + 581 u[46]
   + 957 u[47] + 986 u[48] + 123 u[49] + 410 u[50] + 883 u[51] + 816 u[52]
   + 871 u[53] + 684 u[54] + 467 u[55] + 876 u[56] + 934 u[57] + 999 u[58]
   + 669 u[59] <= 6337
 primal_lower81: 221 u[0] + 337 u[1] + 943 u[2] + 512 u[3] + 385 u[4]
   + 191 u[5] + 506 u[6] + 65 u[7] + 674 u[8] + 111 u[9] + 353 u[10]
   + 88 u[11] + 401 u[12] + 377 u[13] + 530 u[14] + 394 u[15] + 858 u[16]
   + 653 u[17] + 870 u[18] + 51 u[19] + 466 u[20] + 837 u[21] + 201 u[22]
   + 908 u[23] + 266 u[24] + 181 u[25] + 311 u[26] + 469 u[27] + 331 u[28]
   + 356 u[29] + 991 u[30] + 569 u[31] + 393 u[32] + 450 u[33] + 609 u[34]
   + 862 u[35] + 361 u[36] + 482 u[37] + 137 u[38] + 244 u[39] + 924 u[40]
   + 823 u[41] + 219 u[42] + 59 u[43] + 772 u[44] + 24 u[45] + 431 u[46]
   + 111 u[47] + 36 u[48] + 77 u[49] + 636 u[50] + 709 u[51] + 618 u[52]
   + 905 u[53] + 758 u[54] + 765 u[55] + 254 u[56] + 960 u[57] + 137 u[58]
   + 375 u[59] <= 5507
 primal_lower82: 626 u[0] + 795 u[1] + 413 u[2] + 810 u[3] + 351 u[4]
   + 968 u[5] + 400 u[6] + 122 u[7] + 632 u[8] + 873 u[9] + 62 u[10]
   + 906 u[11] + 255 u[12] + 923 u[13] + 607 u[14] + 819 u[15] + 560 u[16]
   + 999 u[17] + 396 u[18] + 941 u[19] + 472 u[20] + 534 u[21] + 871 u[22]
   + 445 u[23] + 975 u[24] + 31 u[25] + 333 u[26] + 310 u[27] + 88 u[28]
   + 462 u[29] + 724 u[30] + 418 u[31] + 86 u[32] + 900 u[33] + 599 u[34]
   + 760 u[35] + 495 u[36] + 907 u[37] + 711 u[38] + 829 u[39] + 818 u[40]
   + 688 u[41] + 497 u[42] + 612 u[43] + 346 u[44] + 305 u[45] + 588 u[46]
   + 544 u[47] + 730 u[48] + 527 u[49] + 457 u[50] + 207 u[51] + 280 u[52]
   + 555 u[53] + 163 u[54] + 510 u[55] + 996 u[56] + 129 u[57] + 839 u[58]
   + 553 u[59] <= 999
 primal_lower83: 96 u[0] + 937 u[1] + 931 u[2] + 936 u[3] + 621 u[4]
   + 958 u[5] + 254 u[6] + 208 u[7] + 574 u[8] + 519 u[9] + 820 u[10]
   + 440 u[11] + 293 u[12] + 649 u[13] + 653 u[14] + 385 u[15] + 942 u[16]
   + 605 u[17] + 138 u[18] + 291 u[19] + 270 u[20] + 844 u[21] + 93 u[22]
   + 731 u[23] + 189 u[24] + 269 u[25] + 851 u[26] + 116 u[27] + 310 u[28]
   + 620 u[29] + 690 u[30] + 992 u[31] + 340 u[32] + 522 u[33] + 613 u[34]
   + 222 u[35] + 109 u[36] + 457 u[37] + 621 u[38] + 179 u[39] + 544 u[40]
   + 366 u[41] + 167 u[42] + 434 u[43] + 152 u[44] + 983 u[45] + 330 u[46]
   + 582 u[47] + 152 u[48] + 661 u[49] + 199 u[50] + 733 u[51] + 270 u[52]
   + 369 u[53] + 409 u[54] + 588 u[55] + 338 u[56] + 423 u[57] + 941 u[58]
   + 711 u[59] <= 11856
 primal_lower84: 575 u[0] + 968 u[1] + 666 u[2] + 399 u[3] + 652 u[4]
   + 325 u[5] + 397 u[6] + 495 u[7] + 37 u[8] + 438 u[9] + 995 u[10]
   + 79 u[11] + 12 u[12] + 664 u[13] + 908 u[14] + 224 u[15] + 541 u[16]
   + 644 u[17] + 993 u[18] + 698 u[19] + 333 u[20] + 59 u[21] + 716 u[22]
   + 674 u[23] + 500 u[24] + 148 u[25] + 578 u[26] + 899 u[27] + 645 u[28]
   + 43 u[29] + 953 u[30] + 735 u[31] + 915 u[32] + 817 u[33] + 788 u[34]
   + 741 u[35] + 52 u[36] + 408 u[37] + 980 u[38] + 34 u[39] + 719 u[40]
   + 621 u[41] + 510 u[42] + 609 u[43] + 391 u[44] + 174 u[45] + 289 u[46]
   + 845 u[47] + 319 u[48] + 156 u[49] + 486 u[50] + 388 u[51] + 637 u[52]
   + 88 u[53] + 808 u[54] + 611 u[55] + 593 u[56] + 990 u[57] + 988 u[58]
   + 846 u[59] <= 19677
 primal_lower85: 434 u[0] + 358 u[1] + 260 u[2] + 37 u[3] + 406 u[4]
   + 772 u[5] + 655 u[6] + 206 u[7] + 495 u[8] + 732 u[9] + 902 u[10]
   + 685 u[11] + 350 u[12] + 38 u[13] + 511 u[14] + 567 u[15] + 367 u[16]
   + 346 u[17] + 707 u[18] + 360 u[19] + 191 u[20] + 690 u[21] + 494 u[22]
   + 401 u[23] + 519 u[24] + 354 u[25] + 260 u[26] + 658 u[27] + 816 u[28]
   + 881 u[29] + 876 u[30] + 702 u[31] + 854 u[32] + 431 u[33] + 982 u[34]
   + 747 u[35] + 502 u[36] + 959 u[37] + 902 u[38] + 737 u[39] + 233 u[40]
   + 540 u[41] + 688 u[42] + 328 u[43] + 33 u[44] + 989 u[45] + 140 u[46]
   + 860 u[47] + 961 u[48] + 434 u[49] + 929 u[50] + 786 u[51] + 159 u[52]
   + 558 u[53] + 355 u[54] + 754 u[55] + 739 u[56] + 685 u[57] + 470 u[58]
   + 140 u[59] <= 6585
 primal_lower86: 155 u[0] + 956 u[1] + 790 u[2] + 731 u[3] + 528 u[4]
   + 585 u[5] + 33 u[6] + 547 u[7] + 745 u[8] + 978 u[9] + 247 u[10]
   + 667 u[11] + 232 u[12] + 668 u[13] + 336 u[14] + 772 u[15] + 57 u[16]
   + 368 u[17] + 421 u[18] + 182 u[19] + 233 u[20] + 383 u[21] + 432 u[22]
   + 622 u[23] + 728 u[24] + 888 u[25] + 766 u[26] + 551 u[27] + 417 u[28]
   + 895 u[29] + 677 u[30] + 683 u[31] + 895 u[32] + 453 u[33] + 264 u[34]
   + 33 u[35] + 544 u[36] + 468 u[37] + 632 u[38] + 958 u[39] + 43 u[40]
   + 945 u[41] + 450 u[42] + 141 u[43] + 795 u[44] + 202 u[45] + 925 u[46]
   + 721 u[47] + 411 u[48] + 704 u[49] + 650 u[50] + 632 u[51] + 921 u[52]
   + 988 u[53] + 44 u[54] + 775 u[55] + 173 u[56] + 58 u[57] + 808 u[58]
   + 506 u[59] <= 12964
 primal_lower87: 267 u[0] + 47 u[1] + 485 u[2] + 790 u[3] + 799 u[4]
   + 773 u[5] + 616 u[6] + 479 u[7] + 952 u[8] + 221 u[9] + 39 u[10]
   + 22 u[11] + 407 u[12] + 439 u[13] + 392 u[14] + 408 u[15] + 864 u[16]
   + 75 u[17] + 444 u[18] + 417 u[19] + 64 u[20] + 923 u[21] + 903 u[22]
   + 930 u[23] + 272 u[24] + 643 u[25] + 317 u[26] + 683 u[27] + 657 u[28]
   + 834 u[29] + 549 u[30] + 383 u[31] + 527 u[32] + 440 u[33] + 23 u[34]
   + 596 u[35] + 119 u[36] + 688 u[37] + 927 u[38] + 90 u[39] + 66 u[40]
   + 421 u[41] + 553 u[42] + 745 u[43] + 530 u[44] + 670 u[45] + 541 u[46]
   + 485 u[47] + 882 u[48] + 475 u[49] + 298 u[50] + 67 u[51] + 544 u[52]
   + 31 u[53] + 124 u[54] + 275 u[55] + 580 u[56] + 734 u[57] + 127 u[58]
   + 933 u[59] <= 952
 primal_lower88: 281 u[0] + 421 u[1] + 907 u[2] + 644 u[3] + 541 u[4]
   + 67 u[5] + 750 u[6] + 805 u[7] + 606 u[8] + 355 u[9] + 397 u[10]
   + 180 u[11] + 85 u[12] + 469 u[13] + 630 u[14] + 654 u[15] + 134 u[16]
   + 257 u[17] + 226 u[18] + 831 u[19] + 302 u[20] + 817 u[21] + 389 u[22]
   + 304 u[23] + 214 u[24] + 209 u[25] + 187 u[26] + 129 u[27] + 711 u[28]
   + 624 u[29] + 235 u[30] + 197 u[31] + 101 u[32] + 702 u[33] + 477 u[34]
   + 474 u[35] + 221 u[36] + 454 u[37] + 45 u[38] + 248 u[39] + 912 u[40]
   + 59 u[41] + 55 u[42] + 55 u[43] + 704 u[44] + 692 u[45] + 875 u[46]
   + 147 u[47] + 120 u[48] + 841 u[49] + 520 u[50] + 769 u[51] + 318 u[52]
   + 885 u[53] + 762 u[54] + 457 u[55] + 706 u[56] + 900 u[57] + 629 u[58]
   + 731 u[59] <= 912
 primal_lower89: 291 u[0] + 231 u[1] + 893 u[2] + 182 u[3] + 663 u[4]
   + 77 u[5] + 872 u[6] + 295 u[7] + 520 u[8] + 893 u[9] + 15 u[10]
   + 798 u[11] + 767 u[12] + 599 u[13] + 712 u[14] + 288 u[15] + 480 u[16]
   + 211 u[17] + 68 u[18] + 185 u[19] + 352 u[20] + 3 u[21] + 647 u[22]
   + 218 u[23] + 368 u[24] + 379 u[25] + 69 u[26] + 323 u[27] + 697 u[28]
   + 330 u[29] + 725 u[30] + 191 u[31] + 695 u[32] + 688 u[33] + 807 u[34]
   + 36 u[35] + 983 u[36] + 376 u[37] + 175 u[38] + 450 u[39] + 322 u[40]
   + 157 u[41] + 297 u[42] + 857 u[43] + 522 u[44] + 894 u[45] + 557 u[46]
   + 5 u[47] + 586 u[48] + 611 u[49] + 810 u[50] + 347 u[51] + 376 u[52]
   + 119 u[53] + 244 u[54] + 219 u[55] + 684 u[56] + 470 u[57] + 599 u[58]
   + 21 u[59] <= 5249
 primal_lower90: 523 u[0] + 303 u[1] + 613 u[2] + 374 u[3] + 511 u[4]
   + 701 u[5] + 552 u[6] + 471 u[7] + 424 u[8] + 605 u[9] + 631 u[10]
   + 342 u[11] + 663 u[12] + 695 u[13] + 8 u[14] + 512 u[15] + 376 u[16]
   + 523 u[17] + 604 u[18] + 705 u[19] + 616 u[20] + 635 u[21] + 895 u[22]
   + 402 u[23] + 376 u[24] + 35 u[25] + 437 u[26] + 979 u[27] + 713 u[28]
   + 642 u[29] + 597 u[30] + 767 u[31] + 719 u[32] + 1000 u[33] + 967 u[34]
   + 84 u[35] + 167 u[36] + 600 u[37] + 911 u[38] + 538 u[39] + 298 u[40]
   + 917 u[41] + 817 u[42] + 537 u[43] + 978 u[44] + 486 u[45] + 37 u[46]
   + 789 u[47] + 122 u[48] + 59 u[49] + 498 u[50] + 131 u[51] + 696 u[52]
   + 407 u[53] + 884 u[54] + 843 u[55] + 316 u[56] + 558 u[57] + 863 u[58]
   + 101 u[59] <= 13021
 primal_lower91: 655 u[0] + 619 u[1] + 961 u[2] + 210 u[3] + 771 u[4]
   + 585 u[5] + 348 u[6] + 3 u[7] + 508 u[8] + 457 u[9] + 675 u[10]
   + 2 u[11] + 379 u[12] + 915 u[13] + 292 u[14] + 44 u[15] + 4 u[16]
   + 335 u[17] + 16 u[18] + 885 u[19] + 100 u[20] + 767 u[21] + 947 u[22]
   + 966 u[23] + 116 u[24] + 527 u[25] + u[26] + 919 u[27] + 781 u[28]
   + 62 u[29] + 25 u[30] + 387 u[31] + 371 u[32] + 572 u[33] + 67 u[34]
   + 848 u[35] + 635 u[36] + 460 u[37] + 179 u[38] + 14 u[39] + 486 u[40]
   + 601 u[41] + 493 u[42] + 61 u[43] + 414 u[44] + 226 u[45] + 745 u[46]
   + 865 u[47] + 318 u[48] + 255 u[49] + 614 u[50] + 647 u[51] + 588 u[52]
   + 667 u[53] + 200 u[54] + 495 u[55] + 120 u[56] + 666 u[57] + 979 u[58]
   + 233 u[59] <= 5416
 primal_lower92: 77 u[0] + 486 u[1] + 120 u[2] + 701 u[3] + 18 u[4]
   + 659 u[5] + 683 u[6] + 357 u[7] + 723 u[8] + 380 u[9] + 753 u[10]
   + 269 u[11] + 42 u[12] + 998 u[13] + 810 u[14] + 870 u[15] + 83 u[16]
   + 2 u[17] + 599 u[18] + 432 u[19] + 883 u[20] + 833 u[21] + 834 u[22]
   + 376 u[23] + 314 u[24] + 2 u[25] + 928 u[26] + 425 u[27] + 979 u[28]
   + 905 u[29] + 615 u[30] + 589 u[31] + 657 u[32] + 47 u[33] + 922 u[34]
   + 155 u[35] + 322 u[36] + 110 u[37] + 866 u[38] + 248 u[39] + 173 u[40]
   + 515 u[41] + 52 u[42] + 847 u[43] + 21 u[44] + 300 u[45] + 327 u[46]
   + 115 u[47] + 557 u[48] + 202 u[49] + 12 u[50] + 498 u[51] + 715 u[52]
   + 286 u[53] + 270 u[54] + 881 u[55] + 295 u[56] + 284 u[57] + 146 u[58]
   + 476 u[59] <= 10817
 primal_lower93: 197 u[0] + 846 u[1] + 856 u[2] + 349 u[3] + 522 u[4]
   + 219 u[5] + 979 u[6] + 29 u[7] + 587 u[8] + 60 u[9] + 33 u[10]
   + 261 u[11] + 410 u[12] + 798 u[13] + 818 u[14] + 390 u[15] + 635 u[16]
   + 402 u[17] + 311 u[18] + 992 u[19] + 555 u[20] + 793 u[21] + 210 u[22]
   + 168 u[23] + 18 u[24] + 674 u[25] + 296 u[26] + 745 u[27] + 931 u[28]
   + 249 u[29] + 295 u[30] + 845 u[31] + 265 u[32] + 551 u[33] + 658 u[34]
   + 571 u[35] + 42 u[36] + 862 u[37] + 682 u[38] + 448 u[39] + 149 u[40]
   + 987 u[41] + 724 u[42] + 31 u[43] + 77 u[44] + 444 u[45] + 407 u[46]
   + 379 u[47] + 917 u[48] + 922 u[49] + 164 u[50] + 810 u[51] + 115 u[52]
   + 246 u[53] + 278 u[54] + 265 u[55] + 199 u[56] + 972 u[57] + 746 u[58]
   + 188 u[59] <= 992
 primal_lower94: 112 u[0] + 500 u[1] + 18 u[2] + 299 u[3] + 660 u[4]
   + 914 u[5] + 901 u[6] + 52 u[7] + 189 u[8] + 426 u[9] + 276 u[10]
   + 83 u[11] + 740 u[12] + 452 u[13] + 165 u[14] + 917 u[15] + 245 u[16]
   + 472 u[17] + 513 u[18] + 310 u[19] + 637 u[20] + 272 u[21] + 732 u[22]
   + 519 u[23] + 445 u[24] + 920 u[25] + 514 u[26] + 304 u[27] + 630 u[28]
   + 871 u[29] + 882 u[30] + 972 u[31] + 324 u[32] + 861 u[33] + 412 u[34]
   + 937 u[35] + 580 u[36] + 381 u[37] + 460 u[38] + 903 u[39] + 327 u[40]
   + 162 u[41] + 38 u[42] + 22 u[43] + 623 u[44] + 571 u[45] + 234 u[46]
   + 682 u[47] + 839 u[48] + 432 u[49] + 495 u[50] + 112 u[51] + 293 u[52]
   + 148 u[53] + 945 u[54] + 592 u[55] + 401 u[56] + 899 u[57] + 796 u[58]
   + 906 u[59] <= 18190
 primal_lower95: 889 u[0] + 490 u[1] + 460 u[2] + 233 u[3] + 110 u[4]
   + 583 u[5] + 935 u[6] + 441 u[7] + 591 u[8] + 200 u[9] + 845 u[10]
   + 121 u[11] + 182 u[12] + 258 u[13] + 918 u[14] + 570 u[15] + 535 u[16]
   + 790 u[17] + 963 u[18] + 700 u[19] + 975 u[20] + 253 u[21] + 686 u[22]
   + 572 u[23] + 158 u[24] + 350 u[25] + 260 u[26] + 29 u[27] + 575 u[28]
   + 645 u[29] + 667 u[30] + 345 u[31] + 797 u[32] + 147 u[33] + 86 u[34]
   + 271 u[35] + 990 u[36] + 34 u[37] + 734 u[38] + 164 u[39] + 697 u[40]
   + 351 u[41] + 880 u[42] + 371 u[43] + 401 u[44] + 936 u[45] + 323 u[46]
   + 319 u[47] + 913 u[48] + 982 u[49] + 560 u[50] + 462 u[51] + 935 u[52]
   + 314 u[53] + 898 u[54] + 181 u[55] + 755 u[56] + 80 u[57] + 238 u[58]
   + 936 u[59] <= 6216
 primal_lower96: 186 u[0] + 630 u[1] + 916 u[2] + 493 u[3] + 550 u[4]
   + 796 u[5] + 751 u[6] + 398 u[7] + 919 u[8] + 636 u[9] + 174 u[10]
   + 133 u[11] + 142 u[12] + 534 u[13] + 375 u[14] + 471 u[15] + 303 u[16]
   + 298 u[17] + 891 u[18] + 272 u[19] + 335 u[20] + 362 u[21] + 550 u[22]
   + 409 u[23] + 95 u[24] + 34 u[25] + 180 u[26] + 866 u[27] + 40 u[28]
   + u[29] + 52 u[30] + 910 u[31] + 302 u[32] + 287 u[33] + 902 u[34]
   + 931 u[35] + 750 u[36] + 143 u[37] + 558 u[38] + 25 u[39] + 481 u[40]
   + 892 u[41] + 176 u[42] + 608 u[43] + 873 u[44] + 917 u[45] + 340 u[46]
   + 948 u[47] + 977 u[48] + 866 u[49] + 113 u[50] + 714 u[51] + 711 u[52]
   + 998 u[53] + 635 u[54] + 610 u[55] + 907 u[56] + 597 u[57] + 406 u[58]
   + 852 u[59] <= 998
 primal_lower97: 324 u[0] + 245 u[1] + 759 u[2] + 108 u[3] + 945 u[4]
   + 914 u[5] + 418 u[6] + 292 u[7] + 626 u[8] + 683 u[9] + 504 u[10]
   + 4 u[11] + 473 u[12] + 965 u[13] + 17 u[14] + 605 u[15] + 114 u[16]
   + 313 u[17] + 406 u[18] + 615 u[19] + 994 u[20] + 880 u[21] + 817 u[22]
   + 271 u[23] + 857 u[24] + 985 u[25] + 103 u[26] + 616 u[27] + 282 u[28]
   + 64 u[29] + 950 u[30] + 676 u[31] + 640 u[32] + 126 u[33] + 745 u[34]
   + 434 u[35] + 953 u[36] + 37 u[37] + 441 u[38] + 495 u[39] + 972 u[40]
   + 202 u[41] + 811 u[42] + 886 u[43] + 60 u[44] + 203 u[45] + 270 u[46]
   + 266 u[47] + 156 u[48] + 601 u[49] + 195 u[50] + 617 u[51] + 930 u[52]
   + 845 u[53] + 221 u[54] + 1000 u[55] + 518 u[56] + 547 u[57] + 465 u[58]
   + 755 u[59] <= 6243
 primal_lower98: 936 u[0] + 105 u[1] + 827 u[2] + 792 u[3] + 565 u[4]
   + 54 u[5] + 422 u[6] + 216 u[7] + 142 u[8] + 767 u[9] + 924 u[10]
   + 424 u[11] + 213 u[12] + 65 u[13] + 149 u[14] + 801 u[15] + 134 u[16]
   + 477 u[17] + 50 u[18] + 531 u[19] + 174 u[20] + 740 u[21] + 845 u[22]
   + 891 u[23] + 277 u[24] + 861 u[25] + 571 u[26] + 204 u[27] + 358 u[28]
   + 276 u[29] + 498 u[30] + 824 u[31] + 260 u[32] + 258 u[33] + 901 u[34]
   + 126 u[35] + 733 u[36] + 777 u[37] + 725 u[38] + 859 u[39] + 808 u[40]
   + 854 u[41] + 79 u[42] + 402 u[43] + 248 u[44] + 71 u[45] + 634 u[46]
   + 478 u[47] + 32 u[48] + 877 u[49] + 943 u[50] + 957 u[51] + 262 u[52]
   + 217 u[53] + 169 u[54] + 140 u[55] + 346 u[56] + 911 u[57] + 325 u[58]
   + 447 u[59] <= 11580
 primal_lower99: 876 u[0] + 77 u[1] + 367 u[2] + 652 u[3] + 849 u[4]
   + 138 u[5] + 242 u[6] + 620 u[7] + 146 u[8] + 955 u[9] + 464 u[10]
   + 612 u[11] + 697 u[12] + 5 u[13] + 665 u[14] + 613 u[15] + 626 u[16]
   + 121 u[17] + 678 u[18] + 487 u[19] + 602 u[20] + 296 u[21] + 769 u[22]
   + 623 u[23] + 529 u[24] + 881 u[25] + 111 u[26] + 248 u[27] + 978 u[28]
   + 624 u[29] + 414 u[30] + 156 u[31] + 224 u[32] + 854 u[33] + 313 u[34]
   + 738 u[35] + 881 u[36] + 165 u[37] + 145 u[38] + 951 u[39] + 596 u[40]
   + 674 u[41] + 67 u[42] + 902 u[43] + 604 u[44] + 195 u[45] + 118 u[46]
   + 90 u[47] + 836 u[48] + 329 u[49] + 363 u[50] + 153 u[51] + 946 u[52]
   + 781 u[53] + 413 u[54] + 744 u[55] + 838 u[56] + 523 u[57] + 209 u[58]
   + 371 u[59] <= 18086
 interdiction[0]: x[0] + u[0] <= 1
 interdiction[1]: x[1] + u[1] <= 1
 interdiction[2]: x[2] + u[2] <= 1
 interdiction[3]: x[3] + u[3] <= 1
 interdiction[4]: x[4] + u[4] <= 1
 interdiction[5]: x[5] + u[5] <= 1
 interdiction[6]: x[6] + u[6] <= 1
 interdiction[7]: x[7] + u[7] <= 1
 interdiction[8]: x[8] + u[8] <= 1
 interdiction[9]: x[9] + u[9] <= 1
 interdiction[10]: x[10] + u[10] <= 1
 interdiction[11]: x[11] + u[11] <= 1
 interdiction[12]: x[12] + u[12] <= 1
 interdiction[13]: x[13] + u[13] <= 1
 interdiction[14]: x[14] + u[14] <= 1
 interdiction[15]: x[15] + u[15] <= 1
 interdiction[16]: x[16] + u[16] <= 1
 interdiction[17]: x[17] + u[17] <= 1
 interdiction[18]: x[18] + u[18] <= 1
 interdiction[19]: x[19] + u[19] <= 1
 interdiction[20]: x[20] + u[20] <= 1
 interdiction[21]: x[21] + u[21] <= 1
 interdiction[22]: x[22] + u[22] <= 1
 interdiction[23]: x[23] + u[23] <= 1
 interdiction[24]: x[24] + u[24] <= 1
 interdiction[25]: x[25] + u[25] <= 1
 interdiction[26]: x[26] + u[26] <= 1
 interdiction[27]: x[27] + u[27] <= 1
 interdiction[28]: x[28] + u[28] <= 1
 interdiction[29]: x[29] + u[29] <= 1
 interdiction[30]: x[30] + u[30] <= 1
 interdiction[31]: x[31] + u[31] <= 1
 interdiction[32]: x[32] + u[32] <= 1
 interdiction[33]: x[33] + u[33] <= 1
 interdiction[34]: x[34] + u[34] <= 1
 interdiction[35]: x[35] + u[35] <= 1
 interdiction[36]: x[36] + u[36] <= 1
 interdiction[37]: x[37] + u[37] <= 1
 interdiction[38]: x[38] + u[38] <= 1
 interdiction[39]: x[39] + u[39] <= 1
 interdiction[40]: x[40] + u[40] <= 1
 interdiction[41]: x[41] + u[41] <= 1
 interdiction[42]: x[42] + u[42] <= 1
 interdiction[43]: x[43] + u[43] <= 1
 interdiction[44]: x[44] + u[44] <= 1
 interdiction[45]: x[45] + u[45] <= 1
 interdiction[46]: x[46] + u[46] <= 1
 interdiction[47]: x[47] + u[47] <= 1
 interdiction[48]: x[48] + u[48] <= 1
 interdiction[49]: x[49] + u[49] <= 1
 interdiction[50]: x[50] + u[50] <= 1
 interdiction[51]: x[51] + u[51] <= 1
 interdiction[52]: x[52] + u[52] <= 1
 interdiction[53]: x[53] + u[53] <= 1
 interdiction[54]: x[54] + u[54] <= 1
 interdiction[55]: x[55] + u[55] <= 1
 interdiction[56]: x[56] + u[56] <= 1
 interdiction[57]: x[57] + u[57] <= 1
 interdiction[58]: x[58] + u[58] <= 1
 interdiction[59]: x[59] + u[59] <= 1
 mccormick1[0]: - u[0] + z[0] <= 0
 mccormick1[1]: - u[1] + z[1] <= 0
 mccormick1[2]: - u[2] + z[2] <= 0
 mccormick1[3]: - u[3] + z[3] <= 0
 mccormick1[4]: - u[4] + z[4] <= 0
 mccormick1[5]: - u[5] + z[5] <= 0
 mccormick1[6]: - u[6] + z[6] <= 0
 mccormick1[7]: - u[7] + z[7] <= 0
 mccormick1[8]: - u[8] + z[8] <= 0
 mccormick1[9]: - u[9] + z[9] <= 0
 mccormick1[10]: - u[10] + z[10] <= 0
 mccormick1[11]: - u[11] + z[11] <= 0
 mccormick1[12]: - u[12] + z[12] <= 0
 mccormick1[13]: - u[13] + z[13] <= 0
 mccormick1[14]: - u[14] + z[14] <= 0
 mccormick1[15]: - u[15] + z[15] <= 0
 mccormick1[16]: - u[16] + z[16] <= 0
 mccormick1[17]: - u[17] + z[17] <= 0
 mccormick1[18]: - u[18] + z[18] <= 0
 mccormick1[19]: - u[19] + z[19] <= 0
 mccormick1[20]: - u[20] + z[20] <= 0
 mccormick1[21]: - u[21] + z[21] <= 0
 mccormick1[22]: - u[22] + z[22] <= 0
 mccormick1[23]: - u[23] + z[23] <= 0
 mccormick1[24]: - u[24] + z[24] <= 0
 mccormick1[25]: - u[25] + z[25] <= 0
 mccormick1[26]: - u[26] + z[26] <= 0
 mccormick1[27]: - u[27] + z[27] <= 0
 mccormick1[28]: - u[28] + z[28] <= 0
 mccormick1[29]: - u[29] + z[29] <= 0
 mccormick1[30]: - u[30] + z[30] <= 0
 mccormick1[31]: - u[31] + z[31] <= 0
 mccormick1[32]: - u[32] + z[32] <= 0
 mccormick1[33]: - u[33] + z[33] <= 0
 mccormick1[34]: - u[34] + z[34] <= 0
 mccormick1[35]: - u[35] + z[35] <= 0
 mccormick1[36]: - u[36] + z[36] <= 0
 mccormick1[37]: - u[37] + z[37] <= 0
 mccormick1[38]: - u[38] + z[38] <= 0
 mccormick1[39]: - u[39] + z[39] <= 0
 mccormick1[40]: - u[40] + z[40] <= 0
 mccormick1[41]: - u[41] + z[41] <= 0
 mccormick1[42]: - u[42] + z[42] <= 0
 mccormick1[43]: - u[43] + z[43] <= 0
 mccormick1[44]: - u[44] + z[44] <= 0
 mccormick1[45]: - u[45] + z[45] <= 0
 mccormick1[46]: - u[46] + z[46] <= 0
 mccormick1[47]: - u[47] + z[47] <= 0
 mccormick1[48]: - u[48] + z[48] <= 0
 mccormick1[49]: - u[49] + z[49] <= 0
 mccormick1[50]: - u[50] + z[50] <= 0
 mccormick1[51]: - u[51] + z[51] <= 0
 mccormick1[52]: - u[52] + z[52] <= 0
 mccormick1[53]: - u[53] + z[53] <= 0
 mccormick1[54]: - u[54] + z[54] <= 0
 mccormick1[55]: - u[55] + z[55] <= 0
 mccormick1[56]: - u[56] + z[56] <= 0
 mccormick1[57]: - u[57] + z[57] <= 0
 mccormick1[58]: - u[58] + z[58] <= 0
 mccormick1[59]: - u[59] + z[59] <= 0
 mccormick2[0]: - y[0] + z[0] <= 0
 mccormick2[1]: - y[1] + z[1] <= 0
 mccormick2[2]: - y[2] + z[2] <= 0
 mccormick2[3]: - y[3] + z[3] <= 0
 mccormick2[4]: - y[4] + z[4] <= 0
 mccormick2[5]: - y[5] + z[5] <= 0
 mccormick2[6]: - y[6] + z[6] <= 0
 mccormick2[7]: - y[7] + z[7] <= 0
 mccormick2[8]: - y[8] + z[8] <= 0
 mccormick2[9]: - y[9] + z[9] <= 0
 mccormick2[10]: - y[10] + z[10] <= 0
 mccormick2[11]: - y[11] + z[11] <= 0
 mccormick2[12]: - y[12] + z[12] <= 0
 mccormick2[13]: - y[13] + z[13] <= 0
 mccormick2[14]: - y[14] + z[14] <= 0
 mccormick2[15]: - y[15] + z[15] <= 0
 mccormick2[16]: - y[16] + z[16] <= 0
 mccormick2[17]: - y[17] + z[17] <= 0
 mccormick2[18]: - y[18] + z[18] <= 0
 mccormick2[19]: - y[19] + z[19] <= 0
 mccormick2[20]: - y[20] + z[20] <= 0
 mccormick2[21]: - y[21] + z[21] <= 0
 mccormick2[22]: - y[22] + z[22] <= 0
 mccormick2[23]: - y[23] + z[23] <= 0
 mccormick2[24]: - y[24] + z[24] <= 0
 mccormick2[25]: - y[25] + z[25] <= 0
 mccormick2[26]: - y[26] + z[26] <= 0
 mccormick2[27]: - y[27] + z[27] <= 0
 mccormick2[28]: - y[28] + z[28] <= 0
 mccormick2[29]: - y[29] + z[29] <= 0
 mccormick2[30]: - y[30] + z[30] <= 0
 mccormick2[31]: - y[31] + z[31] <= 0
 mccormick2[32]: - y[32] + z[32] <= 0
 mccormick2[33]: - y[33] + z[33] <= 0
 mccormick2[34]: - y[34] + z[34] <= 0
 mccormick2[35]: - y[35] + z[35] <= 0
 mccormick2[36]: - y[36] + z[36] <= 0
 mccormick2[37]: - y[37] + z[37] <= 0
 mccormick2[38]: - y[38] + z[38] <= 0
 mccormick2[39]: - y[39] + z[39] <= 0
 mccormick2[40]: - y[40] + z[40] <= 0
 mccormick2[41]: - y[41] + z[41] <= 0
 mccormick2[42]: - y[42] + z[42] <= 0
 mccormick2[43]: - y[43] + z[43] <= 0
 mccormick2[44]: - y[44] + z[44] <= 0
 mccormick2[45]: - y[45] + z[45] <= 0
 mccormick2[46]: - y[46] + z[46] <= 0
 mccormick2[47]: - y[47] + z[47] <= 0
 mccormick2[48]: - y[48] + z[48] <= 0
 mccormick2[49]: - y[49] + z[49] <= 0
 mccormick2[50]: - y[50] + z[50] <= 0
 mccormick2[51]: - y[51] + z[51] <= 0
 mccormick2[52]: - y[52] + z[52] <= 0
 mccormick2[53]: - y[53] + z[53] <= 0
 mccormick2[54]: - y[54] + z[54] <= 0
 mccormick2[55]: - y[55] + z[55] <= 0
 mccormick2[56]: - y[56] + z[56] <= 0
 mccormick2[57]: - y[57] + z[57] <= 0
 mccormick2[58]: - y[58] + z[58] <= 0
 mccormick2[59]: - y[59] + z[59] <= 0
 mccormick3[0]: y[0] + u[0] - z[0] <= 1
 mccormick3[1]: y[1] + u[1] - z[1] <= 1
 mccormick3[2]: y[2] + u[2] - z[2] <= 1
 mccormick3[3]: y[3] + u[3] - z[3] <= 1
 mccormick3[4]: y[4] + u[4] - z[4] <= 1
 mccormick3[5]: y[5] + u[5] - z[5] <= 1
 mccormick3[6]: y[6] + u[6] - z[6] <= 1
 mccormick3[7]: y[7] + u[7] - z[7] <= 1
 mccormick3[8]: y[8] + u[8] - z[8] <= 1
 mccormick3[9]: y[9] + u[9] - z[9] <= 1
 mccormick3[10]: y[10] + u[10] - z[10] <= 1
 mccormick3[11]: y[11] + u[11] - z[11] <= 1
 mccormick3[12]: y[12] + u[12] - z[12] <= 1
 mccormick3[13]: y[13] + u[13] - z[13] <= 1
 mccormick3[14]: y[14] + u[14] - z[14] <= 1
 mccormick3[15]: y[15] + u[15] - z[15] <= 1
 mccormick3[16]: y[16] + u[16] - z[16] <= 1
 mccormick3[17]: y[17] + u[17] - z[17] <= 1
 mccormick3[18]: y[18] + u[18] - z[18] <= 1
 mccormick3[19]: y[19] + u[19] - z[19] <= 1
 mccormick3[20]: y[20] + u[20] - z[20] <= 1
 mccormick3[21]: y[21] + u[21] - z[21] <= 1
 mccormick3[22]: y[22] + u[22] - z[22] <= 1
 mccormick3[23]: y[23] + u[23] - z[23] <= 1
 mccormick3[24]: y[24] + u[24] - z[24] <= 1
 mccormick3[25]: y[25] + u[25] - z[25] <= 1
 mccormick3[26]: y[26] + u[26] - z[26] <= 1
 mccormick3[27]: y[27] + u[27] - z[27] <= 1
 mccormick3[28]: y[28] + u[28] - z[28] <= 1
 mccormick3[29]: y[29] + u[29] - z[29] <= 1
 mccormick3[30]: y[30] + u[30] - z[30] <= 1
 mccormick3[31]: y[31] + u[31] - z[31] <= 1
 mccormick3[32]: y[32] + u[32] - z[32] <= 1
 mccormick3[33]: y[33] + u[33] - z[33] <= 1
 mccormick3[34]: y[34] + u[34] - z[34] <= 1
 mccormick3[35]: y[35] + u[35] - z[35] <= 1
 mccormick3[36]: y[36] + u[36] - z[36] <= 1
 mccormick3[37]: y[37] + u[37] - z[37] <= 1
 mccormick3[38]: y[38] + u[38] - z[38] <= 1
 mccormick3[39]: y[39] + u[39] - z[39] <= 1
 mccormick3[40]: y[40] + u[40] - z[40] <= 1
 mccormick3[41]: y[41] + u[41] - z[41] <= 1
 mccormick3[42]: y[42] + u[42] - z[42] <= 1
 mccormick3[43]: y[43] + u[43] - z[43] <= 1
 mccormick3[44]: y[44] + u[44] - z[44] <= 1
 mccormick3[45]: y[45] + u[45] - z[45] <= 1
 mccormick3[46]: y[46] + u[46] - z[46] <= 1
 mccormick3[47]: y[47] + u[47] - z[47] <= 1
 mccormick3[48]: y[48] + u[48] - z[48] <= 1
 mccormick3[49]: y[49] + u[49] - z[49] <= 1
 mccormick3[50]: y[50] + u[50] - z[50] <= 1
 mccormick3[51]: y[51] + u[51] - z[51] <= 1
 mccormick3[52]: y[52] + u[52] - z[52] <= 1
 mccormick3[53]: y[53] + u[53] - z[53] <= 1
 mccormick3[54]: y[54] + u[54] - z[54] <= 1
 mccormick3[55]: y[55] + u[55] - z[55] <= 1
 mccormick3[56]: y[56] + u[56] - z[56] <= 1
 mccormick3[57]: y[57] + u[57] - z[57] <= 1
 mccormick3[58]: y[58] + u[58] - z[58] <= 1
 mccormick3[59]: y[59] + u[59] - z[59] <= 1
Bounds
Binaries
 x[0] x[1] x[2] x[3] x[4] x[5] x[6] x[7] x[8] x[9] x[10] x[11] x[12] x[13]
 x[14] x[15] x[16] x[17] x[18] x[19] x[20] x[21] x[22] x[23] x[24] x[25]
 x[26] x[27] x[28] x[29] x[30] x[31] x[32] x[33] x[34] x[35] x[36] x[37]
 x[38] x[39] x[40] x[41] x[42] x[43] x[44] x[45] x[46] x[47] x[48] x[49]
 x[50] x[51] x[52] x[53] x[54] x[55] x[56] x[57] x[58] x[59] y[0] y[1] y[2]
 y[3] y[4] y[5] y[6] y[7] y[8] y[9] y[10] y[11] y[12] y[13] y[14] y[15]
 y[16] y[17] y[18] y[19] y[20] y[21] y[22] y[23] y[24] y[25] y[26] y[27]
 y[28] y[29] y[30] y[31] y[32] y[33] y[34] y[35] y[36] y[37] y[38] y[39]
 y[40] y[41] y[42] y[43] y[44] y[45] y[46] y[47] y[48] y[49] y[50] y[51]
 y[52] y[53] y[54] y[55] y[56] y[57] y[58] y[59] u[0] u[1] u[2] u[3] u[4]
 u[5] u[6] u[7] u[8] u[9] u[10] u[11] u[12] u[13] u[14] u[15] u[16] u[17]
 u[18] u[19] u[20] u[21] u[22] u[23] u[24] u[25] u[26] u[27] u[28] u[29]
 u[30] u[31] u[32] u[33] u[34] u[35] u[36] u[37] u[38] u[39] u[40] u[41]
 u[42] u[43] u[44] u[45] u[46] u[47] u[48] u[49] u[50] u[51] u[52] u[53]
 u[54] u[55] u[56] u[57] u[58] u[59] z[0] z[1] z[2] z[3] z[4] z[5] z[6]
 z[7] z[8] z[9] z[10] z[11] z[12] z[13] z[14] z[15] z[16] z[17] z[18] z[19]
 z[20] z[21] z[22] z[23] z[24] z[25] z[26] z[27] z[28] z[29] z[30] z[31]
 z[32] z[33] z[34] z[35] z[36] z[37] z[38] z[39] z[40] z[41] z[42] z[43]
 z[44] z[45] z[46] z[47] z[48] z[49] z[50] z[51] z[52] z[53] z[54] z[55]
 z[56] z[57] z[58] z[59]
End
