* Signature: 0x9ca384b067bc5ee5
NAME knapsack_80_100_3
ROWS
 N  OBJ
 L  primal_upper
 L  primal_lower0
 L  primal_lower1
 L  primal_lower2
 L  primal_lower3
 L  primal_lower4
 L  primal_lower5
 L  primal_lower6
 L  primal_lower7
 L  primal_lower8
 L  primal_lower9
 L  primal_lower10
 L  primal_lower11
 L  primal_lower12
 L  primal_lower13
 L  primal_lower14
 L  primal_lower15
 L  primal_lower16
 L  primal_lower17
 L  primal_lower18
 L  primal_lower19
 L  primal_lower20
 L  primal_lower21
 L  primal_lower22
 L  primal_lower23
 L  primal_lower24
 L  primal_lower25
 L  primal_lower26
 L  primal_lower27
 L  primal_lower28
 L  primal_lower29
 L  primal_lower30
 L  primal_lower31
 L  primal_lower32
 L  primal_lower33
 L  primal_lower34
 L  primal_lower35
 L  primal_lower36
 L  primal_lower37
 L  primal_lower38
 L  primal_lower39
 L  primal_lower40
 L  primal_lower41
 L  primal_lower42
 L  primal_lower43
 L  primal_lower44
 L  primal_lower45
 L  primal_lower46
 L  primal_lower47
 L  primal_lower48
 L  primal_lower49
 L  primal_lower50
 L  primal_lower51
 L  primal_lower52
 L  primal_lower53
 L  primal_lower54
 L  primal_lower55
 L  primal_lower56
 L  primal_lower57
 L  primal_lower58
 L  primal_lower59
 L  primal_lower60
 L  primal_lower61
 L  primal_lower62
 L  primal_lower63
 L  primal_lower64
 L  primal_lower65
 L  primal_lower66
 L  primal_lower67
 L  primal_lower68
 L  primal_lower69
 L  primal_lower70
 L  primal_lower71
 L  primal_lower72
 L  primal_lower73
 L  primal_lower74
 L  primal_lower75
 L  primal_lower76
 L  primal_lower77
 L  primal_lower78
 L  primal_lower79
 L  primal_lower80
 L  primal_lower81
 L  primal_lower82
 L  primal_lower83
 L  primal_lower84
 L  primal_lower85
 L  primal_lower86
 L  primal_lower87
 L  primal_lower88
 L  primal_lower89
 L  primal_lower90
 L  primal_lower91
 L  primal_lower92
 L  primal_lower93
 L  primal_lower94
 L  primal_lower95
 L  primal_lower96
 L  primal_lower97
 L  primal_lower98
 L  primal_lower99
 L  interdiction[0]
 L  interdiction[1]
 L  interdiction[2]
 L  interdiction[3]
 L  interdiction[4]
 L  interdiction[5]
 L  interdiction[6]
 L  interdiction[7]
 L  interdiction[8]
 L  interdiction[9]
 L  interdiction[10]
 L  interdiction[11]
 L  interdiction[12]
 L  interdiction[13]
 L  interdiction[14]
 L  interdiction[15]
 L  interdiction[16]
 L  interdiction[17]
 L  interdiction[18]
 L  interdiction[19]
 L  interdiction[20]
 L  interdiction[21]
 L  interdiction[22]
 L  interdiction[23]
 L  interdiction[24]
 L  interdiction[25]
 L  interdiction[26]
 L  interdiction[27]
 L  interdiction[28]
 L  interdiction[29]
 L  interdiction[30]
 L  interdiction[31]
 L  interdiction[32]
 L  interdiction[33]
 L  interdiction[34]
 L  interdiction[35]
 L  interdiction[36]
 L  interdiction[37]
 L  interdiction[38]
 L  interdiction[39]
 L  interdiction[40]
 L  interdiction[41]
 L  interdiction[42]
 L  interdiction[43]
 L  interdiction[44]
 L  interdiction[45]
 L  interdiction[46]
 L  interdiction[47]
 L  interdiction[48]
 L  interdiction[49]
 L  interdiction[50]
 L  interdiction[51]
 L  interdiction[52]
 L  interdiction[53]
 L  interdiction[54]
 L  interdiction[55]
 L  interdiction[56]
 L  interdiction[57]
 L  interdiction[58]
 L  interdiction[59]
 L  interdiction[60]
 L  interdiction[61]
 L  interdiction[62]
 L  interdiction[63]
 L  interdiction[64]
 L  interdiction[65]
 L  interdiction[66]
 L  interdiction[67]
 L  interdiction[68]
 L  interdiction[69]
 L  interdiction[70]
 L  interdiction[71]
 L  interdiction[72]
 L  interdiction[73]
 L  interdiction[74]
 L  interdiction[75]
 L  interdiction[76]
 L  interdiction[77]
 L  interdiction[78]
 L  interdiction[79]
 L  mccormick1[0]
 L  mccormick1[1]
 L  mccormick1[2]
 L  mccormick1[3]
 L  mccormick1[4]
 L  mccormick1[5]
 L  mccormick1[6]
 L  mccormick1[7]
 L  mccormick1[8]
 L  mccormick1[9]
 L  mccormick1[10]
 L  mccormick1[11]
 L  mccormick1[12]
 L  mccormick1[13]
 L  mccormick1[14]
 L  mccormick1[15]
 L  mccormick1[16]
 L  mccormick1[17]
 L  mccormick1[18]
 L  mccormick1[19]
 L  mccormick1[20]
 L  mccormick1[21]
 L  mccormick1[22]
 L  mccormick1[23]
 L  mccormick1[24]
 L  mccormick1[25]
 L  mccormick1[26]
 L  mccormick1[27]
 L  mccormick1[28]
 L  mccormick1[29]
 L  mccormick1[30]
 L  mccormick1[31]
 L  mccormick1[32]
 L  mccormick1[33]
 L  mccormick1[34]
 L  mccormick1[35]
 L  mccormick1[36]
 L  mccormick1[37]
 L  mccormick1[38]
 L  mccormick1[39]
 L  mccormick1[40]
 L  mccormick1[41]
 L  mccormick1[42]
 L  mccormick1[43]
 L  mccormick1[44]
 L  mccormick1[45]
 L  mccormick1[46]
 L  mccormick1[47]
 L  mccormick1[48]
 L  mccormick1[49]
 L  mccormick1[50]
 L  mccormick1[51]
 L  mccormick1[52]
 L  mccormick1[53]
 L  mccormick1[54]
 L  mccormick1[55]
 L  mccormick1[56]
 L  mccormick1[57]
 L  mccormick1[58]
 L  mccormick1[59]
 L  mccormick1[60]
 L  mccormick1[61]
 L  mccormick1[62]
 L  mccormick1[63]
 L  mccormick1[64]
 L  mccormick1[65]
 L  mccormick1[66]
 L  mccormick1[67]
 L  mccormick1[68]
 L  mccormick1[69]
 L  mccormick1[70]
 L  mccormick1[71]
 L  mccormick1[72]
 L  mccormick1[73]
 L  mccormick1[74]
 L  mccormick1[75]
 L  mccormick1[76]
 L  mccormick1[77]
 L  mccormick1[78]
 L  mccormick1[79]
 L  mccormick2[0]
 L  mccormick2[1]
 L  mccormick2[2]
 L  mccormick2[3]
 L  mccormick2[4]
 L  mccormick2[5]
 L  mccormick2[6]
 L  mccormick2[7]
 L  mccormick2[8]
 L  mccormick2[9]
 L  mccormick2[10]
 L  mccormick2[11]
 L  mccormick2[12]
 L  mccormick2[13]
 L  mccormick2[14]
 L  mccormick2[15]
 L  mccormick2[16]
 L  mccormick2[17]
 L  mccormick2[18]
 L  mccormick2[19]
 L  mccormick2[20]
 L  mccormick2[21]
 L  mccormick2[22]
 L  mccormick2[23]
 L  mccormick2[24]
 L  mccormick2[25]
 L  mccormick2[26]
 L  mccormick2[27]
 L  mccormick2[28]
 L  mccormick2[29]
 L  mccormick2[30]
 L  mccormick2[31]
 L  mccormick2[32]
 L  mccormick2[33]
 L  mccormick2[34]
 L  mccormick2[35]
 L  mccormick2[36]
 L  mccormick2[37]
 L  mccormick2[38]
 L  mccormick2[39]
 L  mccormick2[40]
 L  mccormick2[41]
 L  mccormick2[42]
 L  mccormick2[43]
 L  mccormick2[44]
 L  mccormick2[45]
 L  mccormick2[46]
 L  mccormick2[47]
 L  mccormick2[48]
 L  mccormick2[49]
 L  mccormick2[50]
 L  mccormick2[51]
 L  mccormick2[52]
 L  mccormick2[53]
 L  mccormick2[54]
 L  mccormick2[55]
 L  mccormick2[56]
 L  mccormick2[57]
 L  mccormick2[58]
 L  mccormick2[59]
 L  mccormick2[60]
 L  mccormick2[61]
 L  mccormick2[62]
 L  mccormick2[63]
 L  mccormick2[64]
 L  mccormick2[65]
 L  mccormick2[66]
 L  mccormick2[67]
 L  mccormick2[68]
 L  mccormick2[69]
 L  mccormick2[70]
 L  mccormick2[71]
 L  mccormick2[72]
 L  mccormick2[73]
 L  mccormick2[74]
 L  mccormick2[75]
 L  mccormick2[76]
 L  mccormick2[77]
 L  mccormick2[78]
 L  mccormick2[79]
 L  mccormick3[0]
 L  mccormick3[1]
 L  mccormick3[2]
 L  mccormick3[3]
 L  mccormick3[4]
 L  mccormick3[5]
 L  mccormick3[6]
 L  mccormick3[7]
 L  mccormick3[8]
 L  mccormick3[9]
 L  mccormick3[10]
 L  mccormick3[11]
 L  mccormick3[12]
 L  mccormick3[13]
 L  mccormick3[14]
 L  mccormick3[15]
 L  mccormick3[16]
 L  mccormick3[17]
 L  mccormick3[18]
 L  mccormick3[19]
 L  mccormick3[20]
 L  mccormick3[21]
 L  mccormick3[22]
 L  mccormick3[23]
 L  mccormick3[24]
 L  mccormick3[25]
 L  mccormick3[26]
 L  mccormick3[27]
 L  mccormick3[28]
 L  mccormick3[29]
 L  mccormick3[30]
 L  mccormick3[31]
 L  mccormick3[32]
 L  mccormick3[33]
 L  mccormick3[34]
 L  mccormick3[35]
 L  mccormick3[36]
 L  mccormick3[37]
 L  mccormick3[38]
 L  mccormick3[39]
 L  mccormick3[40]
 L  mccormick3[41]
 L  mccormick3[42]
 L  mccormick3[43]
 L  mccormick3[44]
 L  mccormick3[45]
 L  mccormick3[46]
 L  mccormick3[47]
 L  mccormick3[48]
 L  mccormick3[49]
 L  mccormick3[50]
 L  mccormick3[51]
 L  mccormick3[52]
 L  mccormick3[53]
 L  mccormick3[54]
 L  mccormick3[55]
 L  mccormick3[56]
 L  mccormick3[57]
 L  mccormick3[58]
 L  mccormick3[59]
 L  mccormick3[60]
 L  mccormick3[61]
 L  mccormick3[62]
 L  mccormick3[63]
 L  mccormick3[64]
 L  mccormick3[65]
 L  mccormick3[66]
 L  mccormick3[67]
 L  mccormick3[68]
 L  mccormick3[69]
 L  mccormick3[70]
 L  mccormick3[71]
 L  mccormick3[72]
 L  mccormick3[73]
 L  mccormick3[74]
 L  mccormick3[75]
 L  mccormick3[76]
 L  mccormick3[77]
 L  mccormick3[78]
 L  mccormick3[79]
COLUMNS
    MARKER    'MARKER'                 'INTORG'
    x[0]      OBJ       10
    x[0]      interdiction[0]  1
    x[1]      OBJ       10
    x[1]      interdiction[1]  1
    x[2]      OBJ       10
    x[2]      interdiction[2]  1
    x[3]      OBJ       10
    x[3]      interdiction[3]  1
    x[4]      OBJ       10
    x[4]      interdiction[4]  1
    x[5]      OBJ       10
    x[5]      interdiction[5]  1
    x[6]      OBJ       10
    x[6]      interdiction[6]  1
    x[7]      OBJ       10
    x[7]      interdiction[7]  1
    x[8]      OBJ       10
    x[8]      interdiction[8]  1
    x[9]      OBJ       10
    x[9]      interdiction[9]  1
    x[10]     OBJ       10
    x[10]     interdiction[10]  1
    x[11]     OBJ       10
    x[11]     interdiction[11]  1
    x[12]     OBJ       10
    x[12]     interdiction[12]  1
    x[13]     OBJ       10
    x[13]     interdiction[13]  1
    x[14]     OBJ       10
    x[14]     interdiction[14]  1
    x[15]     OBJ       10
    x[15]     interdiction[15]  1
    x[16]     OBJ       10
    x[16]     interdiction[16]  1
    x[17]     OBJ       10
    x[17]     interdiction[17]  1
    x[18]     OBJ       10
    x[18]     interdiction[18]  1
    x[19]     OBJ       10
    x[19]     interdiction[19]  1
    x[20]     OBJ       10
    x[20]     interdiction[20]  1
    x[21]     OBJ       10
    x[21]     interdiction[21]  1
    x[22]     OBJ       10
    x[22]     interdiction[22]  1
    x[23]     OBJ       10
    x[23]     interdiction[23]  1
    x[24]     OBJ       10
    x[24]     interdiction[24]  1
    x[25]     OBJ       10
    x[25]     interdiction[25]  1
    x[26]     OBJ       10
    x[26]     interdiction[26]  1
    x[27]     OBJ       10
    x[27]     interdiction[27]  1
    x[28]     OBJ       10
    x[28]     interdiction[28]  1
    x[29]     OBJ       10
    x[29]     interdiction[29]  1
    x[30]     OBJ       10
    x[30]     interdiction[30]  1
    x[31]     OBJ       10
    x[31]     interdiction[31]  1
    x[32]     OBJ       10
    x[32]     interdiction[32]  1
    x[33]     OBJ       10
    x[33]     interdiction[33]  1
    x[34]     OBJ       10
    x[34]     interdiction[34]  1
    x[35]     OBJ       10
    x[35]     interdiction[35]  1
    x[36]     OBJ       10
    x[36]     interdiction[36]  1
    x[37]     OBJ       10
    x[37]     interdiction[37]  1
    x[38]     OBJ       10
    x[38]     interdiction[38]  1
    x[39]     OBJ       10
    x[39]     interdiction[39]  1
    x[40]     OBJ       10
    x[40]     interdiction[40]  1
    x[41]     OBJ       10
    x[41]     interdiction[41]  1
    x[42]     OBJ       10
    x[42]     interdiction[42]  1
    x[43]     OBJ       10
    x[43]     interdiction[43]  1
    x[44]     OBJ       10
    x[44]     interdiction[44]  1
    x[45]     OBJ       10
    x[45]     interdiction[45]  1
    x[46]     OBJ       10
    x[46]     interdiction[46]  1
    x[47]     OBJ       10
    x[47]     interdiction[47]  1
    x[48]     OBJ       10
    x[48]     interdiction[48]  1
    x[49]     OBJ       10
    x[49]     interdiction[49]  1
    x[50]     OBJ       10
    x[50]     interdiction[50]  1
    x[51]     OBJ       10
    x[51]     interdiction[51]  1
    x[52]     OBJ       10
    x[52]     interdiction[52]  1
    x[53]     OBJ       10
    x[53]     interdiction[53]  1
    x[54]     OBJ       10
    x[54]     interdiction[54]  1
    x[55]     OBJ       10
    x[55]     interdiction[55]  1
    x[56]     OBJ       10
    x[56]     interdiction[56]  1
    x[57]     OBJ       10
    x[57]     interdiction[57]  1
    x[58]     OBJ       10
    x[58]     interdiction[58]  1
    x[59]     OBJ       10
    x[59]     interdiction[59]  1
    x[60]     OBJ       10
    x[60]     interdiction[60]  1
    x[61]     OBJ       10
    x[61]     interdiction[61]  1
    x[62]     OBJ       10
    x[62]     interdiction[62]  1
    x[63]     OBJ       10
    x[63]     interdiction[63]  1
    x[64]     OBJ       10
    x[64]     interdiction[64]  1
    x[65]     OBJ       10
    x[65]     interdiction[65]  1
    x[66]     OBJ       10
    x[66]     interdiction[66]  1
    x[67]     OBJ       10
    x[67]     interdiction[67]  1
    x[68]     OBJ       10
    x[68]     interdiction[68]  1
    x[69]     OBJ       10
    x[69]     interdiction[69]  1
    x[70]     OBJ       10
    x[70]     interdiction[70]  1
    x[71]     OBJ       10
    x[71]     interdiction[71]  1
    x[72]     OBJ       10
    x[72]     interdiction[72]  1
    x[73]     OBJ       10
    x[73]     interdiction[73]  1
    x[74]     OBJ       10
    x[74]     interdiction[74]  1
    x[75]     OBJ       10
    x[75]     interdiction[75]  1
    x[76]     OBJ       10
    x[76]     interdiction[76]  1
    x[77]     OBJ       10
    x[77]     interdiction[77]  1
    x[78]     OBJ       10
    x[78]     interdiction[78]  1
    x[79]     OBJ       10
    x[79]     interdiction[79]  1
    y[0]      OBJ       -814
    y[0]      primal_upper  325
    y[0]      mccormick2[0]  -1
    y[0]      mccormick3[0]  1
    y[1]      OBJ       -906
    y[1]      primal_upper  118
    y[1]      mccormick2[1]  -1
    y[1]      mccormick3[1]  1
    y[2]      OBJ       -408
    y[2]      primal_upper  64
    y[2]      mccormick2[2]  -1
    y[2]      mccormick3[2]  1
    y[3]      OBJ       -448
    y[3]      primal_upper  661
    y[3]      mccormick2[3]  -1
    y[3]      mccormick3[3]  1
    y[4]      OBJ       -801
    y[4]      primal_upper  362
    y[4]      mccormick2[4]  -1
    y[4]      mccormick3[4]  1
    y[5]      OBJ       -941
    y[5]      primal_upper  107
    y[5]      mccormick2[5]  -1
    y[5]      mccormick3[5]  1
    y[6]      OBJ       -977
    y[6]      primal_upper  291
    y[6]      mccormick2[6]  -1
    y[6]      mccormick3[6]  1
    y[7]      OBJ       -991
    y[7]      primal_upper  637
    y[7]      mccormick2[7]  -1
    y[7]      mccormick3[7]  1
    y[8]      OBJ       -30
    y[8]      primal_upper  595
    y[8]      mccormick2[8]  -1
    y[8]      mccormick3[8]  1
    y[9]      OBJ       -350
    y[9]      primal_upper  676
    y[9]      mccormick2[9]  -1
    y[9]      mccormick3[9]  1
    y[10]     OBJ       -823
    y[10]     primal_upper  841
    y[10]     mccormick2[10]  -1
    y[10]     mccormick3[10]  1
    y[11]     OBJ       -431
    y[11]     primal_upper  581
    y[11]     mccormick2[11]  -1
    y[11]     mccormick3[11]  1
    y[12]     OBJ       -299
    y[12]     primal_upper  282
    y[12]     mccormick2[12]  -1
    y[12]     mccormick3[12]  1
    y[13]     OBJ       -958
    y[13]     primal_upper  158
    y[13]     mccormick2[13]  -1
    y[13]     mccormick3[13]  1
    y[14]     OBJ       -847
    y[14]     primal_upper  74
    y[14]     mccormick2[14]  -1
    y[14]     mccormick3[14]  1
    y[15]     OBJ       -256
    y[15]     primal_upper  454
    y[15]     mccormick2[15]  -1
    y[15]     mccormick3[15]  1
    y[16]     OBJ       -694
    y[16]     primal_upper  19
    y[16]     mccormick2[16]  -1
    y[16]     mccormick3[16]  1
    y[17]     OBJ       -278
    y[17]     primal_upper  946
    y[17]     mccormick2[17]  -1
    y[17]     mccormick3[17]  1
    y[18]     OBJ       -778
    y[18]     primal_upper  735
    y[18]     mccormick2[18]  -1
    y[18]     mccormick3[18]  1
    y[19]     OBJ       -733
    y[19]     primal_upper  344
    y[19]     mccormick2[19]  -1
    y[19]     mccormick3[19]  1
    y[20]     OBJ       -425
    y[20]     primal_upper  227
    y[20]     mccormick2[20]  -1
    y[20]     mccormick3[20]  1
    y[21]     OBJ       -707
    y[21]     primal_upper  1
    y[21]     mccormick2[21]  -1
    y[21]     mccormick3[21]  1
    y[22]     OBJ       -844
    y[22]     primal_upper  890
    y[22]     mccormick2[22]  -1
    y[22]     mccormick3[22]  1
    y[23]     OBJ       -492
    y[23]     primal_upper  960
    y[23]     mccormick2[23]  -1
    y[23]     mccormick3[23]  1
    y[24]     OBJ       -505
    y[24]     primal_upper  18
    y[24]     mccormick2[24]  -1
    y[24]     mccormick3[24]  1
    y[25]     OBJ       -170
    y[25]     primal_upper  250
    y[25]     mccormick2[25]  -1
    y[25]     mccormick3[25]  1
    y[26]     OBJ       -88
    y[26]     primal_upper  952
    y[26]     mccormick2[26]  -1
    y[26]     mccormick3[26]  1
    y[27]     OBJ       -539
    y[27]     primal_upper  593
    y[27]     mccormick2[27]  -1
    y[27]     mccormick3[27]  1
    y[28]     OBJ       -170
    y[28]     primal_upper  147
    y[28]     mccormick2[28]  -1
    y[28]     mccormick3[28]  1
    y[29]     OBJ       -348
    y[29]     primal_upper  513
    y[29]     mccormick2[29]  -1
    y[29]     mccormick3[29]  1
    y[30]     OBJ       -877
    y[30]     primal_upper  287
    y[30]     mccormick2[30]  -1
    y[30]     mccormick3[30]  1
    y[31]     OBJ       -860
    y[31]     primal_upper  149
    y[31]     mccormick2[31]  -1
    y[31]     mccormick3[31]  1
    y[32]     OBJ       -492
    y[32]     primal_upper  433
    y[32]     mccormick2[32]  -1
    y[32]     mccormick3[32]  1
    y[33]     OBJ       -3
    y[33]     primal_upper  127
    y[33]     mccormick2[33]  -1
    y[33]     mccormick3[33]  1
    y[34]     OBJ       -467
    y[34]     primal_upper  658
    y[34]     mccormick2[34]  -1
    y[34]     mccormick3[34]  1
    y[35]     OBJ       -169
    y[35]     primal_upper  515
    y[35]     mccormick2[35]  -1
    y[35]     mccormick3[35]  1
    y[36]     OBJ       -41
    y[36]     primal_upper  770
    y[36]     mccormick2[36]  -1
    y[36]     mccormick3[36]  1
    y[37]     OBJ       -523
    y[37]     primal_upper  662
    y[37]     mccormick2[37]  -1
    y[37]     mccormick3[37]  1
    y[38]     OBJ       -438
    y[38]     primal_upper  82
    y[38]     mccormick2[38]  -1
    y[38]     mccormick3[38]  1
    y[39]     OBJ       -767
    y[39]     primal_upper  200
    y[39]     mccormick2[39]  -1
    y[39]     mccormick3[39]  1
    y[40]     OBJ       -356
    y[40]     primal_upper  389
    y[40]     mccormick2[40]  -1
    y[40]     mccormick3[40]  1
    y[41]     OBJ       -641
    y[41]     primal_upper  467
    y[41]     mccormick2[41]  -1
    y[41]     mccormick3[41]  1
    y[42]     OBJ       -745
    y[42]     primal_upper  148
    y[42]     mccormick2[42]  -1
    y[42]     mccormick3[42]  1
    y[43]     OBJ       -591
    y[43]     primal_upper  767
    y[43]     mccormick2[43]  -1
    y[43]     mccormick3[43]  1
    y[44]     OBJ       -66
    y[44]     primal_upper  13
    y[44]     mccormick2[44]  -1
    y[44]     mccormick3[44]  1
    y[45]     OBJ       -791
    y[45]     primal_upper  708
    y[45]     mccormick2[45]  -1
    y[45]     mccormick3[45]  1
    y[46]     OBJ       -732
    y[46]     primal_upper  135
    y[46]     mccormick2[46]  -1
    y[46]     mccormick3[46]  1
    y[47]     OBJ       -104
    y[47]     primal_upper  83
    y[47]     mccormick2[47]  -1
    y[47]     mccormick3[47]  1
    y[48]     OBJ       -172
    y[48]     primal_upper  717
    y[48]     mccormick2[48]  -1
    y[48]     mccormick3[48]  1
    y[49]     OBJ       -637
    y[49]     primal_upper  218
    y[49]     mccormick2[49]  -1
    y[49]     mccormick3[49]  1
    y[50]     OBJ       -895
    y[50]     primal_upper  836
    y[50]     mccormick2[50]  -1
    y[50]     mccormick3[50]  1
    y[51]     OBJ       -622
    y[51]     primal_upper  554
    y[51]     mccormick2[51]  -1
    y[51]     mccormick3[51]  1
    y[52]     OBJ       -475
    y[52]     primal_upper  347
    y[52]     mccormick2[52]  -1
    y[52]     mccormick3[52]  1
    y[53]     OBJ       -969
    y[53]     primal_upper  678
    y[53]     mccormick2[53]  -1
    y[53]     mccormick3[53]  1
    y[54]     OBJ       -900
    y[54]     primal_upper  390
    y[54]     mccormick2[54]  -1
    y[54]     mccormick3[54]  1
    y[55]     OBJ       -494
    y[55]     primal_upper  545
    y[55]     mccormick2[55]  -1
    y[55]     mccormick3[55]  1
    y[56]     OBJ       -698
    y[56]     primal_upper  119
    y[56]     mccormick2[56]  -1
    y[56]     mccormick3[56]  1
    y[57]     OBJ       -384
    y[57]     primal_upper  892
    y[57]     mccormick2[57]  -1
    y[57]     mccormick3[57]  1
    y[58]     OBJ       -952
    y[58]     primal_upper  522
    y[58]     mccormick2[58]  -1
    y[58]     mccormick3[58]  1
    y[59]     OBJ       -847
    y[59]     primal_upper  20
    y[59]     mccormick2[59]  -1
    y[59]     mccormick3[59]  1
    y[60]     OBJ       -160
    y[60]     primal_upper  242
    y[60]     mccormick2[60]  -1
    y[60]     mccormick3[60]  1
    y[61]     OBJ       -938
    y[61]     primal_upper  716
    y[61]     mccormick2[61]  -1
    y[61]     mccormick3[61]  1
    y[62]     OBJ       -217
    y[62]     primal_upper  221
    y[62]     mccormick2[62]  -1
    y[62]     mccormick3[62]  1
    y[63]     OBJ       -761
    y[63]     primal_upper  916
    y[63]     mccormick2[63]  -1
    y[63]     mccormick3[63]  1
    y[64]     OBJ       -906
    y[64]     primal_upper  153
    y[64]     mccormick2[64]  -1
    y[64]     mccormick3[64]  1
    y[65]     OBJ       -113
    y[65]     primal_upper  990
    y[65]     mccormick2[65]  -1
    y[65]     mccormick3[65]  1
    y[66]     OBJ       -145
    y[66]     primal_upper  562
    y[66]     mccormick2[66]  -1
    y[66]     mccormick3[66]  1
    y[67]     OBJ       -457
    y[67]     primal_upper  176
    y[67]     mccormick2[67]  -1
    y[67]     mccormick3[67]  1
    y[68]     OBJ       -220
    y[68]     primal_upper  258
    y[68]     mccormick2[68]  -1
    y[68]     mccormick3[68]  1
    y[69]     OBJ       -897
    y[69]     primal_upper  435
    y[69]     mccormick2[69]  -1
    y[69]     mccormick3[69]  1
    y[70]     OBJ       -521
    y[70]     primal_upper  363
    y[70]     mccormick2[70]  -1
    y[70]     mccormick3[70]  1
    y[71]     OBJ       -883
    y[71]     primal_upper  943
    y[71]     mccormick2[71]  -1
    y[71]     mccormick3[71]  1
    y[72]     OBJ       -553
    y[72]     primal_upper  844
    y[72]     mccormick2[72]  -1
    y[72]     mccormick3[72]  1
    y[73]     OBJ       -833
    y[73]     primal_upper  585
    y[73]     mccormick2[73]  -1
    y[73]     mccormick3[73]  1
    y[74]     OBJ       -286
    y[74]     primal_upper  405
    y[74]     mccormick2[74]  -1
    y[74]     mccormick3[74]  1
    y[75]     OBJ       -22
    y[75]     primal_upper  682
    y[75]     mccormick2[75]  -1
    y[75]     mccormick3[75]  1
    y[76]     OBJ       -510
    y[76]     primal_upper  872
    y[76]     mccormick2[76]  -1
    y[76]     mccormick3[76]  1
    y[77]     OBJ       -161
    y[77]     primal_upper  349
    y[77]     mccormick2[77]  -1
    y[77]     mccormick3[77]  1
    y[78]     OBJ       -176
    y[78]     primal_upper  702
    y[78]     mccormick2[78]  -1
    y[78]     mccormick3[78]  1
    y[79]     OBJ       -83
    y[79]     primal_upper  692
    y[79]     mccormick2[79]  -1
    y[79]     mccormick3[79]  1
    u[0]      primal_lower0  602
    u[0]      primal_lower1  407
    u[0]      primal_lower2  215
    u[0]      primal_lower3  474
    u[0]      primal_lower4  406
    u[0]      primal_lower5  272
    u[0]      primal_lower6  180
    u[0]      primal_lower7  668
    u[0]      primal_lower8  593
    u[0]      primal_lower9  822
    u[0]      primal_lower10  213
    u[0]      primal_lower11  691
    u[0]      primal_lower12  703
    u[0]      primal_lower13  688
    u[0]      primal_lower14  467
    u[0]      primal_lower15  418
    u[0]      primal_lower16  783
    u[0]      primal_lower17  393
    u[0]      primal_lower18  733
    u[0]      primal_lower19  349
    u[0]      primal_lower20  248
    u[0]      primal_lower21  81
    u[0]      primal_lower22  498
    u[0]      primal_lower23  792
    u[0]      primal_lower24  450
    u[0]      primal_lower25  864
    u[0]      primal_lower26  607
    u[0]      primal_lower27  524
    u[0]      primal_lower28  849
    u[0]      primal_lower29  649
    u[0]      primal_lower30  362
    u[0]      primal_lower31  797
    u[0]      primal_lower32  580
    u[0]      primal_lower33  635
    u[0]      primal_lower34  464
    u[0]      primal_lower35  221
    u[0]      primal_lower36  385
    u[0]      primal_lower37  858
    u[0]      primal_lower38  826
    u[0]      primal_lower39  646
    u[0]      primal_lower40  198
    u[0]      primal_lower41  306
    u[0]      primal_lower42  418
    u[0]      primal_lower43  832
    u[0]      primal_lower44  504
    u[0]      primal_lower45  599
    u[0]      primal_lower46  581
    u[0]      primal_lower47  658
    u[0]      primal_lower48  700
    u[0]      primal_lower49  985
    u[0]      primal_lower50  504
    u[0]      primal_lower51  829
    u[0]      primal_lower52  781
    u[0]      primal_lower53  773
    u[0]      primal_lower54  574
    u[0]      primal_lower55  995
    u[0]      primal_lower56  546
    u[0]      primal_lower57  713
    u[0]      primal_lower58  564
    u[0]      primal_lower59  227
    u[0]      primal_lower60  768
    u[0]      primal_lower61  756
    u[0]      primal_lower62  910
    u[0]      primal_lower63  127
    u[0]      primal_lower64  316
    u[0]      primal_lower65  577
    u[0]      primal_lower66  198
    u[0]      primal_lower67  482
    u[0]      primal_lower68  321
    u[0]      primal_lower69  728
    u[0]      primal_lower70  644
    u[0]      primal_lower71  962
    u[0]      primal_lower72  637
    u[0]      primal_lower73  418
    u[0]      primal_lower74  661
    u[0]      primal_lower75  871
    u[0]      primal_lower76  904
    u[0]      primal_lower77  24
    u[0]      primal_lower78  13
    u[0]      primal_lower79  386
    u[0]      primal_lower80  849
    u[0]      primal_lower81  40
    u[0]      primal_lower82  589
    u[0]      primal_lower83  800
    u[0]      primal_lower84  938
    u[0]      primal_lower85  956
    u[0]      primal_lower86  155
    u[0]      primal_lower87  822
    u[0]      primal_lower88  549
    u[0]      primal_lower89  43
    u[0]      primal_lower90  130
    u[0]      primal_lower91  226
    u[0]      primal_lower92  888
    u[0]      primal_lower93  368
    u[0]      primal_lower94  847
    u[0]      primal_lower95  693
    u[0]      primal_lower96  653
    u[0]      primal_lower97  70
    u[0]      primal_lower98  1000
    u[0]      primal_lower99  346
    u[0]      interdiction[0]  1
    u[0]      mccormick1[0]  -1
    u[0]      mccormick3[0]  1
    u[1]      primal_lower0  195
    u[1]      primal_lower1  251
    u[1]      primal_lower2  912
    u[1]      primal_lower3  134
    u[1]      primal_lower4  138
    u[1]      primal_lower5  361
    u[1]      primal_lower6  789
    u[1]      primal_lower7  720
    u[1]      primal_lower8  834
    u[1]      primal_lower9  786
    u[1]      primal_lower10  30
    u[1]      primal_lower11  223
    u[1]      primal_lower12  795
    u[1]      primal_lower13  940
    u[1]      primal_lower14  207
    u[1]      primal_lower15  307
    u[1]      primal_lower16  35
    u[1]      primal_lower17  477
    u[1]      primal_lower18  185
    u[1]      primal_lower19  577
    u[1]      primal_lower20  921
    u[1]      primal_lower21  42
    u[1]      primal_lower22  651
    u[1]      primal_lower23  465
    u[1]      primal_lower24  14
    u[1]      primal_lower25  753
    u[1]      primal_lower26  283
    u[1]      primal_lower27  280
    u[1]      primal_lower28  661
    u[1]      primal_lower29  885
    u[1]      primal_lower30  382
    u[1]      primal_lower31  742
    u[1]      primal_lower32  488
    u[1]      primal_lower33  220
    u[1]      primal_lower34  612
    u[1]      primal_lower35  598
    u[1]      primal_lower36  530
    u[1]      primal_lower37  574
    u[1]      primal_lower38  134
    u[1]      primal_lower39  666
    u[1]      primal_lower40  306
    u[1]      primal_lower41  358
    u[1]      primal_lower42  742
    u[1]      primal_lower43  929
    u[1]      primal_lower44  196
    u[1]      primal_lower45  480
    u[1]      primal_lower46  382
    u[1]      primal_lower47  270
    u[1]      primal_lower48  488
    u[1]      primal_lower49  50
    u[1]      primal_lower50  524
    u[1]      primal_lower51  710
    u[1]      primal_lower52  33
    u[1]      primal_lower53  382
    u[1]      primal_lower54  135
    u[1]      primal_lower55  116
    u[1]      primal_lower56  579
    u[1]      primal_lower57  581
    u[1]      primal_lower58  229
    u[1]      primal_lower59  823
    u[1]      primal_lower60  228
    u[1]      primal_lower61  424
    u[1]      primal_lower62  130
    u[1]      primal_lower63  771
    u[1]      primal_lower64  512
    u[1]      primal_lower65  218
    u[1]      primal_lower66  743
    u[1]      primal_lower67  838
    u[1]      primal_lower68  557
    u[1]      primal_lower69  508
    u[1]      primal_lower70  296
    u[1]      primal_lower71  422
    u[1]      primal_lower72  902
    u[1]      primal_lower73  14
    u[1]      primal_lower74  646
    u[1]      primal_lower75  659
    u[1]      primal_lower76  233
    u[1]      primal_lower77  249
    u[1]      primal_lower78  17
    u[1]      primal_lower79  990
    u[1]      primal_lower80  738
    u[1]      primal_lower81  356
    u[1]      primal_lower82  49
    u[1]      primal_lower83  68
    u[1]      primal_lower84  38
    u[1]      primal_lower85  160
    u[1]      primal_lower86  247
    u[1]      primal_lower87  402
    u[1]      primal_lower88  470
    u[1]      primal_lower89  823
    u[1]      primal_lower90  219
    u[1]      primal_lower91  598
    u[1]      primal_lower92  604
    u[1]      primal_lower93  833
    u[1]      primal_lower94  72
    u[1]      primal_lower95  86
    u[1]      primal_lower96  542
    u[1]      primal_lower97  159
    u[1]      primal_lower98  321
    u[1]      primal_lower99  819
    u[1]      interdiction[1]  1
    u[1]      mccormick1[1]  -1
    u[1]      mccormick3[1]  1
    u[2]      primal_lower0  181
    u[2]      primal_lower1  49
    u[2]      primal_lower2  218
    u[2]      primal_lower3  444
    u[2]      primal_lower4  280
    u[2]      primal_lower5  475
    u[2]      primal_lower6  175
    u[2]      primal_lower7  478
    u[2]      primal_lower8  188
    u[2]      primal_lower9  400
    u[2]      primal_lower10  232
    u[2]      primal_lower11  469
    u[2]      primal_lower12  585
    u[2]      primal_lower13  426
    u[2]      primal_lower14  477
    u[2]      primal_lower15  125
    u[2]      primal_lower16  233
    u[2]      primal_lower17  603
    u[2]      primal_lower18  759
    u[2]      primal_lower19  823
    u[2]      primal_lower20  107
    u[2]      primal_lower21  876
    u[2]      primal_lower22  741
    u[2]      primal_lower23  395
    u[2]      primal_lower24  692
    u[2]      primal_lower25  283
    u[2]      primal_lower26  393
    u[2]      primal_lower27  886
    u[2]      primal_lower28  635
    u[2]      primal_lower29  251
    u[2]      primal_lower30  756
    u[2]      primal_lower31  352
    u[2]      primal_lower32  758
    u[2]      primal_lower33  870
    u[2]      primal_lower34  746
    u[2]      primal_lower35  800
    u[2]      primal_lower36  132
    u[2]      primal_lower37  948
    u[2]      primal_lower38  548
    u[2]      primal_lower39  672
    u[2]      primal_lower40  280
    u[2]      primal_lower41  732
    u[2]      primal_lower42  532
    u[2]      primal_lower43  275
    u[2]      primal_lower44  514
    u[2]      primal_lower45  66
    u[2]      primal_lower46  568
    u[2]      primal_lower47  4
    u[2]      primal_lower48  254
    u[2]      primal_lower49  588
    u[2]      primal_lower50  618
    u[2]      primal_lower51  696
    u[2]      primal_lower52  279
    u[2]      primal_lower53  664
    u[2]      primal_lower54  65
    u[2]      primal_lower55  646
    u[2]      primal_lower56  333
    u[2]      primal_lower57  395
    u[2]      primal_lower58  679
    u[2]      primal_lower59  149
    u[2]      primal_lower60  346
    u[2]      primal_lower61  638
    u[2]      primal_lower62  936
    u[2]      primal_lower63  1
    u[2]      primal_lower64  430
    u[2]      primal_lower65  460
    u[2]      primal_lower66  529
    u[2]      primal_lower67  700
    u[2]      primal_lower68  603
    u[2]      primal_lower69  666
    u[2]      primal_lower70  718
    u[2]      primal_lower71  396
    u[2]      primal_lower72  208
    u[2]      primal_lower73  212
    u[2]      primal_lower74  584
    u[2]      primal_lower75  937
    u[2]      primal_lower76  883
    u[2]      primal_lower77  715
    u[2]      primal_lower78  167
    u[2]      primal_lower79  556
    u[2]      primal_lower80  452
    u[2]      primal_lower81  82
    u[2]      primal_lower82  983
    u[2]      primal_lower83  154
    u[2]      primal_lower84  340
    u[2]      primal_lower85  934
    u[2]      primal_lower86  861
    u[2]      primal_lower87  792
    u[2]      primal_lower88  920
    u[2]      primal_lower89  357
    u[2]      primal_lower90  613
    u[2]      primal_lower91  372
    u[2]      primal_lower92  882
    u[2]      primal_lower93  771
    u[2]      primal_lower94  642
    u[2]      primal_lower95  984
    u[2]      primal_lower96  112
    u[2]      primal_lower97  17
    u[2]      primal_lower98  571
    u[2]      primal_lower99  669
    u[2]      interdiction[2]  1
    u[2]      mccormick1[2]  -1
    u[2]      mccormick3[2]  1
    u[3]      primal_lower0  450
    u[3]      primal_lower1  186
    u[3]      primal_lower2  935
    u[3]      primal_lower3  517
    u[3]      primal_lower4  177
    u[3]      primal_lower5  840
    u[3]      primal_lower6  140
    u[3]      primal_lower7  751
    u[3]      primal_lower8  281
    u[3]      primal_lower9  745
    u[3]      primal_lower10  197
    u[3]      primal_lower11  46
    u[3]      primal_lower12  610
    u[3]      primal_lower13  67
    u[3]      primal_lower14  582
    u[3]      primal_lower15  578
    u[3]      primal_lower16  394
    u[3]      primal_lower17  764
    u[3]      primal_lower18  792
    u[3]      primal_lower19  288
    u[3]      primal_lower20  944
    u[3]      primal_lower21  993
    u[3]      primal_lower22  618
    u[3]      primal_lower23  904
    u[3]      primal_lower24  197
    u[3]      primal_lower25  408
    u[3]      primal_lower26  506
    u[3]      primal_lower27  375
    u[3]      primal_lower28  356
    u[3]      primal_lower29  732
    u[3]      primal_lower30  381
    u[3]      primal_lower31  957
    u[3]      primal_lower32  695
    u[3]      primal_lower33  51
    u[3]      primal_lower34  211
    u[3]      primal_lower35  285
    u[3]      primal_lower36  969
    u[3]      primal_lower37  693
    u[3]      primal_lower38  253
    u[3]      primal_lower39  825
    u[3]      primal_lower40  177
    u[3]      primal_lower41  173
    u[3]      primal_lower42  277
    u[3]      primal_lower43  992
    u[3]      primal_lower44  715
    u[3]      primal_lower45  231
    u[3]      primal_lower46  109
    u[3]      primal_lower47  573
    u[3]      primal_lower48  823
    u[3]      primal_lower49  657
    u[3]      primal_lower50  699
    u[3]      primal_lower51  85
    u[3]      primal_lower52  400
    u[3]      primal_lower53  701
    u[3]      primal_lower54  246
    u[3]      primal_lower55  51
    u[3]      primal_lower56  890
    u[3]      primal_lower57  500
    u[3]      primal_lower58  316
    u[3]      primal_lower59  806
    u[3]      primal_lower60  115
    u[3]      primal_lower61  503
    u[3]      primal_lower62  977
    u[3]      primal_lower63  2
    u[3]      primal_lower64  95
    u[3]      primal_lower65  521
    u[3]      primal_lower66  550
    u[3]      primal_lower67  613
    u[3]      primal_lower68  292
    u[3]      primal_lower69  819
    u[3]      primal_lower70  447
    u[3]      primal_lower71  701
    u[3]      primal_lower72  277
    u[3]      primal_lower73  725
    u[3]      primal_lower74  349
    u[3]      primal_lower75  482
    u[3]      primal_lower76  440
    u[3]      primal_lower77  512
    u[3]      primal_lower78  64
    u[3]      primal_lower79  797
    u[3]      primal_lower80  209
    u[3]      primal_lower81  315
    u[3]      primal_lower82  400
    u[3]      primal_lower83  123
    u[3]      primal_lower84  797
    u[3]      primal_lower85  727
    u[3]      primal_lower86  718
    u[3]      primal_lower87  769
    u[3]      primal_lower88  165
    u[3]      primal_lower89  406
    u[3]      primal_lower90  714
    u[3]      primal_lower91  621
    u[3]      primal_lower92  355
    u[3]      primal_lower93  736
    u[3]      primal_lower94  927
    u[3]      primal_lower95  789
    u[3]      primal_lower96  685
    u[3]      primal_lower97  846
    u[3]      primal_lower98  168
    u[3]      primal_lower99  18
    u[3]      interdiction[3]  1
    u[3]      mccormick1[3]  -1
    u[3]      mccormick3[3]  1
    u[4]      primal_lower0  575
    u[4]      primal_lower1  547
    u[4]      primal_lower2  932
    u[4]      primal_lower3  222
    u[4]      primal_lower4  186
    u[4]      primal_lower5  253
    u[4]      primal_lower6  377
    u[4]      primal_lower7  320
    u[4]      primal_lower8  350
    u[4]      primal_lower9  298
    u[4]      primal_lower10  634
    u[4]      primal_lower11  31
    u[4]      primal_lower12  307
    u[4]      primal_lower13  404
    u[4]      primal_lower14  951
    u[4]      primal_lower15  143
    u[4]      primal_lower16  43
    u[4]      primal_lower17  29
    u[4]      primal_lower18  337
    u[4]      primal_lower19  601
    u[4]      primal_lower20  45
    u[4]      primal_lower21  838
    u[4]      primal_lower22  455
    u[4]      primal_lower23  37
    u[4]      primal_lower24  414
    u[4]      primal_lower25  773
    u[4]      primal_lower26  211
    u[4]      primal_lower27  504
    u[4]      primal_lower28  821
    u[4]      primal_lower29  693
    u[4]      primal_lower30  382
    u[4]      primal_lower31  154
    u[4]      primal_lower32  64
    u[4]      primal_lower33  632
    u[4]      primal_lower34  68
    u[4]      primal_lower35  442
    u[4]      primal_lower36  910
    u[4]      primal_lower37  326
    u[4]      primal_lower38  174
    u[4]      primal_lower39  122
    u[4]      primal_lower40  26
    u[4]      primal_lower41  590
    u[4]      primal_lower42  86
    u[4]      primal_lower43  789
    u[4]      primal_lower44  52
    u[4]      primal_lower45  980
    u[4]      primal_lower46  138
    u[4]      primal_lower47  286
    u[4]      primal_lower48  936
    u[4]      primal_lower49  774
    u[4]      primal_lower50  252
    u[4]      primal_lower51  218
    u[4]      primal_lower52  865
    u[4]      primal_lower53  970
    u[4]      primal_lower54  923
    u[4]      primal_lower55  784
    u[4]      primal_lower56  983
    u[4]      primal_lower57  229
    u[4]      primal_lower58  481
    u[4]      primal_lower59  639
    u[4]      primal_lower60  84
    u[4]      primal_lower61  472
    u[4]      primal_lower62  10
    u[4]      primal_lower63  475
    u[4]      primal_lower64  856
    u[4]      primal_lower65  838
    u[4]      primal_lower66  139
    u[4]      primal_lower67  398
    u[4]      primal_lower68  637
    u[4]      primal_lower69  900
    u[4]      primal_lower70  56
    u[4]      primal_lower71  902
    u[4]      primal_lower72  410
    u[4]      primal_lower73  918
    u[4]      primal_lower74  74
    u[4]      primal_lower75  387
    u[4]      primal_lower76  13
    u[4]      primal_lower77  373
    u[4]      primal_lower78  457
    u[4]      primal_lower79  222
    u[4]      primal_lower80  302
    u[4]      primal_lower81  812
    u[4]      primal_lower82  169
    u[4]      primal_lower83  12
    u[4]      primal_lower84  326
    u[4]      primal_lower85  104
    u[4]      primal_lower86  391
    u[4]      primal_lower87  466
    u[4]      primal_lower88  898
    u[4]      primal_lower89  207
    u[4]      primal_lower90  383
    u[4]      primal_lower91  822
    u[4]      primal_lower92  724
    u[4]      primal_lower93  661
    u[4]      primal_lower94  204
    u[4]      primal_lower95  34
    u[4]      primal_lower96  930
    u[4]      primal_lower97  235
    u[4]      primal_lower98  589
    u[4]      primal_lower99  343
    u[4]      interdiction[4]  1
    u[4]      mccormick1[4]  -1
    u[4]      mccormick3[4]  1
    u[5]      primal_lower0  208
    u[5]      primal_lower1  593
    u[5]      primal_lower2  45
    u[5]      primal_lower3  652
    u[5]      primal_lower4  152
    u[5]      primal_lower5  86
    u[5]      primal_lower6  194
    u[5]      primal_lower7  430
    u[5]      primal_lower8  959
    u[5]      primal_lower9  968
    u[5]      primal_lower10  51
    u[5]      primal_lower11  245
    u[5]      primal_lower12  193
    u[5]      primal_lower13  578
    u[5]      primal_lower14  53
    u[5]      primal_lower15  904
    u[5]      primal_lower16  577
    u[5]      primal_lower17  427
    u[5]      primal_lower18  335
    u[5]      primal_lower19  383
    u[5]      primal_lower20  630
    u[5]      primal_lower21  583
    u[5]      primal_lower22  304
    u[5]      primal_lower23  150
    u[5]      primal_lower24  124
    u[5]      primal_lower25  310
    u[5]      primal_lower26  353
    u[5]      primal_lower27  102
    u[5]      primal_lower28  875
    u[5]      primal_lower29  459
    u[5]      primal_lower30  20
    u[5]      primal_lower31  27
    u[5]      primal_lower32  582
    u[5]      primal_lower33  993
    u[5]      primal_lower34  682
    u[5]      primal_lower35  83
    u[5]      primal_lower36  887
    u[5]      primal_lower37  812
    u[5]      primal_lower38  692
    u[5]      primal_lower39  568
    u[5]      primal_lower40  792
    u[5]      primal_lower41  532
    u[5]      primal_lower42  988
    u[5]      primal_lower43  326
    u[5]      primal_lower44  698
    u[5]      primal_lower45  429
    u[5]      primal_lower46  715
    u[5]      primal_lower47  916
    u[5]      primal_lower48  158
    u[5]      primal_lower49  511
    u[5]      primal_lower50  794
    u[5]      primal_lower51  435
    u[5]      primal_lower52  847
    u[5]      primal_lower53  219
    u[5]      primal_lower54  892
    u[5]      primal_lower55  353
    u[5]      primal_lower56  792
    u[5]      primal_lower57  323
    u[5]      primal_lower58  354
    u[5]      primal_lower59  741
    u[5]      primal_lower60  210
    u[5]      primal_lower61  990
    u[5]      primal_lower62  544
    u[5]      primal_lower63  985
    u[5]      primal_lower64  30
    u[5]      primal_lower65  175
    u[5]      primal_lower66  292
    u[5]      primal_lower67  916
    u[5]      primal_lower68  443
    u[5]      primal_lower69  98
    u[5]      primal_lower70  174
    u[5]      primal_lower71  444
    u[5]      primal_lower72  795
    u[5]      primal_lower73  828
    u[5]      primal_lower74  979
    u[5]      primal_lower75  969
    u[5]      primal_lower76  174
    u[5]      primal_lower77  246
    u[5]      primal_lower78  815
    u[5]      primal_lower79  460
    u[5]      primal_lower80  583
    u[5]      primal_lower81  370
    u[5]      primal_lower82  543
    u[5]      primal_lower83  394
    u[5]      primal_lower84  756
    u[5]      primal_lower85  838
    u[5]      primal_lower86  53
    u[5]      primal_lower87  104
    u[5]      primal_lower88  75
    u[5]      primal_lower89  221
    u[5]      primal_lower90  312
    u[5]      primal_lower91  380
    u[5]      primal_lower92  970
    u[5]      primal_lower93  550
    u[5]      primal_lower94  469
    u[5]      primal_lower95  907
    u[5]      primal_lower96  459
    u[5]      primal_lower97  700
    u[5]      primal_lower98  582
    u[5]      primal_lower99  64
    u[5]      interdiction[5]  1
    u[5]      mccormick1[5]  -1
    u[5]      mccormick3[5]  1
    u[6]      primal_lower0  464
    u[6]      primal_lower1  476
    u[6]      primal_lower2  477
    u[6]      primal_lower3  127
    u[6]      primal_lower4  643
    u[6]      primal_lower5  678
    u[6]      primal_lower6  658
    u[6]      primal_lower7  377
    u[6]      primal_lower8  391
    u[6]      primal_lower9  947
    u[6]      primal_lower10  235
    u[6]      primal_lower11  536
    u[6]      primal_lower12  860
    u[6]      primal_lower13  581
    u[6]      primal_lower14  728
    u[6]      primal_lower15  400
    u[6]      primal_lower16  516
    u[6]      primal_lower17  302
    u[6]      primal_lower18  218
    u[6]      primal_lower19  506
    u[6]      primal_lower20  46
    u[6]      primal_lower21  743
    u[6]      primal_lower22  888
    u[6]      primal_lower23  798
    u[6]      primal_lower24  71
    u[6]      primal_lower25  606
    u[6]      primal_lower26  564
    u[6]      primal_lower27  257
    u[6]      primal_lower28  926
    u[6]      primal_lower29  214
    u[6]      primal_lower30  511
    u[6]      primal_lower31  155
    u[6]      primal_lower32  49
    u[6]      primal_lower33  673
    u[6]      primal_lower34  77
    u[6]      primal_lower35  275
    u[6]      primal_lower36  63
    u[6]      primal_lower37  807
    u[6]      primal_lower38  175
    u[6]      primal_lower39  459
    u[6]      primal_lower40  283
    u[6]      primal_lower41  583
    u[6]      primal_lower42  471
    u[6]      primal_lower43  574
    u[6]      primal_lower44  957
    u[6]      primal_lower45  957
    u[6]      primal_lower46  955
    u[6]      primal_lower47  63
    u[6]      primal_lower48  313
    u[6]      primal_lower49  375
    u[6]      primal_lower50  485
    u[6]      primal_lower51  627
    u[6]      primal_lower52  202
    u[6]      primal_lower53  763
    u[6]      primal_lower54  756
    u[6]      primal_lower55  289
    u[6]      primal_lower56  712
    u[6]      primal_lower57  614
    u[6]      primal_lower58  338
    u[6]      primal_lower59  768
    u[6]      primal_lower60  197
    u[6]      primal_lower61  673
    u[6]      primal_lower62  19
    u[6]      primal_lower63  52
    u[6]      primal_lower64  873
    u[6]      primal_lower65  207
    u[6]      primal_lower66  220
    u[6]      primal_lower67  103
    u[6]      primal_lower68  30
    u[6]      primal_lower69  597
    u[6]      primal_lower70  385
    u[6]      primal_lower71  319
    u[6]      primal_lower72  219
    u[6]      primal_lower73  903
    u[6]      primal_lower74  979
    u[6]      primal_lower75  972
    u[6]      primal_lower76  54
    u[6]      primal_lower77  182
    u[6]      primal_lower78  314
    u[6]      primal_lower79  367
    u[6]      primal_lower80  831
    u[6]      primal_lower81  725
    u[6]      primal_lower82  34
    u[6]      primal_lower83  869
    u[6]      primal_lower84  559
    u[6]      primal_lower85  153
    u[6]      primal_lower86  856
    u[6]      primal_lower87  355
    u[6]      primal_lower88  355
    u[6]      primal_lower89  544
    u[6]      primal_lower90  704
    u[6]      primal_lower91  999
    u[6]      primal_lower92  133
    u[6]      primal_lower93  550
    u[6]      primal_lower94  149
    u[6]      primal_lower95  419
    u[6]      primal_lower96  771
    u[6]      primal_lower97  20
    u[6]      primal_lower98  526
    u[6]      primal_lower99  864
    u[6]      interdiction[6]  1
    u[6]      mccormick1[6]  -1
    u[6]      mccormick3[6]  1
    u[7]      primal_lower0  730
    u[7]      primal_lower1  931
    u[7]      primal_lower2  127
    u[7]      primal_lower3  814
    u[7]      primal_lower4  834
    u[7]      primal_lower5  824
    u[7]      primal_lower6  76
    u[7]      primal_lower7  168
    u[7]      primal_lower8  337
    u[7]      primal_lower9  618
    u[7]      primal_lower10  637
    u[7]      primal_lower11  335
    u[7]      primal_lower12  635
    u[7]      primal_lower13  332
    u[7]      primal_lower14  511
    u[7]      primal_lower15  386
    u[7]      primal_lower16  27
    u[7]      primal_lower17  981
    u[7]      primal_lower18  833
    u[7]      primal_lower19  657
    u[7]      primal_lower20  608
    u[7]      primal_lower21  521
    u[7]      primal_lower22  674
    u[7]      primal_lower23  504
    u[7]      primal_lower24  646
    u[7]      primal_lower25  632
    u[7]      primal_lower26  499
    u[7]      primal_lower27  712
    u[7]      primal_lower28  621
    u[7]      primal_lower29  453
    u[7]      primal_lower30  926
    u[7]      primal_lower31  589
    u[7]      primal_lower32  264
    u[7]      primal_lower33  971
    u[7]      primal_lower34  548
    u[7]      primal_lower35  93
    u[7]      primal_lower36  289
    u[7]      primal_lower37  254
    u[7]      primal_lower38  830
    u[7]      primal_lower39  290
    u[7]      primal_lower40  618
    u[7]      primal_lower41  62
    u[7]      primal_lower42  958
    u[7]      primal_lower43  152
    u[7]      primal_lower44  292
    u[7]      primal_lower45  919
    u[7]      primal_lower46  997
    u[7]      primal_lower47  110
    u[7]      primal_lower48  200
    u[7]      primal_lower49  161
    u[7]      primal_lower50  12
    u[7]      primal_lower51  989
    u[7]      primal_lower52  745
    u[7]      primal_lower53  837
    u[7]      primal_lower54  534
    u[7]      primal_lower55  355
    u[7]      primal_lower56  994
    u[7]      primal_lower57  805
    u[7]      primal_lower58  516
    u[7]      primal_lower59  471
    u[7]      primal_lower60  476
    u[7]      primal_lower61  96
    u[7]      primal_lower62  810
    u[7]      primal_lower63  931
    u[7]      primal_lower64  32
    u[7]      primal_lower65  89
    u[7]      primal_lower66  886
    u[7]      primal_lower67  934
    u[7]      primal_lower68  845
    u[7]      primal_lower69  12
    u[7]      primal_lower70  712
    u[7]      primal_lower71  406
    u[7]      primal_lower72  205
    u[7]      primal_lower73  422
    u[7]      primal_lower74  709
    u[7]      primal_lower75  355
    u[7]      primal_lower76  344
    u[7]      primal_lower77  344
    u[7]      primal_lower78  761
    u[7]      primal_lower79  686
    u[7]      primal_lower80  153
    u[7]      primal_lower81  228
    u[7]      primal_lower82  857
    u[7]      primal_lower83  716
    u[7]      primal_lower84  526
    u[7]      primal_lower85  880
    u[7]      primal_lower86  7
    u[7]      primal_lower87  562
    u[7]      primal_lower88  741
    u[7]      primal_lower89  727
    u[7]      primal_lower90  738
    u[7]      primal_lower91  894
    u[7]      primal_lower92  908
    u[7]      primal_lower93  576
    u[7]      primal_lower94  983
    u[7]      primal_lower95  133
    u[7]      primal_lower96  773
    u[7]      primal_lower97  126
    u[7]      primal_lower98  40
    u[7]      primal_lower99  82
    u[7]      interdiction[7]  1
    u[7]      mccormick1[7]  -1
    u[7]      mccormick3[7]  1
    u[8]      primal_lower0  320
    u[8]      primal_lower1  900
    u[8]      primal_lower2  477
    u[8]      primal_lower3  127
    u[8]      primal_lower4  507
    u[8]      primal_lower5  926
    u[8]      primal_lower6  978
    u[8]      primal_lower7  425
    u[8]      primal_lower8  815
    u[8]      primal_lower9  875
    u[8]      primal_lower10  227
    u[8]      primal_lower11  672
    u[8]      primal_lower12  644
    u[8]      primal_lower13  485
    u[8]      primal_lower14  632
    u[8]      primal_lower15  64
    u[8]      primal_lower16  44
    u[8]      primal_lower17  478
    u[8]      primal_lower18  778
    u[8]      primal_lower19  378
    u[8]      primal_lower20  118
    u[8]      primal_lower21  647
    u[8]      primal_lower22  824
    u[8]      primal_lower23  358
    u[8]      primal_lower24  167
    u[8]      primal_lower25  446
    u[8]      primal_lower26  28
    u[8]      primal_lower27  753
    u[8]      primal_lower28  862
    u[8]      primal_lower29  974
    u[8]      primal_lower30  935
    u[8]      primal_lower31  19
    u[8]      primal_lower32  769
    u[8]      primal_lower33  129
    u[8]      primal_lower34  565
    u[8]      primal_lower35  731
    u[8]      primal_lower36  191
    u[8]      primal_lower37  367
    u[8]      primal_lower38  631
    u[8]      primal_lower39  395
    u[8]      primal_lower40  107
    u[8]      primal_lower41  55
    u[8]      primal_lower42  783
    u[8]      primal_lower43  110
    u[8]      primal_lower44  405
    u[8]      primal_lower45  917
    u[8]      primal_lower46  723
    u[8]      primal_lower47  319
    u[8]      primal_lower48  473
    u[8]      primal_lower49  487
    u[8]      primal_lower50  261
    u[8]      primal_lower51  531
    u[8]      primal_lower52  58
    u[8]      primal_lower53  779
    u[8]      primal_lower54  28
    u[8]      primal_lower55  993
    u[8]      primal_lower56  72
    u[8]      primal_lower57  926
    u[8]      primal_lower58  218
    u[8]      primal_lower59  272
    u[8]      primal_lower60  501
    u[8]      primal_lower61  113
    u[8]      primal_lower62  403
    u[8]      primal_lower63  900
    u[8]      primal_lower64  801
    u[8]      primal_lower65  911
    u[8]      primal_lower66  996
    u[8]      primal_lower67  503
    u[8]      primal_lower68  854
    u[8]      primal_lower69  997
    u[8]      primal_lower70  785
    u[8]      primal_lower71  735
    u[8]      primal_lower72  75
    u[8]      primal_lower73  351
    u[8]      primal_lower74  755
    u[8]      primal_lower75  956
    u[8]      primal_lower76  526
    u[8]      primal_lower77  558
    u[8]      primal_lower78  722
    u[8]      primal_lower79  711
    u[8]      primal_lower80  783
    u[8]      primal_lower81  277
    u[8]      primal_lower82  978
    u[8]      primal_lower83  813
    u[8]      primal_lower84  863
    u[8]      primal_lower85  233
    u[8]      primal_lower86  288
    u[8]      primal_lower87  83
    u[8]      primal_lower88  955
    u[8]      primal_lower89  600
    u[8]      primal_lower90  600
    u[8]      primal_lower91  7
    u[8]      primal_lower92  341
    u[8]      primal_lower93  390
    u[8]      primal_lower94  973
    u[8]      primal_lower95  299
    u[8]      primal_lower96  419
    u[8]      primal_lower97  300
    u[8]      primal_lower98  390
    u[8]      primal_lower99  320
    u[8]      interdiction[8]  1
    u[8]      mccormick1[8]  -1
    u[8]      mccormick3[8]  1
    u[9]      primal_lower0  89
    u[9]      primal_lower1  993
    u[9]      primal_lower2  958
    u[9]      primal_lower3  52
    u[9]      primal_lower4  728
    u[9]      primal_lower5  367
    u[9]      primal_lower6  371
    u[9]      primal_lower7  550
    u[9]      primal_lower8  384
    u[9]      primal_lower9  448
    u[9]      primal_lower10  756
    u[9]      primal_lower11  277
    u[9]      primal_lower12  801
    u[9]      primal_lower13  578
    u[9]      primal_lower14  973
    u[9]      primal_lower15  881
    u[9]      primal_lower16  545
    u[9]      primal_lower17  3
    u[9]      primal_lower18  999
    u[9]      primal_lower19  263
    u[9]      primal_lower20  119
    u[9]      primal_lower21  120
    u[9]      primal_lower22  521
    u[9]      primal_lower23  567
    u[9]      primal_lower24  116
    u[9]      primal_lower25  799
    u[9]      primal_lower26  529
    u[9]      primal_lower27  494
    u[9]      primal_lower28  579
    u[9]      primal_lower29  619
    u[9]      primal_lower30  460
    u[9]      primal_lower31  668
    u[9]      primal_lower32  134
    u[9]      primal_lower33  314
    u[9]      primal_lower34  362
    u[9]      primal_lower35  268
    u[9]      primal_lower36  88
    u[9]      primal_lower37  964
    u[9]      primal_lower38  932
    u[9]      primal_lower39  848
    u[9]      primal_lower40  120
    u[9]      primal_lower41  708
    u[9]      primal_lower42  524
    u[9]      primal_lower43  783
    u[9]      primal_lower44  890
    u[9]      primal_lower45  326
    u[9]      primal_lower46  964
    u[9]      primal_lower47  692
    u[9]      primal_lower48  990
    u[9]      primal_lower49  1000
    u[9]      primal_lower50  250
    u[9]      primal_lower51  12
    u[9]      primal_lower52  983
    u[9]      primal_lower53  204
    u[9]      primal_lower54  621
    u[9]      primal_lower55  66
    u[9]      primal_lower56  497
    u[9]      primal_lower57  179
    u[9]      primal_lower58  283
    u[9]      primal_lower59  325
    u[9]      primal_lower60  786
    u[9]      primal_lower61  846
    u[9]      primal_lower62  112
    u[9]      primal_lower63  761
    u[9]      primal_lower64  670
    u[9]      primal_lower65  368
    u[9]      primal_lower66  213
    u[9]      primal_lower67  940
    u[9]      primal_lower68  355
    u[9]      primal_lower69  90
    u[9]      primal_lower70  558
    u[9]      primal_lower71  588
    u[9]      primal_lower72  564
    u[9]      primal_lower73  308
    u[9]      primal_lower74  868
    u[9]      primal_lower75  849
    u[9]      primal_lower76  223
    u[9]      primal_lower77  287
    u[9]      primal_lower78  799
    u[9]      primal_lower79  340
    u[9]      primal_lower80  40
    u[9]      primal_lower81  714
    u[9]      primal_lower82  999
    u[9]      primal_lower83  866
    u[9]      primal_lower84  964
    u[9]      primal_lower85  438
    u[9]      primal_lower86  293
    u[9]      primal_lower87  656
    u[9]      primal_lower88  52
    u[9]      primal_lower89  109
    u[9]      primal_lower90  577
    u[9]      primal_lower91  4
    u[9]      primal_lower92  530
    u[9]      primal_lower93  79
    u[9]      primal_lower94  998
    u[9]      primal_lower95  92
    u[9]      primal_lower96  932
    u[9]      primal_lower97  493
    u[9]      primal_lower98  335
    u[9]      primal_lower99  745
    u[9]      interdiction[9]  1
    u[9]      mccormick1[9]  -1
    u[9]      mccormick3[9]  1
    u[10]     primal_lower0  174
    u[10]     primal_lower1  699
    u[10]     primal_lower2  595
    u[10]     primal_lower3  878
    u[10]     primal_lower4  498
    u[10]     primal_lower5  628
    u[10]     primal_lower6  696
    u[10]     primal_lower7  696
    u[10]     primal_lower8  557
    u[10]     primal_lower9  122
    u[10]     primal_lower10  33
    u[10]     primal_lower11  719
    u[10]     primal_lower12  819
    u[10]     primal_lower13  932
    u[10]     primal_lower14  47
    u[10]     primal_lower15  614
    u[10]     primal_lower16  707
    u[10]     primal_lower17  149
    u[10]     primal_lower18  617
    u[10]     primal_lower19  105
    u[10]     primal_lower20  684
    u[10]     primal_lower21  877
    u[10]     primal_lower22  950
    u[10]     primal_lower23  644
    u[10]     primal_lower24  14
    u[10]     primal_lower25  228
    u[10]     primal_lower26  203
    u[10]     primal_lower27  608
    u[10]     primal_lower28  885
    u[10]     primal_lower29  349
    u[10]     primal_lower30  486
    u[10]     primal_lower31  161
    u[10]     primal_lower32  360
    u[10]     primal_lower33  983
    u[10]     primal_lower34  284
    u[10]     primal_lower35  145
    u[10]     primal_lower36  581
    u[10]     primal_lower37  638
    u[10]     primal_lower38  526
    u[10]     primal_lower39  674
    u[10]     primal_lower40  634
    u[10]     primal_lower41  206
    u[10]     primal_lower42  654
    u[10]     primal_lower43  644
    u[10]     primal_lower44  980
    u[10]     primal_lower45  51
    u[10]     primal_lower46  433
    u[10]     primal_lower47  214
    u[10]     primal_lower48  888
    u[10]     primal_lower49  237
    u[10]     primal_lower50  676
    u[10]     primal_lower51  161
    u[10]     primal_lower52  257
    u[10]     primal_lower53  521
    u[10]     primal_lower54  714
    u[10]     primal_lower55  439
    u[10]     primal_lower56  422
    u[10]     primal_lower57  909
    u[10]     primal_lower58  456
    u[10]     primal_lower59  95
    u[10]     primal_lower60  684
    u[10]     primal_lower61  336
    u[10]     primal_lower62  818
    u[10]     primal_lower63  883
    u[10]     primal_lower64  240
    u[10]     primal_lower65  309
    u[10]     primal_lower66  898
    u[10]     primal_lower67  406
    u[10]     primal_lower68  509
    u[10]     primal_lower69  292
    u[10]     primal_lower70  472
    u[10]     primal_lower71  222
    u[10]     primal_lower72  353
    u[10]     primal_lower73  958
    u[10]     primal_lower74  657
    u[10]     primal_lower75  323
    u[10]     primal_lower76  564
    u[10]     primal_lower77  428
    u[10]     primal_lower78  41
    u[10]     primal_lower79  374
    u[10]     primal_lower80  397
    u[10]     primal_lower81  108
    u[10]     primal_lower82  889
    u[10]     primal_lower83  796
    u[10]     primal_lower84  862
    u[10]     primal_lower85  8
    u[10]     primal_lower86  871
    u[10]     primal_lower87  650
    u[10]     primal_lower88  209
    u[10]     primal_lower89  367
    u[10]     primal_lower90  630
    u[10]     primal_lower91  534
    u[10]     primal_lower92  492
    u[10]     primal_lower93  380
    u[10]     primal_lower94  363
    u[10]     primal_lower95  769
    u[10]     primal_lower96  129
    u[10]     primal_lower97  114
    u[10]     primal_lower98  36
    u[10]     primal_lower99  222
    u[10]     interdiction[10]  1
    u[10]     mccormick1[10]  -1
    u[10]     mccormick3[10]  1
    u[11]     primal_lower0  394
    u[11]     primal_lower1  442
    u[11]     primal_lower2  535
    u[11]     primal_lower3  885
    u[11]     primal_lower4  737
    u[11]     primal_lower5  480
    u[11]     primal_lower6  36
    u[11]     primal_lower7  167
    u[11]     primal_lower8  913
    u[11]     primal_lower9  505
    u[11]     primal_lower10  909
    u[11]     primal_lower11  638
    u[11]     primal_lower12  746
    u[11]     primal_lower13  987
    u[11]     primal_lower14  502
    u[11]     primal_lower15  554
    u[11]     primal_lower16  402
    u[11]     primal_lower17  868
    u[11]     primal_lower18  368
    u[11]     primal_lower19  616
    u[11]     primal_lower20  176
    u[11]     primal_lower21  721
    u[11]     primal_lower22  618
    u[11]     primal_lower23  144
    u[11]     primal_lower24  885
    u[11]     primal_lower25  800
    u[11]     primal_lower26  970
    u[11]     primal_lower27  135
    u[11]     primal_lower28  708
    u[11]     primal_lower29  516
    u[11]     primal_lower30  373
    u[11]     primal_lower31  325
    u[11]     primal_lower32  71
    u[11]     primal_lower33  163
    u[11]     primal_lower34  587
    u[11]     primal_lower35  909
    u[11]     primal_lower36  873
    u[11]     primal_lower37  645
    u[11]     primal_lower38  213
    u[11]     primal_lower39  833
    u[11]     primal_lower40  249
    u[11]     primal_lower41  749
    u[11]     primal_lower42  637
    u[11]     primal_lower43  80
    u[11]     primal_lower44  307
    u[11]     primal_lower45  327
    u[11]     primal_lower46  69
    u[11]     primal_lower47  813
    u[11]     primal_lower48  71
    u[11]     primal_lower49  817
    u[11]     primal_lower50  699
    u[11]     primal_lower51  397
    u[11]     primal_lower52  912
    u[11]     primal_lower53  405
    u[11]     primal_lower54  462
    u[11]     primal_lower55  691
    u[11]     primal_lower56  874
    u[11]     primal_lower57  68
    u[11]     primal_lower58  604
    u[11]     primal_lower59  486
    u[11]     primal_lower60  963
    u[11]     primal_lower61  623
    u[11]     primal_lower62  969
    u[11]     primal_lower63  194
    u[11]     primal_lower64  695
    u[11]     primal_lower65  865
    u[11]     primal_lower66  942
    u[11]     primal_lower67  797
    u[11]     primal_lower68  644
    u[11]     primal_lower69  851
    u[11]     primal_lower70  991
    u[11]     primal_lower71  597
    u[11]     primal_lower72  541
    u[11]     primal_lower73  21
    u[11]     primal_lower74  21
    u[11]     primal_lower75  954
    u[11]     primal_lower76  592
    u[11]     primal_lower77  448
    u[11]     primal_lower78  192
    u[11]     primal_lower79  861
    u[11]     primal_lower80  217
    u[11]     primal_lower81  587
    u[11]     primal_lower82  512
    u[11]     primal_lower83  811
    u[11]     primal_lower84  573
    u[11]     primal_lower85  663
    u[11]     primal_lower86  590
    u[11]     primal_lower87  217
    u[11]     primal_lower88  277
    u[11]     primal_lower89  550
    u[11]     primal_lower90  346
    u[11]     primal_lower91  413
    u[11]     primal_lower92  83
    u[11]     primal_lower93  104
    u[11]     primal_lower94  887
    u[11]     primal_lower95  453
    u[11]     primal_lower96  693
    u[11]     primal_lower97  358
    u[11]     primal_lower98  928
    u[11]     primal_lower99  730
    u[11]     interdiction[11]  1
    u[11]     mccormick1[11]  -1
    u[11]     mccormick3[11]  1
    u[12]     primal_lower0  415
    u[12]     primal_lower1  347
    u[12]     primal_lower2  732
    u[12]     primal_lower3  206
    u[12]     primal_lower4  538
    u[12]     primal_lower5  69
    u[12]     primal_lower6  993
    u[12]     primal_lower7  944
    u[12]     primal_lower8  422
    u[12]     primal_lower9  578
    u[12]     primal_lower10  210
    u[12]     primal_lower11  15
    u[12]     primal_lower12  99
    u[12]     primal_lower13  388
    u[12]     primal_lower14  847
    u[12]     primal_lower15  23
    u[12]     primal_lower16  475
    u[12]     primal_lower17  557
    u[12]     primal_lower18  209
    u[12]     primal_lower19  673
    u[12]     primal_lower20  821
    u[12]     primal_lower21  590
    u[12]     primal_lower22  759
    u[12]     primal_lower23  189
    u[12]     primal_lower24  470
    u[12]     primal_lower25  389
    u[12]     primal_lower26  739
    u[12]     primal_lower27  832
    u[12]     primal_lower28  261
    u[12]     primal_lower29  949
    u[12]     primal_lower30  878
    u[12]     primal_lower31  346
    u[12]     primal_lower32  656
    u[12]     primal_lower33  872
    u[12]     primal_lower34  628
    u[12]     primal_lower35  578
    u[12]     primal_lower36  734
    u[12]     primal_lower37  566
    u[12]     primal_lower38  758
    u[12]     primal_lower39  946
    u[12]     primal_lower40  170
    u[12]     primal_lower41  598
    u[12]     primal_lower42  838
    u[12]     primal_lower43  645
    u[12]     primal_lower44  548
    u[12]     primal_lower45  468
    u[12]     primal_lower46  930
    u[12]     primal_lower47  574
    u[12]     primal_lower48  848
    u[12]     primal_lower49  126
    u[12]     primal_lower50  508
    u[12]     primal_lower51  642
    u[12]     primal_lower52  161
    u[12]     primal_lower53  26
    u[12]     primal_lower54  195
    u[12]     primal_lower55  560
    u[12]     primal_lower56  703
    u[12]     primal_lower57  21
    u[12]     primal_lower58  353
    u[12]     primal_lower59  663
    u[12]     primal_lower60  956
    u[12]     primal_lower61  744
    u[12]     primal_lower62  202
    u[12]     primal_lower63  123
    u[12]     primal_lower64  416
    u[12]     primal_lower65  102
    u[12]     primal_lower66  979
    u[12]     primal_lower67  214
    u[12]     primal_lower68  445
    u[12]     primal_lower69  268
    u[12]     primal_lower70  64
    u[12]     primal_lower71  366
    u[12]     primal_lower72  482
    u[12]     primal_lower73  766
    u[12]     primal_lower74  66
    u[12]     primal_lower75  283
    u[12]     primal_lower76  885
    u[12]     primal_lower77  117
    u[12]     primal_lower78  481
    u[12]     primal_lower79  302
    u[12]     primal_lower80  894
    u[12]     primal_lower81  284
    u[12]     primal_lower82  433
    u[12]     primal_lower83  68
    u[12]     primal_lower84  286
    u[12]     primal_lower85  448
    u[12]     primal_lower86  495
    u[12]     primal_lower87  642
    u[12]     primal_lower88  610
    u[12]     primal_lower89  263
    u[12]     primal_lower90  631
    u[12]     primal_lower91  326
    u[12]     primal_lower92  692
    u[12]     primal_lower93  629
    u[12]     primal_lower94  324
    u[12]     primal_lower95  874
    u[12]     primal_lower96  754
    u[12]     primal_lower97  707
    u[12]     primal_lower98  317
    u[12]     primal_lower99  431
    u[12]     interdiction[12]  1
    u[12]     mccormick1[12]  -1
    u[12]     mccormick3[12]  1
    u[13]     primal_lower0  403
    u[13]     primal_lower1  811
    u[13]     primal_lower2  672
    u[13]     primal_lower3  310
    u[13]     primal_lower4  162
    u[13]     primal_lower5  777
    u[13]     primal_lower6  277
    u[13]     primal_lower7  536
    u[13]     primal_lower8  466
    u[13]     primal_lower9  282
    u[13]     primal_lower10  126
    u[13]     primal_lower11  431
    u[13]     primal_lower12  43
    u[13]     primal_lower13  772
    u[13]     primal_lower14  815
    u[13]     primal_lower15  819
    u[13]     primal_lower16  387
    u[13]     primal_lower17  949
    u[13]     primal_lower18  809
    u[13]     primal_lower19  185
    u[13]     primal_lower20  897
    u[13]     primal_lower21  874
    u[13]     primal_lower22  459
    u[13]     primal_lower23  641
    u[13]     primal_lower24  446
    u[13]     primal_lower25  801
    u[13]     primal_lower26  411
    u[13]     primal_lower27  376
    u[13]     primal_lower28  885
    u[13]     primal_lower29  389
    u[13]     primal_lower30  510
    u[13]     primal_lower31  406
    u[13]     primal_lower32  816
    u[13]     primal_lower33  964
    u[13]     primal_lower34  644
    u[13]     primal_lower35  502
    u[13]     primal_lower36  906
    u[13]     primal_lower37  534
    u[13]     primal_lower38  822
    u[13]     primal_lower39  834
    u[13]     primal_lower40  682
    u[13]     primal_lower41  806
    u[13]     primal_lower42  134
    u[13]     primal_lower43  401
    u[13]     primal_lower44  228
    u[13]     primal_lower45  600
    u[13]     primal_lower46  366
    u[13]     primal_lower47  926
    u[13]     primal_lower48  216
    u[13]     primal_lower49  778
    u[13]     primal_lower50  76
    u[13]     primal_lower51  846
    u[13]     primal_lower52  89
    u[13]     primal_lower53  462
    u[13]     primal_lower54  975
    u[13]     primal_lower55  700
    u[13]     primal_lower56  987
    u[13]     primal_lower57  885
    u[13]     primal_lower58  501
    u[13]     primal_lower59  255
    u[13]     primal_lower60  764
    u[13]     primal_lower61  528
    u[13]     primal_lower62  874
    u[13]     primal_lower63  83
    u[13]     primal_lower64  120
    u[13]     primal_lower65  562
    u[13]     primal_lower66  471
    u[13]     primal_lower67  846
    u[13]     primal_lower68  261
    u[13]     primal_lower69  332
    u[13]     primal_lower70  992
    u[13]     primal_lower71  350
    u[13]     primal_lower72  438
    u[13]     primal_lower73  262
    u[13]     primal_lower74  998
    u[13]     primal_lower75  939
    u[13]     primal_lower76  777
    u[13]     primal_lower77  585
    u[13]     primal_lower78  793
    u[13]     primal_lower79  982
    u[13]     primal_lower80  274
    u[13]     primal_lower81  524
    u[13]     primal_lower82  137
    u[13]     primal_lower83  308
    u[13]     primal_lower84  118
    u[13]     primal_lower85  712
    u[13]     primal_lower86  751
    u[13]     primal_lower87  594
    u[13]     primal_lower88  574
    u[13]     primal_lower89  919
    u[13]     primal_lower90  211
    u[13]     primal_lower91  926
    u[13]     primal_lower92  900
    u[13]     primal_lower93  905
    u[13]     primal_lower94  16
    u[13]     primal_lower95  710
    u[13]     primal_lower96  630
    u[13]     primal_lower97  599
    u[13]     primal_lower98  217
    u[13]     primal_lower99  707
    u[13]     interdiction[13]  1
    u[13]     mccormick1[13]  -1
    u[13]     mccormick3[13]  1
    u[14]     primal_lower0  399
    u[14]     primal_lower1  596
    u[14]     primal_lower2  252
    u[14]     primal_lower3  663
    u[14]     primal_lower4  723
    u[14]     primal_lower5  845
    u[14]     primal_lower6  401
    u[14]     primal_lower7  945
    u[14]     primal_lower8  566
    u[14]     primal_lower9  867
    u[14]     primal_lower10  370
    u[14]     primal_lower11  424
    u[14]     primal_lower12  124
    u[14]     primal_lower13  773
    u[14]     primal_lower14  512
    u[14]     primal_lower15  543
    u[14]     primal_lower16  876
    u[14]     primal_lower17  830
    u[14]     primal_lower18  474
    u[14]     primal_lower19  282
    u[14]     primal_lower20  941
    u[14]     primal_lower21  46
    u[14]     primal_lower22  535
    u[14]     primal_lower23  925
    u[14]     primal_lower24  159
    u[14]     primal_lower25  533
    u[14]     primal_lower26  748
    u[14]     primal_lower27  497
    u[14]     primal_lower28  502
    u[14]     primal_lower29  550
    u[14]     primal_lower30  503
    u[14]     primal_lower31  474
    u[14]     primal_lower32  625
    u[14]     primal_lower33  256
    u[14]     primal_lower34  285
    u[14]     primal_lower35  322
    u[14]     primal_lower36  918
    u[14]     primal_lower37  607
    u[14]     primal_lower38  935
    u[14]     primal_lower39  715
    u[14]     primal_lower40  363
    u[14]     primal_lower41  791
    u[14]     primal_lower42  927
    u[14]     primal_lower43  693
    u[14]     primal_lower44  269
    u[14]     primal_lower45  380
    u[14]     primal_lower46  442
    u[14]     primal_lower47  135
    u[14]     primal_lower48  577
    u[14]     primal_lower49  966
    u[14]     primal_lower50  13
    u[14]     primal_lower51  858
    u[14]     primal_lower52  370
    u[14]     primal_lower53  106
    u[14]     primal_lower54  107
    u[14]     primal_lower55  416
    u[14]     primal_lower56  607
    u[14]     primal_lower57  286
    u[14]     primal_lower58  153
    u[14]     primal_lower59  656
    u[14]     primal_lower60  341
    u[14]     primal_lower61  361
    u[14]     primal_lower62  35
    u[14]     primal_lower63  404
    u[14]     primal_lower64  169
    u[14]     primal_lower65  982
    u[14]     primal_lower66  795
    u[14]     primal_lower67  191
    u[14]     primal_lower68  246
    u[14]     primal_lower69  613
    u[14]     primal_lower70  401
    u[14]     primal_lower71  319
    u[14]     primal_lower72  362
    u[14]     primal_lower73  463
    u[14]     primal_lower74  114
    u[14]     primal_lower75  116
    u[14]     primal_lower76  445
    u[14]     primal_lower77  349
    u[14]     primal_lower78  738
    u[14]     primal_lower79  463
    u[14]     primal_lower80  686
    u[14]     primal_lower81  717
    u[14]     primal_lower82  66
    u[14]     primal_lower83  541
    u[14]     primal_lower84  31
    u[14]     primal_lower85  865
    u[14]     primal_lower86  368
    u[14]     primal_lower87  699
    u[14]     primal_lower88  482
    u[14]     primal_lower89  976
    u[14]     primal_lower90  143
    u[14]     primal_lower91  935
    u[14]     primal_lower92  709
    u[14]     primal_lower93  965
    u[14]     primal_lower94  724
    u[14]     primal_lower95  786
    u[14]     primal_lower96  58
    u[14]     primal_lower97  155
    u[14]     primal_lower98  205
    u[14]     primal_lower99  991
    u[14]     interdiction[14]  1
    u[14]     mccormick1[14]  -1
    u[14]     mccormick3[14]  1
    u[15]     primal_lower0  843
    u[15]     primal_lower1  460
    u[15]     primal_lower2  960
    u[15]     primal_lower3  391
    u[15]     primal_lower4  99
    u[15]     primal_lower5  209
    u[15]     primal_lower6  133
    u[15]     primal_lower7  977
    u[15]     primal_lower8  402
    u[15]     primal_lower9  691
    u[15]     primal_lower10  798
    u[15]     primal_lower11  328
    u[15]     primal_lower12  996
    u[15]     primal_lower13  781
    u[15]     primal_lower14  840
    u[15]     primal_lower15  939
    u[15]     primal_lower16  108
    u[15]     primal_lower17  750
    u[15]     primal_lower18  138
    u[15]     primal_lower19  898
    u[15]     primal_lower20  865
    u[15]     primal_lower21  730
    u[15]     primal_lower22  827
    u[15]     primal_lower23  377
    u[15]     primal_lower24  439
    u[15]     primal_lower25  721
    u[15]     primal_lower26  332
    u[15]     primal_lower27  945
    u[15]     primal_lower28  654
    u[15]     primal_lower29  438
    u[15]     primal_lower30  247
    u[15]     primal_lower31  718
    u[15]     primal_lower32  249
    u[15]     primal_lower33  188
    u[15]     primal_lower34  589
    u[15]     primal_lower35  758
    u[15]     primal_lower36  666
    u[15]     primal_lower37  927
    u[15]     primal_lower38  111
    u[15]     primal_lower39  819
    u[15]     primal_lower40  827
    u[15]     primal_lower41  895
    u[15]     primal_lower42  135
    u[15]     primal_lower43  689
    u[15]     primal_lower44  389
    u[15]     primal_lower45  760
    u[15]     primal_lower46  630
    u[15]     primal_lower47  175
    u[15]     primal_lower48  257
    u[15]     primal_lower49  234
    u[15]     primal_lower50  533
    u[15]     primal_lower51  262
    u[15]     primal_lower52  946
    u[15]     primal_lower53  958
    u[15]     primal_lower54  7
    u[15]     primal_lower55  820
    u[15]     primal_lower56  3
    u[15]     primal_lower57  118
    u[15]     primal_lower58  669
    u[15]     primal_lower59  120
    u[15]     primal_lower60  597
    u[15]     primal_lower61  169
    u[15]     primal_lower62  371
    u[15]     primal_lower63  844
    u[15]     primal_lower64  113
    u[15]     primal_lower65  162
    u[15]     primal_lower66  751
    u[15]     primal_lower67  279
    u[15]     primal_lower68  502
    u[15]     primal_lower69  653
    u[15]     primal_lower70  73
    u[15]     primal_lower71  87
    u[15]     primal_lower72  958
    u[15]     primal_lower73  527
    u[15]     primal_lower74  254
    u[15]     primal_lower75  932
    u[15]     primal_lower76  961
    u[15]     primal_lower77  89
    u[15]     primal_lower78  538
    u[15]     primal_lower79  103
    u[15]     primal_lower80  66
    u[15]     primal_lower81  85
    u[15]     primal_lower82  58
    u[15]     primal_lower83  877
    u[15]     primal_lower84  623
    u[15]     primal_lower85  945
    u[15]     primal_lower86  456
    u[15]     primal_lower87  667
    u[15]     primal_lower88  158
    u[15]     primal_lower89  776
    u[15]     primal_lower90  923
    u[15]     primal_lower91  615
    u[15]     primal_lower92  557
    u[15]     primal_lower93  433
    u[15]     primal_lower94  416
    u[15]     primal_lower95  70
    u[15]     primal_lower96  710
    u[15]     primal_lower97  175
    u[15]     primal_lower98  161
    u[15]     primal_lower99  715
    u[15]     interdiction[15]  1
    u[15]     mccormick1[15]  -1
    u[15]     mccormick3[15]  1
    u[16]     primal_lower0  64
    u[16]     primal_lower1  116
    u[16]     primal_lower2  709
    u[16]     primal_lower3  967
    u[16]     primal_lower4  987
    u[16]     primal_lower5  606
    u[16]     primal_lower6  82
    u[16]     primal_lower7  897
    u[16]     primal_lower8  815
    u[16]     primal_lower9  475
    u[16]     primal_lower10  283
    u[16]     primal_lower11  736
    u[16]     primal_lower12  428
    u[16]     primal_lower13  117
    u[16]     primal_lower14  768
    u[16]     primal_lower15  136
    u[16]     primal_lower16  484
    u[16]     primal_lower17  182
    u[16]     primal_lower18  170
    u[16]     primal_lower19  554
    u[16]     primal_lower20  422
    u[16]     primal_lower21  79
    u[16]     primal_lower22  992
    u[16]     primal_lower23  518
    u[16]     primal_lower24  535
    u[16]     primal_lower25  638
    u[16]     primal_lower26  332
    u[16]     primal_lower27  273
    u[16]     primal_lower28  238
    u[16]     primal_lower29  590
    u[16]     primal_lower30  455
    u[16]     primal_lower31  971
    u[16]     primal_lower32  289
    u[16]     primal_lower33  993
    u[16]     primal_lower34  877
    u[16]     primal_lower35  219
    u[16]     primal_lower36  783
    u[16]     primal_lower37  599
    u[16]     primal_lower38  255
    u[16]     primal_lower39  155
    u[16]     primal_lower40  667
    u[16]     primal_lower41  831
    u[16]     primal_lower42  367
    u[16]     primal_lower43  230
    u[16]     primal_lower44  221
    u[16]     primal_lower45  965
    u[16]     primal_lower46  203
    u[16]     primal_lower47  663
    u[16]     primal_lower48  665
    u[16]     primal_lower49  727
    u[16]     primal_lower50  901
    u[16]     primal_lower51  795
    u[16]     primal_lower52  106
    u[16]     primal_lower53  635
    u[16]     primal_lower54  188
    u[16]     primal_lower55  705
    u[16]     primal_lower56  520
    u[16]     primal_lower57  694
    u[16]     primal_lower58  522
    u[16]     primal_lower59  504
    u[16]     primal_lower60  205
    u[16]     primal_lower61  25
    u[16]     primal_lower62  427
    u[16]     primal_lower63  436
    u[16]     primal_lower64  73
    u[16]     primal_lower65  7
    u[16]     primal_lower66  620
    u[16]     primal_lower67  135
    u[16]     primal_lower68  38
    u[16]     primal_lower69  181
    u[16]     primal_lower70  929
    u[16]     primal_lower71  15
    u[16]     primal_lower72  619
    u[16]     primal_lower73  215
    u[16]     primal_lower74  339
    u[16]     primal_lower75  20
    u[16]     primal_lower76  630
    u[16]     primal_lower77  286
    u[16]     primal_lower78  546
    u[16]     primal_lower79  815
    u[16]     primal_lower80  15
    u[16]     primal_lower81  157
    u[16]     primal_lower82  82
    u[16]     primal_lower83  213
    u[16]     primal_lower84  407
    u[16]     primal_lower85  121
    u[16]     primal_lower86  256
    u[16]     primal_lower87  219
    u[16]     primal_lower88  339
    u[16]     primal_lower89  360
    u[16]     primal_lower90  352
    u[16]     primal_lower91  31
    u[16]     primal_lower92  165
    u[16]     primal_lower93  534
    u[16]     primal_lower94  669
    u[16]     primal_lower95  683
    u[16]     primal_lower96  699
    u[16]     primal_lower97  156
    u[16]     primal_lower98  110
    u[16]     primal_lower99  152
    u[16]     interdiction[16]  1
    u[16]     mccormick1[16]  -1
    u[16]     mccormick3[16]  1
    u[17]     primal_lower0  487
    u[17]     primal_lower1  71
    u[17]     primal_lower2  44
    u[17]     primal_lower3  954
    u[17]     primal_lower4  166
    u[17]     primal_lower5  149
    u[17]     primal_lower6  505
    u[17]     primal_lower7  92
    u[17]     primal_lower8  718
    u[17]     primal_lower9  286
    u[17]     primal_lower10  666
    u[17]     primal_lower11  939
    u[17]     primal_lower12  607
    u[17]     primal_lower13  208
    u[17]     primal_lower14  747
    u[17]     primal_lower15  615
    u[17]     primal_lower16  855
    u[17]     primal_lower17  905
    u[17]     primal_lower18  461
    u[17]     primal_lower19  565
    u[17]     primal_lower20  5
    u[17]     primal_lower21  350
    u[17]     primal_lower22  191
    u[17]     primal_lower23  493
    u[17]     primal_lower24  890
    u[17]     primal_lower25  949
    u[17]     primal_lower26  159
    u[17]     primal_lower27  676
    u[17]     primal_lower28  361
    u[17]     primal_lower29  89
    u[17]     primal_lower30  802
    u[17]     primal_lower31  138
    u[17]     primal_lower32  988
    u[17]     primal_lower33  840
    u[17]     primal_lower34  256
    u[17]     primal_lower35  266
    u[17]     primal_lower36  510
    u[17]     primal_lower37  66
    u[17]     primal_lower38  50
    u[17]     primal_lower39  430
    u[17]     primal_lower40  430
    u[17]     primal_lower41  858
    u[17]     primal_lower42  466
    u[17]     primal_lower43  533
    u[17]     primal_lower44  464
    u[17]     primal_lower45  84
    u[17]     primal_lower46  810
    u[17]     primal_lower47  74
    u[17]     primal_lower48  412
    u[17]     primal_lower49  262
    u[17]     primal_lower50  616
    u[17]     primal_lower51  874
    u[17]     primal_lower52  773
    u[17]     primal_lower53  242
    u[17]     primal_lower54  867
    u[17]     primal_lower55  880
    u[17]     primal_lower56  159
    u[17]     primal_lower57  945
    u[17]     primal_lower58  617
    u[17]     primal_lower59  459
    u[17]     primal_lower60  536
    u[17]     primal_lower61  668
    u[17]     primal_lower62  78
    u[17]     primal_lower63  247
    u[17]     primal_lower64  356
    u[17]     primal_lower65  30
    u[17]     primal_lower66  651
    u[17]     primal_lower67  306
    u[17]     primal_lower68  801
    u[17]     primal_lower69  176
    u[17]     primal_lower70  340
    u[17]     primal_lower71  858
    u[17]     primal_lower72  842
    u[17]     primal_lower73  522
    u[17]     primal_lower74  482
    u[17]     primal_lower75  775
    u[17]     primal_lower76  37
    u[17]     primal_lower77  701
    u[17]     primal_lower78  205
    u[17]     primal_lower79  538
    u[17]     primal_lower80  990
    u[17]     primal_lower81  336
    u[17]     primal_lower82  733
    u[17]     primal_lower83  344
    u[17]     primal_lower84  154
    u[17]     primal_lower85  84
    u[17]     primal_lower86  899
    u[17]     primal_lower87  886
    u[17]     primal_lower88  322
    u[17]     primal_lower89  243
    u[17]     primal_lower90  335
    u[17]     primal_lower91  58
    u[17]     primal_lower92  136
    u[17]     primal_lower93  741
    u[17]     primal_lower94  228
    u[17]     primal_lower95  498
    u[17]     primal_lower96  338
    u[17]     primal_lower97  347
    u[17]     primal_lower98  37
    u[17]     primal_lower99  935
    u[17]     interdiction[17]  1
    u[17]     mccormick1[17]  -1
    u[17]     mccormick3[17]  1
    u[18]     primal_lower0  28
    u[18]     primal_lower1  336
    u[18]     primal_lower2  721
    u[18]     primal_lower3  859
    u[18]     primal_lower4  607
    u[18]     primal_lower5  634
    u[18]     primal_lower6  806
    u[18]     primal_lower7  821
    u[18]     primal_lower8  883
    u[18]     primal_lower9  935
    u[18]     primal_lower10  679
    u[18]     primal_lower11  740
    u[18]     primal_lower12  72
    u[18]     primal_lower13  665
    u[18]     primal_lower14  444
    u[18]     primal_lower15  132
    u[18]     primal_lower16  968
    u[18]     primal_lower17  906
    u[18]     primal_lower18  894
    u[18]     primal_lower19  726
    u[18]     primal_lower20  890
    u[18]     primal_lower21  843
    u[18]     primal_lower22  412
    u[18]     primal_lower23  410
    u[18]     primal_lower24  179
    u[18]     primal_lower25  258
    u[18]     primal_lower26  712
    u[18]     primal_lower27  125
    u[18]     primal_lower28  794
    u[18]     primal_lower29  730
    u[18]     primal_lower30  147
    u[18]     primal_lower31  487
    u[18]     primal_lower32  437
    u[18]     primal_lower33  293
    u[18]     primal_lower34  513
    u[18]     primal_lower35  535
    u[18]     primal_lower36  851
    u[18]     primal_lower37  891
    u[18]     primal_lower38  891
    u[18]     primal_lower39  407
    u[18]     primal_lower40  487
    u[18]     primal_lower41  875
    u[18]     primal_lower42  315
    u[18]     primal_lower43  706
    u[18]     primal_lower44  921
    u[18]     primal_lower45  809
    u[18]     primal_lower46  215
    u[18]     primal_lower47  739
    u[18]     primal_lower48  205
    u[18]     primal_lower49  795
    u[18]     primal_lower50  681
    u[18]     primal_lower51  383
    u[18]     primal_lower52  190
    u[18]     primal_lower53  335
    u[18]     primal_lower54  552
    u[18]     primal_lower55  133
    u[18]     primal_lower56  556
    u[18]     primal_lower57  306
    u[18]     primal_lower58  838
    u[18]     primal_lower59  172
    u[18]     primal_lower60  961
    u[18]     primal_lower61  925
    u[18]     primal_lower62  95
    u[18]     primal_lower63  856
    u[18]     primal_lower64  573
    u[18]     primal_lower65  491
    u[18]     primal_lower66  248
    u[18]     primal_lower67  731
    u[18]     primal_lower68  138
    u[18]     primal_lower69  793
    u[18]     primal_lower70  173
    u[18]     primal_lower71  475
    u[18]     primal_lower72  7
    u[18]     primal_lower73  907
    u[18]     primal_lower74  719
    u[18]     primal_lower75  224
    u[18]     primal_lower76  26
    u[18]     primal_lower77  74
    u[18]     primal_lower78  366
    u[18]     primal_lower79  27
    u[18]     primal_lower80  419
    u[18]     primal_lower81  817
    u[18]     primal_lower82  358
    u[18]     primal_lower83  609
    u[18]     primal_lower84  715
    u[18]     primal_lower85  293
    u[18]     primal_lower86  452
    u[18]     primal_lower87  191
    u[18]     primal_lower88  303
    u[18]     primal_lower89  124
    u[18]     primal_lower90  908
    u[18]     primal_lower91  667
    u[18]     primal_lower92  577
    u[18]     primal_lower93  106
    u[18]     primal_lower94  985
    u[18]     primal_lower95  527
    u[18]     primal_lower96  7
    u[18]     primal_lower97  160
    u[18]     primal_lower98  946
    u[18]     primal_lower99  580
    u[18]     interdiction[18]  1
    u[18]     mccormick1[18]  -1
    u[18]     mccormick3[18]  1
    u[19]     primal_lower0  653
    u[19]     primal_lower1  765
    u[19]     primal_lower2  242
    u[19]     primal_lower3  416
    u[19]     primal_lower4  276
    u[19]     primal_lower5  995
    u[19]     primal_lower6  135
    u[19]     primal_lower7  922
    u[19]     primal_lower8  812
    u[19]     primal_lower9  620
    u[19]     primal_lower10  928
    u[19]     primal_lower11  585
    u[19]     primal_lower12  613
    u[19]     primal_lower13  982
    u[19]     primal_lower14  825
    u[19]     primal_lower15  29
    u[19]     primal_lower16  205
    u[19]     primal_lower17  703
    u[19]     primal_lower18  187
    u[19]     primal_lower19  859
    u[19]     primal_lower20  163
    u[19]     primal_lower21  412
    u[19]     primal_lower22  117
    u[19]     primal_lower23  403
    u[19]     primal_lower24  928
    u[19]     primal_lower25  731
    u[19]     primal_lower26  269
    u[19]     primal_lower27  930
    u[19]     primal_lower28  343
    u[19]     primal_lower29  903
    u[19]     primal_lower30  208
    u[19]     primal_lower31  360
    u[19]     primal_lower32  850
    u[19]     primal_lower33  254
    u[19]     primal_lower34  670
    u[19]     primal_lower35  1000
    u[19]     primal_lower36  356
    u[19]     primal_lower37  776
    u[19]     primal_lower38  112
    u[19]     primal_lower39  580
    u[19]     primal_lower40  452
    u[19]     primal_lower41  936
    u[19]     primal_lower42  40
    u[19]     primal_lower43  907
    u[19]     primal_lower44  758
    u[19]     primal_lower45  322
    u[19]     primal_lower46  336
    u[19]     primal_lower47  968
    u[19]     primal_lower48  442
    u[19]     primal_lower49  460
    u[19]     primal_lower50  990
    u[19]     primal_lower51  584
    u[19]     primal_lower52  683
    u[19]     primal_lower53  648
    u[19]     primal_lower54  25
    u[19]     primal_lower55  254
    u[19]     primal_lower56  573
    u[19]     primal_lower57  967
    u[19]     primal_lower58  495
    u[19]     primal_lower59  297
    u[19]     primal_lower60  334
    u[19]     primal_lower61  434
    u[19]     primal_lower62  164
    u[19]     primal_lower63  461
    u[19]     primal_lower64  202
    u[19]     primal_lower65  492
    u[19]     primal_lower66  913
    u[19]     primal_lower67  752
    u[19]     primal_lower68  287
    u[19]     primal_lower69  14
    u[19]     primal_lower70  578
    u[19]     primal_lower71  168
    u[19]     primal_lower72  432
    u[19]     primal_lower73  968
    u[19]     primal_lower74  120
    u[19]     primal_lower75  757
    u[19]     primal_lower76  291
    u[19]     primal_lower77  939
    u[19]     primal_lower78  539
    u[19]     primal_lower79  8
    u[19]     primal_lower80  836
    u[19]     primal_lower81  382
    u[19]     primal_lower82  51
    u[19]     primal_lower83  838
    u[19]     primal_lower84  72
    u[19]     primal_lower85  626
    u[19]     primal_lower86  793
    u[19]     primal_lower87  460
    u[19]     primal_lower88  40
    u[19]     primal_lower89  441
    u[19]     primal_lower90  405
    u[19]     primal_lower91  952
    u[19]     primal_lower92  382
    u[19]     primal_lower93  283
    u[19]     primal_lower94  522
    u[19]     primal_lower95  784
    u[19]     primal_lower96  944
    u[19]     primal_lower97  817
    u[19]     primal_lower98  419
    u[19]     primal_lower99  189
    u[19]     interdiction[19]  1
    u[19]     mccormick1[19]  -1
    u[19]     mccormick3[19]  1
    u[20]     primal_lower0  320
    u[20]     primal_lower1  372
    u[20]     primal_lower2  189
    u[20]     primal_lower3  759
    u[20]     primal_lower4  587
    u[20]     primal_lower5  670
    u[20]     primal_lower6  194
    u[20]     primal_lower7  449
    u[20]     primal_lower8  615
    u[20]     primal_lower9  331
    u[20]     primal_lower10  683
    u[20]     primal_lower11  168
    u[20]     primal_lower12  868
    u[20]     primal_lower13  893
    u[20]     primal_lower14  328
    u[20]     primal_lower15  152
    u[20]     primal_lower16  196
    u[20]     primal_lower17  478
    u[20]     primal_lower18  298
    u[20]     primal_lower19  770
    u[20]     primal_lower20  958
    u[20]     primal_lower21  239
    u[20]     primal_lower22  488
    u[20]     primal_lower23  230
    u[20]     primal_lower24  591
    u[20]     primal_lower25  142
    u[20]     primal_lower26  420
    u[20]     primal_lower27  665
    u[20]     primal_lower28  238
    u[20]     primal_lower29  614
    u[20]     primal_lower30  111
    u[20]     primal_lower31  875
    u[20]     primal_lower32  817
    u[20]     primal_lower33  105
    u[20]     primal_lower34  693
    u[20]     primal_lower35  291
    u[20]     primal_lower36  631
    u[20]     primal_lower37  351
    u[20]     primal_lower38  479
    u[20]     primal_lower39  267
    u[20]     primal_lower40  875
    u[20]     primal_lower41  295
    u[20]     primal_lower42  655
    u[20]     primal_lower43  630
    u[20]     primal_lower44  813
    u[20]     primal_lower45  661
    u[20]     primal_lower46  467
    u[20]     primal_lower47  999
    u[20]     primal_lower48  553
    u[20]     primal_lower49  999
    u[20]     primal_lower50  189
    u[20]     primal_lower51  475
    u[20]     primal_lower52  498
    u[20]     primal_lower53  131
    u[20]     primal_lower54  156
    u[20]     primal_lower55  617
    u[20]     primal_lower56  16
    u[20]     primal_lower57  214
    u[20]     primal_lower58  786
    u[20]     primal_lower59  72
    u[20]     primal_lower60  965
    u[20]     primal_lower61  737
    u[20]     primal_lower62  491
    u[20]     primal_lower63  476
    u[20]     primal_lower64  737
    u[20]     primal_lower65  271
    u[20]     primal_lower66  492
    u[20]     primal_lower67  103
    u[20]     primal_lower68  662
    u[20]     primal_lower69  469
    u[20]     primal_lower70  945
    u[20]     primal_lower71  519
    u[20]     primal_lower72  451
    u[20]     primal_lower73  623
    u[20]     primal_lower74  499
    u[20]     primal_lower75  156
    u[20]     primal_lower76  86
    u[20]     primal_lower77  174
    u[20]     primal_lower78  938
    u[20]     primal_lower79  951
    u[20]     primal_lower80  727
    u[20]     primal_lower81  813
    u[20]     primal_lower82  850
    u[20]     primal_lower83  685
    u[20]     primal_lower84  71
    u[20]     primal_lower85  305
    u[20]     primal_lower86  840
    u[20]     primal_lower87  691
    u[20]     primal_lower88  131
    u[20]     primal_lower89  232
    u[20]     primal_lower90  592
    u[20]     primal_lower91  759
    u[20]     primal_lower92  845
    u[20]     primal_lower93  870
    u[20]     primal_lower94  925
    u[20]     primal_lower95  371
    u[20]     primal_lower96  499
    u[20]     primal_lower97  268
    u[20]     primal_lower98  646
    u[20]     primal_lower99  744
    u[20]     interdiction[20]  1
    u[20]     mccormick1[20]  -1
    u[20]     mccormick3[20]  1
    u[21]     primal_lower0  502
    u[21]     primal_lower1  503
    u[21]     primal_lower2  923
    u[21]     primal_lower3  98
    u[21]     primal_lower4  222
    u[21]     primal_lower5  308
    u[21]     primal_lower6  304
    u[21]     primal_lower7  308
    u[21]     primal_lower8  301
    u[21]     primal_lower9  182
    u[21]     primal_lower10  353
    u[21]     primal_lower11  619
    u[21]     primal_lower12  735
    u[21]     primal_lower13  256
    u[21]     primal_lower14  43
    u[21]     primal_lower15  214
    u[21]     primal_lower16  783
    u[21]     primal_lower17  377
    u[21]     primal_lower18  125
    u[21]     primal_lower19  765
    u[21]     primal_lower20  804
    u[21]     primal_lower21  549
    u[21]     primal_lower22  958
    u[21]     primal_lower23  996
    u[21]     primal_lower24  578
    u[21]     primal_lower25  492
    u[21]     primal_lower26  535
    u[21]     primal_lower27  452
    u[21]     primal_lower28  393
    u[21]     primal_lower29  785
    u[21]     primal_lower30  610
    u[21]     primal_lower31  649
    u[21]     primal_lower32  764
    u[21]     primal_lower33  295
    u[21]     primal_lower34  616
    u[21]     primal_lower35  713
    u[21]     primal_lower36  957
    u[21]     primal_lower37  202
    u[21]     primal_lower38  178
    u[21]     primal_lower39  790
    u[21]     primal_lower40  206
    u[21]     primal_lower41  466
    u[21]     primal_lower42  618
    u[21]     primal_lower43  148
    u[21]     primal_lower44  320
    u[21]     primal_lower45  467
    u[21]     primal_lower46  249
    u[21]     primal_lower47  730
    u[21]     primal_lower48  660
    u[21]     primal_lower49  645
    u[21]     primal_lower50  296
    u[21]     primal_lower51  345
    u[21]     primal_lower52  117
    u[21]     primal_lower53  937
    u[21]     primal_lower54  754
    u[21]     primal_lower55  711
    u[21]     primal_lower56  422
    u[21]     primal_lower57  665
    u[21]     primal_lower58  408
    u[21]     primal_lower59  283
    u[21]     primal_lower60  272
    u[21]     primal_lower61  988
    u[21]     primal_lower62  798
    u[21]     primal_lower63  87
    u[21]     primal_lower64  348
    u[21]     primal_lower65  229
    u[21]     primal_lower66  170
    u[21]     primal_lower67  922
    u[21]     primal_lower68  641
    u[21]     primal_lower69  592
    u[21]     primal_lower70  716
    u[21]     primal_lower71  818
    u[21]     primal_lower72  977
    u[21]     primal_lower73  602
    u[21]     primal_lower74  553
    u[21]     primal_lower75  183
    u[21]     primal_lower76  204
    u[21]     primal_lower77  468
    u[21]     primal_lower78  125
    u[21]     primal_lower79  178
    u[21]     primal_lower80  293
    u[21]     primal_lower81  128
    u[21]     primal_lower82  341
    u[21]     primal_lower83  528
    u[21]     primal_lower84  850
    u[21]     primal_lower85  972
    u[21]     primal_lower86  435
    u[21]     primal_lower87  862
    u[21]     primal_lower88  897
    u[21]     primal_lower89  467
    u[21]     primal_lower90  814
    u[21]     primal_lower91  122
    u[21]     primal_lower92  144
    u[21]     primal_lower93  884
    u[21]     primal_lower94  979
    u[21]     primal_lower95  385
    u[21]     primal_lower96  305
    u[21]     primal_lower97  90
    u[21]     primal_lower98  460
    u[21]     primal_lower99  182
    u[21]     interdiction[21]  1
    u[21]     mccormick1[21]  -1
    u[21]     mccormick3[21]  1
    u[22]     primal_lower0  295
    u[22]     primal_lower1  435
    u[22]     primal_lower2  772
    u[22]     primal_lower3  782
    u[22]     primal_lower4  578
    u[22]     primal_lower5  821
    u[22]     primal_lower6  481
    u[22]     primal_lower7  248
    u[22]     primal_lower8  982
    u[22]     primal_lower9  738
    u[22]     primal_lower10  58
    u[22]     primal_lower11  15
    u[22]     primal_lower12  627
    u[22]     primal_lower13  268
    u[22]     primal_lower14  967
    u[22]     primal_lower15  863
    u[22]     primal_lower16  523
    u[22]     primal_lower17  453
    u[22]     primal_lower18  529
    u[22]     primal_lower19  113
    u[22]     primal_lower20  669
    u[22]     primal_lower21  958
    u[22]     primal_lower22  39
    u[22]     primal_lower23  549
    u[22]     primal_lower24  382
    u[22]     primal_lower25  525
    u[22]     primal_lower26  939
    u[22]     primal_lower27  56
    u[22]     primal_lower28  925
    u[22]     primal_lower29  829
    u[22]     primal_lower30  134
    u[22]     primal_lower31  522
    u[22]     primal_lower32  496
    u[22]     primal_lower33  336
    u[22]     primal_lower34  700
    u[22]     primal_lower35  978
    u[22]     primal_lower36  934
    u[22]     primal_lower37  766
    u[22]     primal_lower38  526
    u[22]     primal_lower39  426
    u[22]     primal_lower40  186
    u[22]     primal_lower41  654
    u[22]     primal_lower42  766
    u[22]     primal_lower43  317
    u[22]     primal_lower44  828
    u[22]     primal_lower45  412
    u[22]     primal_lower46  82
    u[22]     primal_lower47  518
    u[22]     primal_lower48  248
    u[22]     primal_lower49  286
    u[22]     primal_lower50  684
    u[22]     primal_lower51  722
    u[22]     primal_lower52  353
    u[22]     primal_lower53  18
    u[22]     primal_lower54  611
    u[22]     primal_lower55  856
    u[22]     primal_lower56  351
    u[22]     primal_lower57  349
    u[22]     primal_lower58  273
    u[22]     primal_lower59  207
    u[22]     primal_lower60  332
    u[22]     primal_lower61  848
    u[22]     primal_lower62  906
    u[22]     primal_lower63  731
    u[22]     primal_lower64  104
    u[22]     primal_lower65  254
    u[22]     primal_lower66  627
    u[22]     primal_lower67  590
    u[22]     primal_lower68  205
    u[22]     primal_lower69  156
    u[22]     primal_lower70  432
    u[22]     primal_lower71  438
    u[22]     primal_lower72  946
    u[22]     primal_lower73  414
    u[22]     primal_lower74  514
    u[22]     primal_lower75  635
    u[22]     primal_lower76  533
    u[22]     primal_lower77  717
    u[22]     primal_lower78  721
    u[22]     primal_lower79  910
    u[22]     primal_lower80  742
    u[22]     primal_lower81  748
    u[22]     primal_lower82  753
    u[22]     primal_lower83  876
    u[22]     primal_lower84  398
    u[22]     primal_lower85  168
    u[22]     primal_lower86  151
    u[22]     primal_lower87  578
    u[22]     primal_lower88  994
    u[22]     primal_lower89  263
    u[22]     primal_lower90  271
    u[22]     primal_lower91  742
    u[22]     primal_lower92  44
    u[22]     primal_lower93  733
    u[22]     primal_lower94  564
    u[22]     primal_lower95  754
    u[22]     primal_lower96  402
    u[22]     primal_lower97  619
    u[22]     primal_lower98  285
    u[22]     primal_lower99  687
    u[22]     interdiction[22]  1
    u[22]     mccormick1[22]  -1
    u[22]     mccormick3[22]  1
    u[23]     primal_lower0  645
    u[23]     primal_lower1  462
    u[23]     primal_lower2  618
    u[23]     primal_lower3  897
    u[23]     primal_lower4  13
    u[23]     primal_lower5  475
    u[23]     primal_lower6  607
    u[23]     primal_lower7  987
    u[23]     primal_lower8  940
    u[23]     primal_lower9  381
    u[23]     primal_lower10  40
    u[23]     primal_lower11  290
    u[23]     primal_lower12  542
    u[23]     primal_lower13  959
    u[23]     primal_lower14  650
    u[23]     primal_lower15  21
    u[23]     primal_lower16  110
    u[23]     primal_lower17  424
    u[23]     primal_lower18  108
    u[23]     primal_lower19  900
    u[23]     primal_lower20  875
    u[23]     primal_lower21  868
    u[23]     primal_lower22  861
    u[23]     primal_lower23  699
    u[23]     primal_lower24  209
    u[23]     primal_lower25  995
    u[23]     primal_lower26  486
    u[23]     primal_lower27  979
    u[23]     primal_lower28  336
    u[23]     primal_lower29  624
    u[23]     primal_lower30  33
    u[23]     primal_lower31  352
    u[23]     primal_lower32  475
    u[23]     primal_lower33  750
    u[23]     primal_lower34  95
    u[23]     primal_lower35  504
    u[23]     primal_lower36  236
    u[23]     primal_lower37  233
    u[23]     primal_lower38  217
    u[23]     primal_lower39  893
    u[23]     primal_lower40  245
    u[23]     primal_lower41  65
    u[23]     primal_lower42  65
    u[23]     primal_lower43  971
    u[23]     primal_lower44  583
    u[23]     primal_lower45  354
    u[23]     primal_lower46  912
    u[23]     primal_lower47  457
    u[23]     primal_lower48  395
    u[23]     primal_lower49  892
    u[23]     primal_lower50  463
    u[23]     primal_lower51  240
    u[23]     primal_lower52  612
    u[23]     primal_lower53  208
    u[23]     primal_lower54  457
    u[23]     primal_lower55  414
    u[23]     primal_lower56  5
    u[23]     primal_lower57  936
    u[23]     primal_lower58  943
    u[23]     primal_lower59  122
    u[23]     primal_lower60  671
    u[23]     primal_lower61  435
    u[23]     primal_lower62  149
    u[23]     primal_lower63  422
    u[23]     primal_lower64  515
    u[23]     primal_lower65  604
    u[23]     primal_lower66  993
    u[23]     primal_lower67  233
    u[23]     primal_lower68  992
    u[23]     primal_lower69  303
    u[23]     primal_lower70  235
    u[23]     primal_lower71  273
    u[23]     primal_lower72  144
    u[23]     primal_lower73  329
    u[23]     primal_lower74  1000
    u[23]     primal_lower75  302
    u[23]     primal_lower76  411
    u[23]     primal_lower77  475
    u[23]     primal_lower78  60
    u[23]     primal_lower79  313
    u[23]     primal_lower80  404
    u[23]     primal_lower81  279
    u[23]     primal_lower82  356
    u[23]     primal_lower83  351
    u[23]     primal_lower84  801
    u[23]     primal_lower85  867
    u[23]     primal_lower86  418
    u[23]     primal_lower87  373
    u[23]     primal_lower88  152
    u[23]     primal_lower89  946
    u[23]     primal_lower90  45
    u[23]     primal_lower91  417
    u[23]     primal_lower92  119
    u[23]     primal_lower93  59
    u[23]     primal_lower94  962
    u[23]     primal_lower95  16
    u[23]     primal_lower96  808
    u[23]     primal_lower97  977
    u[23]     primal_lower98  795
    u[23]     primal_lower99  245
    u[23]     interdiction[23]  1
    u[23]     mccormick1[23]  -1
    u[23]     mccormick3[23]  1
    u[24]     primal_lower0  887
    u[24]     primal_lower1  308
    u[24]     primal_lower2  196
    u[24]     primal_lower3  319
    u[24]     primal_lower4  443
    u[24]     primal_lower5  733
    u[24]     primal_lower6  33
    u[24]     primal_lower7  585
    u[24]     primal_lower8  126
    u[24]     primal_lower9  11
    u[24]     primal_lower10  34
    u[24]     primal_lower11  696
    u[24]     primal_lower12  116
    u[24]     primal_lower13  773
    u[24]     primal_lower14  968
    u[24]     primal_lower15  183
    u[24]     primal_lower16  292
    u[24]     primal_lower17  246
    u[24]     primal_lower18  74
    u[24]     primal_lower19  314
    u[24]     primal_lower20  693
    u[24]     primal_lower21  518
    u[24]     primal_lower22  455
    u[24]     primal_lower23  581
    u[24]     primal_lower24  935
    u[24]     primal_lower25  573
    u[24]     primal_lower26  700
    u[24]     primal_lower27  633
    u[24]     primal_lower28  718
    u[24]     primal_lower29  462
    u[24]     primal_lower30  687
    u[24]     primal_lower31  274
    u[24]     primal_lower32  649
    u[24]     primal_lower33  256
    u[24]     primal_lower34  869
    u[24]     primal_lower35  218
    u[24]     primal_lower36  822
    u[24]     primal_lower37  271
    u[24]     primal_lower38  343
    u[24]     primal_lower39  59
    u[24]     primal_lower40  539
    u[24]     primal_lower41  543
    u[24]     primal_lower42  623
    u[24]     primal_lower43  205
    u[24]     primal_lower44  421
    u[24]     primal_lower45  628
    u[24]     primal_lower46  690
    u[24]     primal_lower47  415
    u[24]     primal_lower48  737
    u[24]     primal_lower49  398
    u[24]     primal_lower50  277
    u[24]     primal_lower51  994
    u[24]     primal_lower52  218
    u[24]     primal_lower53  66
    u[24]     primal_lower54  859
    u[24]     primal_lower55  320
    u[24]     primal_lower56  991
    u[24]     primal_lower57  830
    u[24]     primal_lower58  985
    u[24]     primal_lower59  528
    u[24]     primal_lower60  845
    u[24]     primal_lower61  921
    u[24]     primal_lower62  539
    u[24]     primal_lower63  972
    u[24]     primal_lower64  617
    u[24]     primal_lower65  38
    u[24]     primal_lower66  619
    u[24]     primal_lower67  111
    u[24]     primal_lower68  806
    u[24]     primal_lower69  437
    u[24]     primal_lower70  609
    u[24]     primal_lower71  295
    u[24]     primal_lower72  866
    u[24]     primal_lower73  455
    u[24]     primal_lower74  306
    u[24]     primal_lower75  44
    u[24]     primal_lower76  85
    u[24]     primal_lower77  61
    u[24]     primal_lower78  266
    u[24]     primal_lower79  535
    u[24]     primal_lower80  990
    u[24]     primal_lower81  805
    u[24]     primal_lower82  714
    u[24]     primal_lower83  85
    u[24]     primal_lower84  647
    u[24]     primal_lower85  849
    u[24]     primal_lower86  8
    u[24]     primal_lower87  763
    u[24]     primal_lower88  362
    u[24]     primal_lower89  408
    u[24]     primal_lower90  143
    u[24]     primal_lower91  71
    u[24]     primal_lower92  613
    u[24]     primal_lower93  821
    u[24]     primal_lower94  268
    u[24]     primal_lower95  426
    u[24]     primal_lower96  394
    u[24]     primal_lower97  635
    u[24]     primal_lower98  925
    u[24]     primal_lower99  431
    u[24]     interdiction[24]  1
    u[24]     mccormick1[24]  -1
    u[24]     mccormick3[24]  1
    u[25]     primal_lower0  679
    u[25]     primal_lower1  471
    u[25]     primal_lower2  676
    u[25]     primal_lower3  994
    u[25]     primal_lower4  750
    u[25]     primal_lower5  933
    u[25]     primal_lower6  913
    u[25]     primal_lower7  852
    u[25]     primal_lower8  414
    u[25]     primal_lower9  550
    u[25]     primal_lower10  362
    u[25]     primal_lower11  11
    u[25]     primal_lower12  999
    u[25]     primal_lower13  408
    u[25]     primal_lower14  259
    u[25]     primal_lower15  87
    u[25]     primal_lower16  295
    u[25]     primal_lower17  929
    u[25]     primal_lower18  989
    u[25]     primal_lower19  781
    u[25]     primal_lower20  605
    u[25]     primal_lower21  654
    u[25]     primal_lower22  695
    u[25]     primal_lower23  885
    u[25]     primal_lower24  210
    u[25]     primal_lower25  397
    u[25]     primal_lower26  535
    u[25]     primal_lower27  612
    u[25]     primal_lower28  913
    u[25]     primal_lower29  441
    u[25]     primal_lower30  794
    u[25]     primal_lower31  826
    u[25]     primal_lower32  604
    u[25]     primal_lower33  248
    u[25]     primal_lower34  200
    u[25]     primal_lower35  146
    u[25]     primal_lower36  374
    u[25]     primal_lower37  938
    u[25]     primal_lower38  370
    u[25]     primal_lower39  790
    u[25]     primal_lower40  878
    u[25]     primal_lower41  706
    u[25]     primal_lower42  906
    u[25]     primal_lower43  877
    u[25]     primal_lower44  696
    u[25]     primal_lower45  668
    u[25]     primal_lower46  882
    u[25]     primal_lower47  442
    u[25]     primal_lower48  204
    u[25]     primal_lower49  622
    u[25]     primal_lower50  792
    u[25]     primal_lower51  226
    u[25]     primal_lower52  173
    u[25]     primal_lower53  426
    u[25]     primal_lower54  99
    u[25]     primal_lower55  888
    u[25]     primal_lower56  663
    u[25]     primal_lower57  289
    u[25]     primal_lower58  857
    u[25]     primal_lower59  603
    u[25]     primal_lower60  160
    u[25]     primal_lower61  268
    u[25]     primal_lower62  702
    u[25]     primal_lower63  127
    u[25]     primal_lower64  996
    u[25]     primal_lower65  966
    u[25]     primal_lower66  11
    u[25]     primal_lower67  730
    u[25]     primal_lower68  417
    u[25]     primal_lower69  568
    u[25]     primal_lower70  356
    u[25]     primal_lower71  826
    u[25]     primal_lower72  826
    u[25]     primal_lower73  834
    u[25]     primal_lower74  58
    u[25]     primal_lower75  119
    u[25]     primal_lower76  533
    u[25]     primal_lower77  469
    u[25]     primal_lower78  997
    u[25]     primal_lower79  386
    u[25]     primal_lower80  782
    u[25]     primal_lower81  96
    u[25]     primal_lower82  461
    u[25]     primal_lower83  512
    u[25]     primal_lower84  354
    u[25]     primal_lower85  716
    u[25]     primal_lower86  827
    u[25]     primal_lower87  406
    u[25]     primal_lower88  338
    u[25]     primal_lower89  603
    u[25]     primal_lower90  935
    u[25]     primal_lower91  170
    u[25]     primal_lower92  664
    u[25]     primal_lower93  181
    u[25]     primal_lower94  540
    u[25]     primal_lower95  434
    u[25]     primal_lower96  346
    u[25]     primal_lower97  979
    u[25]     primal_lower98  829
    u[25]     primal_lower99  335
    u[25]     interdiction[25]  1
    u[25]     mccormick1[25]  -1
    u[25]     mccormick3[25]  1
    u[26]     primal_lower0  877
    u[26]     primal_lower1  457
    u[26]     primal_lower2  746
    u[26]     primal_lower3  428
    u[26]     primal_lower4  592
    u[26]     primal_lower5  763
    u[26]     primal_lower6  719
    u[26]     primal_lower7  518
    u[26]     primal_lower8  708
    u[26]     primal_lower9  656
    u[26]     primal_lower10  216
    u[26]     primal_lower11  557
    u[26]     primal_lower12  505
    u[26]     primal_lower13  162
    u[26]     primal_lower14  437
    u[26]     primal_lower15  221
    u[26]     primal_lower16  617
    u[26]     primal_lower17  275
    u[26]     primal_lower18  759
    u[26]     primal_lower19  319
    u[26]     primal_lower20  467
    u[26]     primal_lower21  676
    u[26]     primal_lower22  381
    u[26]     primal_lower23  259
    u[26]     primal_lower24  972
    u[26]     primal_lower25  363
    u[26]     primal_lower26  9
    u[26]     primal_lower27  334
    u[26]     primal_lower28  491
    u[26]     primal_lower29  483
    u[26]     primal_lower30  788
    u[26]     primal_lower31  496
    u[26]     primal_lower32  646
    u[26]     primal_lower33  798
    u[26]     primal_lower34  546
    u[26]     primal_lower35  224
    u[26]     primal_lower36  524
    u[26]     primal_lower37  332
    u[26]     primal_lower38  12
    u[26]     primal_lower39  384
    u[26]     primal_lower40  392
    u[26]     primal_lower41  212
    u[26]     primal_lower42  188
    u[26]     primal_lower43  123
    u[26]     primal_lower44  794
    u[26]     primal_lower45  354
    u[26]     primal_lower46  256
    u[26]     primal_lower47  116
    u[26]     primal_lower48  670
    u[26]     primal_lower49  796
    u[26]     primal_lower50  490
    u[26]     primal_lower51  832
    u[26]     primal_lower52  375
    u[26]     primal_lower53  1000
    u[26]     primal_lower54  561
    u[26]     primal_lower55  278
    u[26]     primal_lower56  877
    u[26]     primal_lower57  3
    u[26]     primal_lower58  623
    u[26]     primal_lower59  605
    u[26]     primal_lower60  98
    u[26]     primal_lower61  182
    u[26]     primal_lower62  976
    u[26]     primal_lower63  753
    u[26]     primal_lower64  566
    u[26]     primal_lower65  828
    u[26]     primal_lower66  721
    u[26]     primal_lower67  212
    u[26]     primal_lower68  27
    u[26]     primal_lower69  154
    u[26]     primal_lower70  614
    u[26]     primal_lower71  84
    u[26]     primal_lower72  8
    u[26]     primal_lower73  988
    u[26]     primal_lower74  752
    u[26]     primal_lower75  593
    u[26]     primal_lower76  291
    u[26]     primal_lower77  571
    u[26]     primal_lower78  871
    u[26]     primal_lower79  428
    u[26]     primal_lower80  476
    u[26]     primal_lower81  506
    u[26]     primal_lower82  23
    u[26]     primal_lower83  730
    u[26]     primal_lower84  12
    u[26]     primal_lower85  550
    u[26]     primal_lower86  637
    u[26]     primal_lower87  736
    u[26]     primal_lower88  144
    u[26]     primal_lower89  829
    u[26]     primal_lower90  869
    u[26]     primal_lower91  484
    u[26]     primal_lower92  858
    u[26]     primal_lower93  427
    u[26]     primal_lower94  522
    u[26]     primal_lower95  72
    u[26]     primal_lower96  656
    u[26]     primal_lower97  761
    u[26]     primal_lower98  35
    u[26]     primal_lower99  125
    u[26]     interdiction[26]  1
    u[26]     mccormick1[26]  -1
    u[26]     mccormick3[26]  1
    u[27]     primal_lower0  854
    u[27]     primal_lower1  271
    u[27]     primal_lower2  795
    u[27]     primal_lower3  658
    u[27]     primal_lower4  246
    u[27]     primal_lower5  916
    u[27]     primal_lower6  376
    u[27]     primal_lower7  164
    u[27]     primal_lower8  853
    u[27]     primal_lower9  502
    u[27]     primal_lower10  137
    u[27]     primal_lower11  411
    u[27]     primal_lower12  7
    u[27]     primal_lower13  328
    u[27]     primal_lower14  707
    u[27]     primal_lower15  942
    u[27]     primal_lower16  999
    u[27]     primal_lower17  985
    u[27]     primal_lower18  509
    u[27]     primal_lower19  525
    u[27]     primal_lower20  860
    u[27]     primal_lower21  709
    u[27]     primal_lower22  686
    u[27]     primal_lower23  36
    u[27]     primal_lower24  794
    u[27]     primal_lower25  828
    u[27]     primal_lower26  655
    u[27]     primal_lower27  900
    u[27]     primal_lower28  193
    u[27]     primal_lower29  417
    u[27]     primal_lower30  402
    u[27]     primal_lower31  25
    u[27]     primal_lower32  804
    u[27]     primal_lower33  895
    u[27]     primal_lower34  56
    u[27]     primal_lower35  529
    u[27]     primal_lower36  797
    u[27]     primal_lower37  306
    u[27]     primal_lower38  2
    u[27]     primal_lower39  110
    u[27]     primal_lower40  742
    u[27]     primal_lower41  426
    u[27]     primal_lower42  634
    u[27]     primal_lower43  276
    u[27]     primal_lower44  808
    u[27]     primal_lower45  859
    u[27]     primal_lower46  17
    u[27]     primal_lower47  274
    u[27]     primal_lower48  788
    u[27]     primal_lower49  957
    u[27]     primal_lower50  160
    u[27]     primal_lower51  777
    u[27]     primal_lower52  245
    u[27]     primal_lower53  585
    u[27]     primal_lower54  650
    u[27]     primal_lower55  791
    u[27]     primal_lower56  982
    u[27]     primal_lower57  97
    u[27]     primal_lower58  24
    u[27]     primal_lower59  267
    u[27]     primal_lower60  368
    u[27]     primal_lower61  268
    u[27]     primal_lower62  462
    u[27]     primal_lower63  607
    u[27]     primal_lower64  756
    u[27]     primal_lower65  829
    u[27]     primal_lower66  826
    u[27]     primal_lower67  154
    u[27]     primal_lower68  241
    u[27]     primal_lower69  264
    u[27]     primal_lower70  892
    u[27]     primal_lower71  882
    u[27]     primal_lower72  457
    u[27]     primal_lower73  250
    u[27]     primal_lower74  113
    u[27]     primal_lower75  735
    u[27]     primal_lower76  76
    u[27]     primal_lower77  68
    u[27]     primal_lower78  405
    u[27]     primal_lower79  794
    u[27]     primal_lower80  133
    u[27]     primal_lower81  712
    u[27]     primal_lower82  461
    u[27]     primal_lower83  896
    u[27]     primal_lower84  338
    u[27]     primal_lower85  124
    u[27]     primal_lower86  851
    u[27]     primal_lower87  446
    u[27]     primal_lower88  969
    u[27]     primal_lower89  723
    u[27]     primal_lower90  158
    u[27]     primal_lower91  642
    u[27]     primal_lower92  664
    u[27]     primal_lower93  348
    u[27]     primal_lower94  387
    u[27]     primal_lower95  417
    u[27]     primal_lower96  585
    u[27]     primal_lower97  410
    u[27]     primal_lower98  260
    u[27]     primal_lower99  214
    u[27]     interdiction[27]  1
    u[27]     mccormick1[27]  -1
    u[27]     mccormick3[27]  1
    u[28]     primal_lower0  664
    u[28]     primal_lower1  621
    u[28]     primal_lower2  789
    u[28]     primal_lower3  8
    u[28]     primal_lower4  940
    u[28]     primal_lower5  582
    u[28]     primal_lower6  922
    u[28]     primal_lower7  170
    u[28]     primal_lower8  719
    u[28]     primal_lower9  348
    u[28]     primal_lower10  883
    u[28]     primal_lower11  921
    u[28]     primal_lower12  861
    u[28]     primal_lower13  958
    u[28]     primal_lower14  993
    u[28]     primal_lower15  104
    u[28]     primal_lower16  13
    u[28]     primal_lower17  575
    u[28]     primal_lower18  443
    u[28]     primal_lower19  955
    u[28]     primal_lower20  566
    u[28]     primal_lower21  799
    u[28]     primal_lower22  72
    u[28]     primal_lower23  990
    u[28]     primal_lower24  768
    u[28]     primal_lower25  678
    u[28]     primal_lower26  525
    u[28]     primal_lower27  394
    u[28]     primal_lower28  359
    u[28]     primal_lower29  431
    u[28]     primal_lower30  528
    u[28]     primal_lower31  283
    u[28]     primal_lower32  730
    u[28]     primal_lower33  833
    u[28]     primal_lower34  398
    u[28]     primal_lower35  347
    u[28]     primal_lower36  935
    u[28]     primal_lower37  688
    u[28]     primal_lower38  584
    u[28]     primal_lower39  460
    u[28]     primal_lower40  156
    u[28]     primal_lower41  392
    u[28]     primal_lower42  472
    u[28]     primal_lower43  358
    u[28]     primal_lower44  182
    u[28]     primal_lower45  669
    u[28]     primal_lower46  411
    u[28]     primal_lower47  568
    u[28]     primal_lower48  66
    u[28]     primal_lower49  895
    u[28]     primal_lower50  398
    u[28]     primal_lower51  387
    u[28]     primal_lower52  307
    u[28]     primal_lower53  59
    u[28]     primal_lower54  196
    u[28]     primal_lower55  89
    u[28]     primal_lower56  320
    u[28]     primal_lower57  247
    u[28]     primal_lower58  602
    u[28]     primal_lower59  681
    u[28]     primal_lower60  734
    u[28]     primal_lower61  418
    u[28]     primal_lower62  980
    u[28]     primal_lower63  917
    u[28]     primal_lower64  178
    u[28]     primal_lower65  375
    u[28]     primal_lower66  588
    u[28]     primal_lower67  280
    u[28]     primal_lower68  287
    u[28]     primal_lower69  734
    u[28]     primal_lower70  738
    u[28]     primal_lower71  472
    u[28]     primal_lower72  955
    u[28]     primal_lower73  264
    u[28]     primal_lower74  163
    u[28]     primal_lower75  69
    u[28]     primal_lower76  54
    u[28]     primal_lower77  206
    u[28]     primal_lower78  731
    u[28]     primal_lower79  160
    u[28]     primal_lower80  175
    u[28]     primal_lower81  342
    u[28]     primal_lower82  51
    u[28]     primal_lower83  638
    u[28]     primal_lower84  648
    u[28]     primal_lower85  930
    u[28]     primal_lower86  193
    u[28]     primal_lower87  940
    u[28]     primal_lower88  307
    u[28]     primal_lower89  505
    u[28]     primal_lower90  520
    u[28]     primal_lower91  808
    u[28]     primal_lower92  462
    u[28]     primal_lower93  310
    u[28]     primal_lower94  61
    u[28]     primal_lower95  75
    u[28]     primal_lower96  899
    u[28]     primal_lower97  740
    u[28]     primal_lower98  374
    u[28]     primal_lower99  208
    u[28]     interdiction[28]  1
    u[28]     mccormick1[28]  -1
    u[28]     mccormick3[28]  1
    u[29]     primal_lower0  462
    u[29]     primal_lower1  814
    u[29]     primal_lower2  379
    u[29]     primal_lower3  729
    u[29]     primal_lower4  373
    u[29]     primal_lower5  796
    u[29]     primal_lower6  328
    u[29]     primal_lower7  283
    u[29]     primal_lower8  389
    u[29]     primal_lower9  749
    u[29]     primal_lower10  529
    u[29]     primal_lower11  778
    u[29]     primal_lower12  54
    u[29]     primal_lower13  767
    u[29]     primal_lower14  106
    u[29]     primal_lower15  574
    u[29]     primal_lower16  46
    u[29]     primal_lower17  96
    u[29]     primal_lower18  492
    u[29]     primal_lower19  108
    u[29]     primal_lower20  92
    u[29]     primal_lower21  677
    u[29]     primal_lower22  982
    u[29]     primal_lower23  524
    u[29]     primal_lower24  449
    u[29]     primal_lower25  292
    u[29]     primal_lower26  134
    u[29]     primal_lower27  315
    u[29]     primal_lower28  328
    u[29]     primal_lower29  216
    u[29]     primal_lower30  105
    u[29]     primal_lower31  593
    u[29]     primal_lower32  867
    u[29]     primal_lower33  751
    u[29]     primal_lower34  935
    u[29]     primal_lower35  945
    u[29]     primal_lower36  709
    u[29]     primal_lower37  673
    u[29]     primal_lower38  753
    u[29]     primal_lower39  421
    u[29]     primal_lower40  981
    u[29]     primal_lower41  761
    u[29]     primal_lower42  969
    u[29]     primal_lower43  212
    u[29]     primal_lower44  431
    u[29]     primal_lower45  107
    u[29]     primal_lower46  465
    u[29]     primal_lower47  849
    u[29]     primal_lower48  771
    u[29]     primal_lower49  845
    u[29]     primal_lower50  167
    u[29]     primal_lower51  225
    u[29]     primal_lower52  556
    u[29]     primal_lower53  225
    u[29]     primal_lower54  250
    u[29]     primal_lower55  119
    u[29]     primal_lower56  838
    u[29]     primal_lower57  848
    u[29]     primal_lower58  464
    u[29]     primal_lower59  778
    u[29]     primal_lower60  559
    u[29]     primal_lower61  987
    u[29]     primal_lower62  13
    u[29]     primal_lower63  854
    u[29]     primal_lower64  971
    u[29]     primal_lower65  477
    u[29]     primal_lower66  802
    u[29]     primal_lower67  529
    u[29]     primal_lower68  552
    u[29]     primal_lower69  327
    u[29]     primal_lower70  347
    u[29]     primal_lower71  809
    u[29]     primal_lower72  817
    u[29]     primal_lower73  305
    u[29]     primal_lower74  369
    u[29]     primal_lower75  958
    u[29]     primal_lower76  916
    u[29]     primal_lower77  756
    u[29]     primal_lower78  740
    u[29]     primal_lower79  249
    u[29]     primal_lower80  709
    u[29]     primal_lower81  655
    u[29]     primal_lower82  564
    u[29]     primal_lower83  407
    u[29]     primal_lower84  529
    u[29]     primal_lower85  443
    u[29]     primal_lower86  930
    u[29]     primal_lower87  397
    u[29]     primal_lower88  257
    u[29]     primal_lower89  66
    u[29]     primal_lower90  734
    u[29]     primal_lower91  489
    u[29]     primal_lower92  671
    u[29]     primal_lower93  60
    u[29]     primal_lower94  579
    u[29]     primal_lower95  97
    u[29]     primal_lower96  449
    u[29]     primal_lower97  186
    u[29]     primal_lower98  828
    u[29]     primal_lower99  854
    u[29]     interdiction[29]  1
    u[29]     mccormick1[29]  -1
    u[29]     mccormick3[29]  1
    u[30]     primal_lower0  524
    u[30]     primal_lower1  705
    u[30]     primal_lower2  409
    u[30]     primal_lower3  900
    u[30]     primal_lower4  320
    u[30]     primal_lower5  978
    u[30]     primal_lower6  638
    u[30]     primal_lower7  902
    u[30]     primal_lower8  651
    u[30]     primal_lower9  288
    u[30]     primal_lower10  423
    u[30]     primal_lower11  909
    u[30]     primal_lower12  569
    u[30]     primal_lower13  410
    u[30]     primal_lower14  437
    u[30]     primal_lower15  500
    u[30]     primal_lower16  105
    u[30]     primal_lower17  547
    u[30]     primal_lower18  879
    u[30]     primal_lower19  431
    u[30]     primal_lower20  226
    u[30]     primal_lower21  923
    u[30]     primal_lower22  244
    u[30]     primal_lower23  322
    u[30]     primal_lower24  20
    u[30]     primal_lower25  666
    u[30]     primal_lower26  57
    u[30]     primal_lower27  142
    u[30]     primal_lower28  491
    u[30]     primal_lower29  715
    u[30]     primal_lower30  100
    u[30]     primal_lower31  959
    u[30]     primal_lower32  454
    u[30]     primal_lower33  701
    u[30]     primal_lower34  538
    u[30]     primal_lower35  615
    u[30]     primal_lower36  483
    u[30]     primal_lower37  36
    u[30]     primal_lower38  236
    u[30]     primal_lower39  512
    u[30]     primal_lower40  976
    u[30]     primal_lower41  652
    u[30]     primal_lower42  724
    u[30]     primal_lower43  946
    u[30]     primal_lower44  642
    u[30]     primal_lower45  249
    u[30]     primal_lower46  391
    u[30]     primal_lower47  84
    u[30]     primal_lower48  630
    u[30]     primal_lower49  283
    u[30]     primal_lower50  402
    u[30]     primal_lower51  743
    u[30]     primal_lower52  663
    u[30]     primal_lower53  975
    u[30]     primal_lower54  224
    u[30]     primal_lower55  989
    u[30]     primal_lower56  684
    u[30]     primal_lower57  451
    u[30]     primal_lower58  774
    u[30]     primal_lower59  141
    u[30]     primal_lower60  802
    u[30]     primal_lower61  366
    u[30]     primal_lower62  248
    u[30]     primal_lower63  681
    u[30]     primal_lower64  262
    u[30]     primal_lower65  499
    u[30]     primal_lower66  240
    u[30]     primal_lower67  740
    u[30]     primal_lower68  931
    u[30]     primal_lower69  130
    u[30]     primal_lower70  510
    u[30]     primal_lower71  828
    u[30]     primal_lower72  271
    u[30]     primal_lower73  492
    u[30]     primal_lower74  535
    u[30]     primal_lower75  721
    u[30]     primal_lower76  674
    u[30]     primal_lower77  42
    u[30]     primal_lower78  439
    u[30]     primal_lower79  356
    u[30]     primal_lower80  443
    u[30]     primal_lower81  410
    u[30]     primal_lower82  631
    u[30]     primal_lower83  74
    u[30]     primal_lower84  236
    u[30]     primal_lower85  342
    u[30]     primal_lower86  645
    u[30]     primal_lower87  368
    u[30]     primal_lower88  767
    u[30]     primal_lower89  773
    u[30]     primal_lower90  676
    u[30]     primal_lower91  244
    u[30]     primal_lower92  34
    u[30]     primal_lower93  498
    u[30]     primal_lower94  65
    u[30]     primal_lower95  335
    u[30]     primal_lower96  223
    u[30]     primal_lower97  848
    u[30]     primal_lower98  274
    u[30]     primal_lower99  908
    u[30]     interdiction[30]  1
    u[30]     mccormick1[30]  -1
    u[30]     mccormick3[30]  1
    u[31]     primal_lower0  962
    u[31]     primal_lower1  483
    u[31]     primal_lower2  887
    u[31]     primal_lower3  342
    u[31]     primal_lower4  658
    u[31]     primal_lower5  136
    u[31]     primal_lower6  772
    u[31]     primal_lower7  768
    u[31]     primal_lower8  705
    u[31]     primal_lower9  786
    u[31]     primal_lower10  445
    u[31]     primal_lower11  95
    u[31]     primal_lower12  195
    u[31]     primal_lower13  796
    u[31]     primal_lower14  687
    u[31]     primal_lower15  610
    u[31]     primal_lower16  811
    u[31]     primal_lower17  517
    u[31]     primal_lower18  913
    u[31]     primal_lower19  489
    u[31]     primal_lower20  488
    u[31]     primal_lower21  321
    u[31]     primal_lower22  538
    u[31]     primal_lower23  536
    u[31]     primal_lower24  918
    u[31]     primal_lower25  488
    u[31]     primal_lower26  163
    u[31]     primal_lower27  552
    u[31]     primal_lower28  933
    u[31]     primal_lower29  93
    u[31]     primal_lower30  750
    u[31]     primal_lower31  13
    u[31]     primal_lower32  560
    u[31]     primal_lower33  59
    u[31]     primal_lower34  380
    u[31]     primal_lower35  301
    u[31]     primal_lower36  281
    u[31]     primal_lower37  878
    u[31]     primal_lower38  22
    u[31]     primal_lower39  370
    u[31]     primal_lower40  658
    u[31]     primal_lower41  934
    u[31]     primal_lower42  950
    u[31]     primal_lower43  168
    u[31]     primal_lower44  556
    u[31]     primal_lower45  847
    u[31]     primal_lower46  613
    u[31]     primal_lower47  462
    u[31]     primal_lower48  120
    u[31]     primal_lower49  257
    u[31]     primal_lower50  60
    u[31]     primal_lower51  445
    u[31]     primal_lower52  25
    u[31]     primal_lower53  901
    u[31]     primal_lower54  534
    u[31]     primal_lower55  99
    u[31]     primal_lower56  914
    u[31]     primal_lower57  421
    u[31]     primal_lower58  308
    u[31]     primal_lower59  95
    u[31]     primal_lower60  956
    u[31]     primal_lower61  592
    u[31]     primal_lower62  914
    u[31]     primal_lower63  827
    u[31]     primal_lower64  120
    u[31]     primal_lower65  761
    u[31]     primal_lower66  894
    u[31]     primal_lower67  238
    u[31]     primal_lower68  333
    u[31]     primal_lower69  276
    u[31]     primal_lower70  808
    u[31]     primal_lower71  30
    u[31]     primal_lower72  429
    u[31]     primal_lower73  294
    u[31]     primal_lower74  997
    u[31]     primal_lower75  563
    u[31]     primal_lower76  816
    u[31]     primal_lower77  880
    u[31]     primal_lower78  449
    u[31]     primal_lower79  94
    u[31]     primal_lower80  473
    u[31]     primal_lower81  132
    u[31]     primal_lower82  233
    u[31]     primal_lower83  772
    u[31]     primal_lower84  150
    u[31]     primal_lower85  160
    u[31]     primal_lower86  911
    u[31]     primal_lower87  322
    u[31]     primal_lower88  141
    u[31]     primal_lower89  815
    u[31]     primal_lower90  826
    u[31]     primal_lower91  350
    u[31]     primal_lower92  708
    u[31]     primal_lower93  896
    u[31]     primal_lower94  607
    u[31]     primal_lower95  853
    u[31]     primal_lower96  949
    u[31]     primal_lower97  774
    u[31]     primal_lower98  112
    u[31]     primal_lower99  578
    u[31]     interdiction[31]  1
    u[31]     mccormick1[31]  -1
    u[31]     mccormick3[31]  1
    u[32]     primal_lower0  654
    u[32]     primal_lower1  43
    u[32]     primal_lower2  675
    u[32]     primal_lower3  670
    u[32]     primal_lower4  578
    u[32]     primal_lower5  884
    u[32]     primal_lower6  704
    u[32]     primal_lower7  32
    u[32]     primal_lower8  581
    u[32]     primal_lower9  818
    u[32]     primal_lower10  225
    u[32]     primal_lower11  583
    u[32]     primal_lower12  899
    u[32]     primal_lower13  908
    u[32]     primal_lower14  631
    u[32]     primal_lower15  350
    u[32]     primal_lower16  243
    u[32]     primal_lower17  965
    u[32]     primal_lower18  401
    u[32]     primal_lower19  25
    u[32]     primal_lower20  108
    u[32]     primal_lower21  437
    u[32]     primal_lower22  38
    u[32]     primal_lower23  532
    u[32]     primal_lower24  382
    u[32]     primal_lower25  956
    u[32]     primal_lower26  203
    u[32]     primal_lower27  856
    u[32]     primal_lower28  541
    u[32]     primal_lower29  797
    u[32]     primal_lower30  342
    u[32]     primal_lower31  17
    u[32]     primal_lower32  304
    u[32]     primal_lower33  847
    u[32]     primal_lower34  28
    u[32]     primal_lower35  145
    u[32]     primal_lower36  21
    u[32]     primal_lower37  822
    u[32]     primal_lower38  838
    u[32]     primal_lower39  810
    u[32]     primal_lower40  586
    u[32]     primal_lower41  878
    u[32]     primal_lower42  238
    u[32]     primal_lower43  420
    u[32]     primal_lower44  484
    u[32]     primal_lower45  139
    u[32]     primal_lower46  193
    u[32]     primal_lower47  838
    u[32]     primal_lower48  880
    u[32]     primal_lower49  789
    u[32]     primal_lower50  172
    u[32]     primal_lower51  625
    u[32]     primal_lower52  49
    u[32]     primal_lower53  433
    u[32]     primal_lower54  34
    u[32]     primal_lower55  623
    u[32]     primal_lower56  518
    u[32]     primal_lower57  973
    u[32]     primal_lower58  856
    u[32]     primal_lower59  103
    u[32]     primal_lower60  732
    u[32]     primal_lower61  328
    u[32]     primal_lower62  82
    u[32]     primal_lower63  387
    u[32]     primal_lower64  920
    u[32]     primal_lower65  157
    u[32]     primal_lower66  386
    u[32]     primal_lower67  918
    u[32]     primal_lower68  317
    u[32]     primal_lower69  588
    u[32]     primal_lower70  208
    u[32]     primal_lower71  166
    u[32]     primal_lower72  745
    u[32]     primal_lower73  430
    u[32]     primal_lower74  57
    u[32]     primal_lower75  899
    u[32]     primal_lower76  620
    u[32]     primal_lower77  780
    u[32]     primal_lower78  57
    u[32]     primal_lower79  150
    u[32]     primal_lower80  309
    u[32]     primal_lower81  780
    u[32]     primal_lower82  761
    u[32]     primal_lower83  28
    u[32]     primal_lower84  254
    u[32]     primal_lower85  160
    u[32]     primal_lower86  903
    u[32]     primal_lower87  458
    u[32]     primal_lower88  449
    u[32]     primal_lower89  439
    u[32]     primal_lower90  54
    u[32]     primal_lower91  294
    u[32]     primal_lower92  292
    u[32]     primal_lower93  476
    u[32]     primal_lower94  187
    u[32]     primal_lower95  41
    u[32]     primal_lower96  689
    u[32]     primal_lower97  482
    u[32]     primal_lower98  852
    u[32]     primal_lower99  358
    u[32]     interdiction[32]  1
    u[32]     mccormick1[32]  -1
    u[32]     mccormick3[32]  1
    u[33]     primal_lower0  876
    u[33]     primal_lower1  20
    u[33]     primal_lower2  329
    u[33]     primal_lower3  887
    u[33]     primal_lower4  899
    u[33]     primal_lower5  818
    u[33]     primal_lower6  390
    u[33]     primal_lower7  73
    u[33]     primal_lower8  547
    u[33]     primal_lower9  555
    u[33]     primal_lower10  903
    u[33]     primal_lower11  464
    u[33]     primal_lower12  68
    u[33]     primal_lower13  517
    u[33]     primal_lower14  896
    u[33]     primal_lower15  788
    u[33]     primal_lower16  12
    u[33]     primal_lower17  614
    u[33]     primal_lower18  90
    u[33]     primal_lower19  714
    u[33]     primal_lower20  482
    u[33]     primal_lower21  947
    u[33]     primal_lower22  892
    u[33]     primal_lower23  106
    u[33]     primal_lower24  263
    u[33]     primal_lower25  466
    u[33]     primal_lower26  244
    u[33]     primal_lower27  969
    u[33]     primal_lower28  414
    u[33]     primal_lower29  278
    u[33]     primal_lower30  55
    u[33]     primal_lower31  31
    u[33]     primal_lower32  625
    u[33]     primal_lower33  853
    u[33]     primal_lower34  493
    u[33]     primal_lower35  679
    u[33]     primal_lower36  659
    u[33]     primal_lower37  671
    u[33]     primal_lower38  631
    u[33]     primal_lower39  955
    u[33]     primal_lower40  683
    u[33]     primal_lower41  623
    u[33]     primal_lower42  815
    u[33]     primal_lower43  914
    u[33]     primal_lower44  629
    u[33]     primal_lower45  681
    u[33]     primal_lower46  591
    u[33]     primal_lower47  15
    u[33]     primal_lower48  729
    u[33]     primal_lower49  915
    u[33]     primal_lower50  909
    u[33]     primal_lower51  783
    u[33]     primal_lower52  114
    u[33]     primal_lower53  463
    u[33]     primal_lower54  32
    u[33]     primal_lower55  461
    u[33]     primal_lower56  172
    u[33]     primal_lower57  134
    u[33]     primal_lower58  174
    u[33]     primal_lower59  896
    u[33]     primal_lower60  773
    u[33]     primal_lower61  809
    u[33]     primal_lower62  699
    u[33]     primal_lower63  188
    u[33]     primal_lower64  521
    u[33]     primal_lower65  739
    u[33]     primal_lower66  280
    u[33]     primal_lower67  815
    u[33]     primal_lower68  86
    u[33]     primal_lower69  165
    u[33]     primal_lower70  561
    u[33]     primal_lower71  543
    u[33]     primal_lower72  39
    u[33]     primal_lower73  391
    u[33]     primal_lower74  263
    u[33]     primal_lower75  492
    u[33]     primal_lower76  762
    u[33]     primal_lower77  354
    u[33]     primal_lower78  266
    u[33]     primal_lower79  791
    u[33]     primal_lower80  227
    u[33]     primal_lower81  893
    u[33]     primal_lower82  874
    u[33]     primal_lower83  957
    u[33]     primal_lower84  247
    u[33]     primal_lower85  729
    u[33]     primal_lower86  472
    u[33]     primal_lower87  235
    u[33]     primal_lower88  879
    u[33]     primal_lower89  64
    u[33]     primal_lower90  772
    u[33]     primal_lower91  887
    u[33]     primal_lower92  101
    u[33]     primal_lower93  234
    u[33]     primal_lower94  529
    u[33]     primal_lower95  303
    u[33]     primal_lower96  383
    u[33]     primal_lower97  248
    u[33]     primal_lower98  50
    u[33]     primal_lower99  524
    u[33]     interdiction[33]  1
    u[33]     mccormick1[33]  -1
    u[33]     mccormick3[33]  1
    u[34]     primal_lower0  311
    u[34]     primal_lower1  883
    u[34]     primal_lower2  492
    u[34]     primal_lower3  326
    u[34]     primal_lower4  906
    u[34]     primal_lower5  909
    u[34]     primal_lower6  473
    u[34]     primal_lower7  896
    u[34]     primal_lower8  910
    u[34]     primal_lower9  786
    u[34]     primal_lower10  122
    u[34]     primal_lower11  479
    u[34]     primal_lower12  827
    u[34]     primal_lower13  652
    u[34]     primal_lower14  919
    u[34]     primal_lower15  127
    u[34]     primal_lower16  787
    u[34]     primal_lower17  333
    u[34]     primal_lower18  233
    u[34]     primal_lower19  737
    u[34]     primal_lower20  941
    u[34]     primal_lower21  374
    u[34]     primal_lower22  623
    u[34]     primal_lower23  517
    u[34]     primal_lower24  710
    u[34]     primal_lower25  221
    u[34]     primal_lower26  659
    u[34]     primal_lower27  224
    u[34]     primal_lower28  685
    u[34]     primal_lower29  901
    u[34]     primal_lower30  222
    u[34]     primal_lower31  946
    u[34]     primal_lower32  504
    u[34]     primal_lower33  360
    u[34]     primal_lower34  668
    u[34]     primal_lower35  570
    u[34]     primal_lower36  550
    u[34]     primal_lower37  118
    u[34]     primal_lower38  830
    u[34]     primal_lower39  242
    u[34]     primal_lower40  2
    u[34]     primal_lower41  246
    u[34]     primal_lower42  934
    u[34]     primal_lower43  437
    u[34]     primal_lower44  708
    u[34]     primal_lower45  116
    u[34]     primal_lower46  794
    u[34]     primal_lower47  790
    u[34]     primal_lower48  728
    u[34]     primal_lower49  534
    u[34]     primal_lower50  732
    u[34]     primal_lower51  778
    u[34]     primal_lower52  969
    u[34]     primal_lower53  50
    u[34]     primal_lower54  747
    u[34]     primal_lower55  336
    u[34]     primal_lower56  127
    u[34]     primal_lower57  365
    u[34]     primal_lower58  265
    u[34]     primal_lower59  495
    u[34]     primal_lower60  676
    u[34]     primal_lower61  936
    u[34]     primal_lower62  122
    u[34]     primal_lower63  91
    u[34]     primal_lower64  8
    u[34]     primal_lower65  862
    u[34]     primal_lower66  363
    u[34]     primal_lower67  302
    u[34]     primal_lower68  45
    u[34]     primal_lower69  612
    u[34]     primal_lower70  720
    u[34]     primal_lower71  750
    u[34]     primal_lower72  18
    u[34]     primal_lower73  6
    u[34]     primal_lower74  546
    u[34]     primal_lower75  59
    u[34]     primal_lower76  221
    u[34]     primal_lower77  525
    u[34]     primal_lower78  169
    u[34]     primal_lower79  702
    u[34]     primal_lower80  534
    u[34]     primal_lower81  140
    u[34]     primal_lower82  313
    u[34]     primal_lower83  868
    u[34]     primal_lower84  62
    u[34]     primal_lower85  656
    u[34]     primal_lower86  639
    u[34]     primal_lower87  482
    u[34]     primal_lower88  242
    u[34]     primal_lower89  79
    u[34]     primal_lower90  207
    u[34]     primal_lower91  766
    u[34]     primal_lower92  12
    u[34]     primal_lower93  205
    u[34]     primal_lower94  956
    u[34]     primal_lower95  834
    u[34]     primal_lower96  666
    u[34]     primal_lower97  131
    u[34]     primal_lower98  213
    u[34]     primal_lower99  423
    u[34]     interdiction[34]  1
    u[34]     mccormick1[34]  -1
    u[34]     mccormick3[34]  1
    u[35]     primal_lower0  424
    u[35]     primal_lower1  376
    u[35]     primal_lower2  341
    u[35]     primal_lower3  875
    u[35]     primal_lower4  871
    u[35]     primal_lower5  998
    u[35]     primal_lower6  514
    u[35]     primal_lower7  549
    u[35]     primal_lower8  183
    u[35]     primal_lower9  319
    u[35]     primal_lower10  355
    u[35]     primal_lower11  44
    u[35]     primal_lower12  344
    u[35]     primal_lower13  769
    u[35]     primal_lower14  876
    u[35]     primal_lower15  864
    u[35]     primal_lower16  760
    u[35]     primal_lower17  786
    u[35]     primal_lower18  662
    u[35]     primal_lower19  958
    u[35]     primal_lower20  814
    u[35]     primal_lower21  415
    u[35]     primal_lower22  928
    u[35]     primal_lower23  678
    u[35]     primal_lower24  323
    u[35]     primal_lower25  54
    u[35]     primal_lower26  680
    u[35]     primal_lower27  813
    u[35]     primal_lower28  130
    u[35]     primal_lower29  762
    u[35]     primal_lower30  11
    u[35]     primal_lower31  251
    u[35]     primal_lower32  141
    u[35]     primal_lower33  889
    u[35]     primal_lower34  97
    u[35]     primal_lower35  395
    u[35]     primal_lower36  815
    u[35]     primal_lower37  235
    u[35]     primal_lower38  587
    u[35]     primal_lower39  183
    u[35]     primal_lower40  487
    u[35]     primal_lower41  211
    u[35]     primal_lower42  19
    u[35]     primal_lower43  686
    u[35]     primal_lower44  697
    u[35]     primal_lower45  5
    u[35]     primal_lower46  195
    u[35]     primal_lower47  659
    u[35]     primal_lower48  21
    u[35]     primal_lower49  967
    u[35]     primal_lower50  193
    u[35]     primal_lower51  107
    u[35]     primal_lower52  854
    u[35]     primal_lower53  667
    u[35]     primal_lower54  892
    u[35]     primal_lower55  137
    u[35]     primal_lower56  1000
    u[35]     primal_lower57  530
    u[35]     primal_lower58  874
    u[35]     primal_lower59  532
    u[35]     primal_lower60  609
    u[35]     primal_lower61  749
    u[35]     primal_lower62  367
    u[35]     primal_lower63  600
    u[35]     primal_lower64  453
    u[35]     primal_lower65  455
    u[35]     primal_lower66  28
    u[35]     primal_lower67  883
    u[35]     primal_lower68  466
    u[35]     primal_lower69  513
    u[35]     primal_lower70  549
    u[35]     primal_lower71  179
    u[35]     primal_lower72  355
    u[35]     primal_lower73  619
    u[35]     primal_lower74  987
    u[35]     primal_lower75  272
    u[35]     primal_lower76  726
    u[35]     primal_lower77  462
    u[35]     primal_lower78  638
    u[35]     primal_lower79  731
    u[35]     primal_lower80  327
    u[35]     primal_lower81  49
    u[35]     primal_lower82  374
    u[35]     primal_lower83  161
    u[35]     primal_lower84  219
    u[35]     primal_lower85  77
    u[35]     primal_lower86  892
    u[35]     primal_lower87  599
    u[35]     primal_lower88  563
    u[35]     primal_lower89  852
    u[35]     primal_lower90  816
    u[35]     primal_lower91  579
    u[35]     primal_lower92  17
    u[35]     primal_lower93  622
    u[35]     primal_lower94  525
    u[35]     primal_lower95  635
    u[35]     primal_lower96  267
    u[35]     primal_lower97  580
    u[35]     primal_lower98  630
    u[35]     primal_lower99  296
    u[35]     interdiction[35]  1
    u[35]     mccormick1[35]  -1
    u[35]     mccormick3[35]  1
    u[36]     primal_lower0  175
    u[36]     primal_lower1  651
    u[36]     primal_lower2  932
    u[36]     primal_lower3  790
    u[36]     primal_lower4  218
    u[36]     primal_lower5  597
    u[36]     primal_lower6  57
    u[36]     primal_lower7  984
    u[36]     primal_lower8  326
    u[36]     primal_lower9  26
    u[36]     primal_lower10  210
    u[36]     primal_lower11  519
    u[36]     primal_lower12  363
    u[36]     primal_lower13  572
    u[36]     primal_lower14  39
    u[36]     primal_lower15  111
    u[36]     primal_lower16  867
    u[36]     primal_lower17  613
    u[36]     primal_lower18  673
    u[36]     primal_lower19  113
    u[36]     primal_lower20  109
    u[36]     primal_lower21  830
    u[36]     primal_lower22  47
    u[36]     primal_lower23  357
    u[36]     primal_lower24  454
    u[36]     primal_lower25  973
    u[36]     primal_lower26  587
    u[36]     primal_lower27  224
    u[36]     primal_lower28  901
    u[36]     primal_lower29  589
    u[36]     primal_lower30  30
    u[36]     primal_lower31  362
    u[36]     primal_lower32  496
    u[36]     primal_lower33  872
    u[36]     primal_lower34  820
    u[36]     primal_lower35  290
    u[36]     primal_lower36  422
    u[36]     primal_lower37  390
    u[36]     primal_lower38  398
    u[36]     primal_lower39  170
    u[36]     primal_lower40  906
    u[36]     primal_lower41  238
    u[36]     primal_lower42  230
    u[36]     primal_lower43  373
    u[36]     primal_lower44  308
    u[36]     primal_lower45  196
    u[36]     primal_lower46  946
    u[36]     primal_lower47  670
    u[36]     primal_lower48  256
    u[36]     primal_lower49  454
    u[36]     primal_lower50  100
    u[36]     primal_lower51  762
    u[36]     primal_lower52  609
    u[36]     primal_lower53  338
    u[36]     primal_lower54  723
    u[36]     primal_lower55  160
    u[36]     primal_lower56  31
    u[36]     primal_lower57  477
    u[36]     primal_lower58  657
    u[36]     primal_lower59  591
    u[36]     primal_lower60  692
    u[36]     primal_lower61  64
    u[36]     primal_lower62  146
    u[36]     primal_lower63  443
    u[36]     primal_lower64  928
    u[36]     primal_lower65  862
    u[36]     primal_lower66  315
    u[36]     primal_lower67  862
    u[36]     primal_lower68  957
    u[36]     primal_lower69  412
    u[36]     primal_lower70  16
    u[36]     primal_lower71  150
    u[36]     primal_lower72  978
    u[36]     primal_lower73  694
    u[36]     primal_lower74  906
    u[36]     primal_lower75  899
    u[36]     primal_lower76  637
    u[36]     primal_lower77  237
    u[36]     primal_lower78  617
    u[36]     primal_lower79  286
    u[36]     primal_lower80  542
    u[36]     primal_lower81  956
    u[36]     primal_lower82  545
    u[36]     primal_lower83  620
    u[36]     primal_lower84  670
    u[36]     primal_lower85  888
    u[36]     primal_lower86  863
    u[36]     primal_lower87  610
    u[36]     primal_lower88  170
    u[36]     primal_lower89  191
    u[36]     primal_lower90  527
    u[36]     primal_lower91  526
    u[36]     primal_lower92  740
    u[36]     primal_lower93  885
    u[36]     primal_lower94  276
    u[36]     primal_lower95  90
    u[36]     primal_lower96  898
    u[36]     primal_lower97  123
    u[36]     primal_lower98  317
    u[36]     primal_lower99  559
    u[36]     interdiction[36]  1
    u[36]     mccormick1[36]  -1
    u[36]     mccormick3[36]  1
    u[37]     primal_lower0  355
    u[37]     primal_lower1  532
    u[37]     primal_lower2  264
    u[37]     primal_lower3  223
    u[37]     primal_lower4  203
    u[37]     primal_lower5  377
    u[37]     primal_lower6  869
    u[37]     primal_lower7  809
    u[37]     primal_lower8  10
    u[37]     primal_lower9  291
    u[37]     primal_lower10  38
    u[37]     primal_lower11  680
    u[37]     primal_lower12  836
    u[37]     primal_lower13  245
    u[37]     primal_lower14  328
    u[37]     primal_lower15  163
    u[37]     primal_lower16  892
    u[37]     primal_lower17  166
    u[37]     primal_lower18  890
    u[37]     primal_lower19  562
    u[37]     primal_lower20  721
    u[37]     primal_lower21  962
    u[37]     primal_lower22  91
    u[37]     primal_lower23  457
    u[37]     primal_lower24  551
    u[37]     primal_lower25  705
    u[37]     primal_lower26  996
    u[37]     primal_lower27  289
    u[37]     primal_lower28  6
    u[37]     primal_lower29  318
    u[37]     primal_lower30  39
    u[37]     primal_lower31  838
    u[37]     primal_lower32  89
    u[37]     primal_lower33  76
    u[37]     primal_lower34  373
    u[37]     primal_lower35  846
    u[37]     primal_lower36  418
    u[37]     primal_lower37  855
    u[37]     primal_lower38  687
    u[37]     primal_lower39  707
    u[37]     primal_lower40  27
    u[37]     primal_lower41  583
    u[37]     primal_lower42  271
    u[37]     primal_lower43  201
    u[37]     primal_lower44  493
    u[37]     primal_lower45  880
    u[37]     primal_lower46  374
    u[37]     primal_lower47  775
    u[37]     primal_lower48  953
    u[37]     primal_lower49  242
    u[37]     primal_lower50  469
    u[37]     primal_lower51  590
    u[37]     primal_lower52  482
    u[37]     primal_lower53  606
    u[37]     primal_lower54  495
    u[37]     primal_lower55  324
    u[37]     primal_lower56  963
    u[37]     primal_lower57  502
    u[37]     primal_lower58  501
    u[37]     primal_lower59  264
    u[37]     primal_lower60  5
    u[37]     primal_lower61  137
    u[37]     primal_lower62  539
    u[37]     primal_lower63  28
    u[37]     primal_lower64  745
    u[37]     primal_lower65  322
    u[37]     primal_lower66  743
    u[37]     primal_lower67  863
    u[37]     primal_lower68  606
    u[37]     primal_lower69  909
    u[37]     primal_lower70  609
    u[37]     primal_lower71  455
    u[37]     primal_lower72  694
    u[37]     primal_lower73  695
    u[37]     primal_lower74  878
    u[37]     primal_lower75  748
    u[37]     primal_lower76  97
    u[37]     primal_lower77  417
    u[37]     primal_lower78  434
    u[37]     primal_lower79  583
    u[37]     primal_lower80  26
    u[37]     primal_lower81  765
    u[37]     primal_lower82  706
    u[37]     primal_lower83  773
    u[37]     primal_lower84  159
    u[37]     primal_lower85  921
    u[37]     primal_lower86  944
    u[37]     primal_lower87  147
    u[37]     primal_lower88  790
    u[37]     primal_lower89  544
    u[37]     primal_lower90  947
    u[37]     primal_lower91  407
    u[37]     primal_lower92  213
    u[37]     primal_lower93  313
    u[37]     primal_lower94  56
    u[37]     primal_lower95  46
    u[37]     primal_lower96  638
    u[37]     primal_lower97  423
    u[37]     primal_lower98  889
    u[37]     primal_lower99  115
    u[37]     interdiction[37]  1
    u[37]     mccormick1[37]  -1
    u[37]     mccormick3[37]  1
    u[38]     primal_lower0  959
    u[38]     primal_lower1  323
    u[38]     primal_lower2  852
    u[38]     primal_lower3  638
    u[38]     primal_lower4  834
    u[38]     primal_lower5  53
    u[38]     primal_lower6  769
    u[38]     primal_lower7  872
    u[38]     primal_lower8  414
    u[38]     primal_lower9  938
    u[38]     primal_lower10  146
    u[38]     primal_lower11  975
    u[38]     primal_lower12  675
    u[38]     primal_lower13  156
    u[38]     primal_lower14  543
    u[38]     primal_lower15  199
    u[38]     primal_lower16  299
    u[38]     primal_lower17  421
    u[38]     primal_lower18  577
    u[38]     primal_lower19  785
    u[38]     primal_lower20  741
    u[38]     primal_lower21  302
    u[38]     primal_lower22  191
    u[38]     primal_lower23  845
    u[38]     primal_lower24  702
    u[38]     primal_lower25  725
    u[38]     primal_lower26  747
    u[38]     primal_lower27  728
    u[38]     primal_lower28  29
    u[38]     primal_lower29  861
    u[38]     primal_lower30  110
    u[38]     primal_lower31  722
    u[38]     primal_lower32  256
    u[38]     primal_lower33  568
    u[38]     primal_lower34  324
    u[38]     primal_lower35  82
    u[38]     primal_lower36  918
    u[38]     primal_lower37  750
    u[38]     primal_lower38  654
    u[38]     primal_lower39  162
    u[38]     primal_lower40  866
    u[38]     primal_lower41  790
    u[38]     primal_lower42  94
    u[38]     primal_lower43  181
    u[38]     primal_lower44  612
    u[38]     primal_lower45  844
    u[38]     primal_lower46  114
    u[38]     primal_lower47  918
    u[38]     primal_lower48  584
    u[38]     primal_lower49  750
    u[38]     primal_lower50  540
    u[38]     primal_lower51  482
    u[38]     primal_lower52  953
    u[38]     primal_lower53  506
    u[38]     primal_lower54  139
    u[38]     primal_lower55  448
    u[38]     primal_lower56  407
    u[38]     primal_lower57  37
    u[38]     primal_lower58  881
    u[38]     primal_lower59  127
    u[38]     primal_lower60  820
    u[38]     primal_lower61  824
    u[38]     primal_lower62  210
    u[38]     primal_lower63  483
    u[38]     primal_lower64  376
    u[38]     primal_lower65  414
    u[38]     primal_lower66  91
    u[38]     primal_lower67  246
    u[38]     primal_lower68  957
    u[38]     primal_lower69  412
    u[38]     primal_lower70  88
    u[38]     primal_lower71  366
    u[38]     primal_lower72  538
    u[38]     primal_lower73  190
    u[38]     primal_lower74  506
    u[38]     primal_lower75  411
    u[38]     primal_lower76  93
    u[38]     primal_lower77  453
    u[38]     primal_lower78  801
    u[38]     primal_lower79  910
    u[38]     primal_lower80  766
    u[38]     primal_lower81  988
    u[38]     primal_lower82  281
    u[38]     primal_lower83  892
    u[38]     primal_lower84  382
    u[38]     primal_lower85  384
    u[38]     primal_lower86  119
    u[38]     primal_lower87  490
    u[38]     primal_lower88  682
    u[38]     primal_lower89  207
    u[38]     primal_lower90  623
    u[38]     primal_lower91  790
    u[38]     primal_lower92  164
    u[38]     primal_lower93  181
    u[38]     primal_lower94  828
    u[38]     primal_lower95  602
    u[38]     primal_lower96  114
    u[38]     primal_lower97  483
    u[38]     primal_lower98  773
    u[38]     primal_lower99  79
    u[38]     interdiction[38]  1
    u[38]     mccormick1[38]  -1
    u[38]     mccormick3[38]  1
    u[39]     primal_lower0  509
    u[39]     primal_lower1  678
    u[39]     primal_lower2  250
    u[39]     primal_lower3  433
    u[39]     primal_lower4  981
    u[39]     primal_lower5  803
    u[39]     primal_lower6  71
    u[39]     primal_lower7  323
    u[39]     primal_lower8  20
    u[39]     primal_lower9  133
    u[39]     primal_lower10  120
    u[39]     primal_lower11  274
    u[39]     primal_lower12  734
    u[39]     primal_lower13  199
    u[39]     primal_lower14  970
    u[39]     primal_lower15  245
    u[39]     primal_lower16  998
    u[39]     primal_lower17  376
    u[39]     primal_lower18  188
    u[39]     primal_lower19  852
    u[39]     primal_lower20  531
    u[39]     primal_lower21  172
    u[39]     primal_lower22  981
    u[39]     primal_lower23  243
    u[39]     primal_lower24  169
    u[39]     primal_lower25  3
    u[39]     primal_lower26  142
    u[39]     primal_lower27  523
    u[39]     primal_lower28  40
    u[39]     primal_lower29  680
    u[39]     primal_lower30  881
    u[39]     primal_lower31  536
    u[39]     primal_lower32  179
    u[39]     primal_lower33  606
    u[39]     primal_lower34  479
    u[39]     primal_lower35  816
    u[39]     primal_lower36  628
    u[39]     primal_lower37  393
    u[39]     primal_lower38  433
    u[39]     primal_lower39  893
    u[39]     primal_lower40  541
    u[39]     primal_lower41  225
    u[39]     primal_lower42  585
    u[39]     primal_lower43  331
    u[39]     primal_lower44  655
    u[39]     primal_lower45  114
    u[39]     primal_lower46  168
    u[39]     primal_lower47  793
    u[39]     primal_lower48  3
    u[39]     primal_lower49  524
    u[39]     primal_lower50  887
    u[39]     primal_lower51  544
    u[39]     primal_lower52  676
    u[39]     primal_lower53  504
    u[39]     primal_lower54  801
    u[39]     primal_lower55  342
    u[39]     primal_lower56  189
    u[39]     primal_lower57  600
    u[39]     primal_lower58  31
    u[39]     primal_lower59  290
    u[39]     primal_lower60  647
    u[39]     primal_lower61  227
    u[39]     primal_lower62  661
    u[39]     primal_lower63  398
    u[39]     primal_lower64  475
    u[39]     primal_lower65  60
    u[39]     primal_lower66  297
    u[39]     primal_lower67  841
    u[39]     primal_lower68  808
    u[39]     primal_lower69  47
    u[39]     primal_lower70  675
    u[39]     primal_lower71  497
    u[39]     primal_lower72  728
    u[39]     primal_lower73  17
    u[39]     primal_lower74  768
    u[39]     primal_lower75  182
    u[39]     primal_lower76  419
    u[39]     primal_lower77  571
    u[39]     primal_lower78  332
    u[39]     primal_lower79  721
    u[39]     primal_lower80  612
    u[39]     primal_lower81  863
    u[39]     primal_lower82  964
    u[39]     primal_lower83  943
    u[39]     primal_lower84  321
    u[39]     primal_lower85  115
    u[39]     primal_lower86  770
    u[39]     primal_lower87  613
    u[39]     primal_lower88  256
    u[39]     primal_lower89  938
    u[39]     primal_lower90  797
    u[39]     primal_lower91  17
    u[39]     primal_lower92  471
    u[39]     primal_lower93  923
    u[39]     primal_lower94  626
    u[39]     primal_lower95  728
    u[39]     primal_lower96  24
    u[39]     primal_lower97  937
    u[39]     primal_lower98  19
    u[39]     primal_lower99  157
    u[39]     interdiction[39]  1
    u[39]     mccormick1[39]  -1
    u[39]     mccormick3[39]  1
    u[40]     primal_lower0  226
    u[40]     primal_lower1  582
    u[40]     primal_lower2  943
    u[40]     primal_lower3  161
    u[40]     primal_lower4  813
    u[40]     primal_lower5  784
    u[40]     primal_lower6  164
    u[40]     primal_lower7  827
    u[40]     primal_lower8  401
    u[40]     primal_lower9  741
    u[40]     primal_lower10  717
    u[40]     primal_lower11  378
    u[40]     primal_lower12  614
    u[40]     primal_lower13  943
    u[40]     primal_lower14  482
    u[40]     primal_lower15  802
    u[40]     primal_lower16  542
    u[40]     primal_lower17  32
    u[40]     primal_lower18  988
    u[40]     primal_lower19  612
    u[40]     primal_lower20  832
    u[40]     primal_lower21  921
    u[40]     primal_lower22  666
    u[40]     primal_lower23  520
    u[40]     primal_lower24  9
    u[40]     primal_lower25  112
    u[40]     primal_lower26  814
    u[40]     primal_lower27  843
    u[40]     primal_lower28  728
    u[40]     primal_lower29  384
    u[40]     primal_lower30  209
    u[40]     primal_lower31  637
    u[40]     primal_lower32  923
    u[40]     primal_lower33  747
    u[40]     primal_lower34  191
    u[40]     primal_lower35  861
    u[40]     primal_lower36  865
    u[40]     primal_lower37  497
    u[40]     primal_lower38  857
    u[40]     primal_lower39  861
    u[40]     primal_lower40  485
    u[40]     primal_lower41  801
    u[40]     primal_lower42  409
    u[40]     primal_lower43  592
    u[40]     primal_lower44  47
    u[40]     primal_lower45  175
    u[40]     primal_lower46  21
    u[40]     primal_lower47  361
    u[40]     primal_lower48  859
    u[40]     primal_lower49  681
    u[40]     primal_lower50  535
    u[40]     primal_lower51  877
    u[40]     primal_lower52  628
    u[40]     primal_lower53  301
    u[40]     primal_lower54  254
    u[40]     primal_lower55  75
    u[40]     primal_lower56  42
    u[40]     primal_lower57  800
    u[40]     primal_lower58  308
    u[40]     primal_lower59  250
    u[40]     primal_lower60  223
    u[40]     primal_lower61  131
    u[40]     primal_lower62  5
    u[40]     primal_lower63  334
    u[40]     primal_lower64  331
    u[40]     primal_lower65  577
    u[40]     primal_lower66  598
    u[40]     primal_lower67  721
    u[40]     primal_lower68  592
    u[40]     primal_lower69  879
    u[40]     primal_lower70  507
    u[40]     primal_lower71  417
    u[40]     primal_lower72  669
    u[40]     primal_lower73  217
    u[40]     primal_lower74  981
    u[40]     primal_lower75  110
    u[40]     primal_lower76  104
    u[40]     primal_lower77  960
    u[40]     primal_lower78  660
    u[40]     primal_lower79  201
    u[40]     primal_lower80  993
    u[40]     primal_lower81  263
    u[40]     primal_lower82  980
    u[40]     primal_lower83  567
    u[40]     primal_lower84  857
    u[40]     primal_lower85  523
    u[40]     primal_lower86  930
    u[40]     primal_lower87  669
    u[40]     primal_lower88  173
    u[40]     primal_lower89  370
    u[40]     primal_lower90  458
    u[40]     primal_lower91  313
    u[40]     primal_lower92  831
    u[40]     primal_lower93  632
    u[40]     primal_lower94  799
    u[40]     primal_lower95  429
    u[40]     primal_lower96  717
    u[40]     primal_lower97  502
    u[40]     primal_lower98  880
    u[40]     primal_lower99  426
    u[40]     interdiction[40]  1
    u[40]     mccormick1[40]  -1
    u[40]     mccormick3[40]  1
    u[41]     primal_lower0  152
    u[41]     primal_lower1  929
    u[41]     primal_lower2  845
    u[41]     primal_lower3  884
    u[41]     primal_lower4  216
    u[41]     primal_lower5  478
    u[41]     primal_lower6  306
    u[41]     primal_lower7  974
    u[41]     primal_lower8  95
    u[41]     primal_lower9  776
    u[41]     primal_lower10  595
    u[41]     primal_lower11  21
    u[41]     primal_lower12  265
    u[41]     primal_lower13  978
    u[41]     primal_lower14  637
    u[41]     primal_lower15  856
    u[41]     primal_lower16  449
    u[41]     primal_lower17  99
    u[41]     primal_lower18  343
    u[41]     primal_lower19  279
    u[41]     primal_lower20  110
    u[41]     primal_lower21  631
    u[41]     primal_lower22  736
    u[41]     primal_lower23  182
    u[41]     primal_lower24  620
    u[41]     primal_lower25  878
    u[41]     primal_lower26  193
    u[41]     primal_lower27  686
    u[41]     primal_lower28  363
    u[41]     primal_lower29  539
    u[41]     primal_lower30  148
    u[41]     primal_lower31  395
    u[41]     primal_lower32  694
    u[41]     primal_lower33  25
    u[41]     primal_lower34  58
    u[41]     primal_lower35  467
    u[41]     primal_lower36  39
    u[41]     primal_lower37  780
    u[41]     primal_lower38  476
    u[41]     primal_lower39  160
    u[41]     primal_lower40  632
    u[41]     primal_lower41  916
    u[41]     primal_lower42  292
    u[41]     primal_lower43  798
    u[41]     primal_lower44  818
    u[41]     primal_lower45  269
    u[41]     primal_lower46  771
    u[41]     primal_lower47  428
    u[41]     primal_lower48  190
    u[41]     primal_lower49  671
    u[41]     primal_lower50  154
    u[41]     primal_lower51  419
    u[41]     primal_lower52  671
    u[41]     primal_lower53  691
    u[41]     primal_lower54  996
    u[41]     primal_lower55  633
    u[41]     primal_lower56  144
    u[41]     primal_lower57  755
    u[41]     primal_lower58  202
    u[41]     primal_lower59  637
    u[41]     primal_lower60  802
    u[41]     primal_lower61  726
    u[41]     primal_lower62  360
    u[41]     primal_lower63  57
    u[41]     primal_lower64  766
    u[41]     primal_lower65  847
    u[41]     primal_lower66  668
    u[41]     primal_lower67  508
    u[41]     primal_lower68  955
    u[41]     primal_lower69  706
    u[41]     primal_lower70  406
    u[41]     primal_lower71  500
    u[41]     primal_lower72  891
    u[41]     primal_lower73  764
    u[41]     primal_lower74  563
    u[41]     primal_lower75  121
    u[41]     primal_lower76  526
    u[41]     primal_lower77  246
    u[41]     primal_lower78  543
    u[41]     primal_lower79  492
    u[41]     primal_lower80  423
    u[41]     primal_lower81  794
    u[41]     primal_lower82  359
    u[41]     primal_lower83  490
    u[41]     primal_lower84  572
    u[41]     primal_lower85  910
    u[41]     primal_lower86  245
    u[41]     primal_lower87  192
    u[41]     primal_lower88  803
    u[41]     primal_lower89  421
    u[41]     primal_lower90  472
    u[41]     primal_lower91  620
    u[41]     primal_lower92  74
    u[41]     primal_lower93  718
    u[41]     primal_lower94  781
    u[41]     primal_lower95  59
    u[41]     primal_lower96  747
    u[41]     primal_lower97  652
    u[41]     primal_lower98  374
    u[41]     primal_lower99  352
    u[41]     interdiction[41]  1
    u[41]     mccormick1[41]  -1
    u[41]     mccormick3[41]  1
    u[42]     primal_lower0  841
    u[42]     primal_lower1  709
    u[42]     primal_lower2  150
    u[42]     primal_lower3  560
    u[42]     primal_lower4  140
    u[42]     primal_lower5  527
    u[42]     primal_lower6  195
    u[42]     primal_lower7  594
    u[42]     primal_lower8  320
    u[42]     primal_lower9  836
    u[42]     primal_lower10  532
    u[42]     primal_lower11  361
    u[42]     primal_lower12  173
    u[42]     primal_lower13  206
    u[42]     primal_lower14  409
    u[42]     primal_lower15  593
    u[42]     primal_lower16  541
    u[42]     primal_lower17  143
    u[42]     primal_lower18  755
    u[42]     primal_lower19  307
    u[42]     primal_lower20  343
    u[42]     primal_lower21  416
    u[42]     primal_lower22  825
    u[42]     primal_lower23  887
    u[42]     primal_lower24  680
    u[42]     primal_lower25  551
    u[42]     primal_lower26  981
    u[42]     primal_lower27  18
    u[42]     primal_lower28  671
    u[42]     primal_lower29  647
    u[42]     primal_lower30  736
    u[42]     primal_lower31  564
    u[42]     primal_lower32  522
    u[42]     primal_lower33  882
    u[42]     primal_lower34  94
    u[42]     primal_lower35  428
    u[42]     primal_lower36  184
    u[42]     primal_lower37  280
    u[42]     primal_lower38  160
    u[42]     primal_lower39  740
    u[42]     primal_lower40  188
    u[42]     primal_lower41  1000
    u[42]     primal_lower42  480
    u[42]     primal_lower43  599
    u[42]     primal_lower44  942
    u[42]     primal_lower45  814
    u[42]     primal_lower46  860
    u[42]     primal_lower47  440
    u[42]     primal_lower48  274
    u[42]     primal_lower49  448
    u[42]     primal_lower50  334
    u[42]     primal_lower51  500
    u[42]     primal_lower52  235
    u[42]     primal_lower53  308
    u[42]     primal_lower54  765
    u[42]     primal_lower55  770
    u[42]     primal_lower56  209
    u[42]     primal_lower57  119
    u[42]     primal_lower58  915
    u[42]     primal_lower59  241
    u[42]     primal_lower60  806
    u[42]     primal_lower61  850
    u[42]     primal_lower62  172
    u[42]     primal_lower63  725
    u[42]     primal_lower64  482
    u[42]     primal_lower65  112
    u[42]     primal_lower66  357
    u[42]     primal_lower67  824
    u[42]     primal_lower68  15
    u[42]     primal_lower69  566
    u[42]     primal_lower70  450
    u[42]     primal_lower71  560
    u[42]     primal_lower72  884
    u[42]     primal_lower73  216
    u[42]     primal_lower74  524
    u[42]     primal_lower75  893
    u[42]     primal_lower76  751
    u[42]     primal_lower77  991
    u[42]     primal_lower78  595
    u[42]     primal_lower79  648
    u[42]     primal_lower80  304
    u[42]     primal_lower81  358
    u[42]     primal_lower82  635
    u[42]     primal_lower83  798
    u[42]     primal_lower84  200
    u[42]     primal_lower85  90
    u[42]     primal_lower86  161
    u[42]     primal_lower87  812
    u[42]     primal_lower88  556
    u[42]     primal_lower89  89
    u[42]     primal_lower90  929
    u[42]     primal_lower91  408
    u[42]     primal_lower92  326
    u[42]     primal_lower93  935
    u[42]     primal_lower94  790
    u[42]     primal_lower95  644
    u[42]     primal_lower96  388
    u[42]     primal_lower97  389
    u[42]     primal_lower98  135
    u[42]     primal_lower99  865
    u[42]     interdiction[42]  1
    u[42]     mccormick1[42]  -1
    u[42]     mccormick3[42]  1
    u[43]     primal_lower0  556
    u[43]     primal_lower1  525
    u[43]     primal_lower2  65
    u[43]     primal_lower3  744
    u[43]     primal_lower4  76
    u[43]     primal_lower5  242
    u[43]     primal_lower6  862
    u[43]     primal_lower7  314
    u[43]     primal_lower8  923
    u[43]     primal_lower9  612
    u[43]     primal_lower10  511
    u[43]     primal_lower11  617
    u[43]     primal_lower12  285
    u[43]     primal_lower13  742
    u[43]     primal_lower14  449
    u[43]     primal_lower15  412
    u[43]     primal_lower16  565
    u[43]     primal_lower17  39
    u[43]     primal_lower18  891
    u[43]     primal_lower19  331
    u[43]     primal_lower20  722
    u[43]     primal_lower21  779
    u[43]     primal_lower22  948
    u[43]     primal_lower23  234
    u[43]     primal_lower24  368
    u[43]     primal_lower25  450
    u[43]     primal_lower26  37
    u[43]     primal_lower27  674
    u[43]     primal_lower28  423
    u[43]     primal_lower29  319
    u[43]     primal_lower30  328
    u[43]     primal_lower31  967
    u[43]     primal_lower32  258
    u[43]     primal_lower33  981
    u[43]     primal_lower34  622
    u[43]     primal_lower35  575
    u[43]     primal_lower36  675
    u[43]     primal_lower37  120
    u[43]     primal_lower38  776
    u[43]     primal_lower39  372
    u[43]     primal_lower40  388
    u[43]     primal_lower41  504
    u[43]     primal_lower42  208
    u[43]     primal_lower43  698
    u[43]     primal_lower44  438
    u[43]     primal_lower45  513
    u[43]     primal_lower46  207
    u[43]     primal_lower47  576
    u[43]     primal_lower48  258
    u[43]     primal_lower49  659
    u[43]     primal_lower50  350
    u[43]     primal_lower51  751
    u[43]     primal_lower52  587
    u[43]     primal_lower53  551
    u[43]     primal_lower54  840
    u[43]     primal_lower55  989
    u[43]     primal_lower56  148
    u[43]     primal_lower57  863
    u[43]     primal_lower58  238
    u[43]     primal_lower59  921
    u[43]     primal_lower60  590
    u[43]     primal_lower61  738
    u[43]     primal_lower62  44
    u[43]     primal_lower63  509
    u[43]     primal_lower64  986
    u[43]     primal_lower65  995
    u[43]     primal_lower66  328
    u[43]     primal_lower67  120
    u[43]     primal_lower68  727
    u[43]     primal_lower69  862
    u[43]     primal_lower70  370
    u[43]     primal_lower71  104
    u[43]     primal_lower72  815
    u[43]     primal_lower73  312
    u[43]     primal_lower74  711
    u[43]     primal_lower75  677
    u[43]     primal_lower76  418
    u[43]     primal_lower77  114
    u[43]     primal_lower78  923
    u[43]     primal_lower79  840
    u[43]     primal_lower80  179
    u[43]     primal_lower81  838
    u[43]     primal_lower82  819
    u[43]     primal_lower83  110
    u[43]     primal_lower84  272
    u[43]     primal_lower85  922
    u[43]     primal_lower86  97
    u[43]     primal_lower87  204
    u[43]     primal_lower88  303
    u[43]     primal_lower89  473
    u[43]     primal_lower90  220
    u[43]     primal_lower91  96
    u[43]     primal_lower92  542
    u[43]     primal_lower93  570
    u[43]     primal_lower94  41
    u[43]     primal_lower95  55
    u[43]     primal_lower96  159
    u[43]     primal_lower97  448
    u[43]     primal_lower98  338
    u[43]     primal_lower99  740
    u[43]     interdiction[43]  1
    u[43]     mccormick1[43]  -1
    u[43]     mccormick3[43]  1
    u[44]     primal_lower0  434
    u[44]     primal_lower1  54
    u[44]     primal_lower2  615
    u[44]     primal_lower3  33
    u[44]     primal_lower4  477
    u[44]     primal_lower5  368
    u[44]     primal_lower6  796
    u[44]     primal_lower7  315
    u[44]     primal_lower8  545
    u[44]     primal_lower9  13
    u[44]     primal_lower10  21
    u[44]     primal_lower11  802
    u[44]     primal_lower12  398
    u[44]     primal_lower13  15
    u[44]     primal_lower14  874
    u[44]     primal_lower15  10
    u[44]     primal_lower16  806
    u[44]     primal_lower17  752
    u[44]     primal_lower18  716
    u[44]     primal_lower19  764
    u[44]     primal_lower20  512
    u[44]     primal_lower21  81
    u[44]     primal_lower22  522
    u[44]     primal_lower23  584
    u[44]     primal_lower24  929
    u[44]     primal_lower25  376
    u[44]     primal_lower26  734
    u[44]     primal_lower27  35
    u[44]     primal_lower28  664
    u[44]     primal_lower29  848
    u[44]     primal_lower30  753
    u[44]     primal_lower31  285
    u[44]     primal_lower32  459
    u[44]     primal_lower33  123
    u[44]     primal_lower34  831
    u[44]     primal_lower35  445
    u[44]     primal_lower36  993
    u[44]     primal_lower37  993
    u[44]     primal_lower38  281
    u[44]     primal_lower39  757
    u[44]     primal_lower40  493
    u[44]     primal_lower41  921
    u[44]     primal_lower42  17
    u[44]     primal_lower43  328
    u[44]     primal_lower44  495
    u[44]     primal_lower45  687
    u[44]     primal_lower46  205
    u[44]     primal_lower47  937
    u[44]     primal_lower48  523
    u[44]     primal_lower49  609
    u[44]     primal_lower50  351
    u[44]     primal_lower51  237
    u[44]     primal_lower52  844
    u[44]     primal_lower53  445
    u[44]     primal_lower54  934
    u[44]     primal_lower55  843
    u[44]     primal_lower56  138
    u[44]     primal_lower57  680
    u[44]     primal_lower58  948
    u[44]     primal_lower59  858
    u[44]     primal_lower60  855
    u[44]     primal_lower61  931
    u[44]     primal_lower62  829
    u[44]     primal_lower63  926
    u[44]     primal_lower64  387
    u[44]     primal_lower65  529
    u[44]     primal_lower66  566
    u[44]     primal_lower67  977
    u[44]     primal_lower68  952
    u[44]     primal_lower69  335
    u[44]     primal_lower70  251
    u[44]     primal_lower71  57
    u[44]     primal_lower72  333
    u[44]     primal_lower73  841
    u[44]     primal_lower74  149
    u[44]     primal_lower75  742
    u[44]     primal_lower76  464
    u[44]     primal_lower77  680
    u[44]     primal_lower78  876
    u[44]     primal_lower79  409
    u[44]     primal_lower80  937
    u[44]     primal_lower81  543
    u[44]     primal_lower82  204
    u[44]     primal_lower83  695
    u[44]     primal_lower84  681
    u[44]     primal_lower85  251
    u[44]     primal_lower86  706
    u[44]     primal_lower87  677
    u[44]     primal_lower88  733
    u[44]     primal_lower89  922
    u[44]     primal_lower90  770
    u[44]     primal_lower91  321
    u[44]     primal_lower92  511
    u[44]     primal_lower93  152
    u[44]     primal_lower94  879
    u[44]     primal_lower95  861
    u[44]     primal_lower96  77
    u[44]     primal_lower97  374
    u[44]     primal_lower98  912
    u[44]     primal_lower99  474
    u[44]     interdiction[44]  1
    u[44]     mccormick1[44]  -1
    u[44]     mccormick3[44]  1
    u[45]     primal_lower0  721
    u[45]     primal_lower1  674
    u[45]     primal_lower2  30
    u[45]     primal_lower3  341
    u[45]     primal_lower4  793
    u[45]     primal_lower5  127
    u[45]     primal_lower6  563
    u[45]     primal_lower7  495
    u[45]     primal_lower8  208
    u[45]     primal_lower9  785
    u[45]     primal_lower10  820
    u[45]     primal_lower11  454
    u[45]     primal_lower12  674
    u[45]     primal_lower13  843
    u[45]     primal_lower14  502
    u[45]     primal_lower15  185
    u[45]     primal_lower16  202
    u[45]     primal_lower17  404
    u[45]     primal_lower18  552
    u[45]     primal_lower19  112
    u[45]     primal_lower20  367
    u[45]     primal_lower21  472
    u[45]     primal_lower22  881
    u[45]     primal_lower23  991
    u[45]     primal_lower24  469
    u[45]     primal_lower25  855
    u[45]     primal_lower26  906
    u[45]     primal_lower27  159
    u[45]     primal_lower28  372
    u[45]     primal_lower29  676
    u[45]     primal_lower30  405
    u[45]     primal_lower31  348
    u[45]     primal_lower32  679
    u[45]     primal_lower33  362
    u[45]     primal_lower34  851
    u[45]     primal_lower35  484
    u[45]     primal_lower36  528
    u[45]     primal_lower37  453
    u[45]     primal_lower38  845
    u[45]     primal_lower39  225
    u[45]     primal_lower40  409
    u[45]     primal_lower41  325
    u[45]     primal_lower42  381
    u[45]     primal_lower43  111
    u[45]     primal_lower44  67
    u[45]     primal_lower45  790
    u[45]     primal_lower46  28
    u[45]     primal_lower47  861
    u[45]     primal_lower48  495
    u[45]     primal_lower49  992
    u[45]     primal_lower50  411
    u[45]     primal_lower51  852
    u[45]     primal_lower52  848
    u[45]     primal_lower53  188
    u[45]     primal_lower54  541
    u[45]     primal_lower55  682
    u[45]     primal_lower56  449
    u[45]     primal_lower57  260
    u[45]     primal_lower58  675
    u[45]     primal_lower59  782
    u[45]     primal_lower60  555
    u[45]     primal_lower61  607
    u[45]     primal_lower62  377
    u[45]     primal_lower63  762
    u[45]     primal_lower64  983
    u[45]     primal_lower65  408
    u[45]     primal_lower66  565
    u[45]     primal_lower67  213
    u[45]     primal_lower68  612
    u[45]     primal_lower69  995
    u[45]     primal_lower70  39
    u[45]     primal_lower71  69
    u[45]     primal_lower72  828
    u[45]     primal_lower73  789
    u[45]     primal_lower74  172
    u[45]     primal_lower75  850
    u[45]     primal_lower76  39
    u[45]     primal_lower77  919
    u[45]     primal_lower78  472
    u[45]     primal_lower79  493
    u[45]     primal_lower80  200
    u[45]     primal_lower81  467
    u[45]     primal_lower82  800
    u[45]     primal_lower83  411
    u[45]     primal_lower84  293
    u[45]     primal_lower85  623
    u[45]     primal_lower86  446
    u[45]     primal_lower87  649
    u[45]     primal_lower88  316
    u[45]     primal_lower89  710
    u[45]     primal_lower90  121
    u[45]     primal_lower91  509
    u[45]     primal_lower92  3
    u[45]     primal_lower93  215
    u[45]     primal_lower94  606
    u[45]     primal_lower95  780
    u[45]     primal_lower96  244
    u[45]     primal_lower97  261
    u[45]     primal_lower98  183
    u[45]     primal_lower99  817
    u[45]     interdiction[45]  1
    u[45]     mccormick1[45]  -1
    u[45]     mccormick3[45]  1
    u[46]     primal_lower0  92
    u[46]     primal_lower1  145
    u[46]     primal_lower2  41
    u[46]     primal_lower3  996
    u[46]     primal_lower4  872
    u[46]     primal_lower5  658
    u[46]     primal_lower6  470
    u[46]     primal_lower7  174
    u[46]     primal_lower8  227
    u[46]     primal_lower9  960
    u[46]     primal_lower10  287
    u[46]     primal_lower11  485
    u[46]     primal_lower12  969
    u[46]     primal_lower13  306
    u[46]     primal_lower14  261
    u[46]     primal_lower15  548
    u[46]     primal_lower16  81
    u[46]     primal_lower17  579
    u[46]     primal_lower18  175
    u[46]     primal_lower19  15
    u[46]     primal_lower20  826
    u[46]     primal_lower21  603
    u[46]     primal_lower22  188
    u[46]     primal_lower23  386
    u[46]     primal_lower24  652
    u[46]     primal_lower25  578
    u[46]     primal_lower26  697
    u[46]     primal_lower27  622
    u[46]     primal_lower28  115
    u[46]     primal_lower29  187
    u[46]     primal_lower30  724
    u[46]     primal_lower31  399
    u[46]     primal_lower32  478
    u[46]     primal_lower33  933
    u[46]     primal_lower34  466
    u[46]     primal_lower35  15
    u[46]     primal_lower36  635
    u[46]     primal_lower37  148
    u[46]     primal_lower38  988
    u[46]     primal_lower39  680
    u[46]     primal_lower40  528
    u[46]     primal_lower41  316
    u[46]     primal_lower42  692
    u[46]     primal_lower43  626
    u[46]     primal_lower44  338
    u[46]     primal_lower45  329
    u[46]     primal_lower46  359
    u[46]     primal_lower47  660
    u[46]     primal_lower48  166
    u[46]     primal_lower49  179
    u[46]     primal_lower50  202
    u[46]     primal_lower51  119
    u[46]     primal_lower52  535
    u[46]     primal_lower53  279
    u[46]     primal_lower54  296
    u[46]     primal_lower55  517
    u[46]     primal_lower56  276
    u[46]     primal_lower57  59
    u[46]     primal_lower58  622
    u[46]     primal_lower59  869
    u[46]     primal_lower60  826
    u[46]     primal_lower61  310
    u[46]     primal_lower62  896
    u[46]     primal_lower63  569
    u[46]     primal_lower64  110
    u[46]     primal_lower65  779
    u[46]     primal_lower66  56
    u[46]     primal_lower67  796
    u[46]     primal_lower68  91
    u[46]     primal_lower69  90
    u[46]     primal_lower70  398
    u[46]     primal_lower71  292
    u[46]     primal_lower72  183
    u[46]     primal_lower73  596
    u[46]     primal_lower74  255
    u[46]     primal_lower75  297
    u[46]     primal_lower76  906
    u[46]     primal_lower77  874
    u[46]     primal_lower78  559
    u[46]     primal_lower79  756
    u[46]     primal_lower80  251
    u[46]     primal_lower81  618
    u[46]     primal_lower82  863
    u[46]     primal_lower83  218
    u[46]     primal_lower84  388
    u[46]     primal_lower85  174
    u[46]     primal_lower86  493
    u[46]     primal_lower87  976
    u[46]     primal_lower88  759
    u[46]     primal_lower89  245
    u[46]     primal_lower90  180
    u[46]     primal_lower91  356
    u[46]     primal_lower92  962
    u[46]     primal_lower93  58
    u[46]     primal_lower94  281
    u[46]     primal_lower95  223
    u[46]     primal_lower96  415
    u[46]     primal_lower97  520
    u[46]     primal_lower98  322
    u[46]     primal_lower99  628
    u[46]     interdiction[46]  1
    u[46]     mccormick1[46]  -1
    u[46]     mccormick3[46]  1
    u[47]     primal_lower0  624
    u[47]     primal_lower1  929
    u[47]     primal_lower2  269
    u[47]     primal_lower3  996
    u[47]     primal_lower4  296
    u[47]     primal_lower5  806
    u[47]     primal_lower6  706
    u[47]     primal_lower7  662
    u[47]     primal_lower8  823
    u[47]     primal_lower9  784
    u[47]     primal_lower10  427
    u[47]     primal_lower11  141
    u[47]     primal_lower12  905
    u[47]     primal_lower13  562
    u[47]     primal_lower14  477
    u[47]     primal_lower15  520
    u[47]     primal_lower16  249
    u[47]     primal_lower17  643
    u[47]     primal_lower18  639
    u[47]     primal_lower19  463
    u[47]     primal_lower20  726
    u[47]     primal_lower21  751
    u[47]     primal_lower22  328
    u[47]     primal_lower23  782
    u[47]     primal_lower24  988
    u[47]     primal_lower25  470
    u[47]     primal_lower26  209
    u[47]     primal_lower27  878
    u[47]     primal_lower28  451
    u[47]     primal_lower29  731
    u[47]     primal_lower30  796
    u[47]     primal_lower31  723
    u[47]     primal_lower32  710
    u[47]     primal_lower33  49
    u[47]     primal_lower34  242
    u[47]     primal_lower35  83
    u[47]     primal_lower36  935
    u[47]     primal_lower37  196
    u[47]     primal_lower38  452
    u[47]     primal_lower39  856
    u[47]     primal_lower40  488
    u[47]     primal_lower41  100
    u[47]     primal_lower42  220
    u[47]     primal_lower43  262
    u[47]     primal_lower44  106
    u[47]     primal_lower45  957
    u[47]     primal_lower46  715
    u[47]     primal_lower47  748
    u[47]     primal_lower48  806
    u[47]     primal_lower49  143
    u[47]     primal_lower50  730
    u[47]     primal_lower51  387
    u[47]     primal_lower52  55
    u[47]     primal_lower53  395
    u[47]     primal_lower54  708
    u[47]     primal_lower55  785
    u[47]     primal_lower56  224
    u[47]     primal_lower57  275
    u[47]     primal_lower58  906
    u[47]     primal_lower59  597
    u[47]     primal_lower60  722
    u[47]     primal_lower61  694
    u[47]     primal_lower62  32
    u[47]     primal_lower63  425
    u[47]     primal_lower64  550
    u[47]     primal_lower65  183
    u[47]     primal_lower66  492
    u[47]     primal_lower67  196
    u[47]     primal_lower68  227
    u[47]     primal_lower69  234
    u[47]     primal_lower70  358
    u[47]     primal_lower71  788
    u[47]     primal_lower72  787
    u[47]     primal_lower73  164
    u[47]     primal_lower74  355
    u[47]     primal_lower75  609
    u[47]     primal_lower76  142
    u[47]     primal_lower77  622
    u[47]     primal_lower78  31
    u[47]     primal_lower79  44
    u[47]     primal_lower80  479
    u[47]     primal_lower81  642
    u[47]     primal_lower82  343
    u[47]     primal_lower83  898
    u[47]     primal_lower84  164
    u[47]     primal_lower85  926
    u[47]     primal_lower86  965
    u[47]     primal_lower87  512
    u[47]     primal_lower88  699
    u[47]     primal_lower89  165
    u[47]     primal_lower90  872
    u[47]     primal_lower91  860
    u[47]     primal_lower92  954
    u[47]     primal_lower93  14
    u[47]     primal_lower94  741
    u[47]     primal_lower95  99
    u[47]     primal_lower96  723
    u[47]     primal_lower97  132
    u[47]     primal_lower98  886
    u[47]     primal_lower99  696
    u[47]     interdiction[47]  1
    u[47]     mccormick1[47]  -1
    u[47]     mccormick3[47]  1
    u[48]     primal_lower0  898
    u[48]     primal_lower1  230
    u[48]     primal_lower2  343
    u[48]     primal_lower3  881
    u[48]     primal_lower4  893
    u[48]     primal_lower5  760
    u[48]     primal_lower6  156
    u[48]     primal_lower7  11
    u[48]     primal_lower8  177
    u[48]     primal_lower9  717
    u[48]     primal_lower10  309
    u[48]     primal_lower11  498
    u[48]     primal_lower12  534
    u[48]     primal_lower13  767
    u[48]     primal_lower14  354
    u[48]     primal_lower15  690
    u[48]     primal_lower16  70
    u[48]     primal_lower17  200
    u[48]     primal_lower18  268
    u[48]     primal_lower19  316
    u[48]     primal_lower20  408
    u[48]     primal_lower21  833
    u[48]     primal_lower22  274
    u[48]     primal_lower23  800
    u[48]     primal_lower24  217
    u[48]     primal_lower25  992
    u[48]     primal_lower26  86
    u[48]     primal_lower27  539
    u[48]     primal_lower28  168
    u[48]     primal_lower29  152
    u[48]     primal_lower30  153
    u[48]     primal_lower31  189
    u[48]     primal_lower32  931
    u[48]     primal_lower33  299
    u[48]     primal_lower34  775
    u[48]     primal_lower35  845
    u[48]     primal_lower36  177
    u[48]     primal_lower37  129
    u[48]     primal_lower38  465
    u[48]     primal_lower39  269
    u[48]     primal_lower40  949
    u[48]     primal_lower41  993
    u[48]     primal_lower42  257
    u[48]     primal_lower43  872
    u[48]     primal_lower44  239
    u[48]     primal_lower45  935
    u[48]     primal_lower46  989
    u[48]     primal_lower47  169
    u[48]     primal_lower48  587
    u[48]     primal_lower49  217
    u[48]     primal_lower50  615
    u[48]     primal_lower51  989
    u[48]     primal_lower52  108
    u[48]     primal_lower53  669
    u[48]     primal_lower54  502
    u[48]     primal_lower55  795
    u[48]     primal_lower56  298
    u[48]     primal_lower57  248
    u[48]     primal_lower58  404
    u[48]     primal_lower59  122
    u[48]     primal_lower60  271
    u[48]     primal_lower61  147
    u[48]     primal_lower62  957
    u[48]     primal_lower63  926
    u[48]     primal_lower64  979
    u[48]     primal_lower65  473
    u[48]     primal_lower66  230
    u[48]     primal_lower67  145
    u[48]     primal_lower68  472
    u[48]     primal_lower69  431
    u[48]     primal_lower70  187
    u[48]     primal_lower71  913
    u[48]     primal_lower72  765
    u[48]     primal_lower73  89
    u[48]     primal_lower74  277
    u[48]     primal_lower75  22
    u[48]     primal_lower76  56
    u[48]     primal_lower77  512
    u[48]     primal_lower78  236
    u[48]     primal_lower79  209
    u[48]     primal_lower80  745
    u[48]     primal_lower81  327
    u[48]     primal_lower82  956
    u[48]     primal_lower83  919
    u[48]     primal_lower84  641
    u[48]     primal_lower85  611
    u[48]     primal_lower86  298
    u[48]     primal_lower87  261
    u[48]     primal_lower88  461
    u[48]     primal_lower89  290
    u[48]     primal_lower90  298
    u[48]     primal_lower91  625
    u[48]     primal_lower92  159
    u[48]     primal_lower93  656
    u[48]     primal_lower94  271
    u[48]     primal_lower95  941
    u[48]     primal_lower96  29
    u[48]     primal_lower97  774
    u[48]     primal_lower98  304
    u[48]     primal_lower99  274
    u[48]     interdiction[48]  1
    u[48]     mccormick1[48]  -1
    u[48]     mccormick3[48]  1
    u[49]     primal_lower0  143
    u[49]     primal_lower1  263
    u[49]     primal_lower2  228
    u[49]     primal_lower3  122
    u[49]     primal_lower4  854
    u[49]     primal_lower5  965
    u[49]     primal_lower6  577
    u[49]     primal_lower7  828
    u[49]     primal_lower8  550
    u[49]     primal_lower9  710
    u[49]     primal_lower10  650
    u[49]     primal_lower11  611
    u[49]     primal_lower12  527
    u[49]     primal_lower13  1000
    u[49]     primal_lower14  787
    u[49]     primal_lower15  391
    u[49]     primal_lower16  599
    u[49]     primal_lower17  529
    u[49]     primal_lower18  45
    u[49]     primal_lower19  493
    u[49]     primal_lower20  701
    u[49]     primal_lower21  798
    u[49]     primal_lower22  663
    u[49]     primal_lower23  205
    u[49]     primal_lower24  554
    u[49]     primal_lower25  661
    u[49]     primal_lower26  407
    u[49]     primal_lower27  876
    u[49]     primal_lower28  281
    u[49]     primal_lower29  265
    u[49]     primal_lower30  866
    u[49]     primal_lower31  562
    u[49]     primal_lower32  508
    u[49]     primal_lower33  688
    u[49]     primal_lower34  168
    u[49]     primal_lower35  266
    u[49]     primal_lower36  62
    u[49]     primal_lower37  906
    u[49]     primal_lower38  234
    u[49]     primal_lower39  222
    u[49]     primal_lower40  758
    u[49]     primal_lower41  882
    u[49]     primal_lower42  650
    u[49]     primal_lower43  885
    u[49]     primal_lower44  560
    u[49]     primal_lower45  444
    u[49]     primal_lower46  450
    u[49]     primal_lower47  90
    u[49]     primal_lower48  652
    u[49]     primal_lower49  862
    u[49]     primal_lower50  640
    u[49]     primal_lower51  842
    u[49]     primal_lower52  429
    u[49]     primal_lower53  234
    u[49]     primal_lower54  683
    u[49]     primal_lower55  304
    u[49]     primal_lower56  687
    u[49]     primal_lower57  769
    u[49]     primal_lower58  553
    u[49]     primal_lower59  659
    u[49]     primal_lower60  864
    u[49]     primal_lower61  540
    u[49]     primal_lower62  654
    u[49]     primal_lower63  207
    u[49]     primal_lower64  612
    u[49]     primal_lower65  574
    u[49]     primal_lower66  67
    u[49]     primal_lower67  330
    u[49]     primal_lower68  561
    u[49]     primal_lower69  584
    u[49]     primal_lower70  636
    u[49]     primal_lower71  10
    u[49]     primal_lower72  354
    u[49]     primal_lower73  394
    u[49]     primal_lower74  50
    u[49]     primal_lower75  671
    u[49]     primal_lower76  149
    u[49]     primal_lower77  101
    u[49]     primal_lower78  781
    u[49]     primal_lower79  898
    u[49]     primal_lower80  14
    u[49]     primal_lower81  288
    u[49]     primal_lower82  717
    u[49]     primal_lower83  712
    u[49]     primal_lower84  154
    u[49]     primal_lower85  220
    u[49]     primal_lower86  459
    u[49]     primal_lower87  606
    u[49]     primal_lower88  578
    u[49]     primal_lower89  547
    u[49]     primal_lower90  383
    u[49]     primal_lower91  626
    u[49]     primal_lower92  656
    u[49]     primal_lower93  557
    u[49]     primal_lower94  156
    u[49]     primal_lower95  722
    u[49]     primal_lower96  666
    u[49]     primal_lower97  955
    u[49]     primal_lower98  829
    u[49]     primal_lower99  287
    u[49]     interdiction[49]  1
    u[49]     mccormick1[49]  -1
    u[49]     mccormick3[49]  1
    u[50]     primal_lower0  537
    u[50]     primal_lower1  942
    u[50]     primal_lower2  270
    u[50]     primal_lower3  833
    u[50]     primal_lower4  197
    u[50]     primal_lower5  823
    u[50]     primal_lower6  339
    u[50]     primal_lower7  595
    u[50]     primal_lower8  216
    u[50]     primal_lower9  173
    u[50]     primal_lower10  348
    u[50]     primal_lower11  618
    u[50]     primal_lower12  446
    u[50]     primal_lower13  999
    u[50]     primal_lower14  562
    u[50]     primal_lower15  73
    u[50]     primal_lower16  206
    u[50]     primal_lower17  736
    u[50]     primal_lower18  92
    u[50]     primal_lower19  844
    u[50]     primal_lower20  631
    u[50]     primal_lower21  64
    u[50]     primal_lower22  241
    u[50]     primal_lower23  327
    u[50]     primal_lower24  57
    u[50]     primal_lower25  863
    u[50]     primal_lower26  902
    u[50]     primal_lower27  355
    u[50]     primal_lower28  512
    u[50]     primal_lower29  232
    u[50]     primal_lower30  609
    u[50]     primal_lower31  516
    u[50]     primal_lower32  939
    u[50]     primal_lower33  514
    u[50]     primal_lower34  879
    u[50]     primal_lower35  572
    u[50]     primal_lower36  592
    u[50]     primal_lower37  937
    u[50]     primal_lower38  417
    u[50]     primal_lower39  349
    u[50]     primal_lower40  517
    u[50]     primal_lower41  785
    u[50]     primal_lower42  489
    u[50]     primal_lower43  167
    u[50]     primal_lower44  607
    u[50]     primal_lower45  830
    u[50]     primal_lower46  260
    u[50]     primal_lower47  601
    u[50]     primal_lower48  947
    u[50]     primal_lower49  184
    u[50]     primal_lower50  479
    u[50]     primal_lower51  284
    u[50]     primal_lower52  244
    u[50]     primal_lower53  660
    u[50]     primal_lower54  533
    u[50]     primal_lower55  2
    u[50]     primal_lower56  745
    u[50]     primal_lower57  512
    u[50]     primal_lower58  443
    u[50]     primal_lower59  522
    u[50]     primal_lower60  671
    u[50]     primal_lower61  3
    u[50]     primal_lower62  629
    u[50]     primal_lower63  542
    u[50]     primal_lower64  179
    u[50]     primal_lower65  776
    u[50]     primal_lower66  645
    u[50]     primal_lower67  561
    u[50]     primal_lower68  720
    u[50]     primal_lower69  263
    u[50]     primal_lower70  19
    u[50]     primal_lower71  33
    u[50]     primal_lower72  60
    u[50]     primal_lower73  17
    u[50]     primal_lower74  52
    u[50]     primal_lower75  454
    u[50]     primal_lower76  359
    u[50]     primal_lower77  23
    u[50]     primal_lower78  356
    u[50]     primal_lower79  945
    u[50]     primal_lower80  688
    u[50]     primal_lower81  31
    u[50]     primal_lower82  652
    u[50]     primal_lower83  983
    u[50]     primal_lower84  145
    u[50]     primal_lower85  595
    u[50]     primal_lower86  994
    u[50]     primal_lower87  997
    u[50]     primal_lower88  988
    u[50]     primal_lower89  410
    u[50]     primal_lower90  953
    u[50]     primal_lower91  169
    u[50]     primal_lower92  439
    u[50]     primal_lower93  871
    u[50]     primal_lower94  798
    u[50]     primal_lower95  572
    u[50]     primal_lower96  532
    u[50]     primal_lower97  101
    u[50]     primal_lower98  231
    u[50]     primal_lower99  313
    u[50]     interdiction[50]  1
    u[50]     mccormick1[50]  -1
    u[50]     mccormick3[50]  1
    u[51]     primal_lower0  95
    u[51]     primal_lower1  935
    u[51]     primal_lower2  284
    u[51]     primal_lower3  954
    u[51]     primal_lower4  486
    u[51]     primal_lower5  197
    u[51]     primal_lower6  457
    u[51]     primal_lower7  884
    u[51]     primal_lower8  86
    u[51]     primal_lower9  654
    u[51]     primal_lower10  226
    u[51]     primal_lower11  443
    u[51]     primal_lower12  207
    u[51]     primal_lower13  512
    u[51]     primal_lower14  587
    u[51]     primal_lower15  423
    u[51]     primal_lower16  887
    u[51]     primal_lower17  705
    u[51]     primal_lower18  773
    u[51]     primal_lower19  61
    u[51]     primal_lower20  885
    u[51]     primal_lower21  86
    u[51]     primal_lower22  63
    u[51]     primal_lower23  133
    u[51]     primal_lower24  266
    u[51]     primal_lower25  845
    u[51]     primal_lower26  263
    u[51]     primal_lower27  836
    u[51]     primal_lower28  337
    u[51]     primal_lower29  233
    u[51]     primal_lower30  338
    u[51]     primal_lower31  418
    u[51]     primal_lower32  676
    u[51]     primal_lower33  1000
    u[51]     primal_lower34  800
    u[51]     primal_lower35  386
    u[51]     primal_lower36  774
    u[51]     primal_lower37  114
    u[51]     primal_lower38  938
    u[51]     primal_lower39  702
    u[51]     primal_lower40  238
    u[51]     primal_lower41  354
    u[51]     primal_lower42  450
    u[51]     primal_lower43  253
    u[51]     primal_lower44  360
    u[51]     primal_lower45  44
    u[51]     primal_lower46  178
    u[51]     primal_lower47  882
    u[51]     primal_lower48  436
    u[51]     primal_lower49  718
    u[51]     primal_lower50  520
    u[51]     primal_lower51  722
    u[51]     primal_lower52  173
    u[51]     primal_lower53  226
    u[51]     primal_lower54  595
    u[51]     primal_lower55  304
    u[51]     primal_lower56  167
    u[51]     primal_lower57  921
    u[51]     primal_lower58  809
    u[51]     primal_lower59  867
    u[51]     primal_lower60  896
    u[51]     primal_lower61  964
    u[51]     primal_lower62  374
    u[51]     primal_lower63  831
    u[51]     primal_lower64  396
    u[51]     primal_lower65  558
    u[51]     primal_lower66  611
    u[51]     primal_lower67  666
    u[51]     primal_lower68  513
    u[51]     primal_lower69  984
    u[51]     primal_lower70  684
    u[51]     primal_lower71  658
    u[51]     primal_lower72  90
    u[51]     primal_lower73  570
    u[51]     primal_lower74  914
    u[51]     primal_lower75  263
    u[51]     primal_lower76  861
    u[51]     primal_lower77  709
    u[51]     primal_lower78  309
    u[51]     primal_lower79  202
    u[51]     primal_lower80  350
    u[51]     primal_lower81  112
    u[51]     primal_lower82  237
    u[51]     primal_lower83  600
    u[51]     primal_lower84  602
    u[51]     primal_lower85  116
    u[51]     primal_lower86  139
    u[51]     primal_lower87  238
    u[51]     primal_lower88  130
    u[51]     primal_lower89  899
    u[51]     primal_lower90  15
    u[51]     primal_lower91  906
    u[51]     primal_lower92  320
    u[51]     primal_lower93  189
    u[51]     primal_lower94  156
    u[51]     primal_lower95  90
    u[51]     primal_lower96  482
    u[51]     primal_lower97  11
    u[51]     primal_lower98  437
    u[51]     primal_lower99  959
    u[51]     interdiction[51]  1
    u[51]     mccormick1[51]  -1
    u[51]     mccormick3[51]  1
    u[52]     primal_lower0  912
    u[52]     primal_lower1  988
    u[52]     primal_lower2  13
    u[52]     primal_lower3  535
    u[52]     primal_lower4  499
    u[52]     primal_lower5  494
    u[52]     primal_lower6  378
    u[52]     primal_lower7  169
    u[52]     primal_lower8  399
    u[52]     primal_lower9  643
    u[52]     primal_lower10  435
    u[52]     primal_lower11  696
    u[52]     primal_lower12  60
    u[52]     primal_lower13  509
    u[52]     primal_lower14  272
    u[52]     primal_lower15  376
    u[52]     primal_lower16  76
    u[52]     primal_lower17  630
    u[52]     primal_lower18  306
    u[52]     primal_lower19  58
    u[52]     primal_lower20  334
    u[52]     primal_lower21  287
    u[52]     primal_lower22  656
    u[52]     primal_lower23  718
    u[52]     primal_lower24  287
    u[52]     primal_lower25  294
    u[52]     primal_lower26  412
    u[52]     primal_lower27  761
    u[52]     primal_lower28  78
    u[52]     primal_lower29  982
    u[52]     primal_lower30  183
    u[52]     primal_lower31  139
    u[52]     primal_lower32  841
    u[52]     primal_lower33  185
    u[52]     primal_lower34  789
    u[52]     primal_lower35  875
    u[52]     primal_lower36  295
    u[52]     primal_lower37  743
    u[52]     primal_lower38  71
    u[52]     primal_lower39  187
    u[52]     primal_lower40  203
    u[52]     primal_lower41  95
    u[52]     primal_lower42  463
    u[52]     primal_lower43  990
    u[52]     primal_lower44  533
    u[52]     primal_lower45  829
    u[52]     primal_lower46  331
    u[52]     primal_lower47  455
    u[52]     primal_lower48  393
    u[52]     primal_lower49  327
    u[52]     primal_lower50  589
    u[52]     primal_lower51  195
    u[52]     primal_lower52  530
    u[52]     primal_lower53  147
    u[52]     primal_lower54  460
    u[52]     primal_lower55  409
    u[52]     primal_lower56  416
    u[52]     primal_lower57  334
    u[52]     primal_lower58  586
    u[52]     primal_lower59  840
    u[52]     primal_lower60  405
    u[52]     primal_lower61  305
    u[52]     primal_lower62  739
    u[52]     primal_lower63  572
    u[52]     primal_lower64  353
    u[52]     primal_lower65  703
    u[52]     primal_lower66  508
    u[52]     primal_lower67  591
    u[52]     primal_lower68  38
    u[52]     primal_lower69  413
    u[52]     primal_lower70  961
    u[52]     primal_lower71  767
    u[52]     primal_lower72  819
    u[52]     primal_lower73  631
    u[52]     primal_lower74  939
    u[52]     primal_lower75  676
    u[52]     primal_lower76  214
    u[52]     primal_lower77  414
    u[52]     primal_lower78  866
    u[52]     primal_lower79  383
    u[52]     primal_lower80  343
    u[52]     primal_lower81  469
    u[52]     primal_lower82  666
    u[52]     primal_lower83  661
    u[52]     primal_lower84  991
    u[52]     primal_lower85  969
    u[52]     primal_lower86  448
    u[52]     primal_lower87  11
    u[52]     primal_lower88  851
    u[52]     primal_lower89  648
    u[52]     primal_lower90  88
    u[52]     primal_lower91  391
    u[52]     primal_lower92  949
    u[52]     primal_lower93  902
    u[52]     primal_lower94  549
    u[52]     primal_lower95  611
    u[52]     primal_lower96  107
    u[52]     primal_lower97  980
    u[52]     primal_lower98  798
    u[52]     primal_lower99  160
    u[52]     interdiction[52]  1
    u[52]     mccormick1[52]  -1
    u[52]     mccormick3[52]  1
    u[53]     primal_lower0  675
    u[53]     primal_lower1  35
    u[53]     primal_lower2  664
    u[53]     primal_lower3  646
    u[53]     primal_lower4  514
    u[53]     primal_lower5  889
    u[53]     primal_lower6  965
    u[53]     primal_lower7  432
    u[53]     primal_lower8  314
    u[53]     primal_lower9  354
    u[53]     primal_lower10  502
    u[53]     primal_lower11  7
    u[53]     primal_lower12  651
    u[53]     primal_lower13  836
    u[53]     primal_lower14  711
    u[53]     primal_lower15  227
    u[53]     primal_lower16  619
    u[53]     primal_lower17  117
    u[53]     primal_lower18  25
    u[53]     primal_lower19  585
    u[53]     primal_lower20  65
    u[53]     primal_lower21  738
    u[53]     primal_lower22  43
    u[53]     primal_lower23  681
    u[53]     primal_lower24  638
    u[53]     primal_lower25  505
    u[53]     primal_lower26  115
    u[53]     primal_lower27  280
    u[53]     primal_lower28  549
    u[53]     primal_lower29  205
    u[53]     primal_lower30  310
    u[53]     primal_lower31  782
    u[53]     primal_lower32  360
    u[53]     primal_lower33  804
    u[53]     primal_lower34  284
    u[53]     primal_lower35  646
    u[53]     primal_lower36  450
    u[53]     primal_lower37  350
    u[53]     primal_lower38  886
    u[53]     primal_lower39  730
    u[53]     primal_lower40  666
    u[53]     primal_lower41  886
    u[53]     primal_lower42  102
    u[53]     primal_lower43  705
    u[53]     primal_lower44  36
    u[53]     primal_lower45  480
    u[53]     primal_lower46  926
    u[53]     primal_lower47  638
    u[53]     primal_lower48  392
    u[53]     primal_lower49  522
    u[53]     primal_lower50  20
    u[53]     primal_lower51  230
    u[53]     primal_lower52  25
    u[53]     primal_lower53  910
    u[53]     primal_lower54  879
    u[53]     primal_lower55  980
    u[53]     primal_lower56  659
    u[53]     primal_lower57  285
    u[53]     primal_lower58  477
    u[53]     primal_lower59  15
    u[53]     primal_lower60  108
    u[53]     primal_lower61  328
    u[53]     primal_lower62  322
    u[53]     primal_lower63  947
    u[53]     primal_lower64  832
    u[53]     primal_lower65  858
    u[53]     primal_lower66  679
    u[53]     primal_lower67  438
    u[53]     primal_lower68  413
    u[53]     primal_lower69  372
    u[53]     primal_lower70  528
    u[53]     primal_lower71  878
    u[53]     primal_lower72  582
    u[53]     primal_lower73  54
    u[53]     primal_lower74  302
    u[53]     primal_lower75  899
    u[53]     primal_lower76  745
    u[53]     primal_lower77  993
    u[53]     primal_lower78  17
    u[53]     primal_lower79  62
    u[53]     primal_lower80  634
    u[53]     primal_lower81  164
    u[53]     primal_lower82  769
    u[53]     primal_lower83  636
    u[53]     primal_lower84  406
    u[53]     primal_lower85  48
    u[53]     primal_lower86  23
    u[53]     primal_lower87  826
    u[53]     primal_lower88  830
    u[53]     primal_lower89  183
    u[53]     primal_lower90  179
    u[53]     primal_lower91  790
    u[53]     primal_lower92  796
    u[53]     primal_lower93  609
    u[53]     primal_lower94  880
    u[53]     primal_lower95  766
    u[53]     primal_lower96  638
    u[53]     primal_lower97  799
    u[53]     primal_lower98  129
    u[53]     primal_lower99  531
    u[53]     interdiction[53]  1
    u[53]     mccormick1[53]  -1
    u[53]     mccormick3[53]  1
    u[54]     primal_lower0  243
    u[54]     primal_lower1  168
    u[54]     primal_lower2  520
    u[54]     primal_lower3  83
    u[54]     primal_lower4  839
    u[54]     primal_lower5  921
    u[54]     primal_lower6  405
    u[54]     primal_lower7  381
    u[54]     primal_lower8  378
    u[54]     primal_lower9  7
    u[54]     primal_lower10  174
    u[54]     primal_lower11  4
    u[54]     primal_lower12  56
    u[54]     primal_lower13  865
    u[54]     primal_lower14  836
    u[54]     primal_lower15  739
    u[54]     primal_lower16  680
    u[54]     primal_lower17  242
    u[54]     primal_lower18  710
    u[54]     primal_lower19  134
    u[54]     primal_lower20  73
    u[54]     primal_lower21  866
    u[54]     primal_lower22  579
    u[54]     primal_lower23  577
    u[54]     primal_lower24  627
    u[54]     primal_lower25  137
    u[54]     primal_lower26  216
    u[54]     primal_lower27  269
    u[54]     primal_lower28  978
    u[54]     primal_lower29  850
    u[54]     primal_lower30  99
    u[54]     primal_lower31  886
    u[54]     primal_lower32  949
    u[54]     primal_lower33  692
    u[54]     primal_lower34  257
    u[54]     primal_lower35  238
    u[54]     primal_lower36  538
    u[54]     primal_lower37  587
    u[54]     primal_lower38  899
    u[54]     primal_lower39  183
    u[54]     primal_lower40  375
    u[54]     primal_lower41  3
    u[54]     primal_lower42  627
    u[54]     primal_lower43  57
    u[54]     primal_lower44  593
    u[54]     primal_lower45  552
    u[54]     primal_lower46  766
    u[54]     primal_lower47  835
    u[54]     primal_lower48  269
    u[54]     primal_lower49  370
    u[54]     primal_lower50  545
    u[54]     primal_lower51  390
    u[54]     primal_lower52  422
    u[54]     primal_lower53  798
    u[54]     primal_lower54  991
    u[54]     primal_lower55  524
    u[54]     primal_lower56  851
    u[54]     primal_lower57  834
    u[54]     primal_lower58  909
    u[54]     primal_lower59  860
    u[54]     primal_lower60  457
    u[54]     primal_lower61  189
    u[54]     primal_lower62  935
    u[54]     primal_lower63  128
    u[54]     primal_lower64  333
    u[54]     primal_lower65  650
    u[54]     primal_lower66  959
    u[54]     primal_lower67  899
    u[54]     primal_lower68  234
    u[54]     primal_lower69  169
    u[54]     primal_lower70  429
    u[54]     primal_lower71  747
    u[54]     primal_lower72  558
    u[54]     primal_lower73  387
    u[54]     primal_lower74  710
    u[54]     primal_lower75  928
    u[54]     primal_lower76  457
    u[54]     primal_lower77  617
    u[54]     primal_lower78  78
    u[54]     primal_lower79  635
    u[54]     primal_lower80  682
    u[54]     primal_lower81  809
    u[54]     primal_lower82  94
    u[54]     primal_lower83  433
    u[54]     primal_lower84  339
    u[54]     primal_lower85  965
    u[54]     primal_lower86  700
    u[54]     primal_lower87  807
    u[54]     primal_lower88  510
    u[54]     primal_lower89  724
    u[54]     primal_lower90  283
    u[54]     primal_lower91  35
    u[54]     primal_lower92  361
    u[54]     primal_lower93  217
    u[54]     primal_lower94  848
    u[54]     primal_lower95  590
    u[54]     primal_lower96  798
    u[54]     primal_lower97  599
    u[54]     primal_lower98  553
    u[54]     primal_lower99  563
    u[54]     interdiction[54]  1
    u[54]     mccormick1[54]  -1
    u[54]     mccormick3[54]  1
    u[55]     primal_lower0  190
    u[55]     primal_lower1  727
    u[55]     primal_lower2  83
    u[55]     primal_lower3  794
    u[55]     primal_lower4  718
    u[55]     primal_lower5  876
    u[55]     primal_lower6  360
    u[55]     primal_lower7  676
    u[55]     primal_lower8  445
    u[55]     primal_lower9  286
    u[55]     primal_lower10  625
    u[55]     primal_lower11  779
    u[55]     primal_lower12  383
    u[55]     primal_lower13  128
    u[55]     primal_lower14  35
    u[55]     primal_lower15  286
    u[55]     primal_lower16  759
    u[55]     primal_lower17  473
    u[55]     primal_lower18  165
    u[55]     primal_lower19  141
    u[55]     primal_lower20  652
    u[55]     primal_lower21  341
    u[55]     primal_lower22  614
    u[55]     primal_lower23  628
    u[55]     primal_lower24  466
    u[55]     primal_lower25  76
    u[55]     primal_lower26  807
    u[55]     primal_lower27  148
    u[55]     primal_lower28  425
    u[55]     primal_lower29  817
    u[55]     primal_lower30  370
    u[55]     primal_lower31  625
    u[55]     primal_lower32  36
    u[55]     primal_lower33  871
    u[55]     primal_lower34  24
    u[55]     primal_lower35  745
    u[55]     primal_lower36  901
    u[55]     primal_lower37  250
    u[55]     primal_lower38  442
    u[55]     primal_lower39  782
    u[55]     primal_lower40  526
    u[55]     primal_lower41  354
    u[55]     primal_lower42  226
    u[55]     primal_lower43  116
    u[55]     primal_lower44  912
    u[55]     primal_lower45  923
    u[55]     primal_lower46  393
    u[55]     primal_lower47  994
    u[55]     primal_lower48  852
    u[55]     primal_lower49  581
    u[55]     primal_lower50  576
    u[55]     primal_lower51  273
    u[55]     primal_lower52  389
    u[55]     primal_lower53  281
    u[55]     primal_lower54  250
    u[55]     primal_lower55  303
    u[55]     primal_lower56  566
    u[55]     primal_lower57  561
    u[55]     primal_lower58  816
    u[55]     primal_lower59  955
    u[55]     primal_lower60  968
    u[55]     primal_lower61  668
    u[55]     primal_lower62  710
    u[55]     primal_lower63  223
    u[55]     primal_lower64  276
    u[55]     primal_lower65  917
    u[55]     primal_lower66  394
    u[55]     primal_lower67  426
    u[55]     primal_lower68  577
    u[55]     primal_lower69  416
    u[55]     primal_lower70  564
    u[55]     primal_lower71  418
    u[55]     primal_lower72  153
    u[55]     primal_lower73  106
    u[55]     primal_lower74  353
    u[55]     primal_lower75  831
    u[55]     primal_lower76  164
    u[55]     primal_lower77  580
    u[55]     primal_lower78  621
    u[55]     primal_lower79  354
    u[55]     primal_lower80  725
    u[55]     primal_lower81  832
    u[55]     primal_lower82  421
    u[55]     primal_lower83  232
    u[55]     primal_lower84  682
    u[55]     primal_lower85  92
    u[55]     primal_lower86  27
    u[55]     primal_lower87  134
    u[55]     primal_lower88  233
    u[55]     primal_lower89  163
    u[55]     primal_lower90  670
    u[55]     primal_lower91  162
    u[55]     primal_lower92  656
    u[55]     primal_lower93  268
    u[55]     primal_lower94  851
    u[55]     primal_lower95  161
    u[55]     primal_lower96  457
    u[55]     primal_lower97  562
    u[55]     primal_lower98  404
    u[55]     primal_lower99  558
    u[55]     interdiction[55]  1
    u[55]     mccormick1[55]  -1
    u[55]     mccormick3[55]  1
    u[56]     primal_lower0  308
    u[56]     primal_lower1  216
    u[56]     primal_lower2  953
    u[56]     primal_lower3  523
    u[56]     primal_lower4  959
    u[56]     primal_lower5  898
    u[56]     primal_lower6  214
    u[56]     primal_lower7  749
    u[56]     primal_lower8  851
    u[56]     primal_lower9  727
    u[56]     primal_lower10  775
    u[56]     primal_lower11  156
    u[56]     primal_lower12  136
    u[56]     primal_lower13  1
    u[56]     primal_lower14  996
    u[56]     primal_lower15  172
    u[56]     primal_lower16  496
    u[56]     primal_lower17  194
    u[56]     primal_lower18  102
    u[56]     primal_lower19  318
    u[56]     primal_lower20  546
    u[56]     primal_lower21  947
    u[56]     primal_lower22  748
    u[56]     primal_lower23  618
    u[56]     primal_lower24  747
    u[56]     primal_lower25  914
    u[56]     primal_lower26  672
    u[56]     primal_lower27  325
    u[56]     primal_lower28  282
    u[56]     primal_lower29  882
    u[56]     primal_lower30  539
    u[56]     primal_lower31  935
    u[56]     primal_lower32  437
    u[56]     primal_lower33  781
    u[56]     primal_lower34  457
    u[56]     primal_lower35  839
    u[56]     primal_lower36  643
    u[56]     primal_lower37  379
    u[56]     primal_lower38  499
    u[56]     primal_lower39  863
    u[56]     primal_lower40  375
    u[56]     primal_lower41  43
    u[56]     primal_lower42  603
    u[56]     primal_lower43  18
    u[56]     primal_lower44  225
    u[56]     primal_lower45  673
    u[56]     primal_lower46  255
    u[56]     primal_lower47  603
    u[56]     primal_lower48  605
    u[56]     primal_lower49  571
    u[56]     primal_lower50  297
    u[56]     primal_lower51  191
    u[56]     primal_lower52  46
    u[56]     primal_lower53  615
    u[56]     primal_lower54  56
    u[56]     primal_lower55  893
    u[56]     primal_lower56  900
    u[56]     primal_lower57  834
    u[56]     primal_lower58  70
    u[56]     primal_lower59  548
    u[56]     primal_lower60  633
    u[56]     primal_lower61  685
    u[56]     primal_lower62  927
    u[56]     primal_lower63  312
    u[56]     primal_lower64  781
    u[56]     primal_lower65  907
    u[56]     primal_lower66  80
    u[56]     primal_lower67  451
    u[56]     primal_lower68  130
    u[56]     primal_lower69  793
    u[56]     primal_lower70  277
    u[56]     primal_lower71  635
    u[56]     primal_lower72  655
    u[56]     primal_lower73  827
    u[56]     primal_lower74  703
    u[56]     primal_lower75  224
    u[56]     primal_lower76  98
    u[56]     primal_lower77  242
    u[56]     primal_lower78  70
    u[56]     primal_lower79  627
    u[56]     primal_lower80  251
    u[56]     primal_lower81  657
    u[56]     primal_lower82  374
    u[56]     primal_lower83  217
    u[56]     primal_lower84  227
    u[56]     primal_lower85  21
    u[56]     primal_lower86  244
    u[56]     primal_lower87  711
    u[56]     primal_lower88  751
    u[56]     primal_lower89  428
    u[56]     primal_lower90  332
    u[56]     primal_lower91  595
    u[56]     primal_lower92  417
    u[56]     primal_lower93  298
    u[56]     primal_lower94  353
    u[56]     primal_lower95  583
    u[56]     primal_lower96  879
    u[56]     primal_lower97  968
    u[56]     primal_lower98  482
    u[56]     primal_lower99  476
    u[56]     interdiction[56]  1
    u[56]     mccormick1[56]  -1
    u[56]     mccormick3[56]  1
    u[57]     primal_lower0  377
    u[57]     primal_lower1  890
    u[57]     primal_lower2  614
    u[57]     primal_lower3  421
    u[57]     primal_lower4  785
    u[57]     primal_lower5  319
    u[57]     primal_lower6  235
    u[57]     primal_lower7  95
    u[57]     primal_lower8  264
    u[57]     primal_lower9  801
    u[57]     primal_lower10  556
    u[57]     primal_lower11  22
    u[57]     primal_lower12  138
    u[57]     primal_lower13  843
    u[57]     primal_lower14  446
    u[57]     primal_lower15  169
    u[57]     primal_lower16  58
    u[57]     primal_lower17  332
    u[57]     primal_lower18  576
    u[57]     primal_lower19  976
    u[57]     primal_lower20  663
    u[57]     primal_lower21  200
    u[57]     primal_lower22  593
    u[57]     primal_lower23  663
    u[57]     primal_lower24  301
    u[57]     primal_lower25  575
    u[57]     primal_lower26  754
    u[57]     primal_lower27  407
    u[57]     primal_lower28  132
    u[57]     primal_lower29  188
    u[57]     primal_lower30  901
    u[57]     primal_lower31  660
    u[57]     primal_lower32  279
    u[57]     primal_lower33  50
    u[57]     primal_lower34  675
    u[57]     primal_lower35  756
    u[57]     primal_lower36  48
    u[57]     primal_lower37  709
    u[57]     primal_lower38  901
    u[57]     primal_lower39  817
    u[57]     primal_lower40  793
    u[57]     primal_lower41  965
    u[57]     primal_lower42  805
    u[57]     primal_lower43  807
    u[57]     primal_lower44  451
    u[57]     primal_lower45  478
    u[57]     primal_lower46  740
    u[57]     primal_lower47  181
    u[57]     primal_lower48  655
    u[57]     primal_lower49  992
    u[57]     primal_lower50  859
    u[57]     primal_lower51  436
    u[57]     primal_lower52  640
    u[57]     primal_lower53  204
    u[57]     primal_lower54  573
    u[57]     primal_lower55  138
    u[57]     primal_lower56  89
    u[57]     primal_lower57  60
    u[57]     primal_lower58  715
    u[57]     primal_lower59  78
    u[57]     primal_lower60  715
    u[57]     primal_lower61  327
    u[57]     primal_lower62  721
    u[57]     primal_lower63  402
    u[57]     primal_lower64  375
    u[57]     primal_lower65  384
    u[57]     primal_lower66  965
    u[57]     primal_lower67  69
    u[57]     primal_lower68  292
    u[57]     primal_lower69  531
    u[57]     primal_lower70  63
    u[57]     primal_lower71  597
    u[57]     primal_lower72  740
    u[57]     primal_lower73  5
    u[57]     primal_lower74  500
    u[57]     primal_lower75  50
    u[57]     primal_lower76  807
    u[57]     primal_lower77  463
    u[57]     primal_lower78  464
    u[57]     primal_lower79  869
    u[57]     primal_lower80  992
    u[57]     primal_lower81  187
    u[57]     primal_lower82  800
    u[57]     primal_lower83  107
    u[57]     primal_lower84  493
    u[57]     primal_lower85  343
    u[57]     primal_lower86  878
    u[57]     primal_lower87  841
    u[57]     primal_lower88  708
    u[57]     primal_lower89  110
    u[57]     primal_lower90  553
    u[57]     primal_lower91  677
    u[57]     primal_lower92  27
    u[57]     primal_lower93  775
    u[57]     primal_lower94  582
    u[57]     primal_lower95  308
    u[57]     primal_lower96  268
    u[57]     primal_lower97  261
    u[57]     primal_lower98  303
    u[57]     primal_lower99  425
    u[57]     interdiction[57]  1
    u[57]     mccormick1[57]  -1
    u[57]     mccormick3[57]  1
    u[58]     primal_lower0  823
    u[58]     primal_lower1  147
    u[58]     primal_lower2  572
    u[58]     primal_lower3  470
    u[58]     primal_lower4  122
    u[58]     primal_lower5  645
    u[58]     primal_lower6  297
    u[58]     primal_lower7  560
    u[58]     primal_lower8  222
    u[58]     primal_lower9  106
    u[58]     primal_lower10  138
    u[58]     primal_lower11  911
    u[58]     primal_lower12  923
    u[58]     primal_lower13  828
    u[58]     primal_lower14  719
    u[58]     primal_lower15  719
    u[58]     primal_lower16  35
    u[58]     primal_lower17  973
    u[58]     primal_lower18  393
    u[58]     primal_lower19  873
    u[58]     primal_lower20  589
    u[58]     primal_lower21  150
    u[58]     primal_lower22  791
    u[58]     primal_lower23  629
    u[58]     primal_lower24  270
    u[58]     primal_lower25  437
    u[58]     primal_lower26  139
    u[58]     primal_lower27  72
    u[58]     primal_lower28  989
    u[58]     primal_lower29  389
    u[58]     primal_lower30  302
    u[58]     primal_lower31  386
    u[58]     primal_lower32  456
    u[58]     primal_lower33  520
    u[58]     primal_lower34  124
    u[58]     primal_lower35  442
    u[58]     primal_lower36  14
    u[58]     primal_lower37  758
    u[58]     primal_lower38  622
    u[58]     primal_lower39  578
    u[58]     primal_lower40  322
    u[58]     primal_lower41  830
    u[58]     primal_lower42  366
    u[58]     primal_lower43  925
    u[58]     primal_lower44  748
    u[58]     primal_lower45  588
    u[58]     primal_lower46  722
    u[58]     primal_lower47  758
    u[58]     primal_lower48  824
    u[58]     primal_lower49  742
    u[58]     primal_lower50  940
    u[58]     primal_lower51  114
    u[58]     primal_lower52  337
    u[58]     primal_lower53  466
    u[58]     primal_lower54  435
    u[58]     primal_lower55  168
    u[58]     primal_lower56  303
    u[58]     primal_lower57  941
    u[58]     primal_lower58  777
    u[58]     primal_lower59  735
    u[58]     primal_lower60  716
    u[58]     primal_lower61  72
    u[58]     primal_lower62  386
    u[58]     primal_lower63  435
    u[58]     primal_lower64  672
    u[58]     primal_lower65  118
    u[58]     primal_lower66  947
    u[58]     primal_lower67  590
    u[58]     primal_lower68  797
    u[58]     primal_lower69  900
    u[58]     primal_lower70  184
    u[58]     primal_lower71  158
    u[58]     primal_lower72  554
    u[58]     primal_lower73  310
    u[58]     primal_lower74  786
    u[58]     primal_lower75  787
    u[58]     primal_lower76  285
    u[58]     primal_lower77  397
    u[58]     primal_lower78  377
    u[58]     primal_lower79  590
    u[58]     primal_lower80  190
    u[58]     primal_lower81  204
    u[58]     primal_lower82  273
    u[58]     primal_lower83  716
    u[58]     primal_lower84  286
    u[58]     primal_lower85  168
    u[58]     primal_lower86  239
    u[58]     primal_lower87  922
    u[58]     primal_lower88  178
    u[58]     primal_lower89  199
    u[58]     primal_lower90  7
    u[58]     primal_lower91  342
    u[58]     primal_lower92  996
    u[58]     primal_lower93  925
    u[58]     primal_lower94  708
    u[58]     primal_lower95  922
    u[58]     primal_lower96  802
    u[58]     primal_lower97  659
    u[58]     primal_lower98  381
    u[58]     primal_lower99  447
    u[58]     interdiction[58]  1
    u[58]     mccormick1[58]  -1
    u[58]     mccormick3[58]  1
    u[59]     primal_lower0  537
    u[59]     primal_lower1  841
    u[59]     primal_lower2  430
    u[59]     primal_lower3  60
    u[59]     primal_lower4  336
    u[59]     primal_lower5  71
    u[59]     primal_lower6  171
    u[59]     primal_lower7  654
    u[59]     primal_lower8  560
    u[59]     primal_lower9  192
    u[59]     primal_lower10  132
    u[59]     primal_lower11  229
    u[59]     primal_lower12  409
    u[59]     primal_lower13  122
    u[59]     primal_lower14  765
    u[59]     primal_lower15  865
    u[59]     primal_lower16  369
    u[59]     primal_lower17  739
    u[59]     primal_lower18  255
    u[59]     primal_lower19  327
    u[59]     primal_lower20  175
    u[59]     primal_lower21  960
    u[59]     primal_lower22  345
    u[59]     primal_lower23  151
    u[59]     primal_lower24  540
    u[59]     primal_lower25  15
    u[59]     primal_lower26  801
    u[59]     primal_lower27  694
    u[59]     primal_lower28  275
    u[59]     primal_lower29  931
    u[59]     primal_lower30  420
    u[59]     primal_lower31  364
    u[59]     primal_lower32  646
    u[59]     primal_lower33  98
    u[59]     primal_lower34  74
    u[59]     primal_lower35  228
    u[59]     primal_lower36  584
    u[59]     primal_lower37  900
    u[59]     primal_lower38  860
    u[59]     primal_lower39  200
    u[59]     primal_lower40  816
    u[59]     primal_lower41  988
    u[59]     primal_lower42  396
    u[59]     primal_lower43  679
    u[59]     primal_lower44  698
    u[59]     primal_lower45  894
    u[59]     primal_lower46  772
    u[59]     primal_lower47  12
    u[59]     primal_lower48  462
    u[59]     primal_lower49  48
    u[59]     primal_lower50  906
    u[59]     primal_lower51  948
    u[59]     primal_lower52  223
    u[59]     primal_lower53  148
    u[59]     primal_lower54  45
    u[59]     primal_lower55  202
    u[59]     primal_lower56  697
    u[59]     primal_lower57  299
    u[59]     primal_lower58  11
    u[59]     primal_lower59  397
    u[59]     primal_lower60  322
    u[59]     primal_lower61  926
    u[59]     primal_lower62  568
    u[59]     primal_lower63  121
    u[59]     primal_lower64  302
    u[59]     primal_lower65  816
    u[59]     primal_lower66  853
    u[59]     primal_lower67  876
    u[59]     primal_lower68  299
    u[59]     primal_lower69  682
    u[59]     primal_lower70  574
    u[59]     primal_lower71  652
    u[59]     primal_lower72  60
    u[59]     primal_lower73  76
    u[59]     primal_lower74  324
    u[59]     primal_lower75  449
    u[59]     primal_lower76  607
    u[59]     primal_lower77  487
    u[59]     primal_lower78  335
    u[59]     primal_lower79  212
    u[59]     primal_lower80  416
    u[59]     primal_lower81  98
    u[59]     primal_lower82  663
    u[59]     primal_lower83  474
    u[59]     primal_lower84  36
    u[59]     primal_lower85  806
    u[59]     primal_lower86  789
    u[59]     primal_lower87  704
    u[59]     primal_lower88  468
    u[59]     primal_lower89  917
    u[59]     primal_lower90  585
    u[59]     primal_lower91  524
    u[59]     primal_lower92  850
    u[59]     primal_lower93  215
    u[59]     primal_lower94  518
    u[59]     primal_lower95  364
    u[59]     primal_lower96  204
    u[59]     primal_lower97  629
    u[59]     primal_lower98  263
    u[59]     primal_lower99  225
    u[59]     interdiction[59]  1
    u[59]     mccormick1[59]  -1
    u[59]     mccormick3[59]  1
    u[60]     primal_lower0  327
    u[60]     primal_lower1  908
    u[60]     primal_lower2  748
    u[60]     primal_lower3  567
    u[60]     primal_lower4  779
    u[60]     primal_lower5  629
    u[60]     primal_lower6  169
    u[60]     primal_lower7  49
    u[60]     primal_lower8  142
    u[60]     primal_lower9  515
    u[60]     primal_lower10  802
    u[60]     primal_lower11  128
    u[60]     primal_lower12  964
    u[60]     primal_lower13  45
    u[60]     primal_lower14  688
    u[60]     primal_lower15  791
    u[60]     primal_lower16  52
    u[60]     primal_lower17  246
    u[60]     primal_lower18  242
    u[60]     primal_lower19  858
    u[60]     primal_lower20  701
    u[60]     primal_lower21  318
    u[60]     primal_lower22  863
    u[60]     primal_lower23  749
    u[60]     primal_lower24  399
    u[60]     primal_lower25  901
    u[60]     primal_lower26  724
    u[60]     primal_lower27  361
    u[60]     primal_lower28  102
    u[60]     primal_lower29  542
    u[60]     primal_lower30  727
    u[60]     primal_lower31  362
    u[60]     primal_lower32  545
    u[60]     primal_lower33  192
    u[60]     primal_lower34  781
    u[60]     primal_lower35  738
    u[60]     primal_lower36  446
    u[60]     primal_lower37  655
    u[60]     primal_lower38  327
    u[60]     primal_lower39  771
    u[60]     primal_lower40  419
    u[60]     primal_lower41  943
    u[60]     primal_lower42  367
    u[60]     primal_lower43  317
    u[60]     primal_lower44  109
    u[60]     primal_lower45  524
    u[60]     primal_lower46  938
    u[60]     primal_lower47  431
    u[60]     primal_lower48  185
    u[60]     primal_lower49  878
    u[60]     primal_lower50  845
    u[60]     primal_lower51  546
    u[60]     primal_lower52  466
    u[60]     primal_lower53  722
    u[60]     primal_lower54  371
    u[60]     primal_lower55  240
    u[60]     primal_lower56  311
    u[60]     primal_lower57  182
    u[60]     primal_lower58  257
    u[60]     primal_lower59  32
    u[60]     primal_lower60  597
    u[60]     primal_lower61  889
    u[60]     primal_lower62  59
    u[60]     primal_lower63  980
    u[60]     primal_lower64  385
    u[60]     primal_lower65  334
    u[60]     primal_lower66  155
    u[60]     primal_lower67  983
    u[60]     primal_lower68  510
    u[60]     primal_lower69  533
    u[60]     primal_lower70  33
    u[60]     primal_lower71  967
    u[60]     primal_lower72  826
    u[60]     primal_lower73  655
    u[60]     primal_lower74  794
    u[60]     primal_lower75  860
    u[60]     primal_lower76  309
    u[60]     primal_lower77  789
    u[60]     primal_lower78  746
    u[60]     primal_lower79  143
    u[60]     primal_lower80  350
    u[60]     primal_lower81  429
    u[60]     primal_lower82  594
    u[60]     primal_lower83  901
    u[60]     primal_lower84  367
    u[60]     primal_lower85  649
    u[60]     primal_lower86  752
    u[60]     primal_lower87  259
    u[60]     primal_lower88  274
    u[60]     primal_lower89  720
    u[60]     primal_lower90  511
    u[60]     primal_lower91  55
    u[60]     primal_lower92  445
    u[60]     primal_lower93  261
    u[60]     primal_lower94  556
    u[60]     primal_lower95  122
    u[60]     primal_lower96  402
    u[60]     primal_lower97  811
    u[60]     primal_lower98  877
    u[60]     primal_lower99  591
    u[60]     interdiction[60]  1
    u[60]     mccormick1[60]  -1
    u[60]     mccormick3[60]  1
    u[61]     primal_lower0  865
    u[61]     primal_lower1  378
    u[61]     primal_lower2  438
    u[61]     primal_lower3  85
    u[61]     primal_lower4  881
    u[61]     primal_lower5  55
    u[61]     primal_lower6  843
    u[61]     primal_lower7  239
    u[61]     primal_lower8  472
    u[61]     primal_lower9  129
    u[61]     primal_lower10  52
    u[61]     primal_lower11  742
    u[61]     primal_lower12  418
    u[61]     primal_lower13  451
    u[61]     primal_lower14  446
    u[61]     primal_lower15  497
    u[61]     primal_lower16  634
    u[61]     primal_lower17  60
    u[61]     primal_lower18  328
    u[61]     primal_lower19  528
    u[61]     primal_lower20  607
    u[61]     primal_lower21  360
    u[61]     primal_lower22  953
    u[61]     primal_lower23  687
    u[61]     primal_lower24  13
    u[61]     primal_lower25  751
    u[61]     primal_lower26  618
    u[61]     primal_lower27  439
    u[61]     primal_lower28  212
    u[61]     primal_lower29  220
    u[61]     primal_lower30  125
    u[61]     primal_lower31  980
    u[61]     primal_lower32  375
    u[61]     primal_lower33  674
    u[61]     primal_lower34  779
    u[61]     primal_lower35  396
    u[61]     primal_lower36  248
    u[61]     primal_lower37  709
    u[61]     primal_lower38  429
    u[61]     primal_lower39  57
    u[61]     primal_lower40  569
    u[61]     primal_lower41  621
    u[61]     primal_lower42  525
    u[61]     primal_lower43  895
    u[61]     primal_lower44  979
    u[61]     primal_lower45  510
    u[61]     primal_lower46  364
    u[61]     primal_lower47  821
    u[61]     primal_lower48  847
    u[61]     primal_lower49  344
    u[61]     primal_lower50  995
    u[61]     primal_lower51  540
    u[61]     primal_lower52  944
    u[61]     primal_lower53  492
    u[61]     primal_lower54  469
    u[61]     primal_lower55  378
    u[61]     primal_lower56  953
    u[61]     primal_lower57  540
    u[61]     primal_lower58  659
    u[61]     primal_lower59  46
    u[61]     primal_lower60  539
    u[61]     primal_lower61  15
    u[61]     primal_lower62  729
    u[61]     primal_lower63  946
    u[61]     primal_lower64  991
    u[61]     primal_lower65  688
    u[61]     primal_lower66  285
    u[61]     primal_lower67  869
    u[61]     primal_lower68  244
    u[61]     primal_lower69  323
    u[61]     primal_lower70  431
    u[61]     primal_lower71  357
    u[61]     primal_lower72  796
    u[61]     primal_lower73  485
    u[61]     primal_lower74  980
    u[61]     primal_lower75  26
    u[61]     primal_lower76  287
    u[61]     primal_lower77  279
    u[61]     primal_lower78  488
    u[61]     primal_lower79  365
    u[61]     primal_lower80  944
    u[61]     primal_lower81  339
    u[61]     primal_lower82  456
    u[61]     primal_lower83  35
    u[61]     primal_lower84  469
    u[61]     primal_lower85  895
    u[61]     primal_lower86  694
    u[61]     primal_lower87  553
    u[61]     primal_lower88  980
    u[61]     primal_lower89  62
    u[61]     primal_lower90  185
    u[61]     primal_lower91  813
    u[61]     primal_lower92  827
    u[61]     primal_lower93  935
    u[61]     primal_lower94  958
    u[61]     primal_lower95  452
    u[61]     primal_lower96  172
    u[61]     primal_lower97  261
    u[61]     primal_lower98  783
    u[61]     primal_lower99  481
    u[61]     interdiction[61]  1
    u[61]     mccormick1[61]  -1
    u[61]     mccormick3[61]  1
    u[62]     primal_lower0  546
    u[62]     primal_lower1  199
    u[62]     primal_lower2  847
    u[62]     primal_lower3  610
    u[62]     primal_lower4  54
    u[62]     primal_lower5  784
    u[62]     primal_lower6  572
    u[62]     primal_lower7  868
    u[62]     primal_lower8  129
    u[62]     primal_lower9  366
    u[62]     primal_lower10  309
    u[62]     primal_lower11  83
    u[62]     primal_lower12  727
    u[62]     primal_lower13  88
    u[62]     primal_lower14  531
    u[62]     primal_lower15  842
    u[62]     primal_lower16  311
    u[62]     primal_lower17  665
    u[62]     primal_lower18  365
    u[62]     primal_lower19  381
    u[62]     primal_lower20  928
    u[62]     primal_lower21  217
    u[62]     primal_lower22  714
    u[62]     primal_lower23  736
    u[62]     primal_lower24  794
    u[62]     primal_lower25  696
    u[62]     primal_lower26  143
    u[62]     primal_lower27  844
    u[62]     primal_lower28  41
    u[62]     primal_lower29  297
    u[62]     primal_lower30  354
    u[62]     primal_lower31  125
    u[62]     primal_lower32  404
    u[62]     primal_lower33  931
    u[62]     primal_lower34  632
    u[62]     primal_lower35  741
    u[62]     primal_lower36  921
    u[62]     primal_lower37  466
    u[62]     primal_lower38  162
    u[62]     primal_lower39  142
    u[62]     primal_lower40  710
    u[62]     primal_lower41  418
    u[62]     primal_lower42  618
    u[62]     primal_lower43  912
    u[62]     primal_lower44  40
    u[62]     primal_lower45  863
    u[62]     primal_lower46  197
    u[62]     primal_lower47  586
    u[62]     primal_lower48  260
    u[62]     primal_lower49  513
    u[62]     primal_lower50  248
    u[62]     primal_lower51  757
    u[62]     primal_lower52  469
    u[62]     primal_lower53  893
    u[62]     primal_lower54  958
    u[62]     primal_lower55  931
    u[62]     primal_lower56  962
    u[62]     primal_lower57  473
    u[62]     primal_lower58  428
    u[62]     primal_lower59  27
    u[62]     primal_lower60  496
    u[62]     primal_lower61  4
    u[62]     primal_lower62  374
    u[62]     primal_lower63  647
    u[62]     primal_lower64  220
    u[62]     primal_lower65  25
    u[62]     primal_lower66  774
    u[62]     primal_lower67  770
    u[62]     primal_lower68  761
    u[62]     primal_lower69  880
    u[62]     primal_lower70  316
    u[62]     primal_lower71  34
    u[62]     primal_lower72  541
    u[62]     primal_lower73  434
    u[62]     primal_lower74  133
    u[62]     primal_lower75  303
    u[62]     primal_lower76  296
    u[62]     primal_lower77  768
    u[62]     primal_lower78  549
    u[62]     primal_lower79  530
    u[62]     primal_lower80  977
    u[62]     primal_lower81  40
    u[62]     primal_lower82  77
    u[62]     primal_lower83  968
    u[62]     primal_lower84  450
    u[62]     primal_lower85  780
    u[62]     primal_lower86  635
    u[62]     primal_lower87  694
    u[62]     primal_lower88  29
    u[62]     primal_lower89  659
    u[62]     primal_lower90  890
    u[62]     primal_lower91  146
    u[62]     primal_lower92  976
    u[62]     primal_lower93  400
    u[62]     primal_lower94  791
    u[62]     primal_lower95  437
    u[62]     primal_lower96  997
    u[62]     primal_lower97  750
    u[62]     primal_lower98  432
    u[62]     primal_lower99  834
    u[62]     interdiction[62]  1
    u[62]     mccormick1[62]  -1
    u[62]     mccormick3[62]  1
    u[63]     primal_lower0  577
    u[63]     primal_lower1  18
    u[63]     primal_lower2  486
    u[63]     primal_lower3  349
    u[63]     primal_lower4  409
    u[63]     primal_lower5  543
    u[63]     primal_lower6  963
    u[63]     primal_lower7  415
    u[63]     primal_lower8  280
    u[63]     primal_lower9  793
    u[63]     primal_lower10  876
    u[63]     primal_lower11  78
    u[63]     primal_lower12  722
    u[63]     primal_lower13  771
    u[63]     primal_lower14  190
    u[63]     primal_lower15  465
    u[63]     primal_lower16  442
    u[63]     primal_lower17  148
    u[63]     primal_lower18  776
    u[63]     primal_lower19  712
    u[63]     primal_lower20  247
    u[63]     primal_lower21  144
    u[63]     primal_lower22  97
    u[63]     primal_lower23  895
    u[63]     primal_lower24  525
    u[63]     primal_lower25  927
    u[63]     primal_lower26  378
    u[63]     primal_lower27  119
    u[63]     primal_lower28  860
    u[63]     primal_lower29  780
    u[63]     primal_lower30  141
    u[63]     primal_lower31  788
    u[63]     primal_lower32  95
    u[63]     primal_lower33  362
    u[63]     primal_lower34  419
    u[63]     primal_lower35  564
    u[63]     primal_lower36  1000
    u[63]     primal_lower37  117
    u[63]     primal_lower38  541
    u[63]     primal_lower39  473
    u[63]     primal_lower40  65
    u[63]     primal_lower41  101
    u[63]     primal_lower42  245
    u[63]     primal_lower43  927
    u[63]     primal_lower44  107
    u[63]     primal_lower45  62
    u[63]     primal_lower46  908
    u[63]     primal_lower47  973
    u[63]     primal_lower48  759
    u[63]     primal_lower49  328
    u[63]     primal_lower50  211
    u[63]     primal_lower51  620
    u[63]     primal_lower52  512
    u[63]     primal_lower53  132
    u[63]     primal_lower54  749
    u[63]     primal_lower55  346
    u[63]     primal_lower56  857
    u[63]     primal_lower57  996
    u[63]     primal_lower58  731
    u[63]     primal_lower59  102
    u[63]     primal_lower60  83
    u[63]     primal_lower61  287
    u[63]     primal_lower62  561
    u[63]     primal_lower63  10
    u[63]     primal_lower64  631
    u[63]     primal_lower65  288
    u[63]     primal_lower66  477
    u[63]     primal_lower67  717
    u[63]     primal_lower68  372
    u[63]     primal_lower69  291
    u[63]     primal_lower70  951
    u[63]     primal_lower71  237
    u[63]     primal_lower72  820
    u[63]     primal_lower73  693
    u[63]     primal_lower74  756
    u[63]     primal_lower75  290
    u[63]     primal_lower76  127
    u[63]     primal_lower77  959
    u[63]     primal_lower78  680
    u[63]     primal_lower79  541
    u[63]     primal_lower80  976
    u[63]     primal_lower81  387
    u[63]     primal_lower82  120
    u[63]     primal_lower83  107
    u[63]     primal_lower84  261
    u[63]     primal_lower85  71
    u[63]     primal_lower86  454
    u[63]     primal_lower87  369
    u[63]     primal_lower88  396
    u[63]     primal_lower89  14
    u[63]     primal_lower90  281
    u[63]     primal_lower91  853
    u[63]     primal_lower92  875
    u[63]     primal_lower93  591
    u[63]     primal_lower94  686
    u[63]     primal_lower95  332
    u[63]     primal_lower96  132
    u[63]     primal_lower97  621
    u[63]     primal_lower98  751
    u[63]     primal_lower99  137
    u[63]     interdiction[63]  1
    u[63]     mccormick1[63]  -1
    u[63]     mccormick3[63]  1
    u[64]     primal_lower0  726
    u[64]     primal_lower1  307
    u[64]     primal_lower2  931
    u[64]     primal_lower3  582
    u[64]     primal_lower4  610
    u[64]     primal_lower5  724
    u[64]     primal_lower6  320
    u[64]     primal_lower7  760
    u[64]     primal_lower8  29
    u[64]     primal_lower9  514
    u[64]     primal_lower10  17
    u[64]     primal_lower11  407
    u[64]     primal_lower12  155
    u[64]     primal_lower13  892
    u[64]     primal_lower14  919
    u[64]     primal_lower15  326
    u[64]     primal_lower16  139
    u[64]     primal_lower17  885
    u[64]     primal_lower18  833
    u[64]     primal_lower19  81
    u[64]     primal_lower20  188
    u[64]     primal_lower21  869
    u[64]     primal_lower22  102
    u[64]     primal_lower23  764
    u[64]     primal_lower24  166
    u[64]     primal_lower25  988
    u[64]     primal_lower26  3
    u[64]     primal_lower27  488
    u[64]     primal_lower28  405
    u[64]     primal_lower29  589
    u[64]     primal_lower30  398
    u[64]     primal_lower31  953
    u[64]     primal_lower32  656
    u[64]     primal_lower33  175
    u[64]     primal_lower34  780
    u[64]     primal_lower35  777
    u[64]     primal_lower36  341
    u[64]     primal_lower37  494
    u[64]     primal_lower38  870
    u[64]     primal_lower39  122
    u[64]     primal_lower40  882
    u[64]     primal_lower41  646
    u[64]     primal_lower42  382
    u[64]     primal_lower43  84
    u[64]     primal_lower44  444
    u[64]     primal_lower45  603
    u[64]     primal_lower46  905
    u[64]     primal_lower47  254
    u[64]     primal_lower48  560
    u[64]     primal_lower49  813
    u[64]     primal_lower50  260
    u[64]     primal_lower51  809
    u[64]     primal_lower52  521
    u[64]     primal_lower53  129
    u[64]     primal_lower54  482
    u[64]     primal_lower55  39
    u[64]     primal_lower56  222
    u[64]     primal_lower57  613
    u[64]     primal_lower58  232
    u[64]     primal_lower59  999
    u[64]     primal_lower60  12
    u[64]     primal_lower61  824
    u[64]     primal_lower62  738
    u[64]     primal_lower63  683
    u[64]     primal_lower64  360
    u[64]     primal_lower65  773
    u[64]     primal_lower66  66
    u[64]     primal_lower67  70
    u[64]     primal_lower68  917
    u[64]     primal_lower69  532
    u[64]     primal_lower70  416
    u[64]     primal_lower71  46
    u[64]     primal_lower72  673
    u[64]     primal_lower73  94
    u[64]     primal_lower74  137
    u[64]     primal_lower75  771
    u[64]     primal_lower76  140
    u[64]     primal_lower77  68
    u[64]     primal_lower78  881
    u[64]     primal_lower79  966
    u[64]     primal_lower80  749
    u[64]     primal_lower81  484
    u[64]     primal_lower82  489
    u[64]     primal_lower83  108
    u[64]     primal_lower84  782
    u[64]     primal_lower85  560
    u[64]     primal_lower86  231
    u[64]     primal_lower87  426
    u[64]     primal_lower88  513
    u[64]     primal_lower89  223
    u[64]     primal_lower90  862
    u[64]     primal_lower91  566
    u[64]     primal_lower92  332
    u[64]     primal_lower93  604
    u[64]     primal_lower94  83
    u[64]     primal_lower95  761
    u[64]     primal_lower96  177
    u[64]     primal_lower97  546
    u[64]     primal_lower98  932
    u[64]     primal_lower99  238
    u[64]     interdiction[64]  1
    u[64]     mccormick1[64]  -1
    u[64]     mccormick3[64]  1
    u[65]     primal_lower0  379
    u[65]     primal_lower1  819
    u[65]     primal_lower2  720
    u[65]     primal_lower3  622
    u[65]     primal_lower4  218
    u[65]     primal_lower5  401
    u[65]     primal_lower6  349
    u[65]     primal_lower7  520
    u[65]     primal_lower8  858
    u[65]     primal_lower9  146
    u[65]     primal_lower10  558
    u[65]     primal_lower11  183
    u[65]     primal_lower12  67
    u[65]     primal_lower13  12
    u[65]     primal_lower14  183
    u[65]     primal_lower15  787
    u[65]     primal_lower16  195
    u[65]     primal_lower17  661
    u[65]     primal_lower18  689
    u[65]     primal_lower19  65
    u[65]     primal_lower20  449
    u[65]     primal_lower21  794
    u[65]     primal_lower22  803
    u[65]     primal_lower23  841
    u[65]     primal_lower24  22
    u[65]     primal_lower25  321
    u[65]     primal_lower26  51
    u[65]     primal_lower27  208
    u[65]     primal_lower28  549
    u[65]     primal_lower29  589
    u[65]     primal_lower30  798
    u[65]     primal_lower31  406
    u[65]     primal_lower32  744
    u[65]     primal_lower33  604
    u[65]     primal_lower34  868
    u[65]     primal_lower35  206
    u[65]     primal_lower36  298
    u[65]     primal_lower37  278
    u[65]     primal_lower38  526
    u[65]     primal_lower39  498
    u[65]     primal_lower40  98
    u[65]     primal_lower41  918
    u[65]     primal_lower42  238
    u[65]     primal_lower43  809
    u[65]     primal_lower44  220
    u[65]     primal_lower45  296
    u[65]     primal_lower46  118
    u[65]     primal_lower47  950
    u[65]     primal_lower48  728
    u[65]     primal_lower49  370
    u[65]     primal_lower50  244
    u[65]     primal_lower51  718
    u[65]     primal_lower52  25
    u[65]     primal_lower53  174
    u[65]     primal_lower54  951
    u[65]     primal_lower55  180
    u[65]     primal_lower56  99
    u[65]     primal_lower57  437
    u[65]     primal_lower58  5
    u[65]     primal_lower59  271
    u[65]     primal_lower60  292
    u[65]     primal_lower61  736
    u[65]     primal_lower62  394
    u[65]     primal_lower63  683
    u[65]     primal_lower64  600
    u[65]     primal_lower65  586
    u[65]     primal_lower66  919
    u[65]     primal_lower67  534
    u[65]     primal_lower68  685
    u[65]     primal_lower69  916
    u[65]     primal_lower70  256
    u[65]     primal_lower71  326
    u[65]     primal_lower72  614
    u[65]     primal_lower73  766
    u[65]     primal_lower74  38
    u[65]     primal_lower75  643
    u[65]     primal_lower76  353
    u[65]     primal_lower77  593
    u[65]     primal_lower78  881
    u[65]     primal_lower79  718
    u[65]     primal_lower80  210
    u[65]     primal_lower81  620
    u[65]     primal_lower82  849
    u[65]     primal_lower83  492
    u[65]     primal_lower84  110
    u[65]     primal_lower85  648
    u[65]     primal_lower86  7
    u[65]     primal_lower87  386
    u[65]     primal_lower88  734
    u[65]     primal_lower89  447
    u[65]     primal_lower90  955
    u[65]     primal_lower91  6
    u[65]     primal_lower92  740
    u[65]     primal_lower93  369
    u[65]     primal_lower94  648
    u[65]     primal_lower95  790
    u[65]     primal_lower96  678
    u[65]     primal_lower97  271
    u[65]     primal_lower98  753
    u[65]     primal_lower99  395
    u[65]     interdiction[65]  1
    u[65]     mccormick1[65]  -1
    u[65]     mccormick3[65]  1
    u[66]     primal_lower0  439
    u[66]     primal_lower1  236
    u[66]     primal_lower2  212
    u[66]     primal_lower3  479
    u[66]     primal_lower4  603
    u[66]     primal_lower5  829
    u[66]     primal_lower6  937
    u[66]     primal_lower7  809
    u[66]     primal_lower8  214
    u[66]     primal_lower9  819
    u[66]     primal_lower10  586
    u[66]     primal_lower11  232
    u[66]     primal_lower12  804
    u[66]     primal_lower13  133
    u[66]     primal_lower14  160
    u[66]     primal_lower15  287
    u[66]     primal_lower16  292
    u[66]     primal_lower17  278
    u[66]     primal_lower18  106
    u[66]     primal_lower19  378
    u[66]     primal_lower20  613
    u[66]     primal_lower21  246
    u[66]     primal_lower22  535
    u[66]     primal_lower23  237
    u[66]     primal_lower24  223
    u[66]     primal_lower25  565
    u[66]     primal_lower26  932
    u[66]     primal_lower27  425
    u[66]     primal_lower28  782
    u[66]     primal_lower29  806
    u[66]     primal_lower30  423
    u[66]     primal_lower31  562
    u[66]     primal_lower32  257
    u[66]     primal_lower33  808
    u[66]     primal_lower34  341
    u[66]     primal_lower35  938
    u[66]     primal_lower36  126
    u[66]     primal_lower37  207
    u[66]     primal_lower38  279
    u[66]     primal_lower39  139
    u[66]     primal_lower40  315
    u[66]     primal_lower41  751
    u[66]     primal_lower42  295
    u[66]     primal_lower43  357
    u[66]     primal_lower44  901
    u[66]     primal_lower45  700
    u[66]     primal_lower46  362
    u[66]     primal_lower47  31
    u[66]     primal_lower48  625
    u[66]     primal_lower49  534
    u[66]     primal_lower50  781
    u[66]     primal_lower51  498
    u[66]     primal_lower52  26
    u[66]     primal_lower53  26
    u[66]     primal_lower54  283
    u[66]     primal_lower55  32
    u[66]     primal_lower56  47
    u[66]     primal_lower57  502
    u[66]     primal_lower58  665
    u[66]     primal_lower59  344
    u[66]     primal_lower60  981
    u[66]     primal_lower61  969
    u[66]     primal_lower62  979
    u[66]     primal_lower63  12
    u[66]     primal_lower64  577
    u[66]     primal_lower65  870
    u[66]     primal_lower66  355
    u[66]     primal_lower67  431
    u[66]     primal_lower68  270
    u[66]     primal_lower69  733
    u[66]     primal_lower70  753
    u[66]     primal_lower71  911
    u[66]     primal_lower72  114
    u[66]     primal_lower73  975
    u[66]     primal_lower74  130
    u[66]     primal_lower75  52
    u[66]     primal_lower76  453
    u[66]     primal_lower77  781
    u[66]     primal_lower78  690
    u[66]     primal_lower79  639
    u[66]     primal_lower80  14
    u[66]     primal_lower81  333
    u[66]     primal_lower82  522
    u[66]     primal_lower83  349
    u[66]     primal_lower84  95
    u[66]     primal_lower85  705
    u[66]     primal_lower86  568
    u[66]     primal_lower87  539
    u[66]     primal_lower88  634
    u[66]     primal_lower89  592
    u[66]     primal_lower90  471
    u[66]     primal_lower91  911
    u[66]     primal_lower92  509
    u[66]     primal_lower93  461
    u[66]     primal_lower94  668
    u[66]     primal_lower95  58
    u[66]     primal_lower96  738
    u[66]     primal_lower97  67
    u[66]     primal_lower98  805
    u[66]     primal_lower99  31
    u[66]     interdiction[66]  1
    u[66]     mccormick1[66]  -1
    u[66]     mccormick3[66]  1
    u[67]     primal_lower0  941
    u[67]     primal_lower1  422
    u[67]     primal_lower2  330
    u[67]     primal_lower3  401
    u[67]     primal_lower4  997
    u[67]     primal_lower5  795
    u[67]     primal_lower6  719
    u[67]     primal_lower7  475
    u[67]     primal_lower8  876
    u[67]     primal_lower9  909
    u[67]     primal_lower10  208
    u[67]     primal_lower11  506
    u[67]     primal_lower12  214
    u[67]     primal_lower13  703
    u[67]     primal_lower14  386
    u[67]     primal_lower15  541
    u[67]     primal_lower16  774
    u[67]     primal_lower17  960
    u[67]     primal_lower18  284
    u[67]     primal_lower19  588
    u[67]     primal_lower20  843
    u[67]     primal_lower21  836
    u[67]     primal_lower22  957
    u[67]     primal_lower23  843
    u[67]     primal_lower24  81
    u[67]     primal_lower25  323
    u[67]     primal_lower26  70
    u[67]     primal_lower27  939
    u[67]     primal_lower28  392
    u[67]     primal_lower29  624
    u[67]     primal_lower30  753
    u[67]     primal_lower31  712
    u[67]     primal_lower32  347
    u[67]     primal_lower33  142
    u[67]     primal_lower34  231
    u[67]     primal_lower35  480
    u[67]     primal_lower36  812
    u[67]     primal_lower37  681
    u[67]     primal_lower38  265
    u[67]     primal_lower39  189
    u[67]     primal_lower40  293
    u[67]     primal_lower41  257
    u[67]     primal_lower42  81
    u[67]     primal_lower43  203
    u[67]     primal_lower44  431
    u[67]     primal_lower45  50
    u[67]     primal_lower46  520
    u[67]     primal_lower47  273
    u[67]     primal_lower48  123
    u[67]     primal_lower49  436
    u[67]     primal_lower50  471
    u[67]     primal_lower51  960
    u[67]     primal_lower52  812
    u[67]     primal_lower53  520
    u[67]     primal_lower54  65
    u[67]     primal_lower55  126
    u[67]     primal_lower56  541
    u[67]     primal_lower57  544
    u[67]     primal_lower58  999
    u[67]     primal_lower59  322
    u[67]     primal_lower60  647
    u[67]     primal_lower61  963
    u[67]     primal_lower62  981
    u[67]     primal_lower63  822
    u[67]     primal_lower64  603
    u[67]     primal_lower65  268
    u[67]     primal_lower66  121
    u[67]     primal_lower67  201
    u[67]     primal_lower68  496
    u[67]     primal_lower69  215
    u[67]     primal_lower70  403
    u[67]     primal_lower71  609
    u[67]     primal_lower72  472
    u[67]     primal_lower73  649
    u[67]     primal_lower74  368
    u[67]     primal_lower75  206
    u[67]     primal_lower76  179
    u[67]     primal_lower77  643
    u[67]     primal_lower78  212
    u[67]     primal_lower79  929
    u[67]     primal_lower80  996
    u[67]     primal_lower81  263
    u[67]     primal_lower82  500
    u[67]     primal_lower83  263
    u[67]     primal_lower84  129
    u[67]     primal_lower85  947
    u[67]     primal_lower86  586
    u[67]     primal_lower87  397
    u[67]     primal_lower88  744
    u[67]     primal_lower89  978
    u[67]     primal_lower90  77
    u[67]     primal_lower91  953
    u[67]     primal_lower92  335
    u[67]     primal_lower93  963
    u[67]     primal_lower94  162
    u[67]     primal_lower95  784
    u[67]     primal_lower96  368
    u[67]     primal_lower97  577
    u[67]     primal_lower98  835
    u[67]     primal_lower99  461
    u[67]     interdiction[67]  1
    u[67]     mccormick1[67]  -1
    u[67]     mccormick3[67]  1
    u[68]     primal_lower0  927
    u[68]     primal_lower1  227
    u[68]     primal_lower2  572
    u[68]     primal_lower3  318
    u[68]     primal_lower4  210
    u[68]     primal_lower5  349
    u[68]     primal_lower6  361
    u[68]     primal_lower7  16
    u[68]     primal_lower8  374
    u[68]     primal_lower9  186
    u[68]     primal_lower10  570
    u[68]     primal_lower11  135
    u[68]     primal_lower12  659
    u[68]     primal_lower13  412
    u[68]     primal_lower14  911
    u[68]     primal_lower15  855
    u[68]     primal_lower16  819
    u[68]     primal_lower17  781
    u[68]     primal_lower18  281
    u[68]     primal_lower19  25
    u[68]     primal_lower20  493
    u[68]     primal_lower21  38
    u[68]     primal_lower22  319
    u[68]     primal_lower23  285
    u[68]     primal_lower24  206
    u[68]     primal_lower25  797
    u[68]     primal_lower26  875
    u[68]     primal_lower27  968
    u[68]     primal_lower28  621
    u[68]     primal_lower29  637
    u[68]     primal_lower30  886
    u[68]     primal_lower31  786
    u[68]     primal_lower32  984
    u[68]     primal_lower33  376
    u[68]     primal_lower34  180
    u[68]     primal_lower35  26
    u[68]     primal_lower36  14
    u[68]     primal_lower37  382
    u[68]     primal_lower38  374
    u[68]     primal_lower39  802
    u[68]     primal_lower40  642
    u[68]     primal_lower41  590
    u[68]     primal_lower42  582
    u[68]     primal_lower43  837
    u[68]     primal_lower44  596
    u[68]     primal_lower45  556
    u[68]     primal_lower46  666
    u[68]     primal_lower47  998
    u[68]     primal_lower48  1000
    u[68]     primal_lower49  550
    u[68]     primal_lower50  940
    u[68]     primal_lower51  194
    u[68]     primal_lower52  129
    u[68]     primal_lower53  490
    u[68]     primal_lower54  339
    u[68]     primal_lower55  424
    u[68]     primal_lower56  391
    u[68]     primal_lower57  933
    u[68]     primal_lower58  425
    u[68]     primal_lower59  751
    u[68]     primal_lower60  76
    u[68]     primal_lower61  648
    u[68]     primal_lower62  434
    u[68]     primal_lower63  587
    u[68]     primal_lower64  112
    u[68]     primal_lower65  198
    u[68]     primal_lower66  803
    u[68]     primal_lower67  166
    u[68]     primal_lower68  709
    u[68]     primal_lower69  316
    u[68]     primal_lower70  496
    u[68]     primal_lower71  398
    u[68]     primal_lower72  322
    u[68]     primal_lower73  950
    u[68]     primal_lower74  394
    u[68]     primal_lower75  35
    u[68]     primal_lower76  53
    u[68]     primal_lower77  581
    u[68]     primal_lower78  657
    u[68]     primal_lower79  934
    u[68]     primal_lower80  590
    u[68]     primal_lower81  460
    u[68]     primal_lower82  833
    u[68]     primal_lower83  372
    u[68]     primal_lower84  342
    u[68]     primal_lower85  168
    u[68]     primal_lower86  359
    u[68]     primal_lower87  42
    u[68]     primal_lower88  58
    u[68]     primal_lower89  903
    u[68]     primal_lower90  295
    u[68]     primal_lower91  326
    u[68]     primal_lower92  620
    u[68]     primal_lower93  861
    u[68]     primal_lower94  156
    u[68]     primal_lower95  402
    u[68]     primal_lower96  258
    u[68]     primal_lower97  451
    u[68]     primal_lower98  613
    u[68]     primal_lower99  111
    u[68]     interdiction[68]  1
    u[68]     mccormick1[68]  -1
    u[68]     mccormick3[68]  1
    u[69]     primal_lower0  432
    u[69]     primal_lower1  225
    u[69]     primal_lower2  197
    u[69]     primal_lower3  836
    u[69]     primal_lower4  56
    u[69]     primal_lower5  918
    u[69]     primal_lower6  986
    u[69]     primal_lower7  422
    u[69]     primal_lower8  279
    u[69]     primal_lower9  824
    u[69]     primal_lower10  907
    u[69]     primal_lower11  837
    u[69]     primal_lower12  849
    u[69]     primal_lower13  602
    u[69]     primal_lower14  989
    u[69]     primal_lower15  344
    u[69]     primal_lower16  185
    u[69]     primal_lower17  123
    u[69]     primal_lower18  527
    u[69]     primal_lower19  951
    u[69]     primal_lower20  342
    u[69]     primal_lower21  383
    u[69]     primal_lower22  96
    u[69]     primal_lower23  422
    u[69]     primal_lower24  636
    u[69]     primal_lower25  166
    u[69]     primal_lower26  889
    u[69]     primal_lower27  102
    u[69]     primal_lower28  259
    u[69]     primal_lower29  771
    u[69]     primal_lower30  100
    u[69]     primal_lower31  563
    u[69]     primal_lower32  278
    u[69]     primal_lower33  761
    u[69]     primal_lower34  922
    u[69]     primal_lower35  499
    u[69]     primal_lower36  15
    u[69]     primal_lower37  796
    u[69]     primal_lower38  20
    u[69]     primal_lower39  736
    u[69]     primal_lower40  600
    u[69]     primal_lower41  724
    u[69]     primal_lower42  668
    u[69]     primal_lower43  374
    u[69]     primal_lower44  498
    u[69]     primal_lower45  765
    u[69]     primal_lower46  291
    u[69]     primal_lower47  116
    u[69]     primal_lower48  790
    u[69]     primal_lower49  647
    u[69]     primal_lower50  514
    u[69]     primal_lower51  339
    u[69]     primal_lower52  503
    u[69]     primal_lower53  579
    u[69]     primal_lower54  644
    u[69]     primal_lower55  745
    u[69]     primal_lower56  456
    u[69]     primal_lower57  139
    u[69]     primal_lower58  754
    u[69]     primal_lower59  525
    u[69]     primal_lower60  354
    u[69]     primal_lower61  566
    u[69]     primal_lower62  352
    u[69]     primal_lower63  177
    u[69]     primal_lower64  614
    u[69]     primal_lower65  895
    u[69]     primal_lower66  668
    u[69]     primal_lower67  428
    u[69]     primal_lower68  171
    u[69]     primal_lower69  762
    u[69]     primal_lower70  30
    u[69]     primal_lower71  324
    u[69]     primal_lower72  259
    u[69]     primal_lower73  260
    u[69]     primal_lower74  27
    u[69]     primal_lower75  945
    u[69]     primal_lower76  342
    u[69]     primal_lower77  462
    u[69]     primal_lower78  759
    u[69]     primal_lower79  484
    u[69]     primal_lower80  519
    u[69]     primal_lower81  786
    u[69]     primal_lower82  207
    u[69]     primal_lower83  330
    u[69]     primal_lower84  940
    u[69]     primal_lower85  238
    u[69]     primal_lower86  773
    u[69]     primal_lower87  616
    u[69]     primal_lower88  707
    u[69]     primal_lower89  821
    u[69]     primal_lower90  696
    u[69]     primal_lower91  164
    u[69]     primal_lower92  666
    u[69]     primal_lower93  62
    u[69]     primal_lower94  629
    u[69]     primal_lower95  611
    u[69]     primal_lower96  43
    u[69]     primal_lower97  532
    u[69]     primal_lower98  278
    u[69]     primal_lower99  384
    u[69]     interdiction[69]  1
    u[69]     mccormick1[69]  -1
    u[69]     mccormick3[69]  1
    u[70]     primal_lower0  280
    u[70]     primal_lower1  661
    u[70]     primal_lower2  133
    u[70]     primal_lower3  472
    u[70]     primal_lower4  988
    u[70]     primal_lower5  798
    u[70]     primal_lower6  314
    u[70]     primal_lower7  978
    u[70]     primal_lower8  407
    u[70]     primal_lower9  500
    u[70]     primal_lower10  187
    u[70]     primal_lower11  705
    u[70]     primal_lower12  997
    u[70]     primal_lower13  878
    u[70]     primal_lower14  345
    u[70]     primal_lower15  520
    u[70]     primal_lower16  981
    u[70]     primal_lower17  15
    u[70]     primal_lower18  643
    u[70]     primal_lower19  323
    u[70]     primal_lower20  798
    u[70]     primal_lower21  711
    u[70]     primal_lower22  104
    u[70]     primal_lower23  94
    u[70]     primal_lower24  72
    u[70]     primal_lower25  278
    u[70]     primal_lower26  421
    u[70]     primal_lower27  410
    u[70]     primal_lower28  919
    u[70]     primal_lower29  359
    u[70]     primal_lower30  496
    u[70]     primal_lower31  867
    u[70]     primal_lower32  994
    u[70]     primal_lower33  353
    u[70]     primal_lower34  126
    u[70]     primal_lower35  987
    u[70]     primal_lower36  447
    u[70]     primal_lower37  792
    u[70]     primal_lower38  200
    u[70]     primal_lower39  932
    u[70]     primal_lower40  28
    u[70]     primal_lower41  704
    u[70]     primal_lower42  480
    u[70]     primal_lower43  886
    u[70]     primal_lower44  318
    u[70]     primal_lower45  861
    u[70]     primal_lower46  507
    u[70]     primal_lower47  232
    u[70]     primal_lower48  178
    u[70]     primal_lower49  927
    u[70]     primal_lower50  310
    u[70]     primal_lower51  459
    u[70]     primal_lower52  635
    u[70]     primal_lower53  475
    u[70]     primal_lower54  588
    u[70]     primal_lower55  681
    u[70]     primal_lower56  96
    u[70]     primal_lower57  751
    u[70]     primal_lower58  442
    u[70]     primal_lower59  793
    u[70]     primal_lower60  462
    u[70]     primal_lower61  962
    u[70]     primal_lower62  484
    u[70]     primal_lower63  517
    u[70]     primal_lower64  850
    u[70]     primal_lower65  407
    u[70]     primal_lower66  660
    u[70]     primal_lower67  272
    u[70]     primal_lower68  223
    u[70]     primal_lower69  470
    u[70]     primal_lower70  386
    u[70]     primal_lower71  776
    u[70]     primal_lower72  99
    u[70]     primal_lower73  280
    u[70]     primal_lower74  99
    u[70]     primal_lower75  965
    u[70]     primal_lower76  670
    u[70]     primal_lower77  646
    u[70]     primal_lower78  387
    u[70]     primal_lower79  688
    u[70]     primal_lower80  359
    u[70]     primal_lower81  606
    u[70]     primal_lower82  75
    u[70]     primal_lower83  454
    u[70]     primal_lower84  776
    u[70]     primal_lower85  122
    u[70]     primal_lower86  209
    u[70]     primal_lower87  700
    u[70]     primal_lower88  915
    u[70]     primal_lower89  33
    u[70]     primal_lower90  176
    u[70]     primal_lower91  120
    u[70]     primal_lower92  438
    u[70]     primal_lower93  782
    u[70]     primal_lower94  405
    u[70]     primal_lower95  691
    u[70]     primal_lower96  899
    u[70]     primal_lower97  692
    u[70]     primal_lower98  854
    u[70]     primal_lower99  136
    u[70]     interdiction[70]  1
    u[70]     mccormick1[70]  -1
    u[70]     mccormick3[70]  1
    u[71]     primal_lower0  956
    u[71]     primal_lower1  677
    u[71]     primal_lower2  89
    u[71]     primal_lower3  88
    u[71]     primal_lower4  916
    u[71]     primal_lower5  402
    u[71]     primal_lower6  86
    u[71]     primal_lower7  842
    u[71]     primal_lower8  603
    u[71]     primal_lower9  156
    u[71]     primal_lower10  335
    u[71]     primal_lower11  625
    u[71]     primal_lower12  589
    u[71]     primal_lower13  470
    u[71]     primal_lower14  33
    u[71]     primal_lower15  76
    u[71]     primal_lower16  133
    u[71]     primal_lower17  327
    u[71]     primal_lower18  259
    u[71]     primal_lower19  275
    u[71]     primal_lower20  170
    u[71]     primal_lower21  923
    u[71]     primal_lower22  92
    u[71]     primal_lower23  658
    u[71]     primal_lower24  680
    u[71]     primal_lower25  170
    u[71]     primal_lower26  709
    u[71]     primal_lower27  434
    u[71]     primal_lower28  887
    u[71]     primal_lower29  311
    u[71]     primal_lower30  800
    u[71]     primal_lower31  319
    u[71]     primal_lower32  162
    u[71]     primal_lower33  917
    u[71]     primal_lower34  718
    u[71]     primal_lower35  367
    u[71]     primal_lower36  587
    u[71]     primal_lower37  848
    u[71]     primal_lower38  392
    u[71]     primal_lower39  716
    u[71]     primal_lower40  68
    u[71]     primal_lower41  984
    u[71]     primal_lower42  256
    u[71]     primal_lower43  202
    u[71]     primal_lower44  718
    u[71]     primal_lower45  289
    u[71]     primal_lower46  607
    u[71]     primal_lower47  440
    u[71]     primal_lower48  722
    u[71]     primal_lower49  403
    u[71]     primal_lower50  758
    u[71]     primal_lower51  607
    u[71]     primal_lower52  347
    u[71]     primal_lower53  655
    u[71]     primal_lower54  920
    u[71]     primal_lower55  293
    u[71]     primal_lower56  428
    u[71]     primal_lower57  311
    u[71]     primal_lower58  846
    u[71]     primal_lower59  169
    u[71]     primal_lower60  822
    u[71]     primal_lower61  690
    u[71]     primal_lower62  780
    u[71]     primal_lower63  861
    u[71]     primal_lower64  722
    u[71]     primal_lower65  283
    u[71]     primal_lower66  448
    u[71]     primal_lower67  648
    u[71]     primal_lower68  23
    u[71]     primal_lower69  974
    u[71]     primal_lower70  298
    u[71]     primal_lower71  848
    u[71]     primal_lower72  879
    u[71]     primal_lower73  16
    u[71]     primal_lower74  247
    u[71]     primal_lower75  541
    u[71]     primal_lower76  826
    u[71]     primal_lower77  690
    u[71]     primal_lower78  787
    u[71]     primal_lower79  256
    u[71]     primal_lower80  43
    u[71]     primal_lower81  470
    u[71]     primal_lower82  987
    u[71]     primal_lower83  670
    u[71]     primal_lower84  896
    u[71]     primal_lower85  482
    u[71]     primal_lower86  593
    u[71]     primal_lower87  644
    u[71]     primal_lower88  791
    u[71]     primal_lower89  537
    u[71]     primal_lower90  444
    u[71]     primal_lower91  272
    u[71]     primal_lower92  294
    u[71]     primal_lower93  690
    u[71]     primal_lower94  577
    u[71]     primal_lower95  703
    u[71]     primal_lower96  487
    u[71]     primal_lower97  936
    u[71]     primal_lower98  794
    u[71]     primal_lower99  348
    u[71]     interdiction[71]  1
    u[71]     mccormick1[71]  -1
    u[71]     mccormick3[71]  1
    u[72]     primal_lower0  625
    u[72]     primal_lower1  877
    u[72]     primal_lower2  782
    u[72]     primal_lower3  752
    u[72]     primal_lower4  540
    u[72]     primal_lower5  679
    u[72]     primal_lower6  123
    u[72]     primal_lower7  122
    u[72]     primal_lower8  624
    u[72]     primal_lower9  540
    u[72]     primal_lower10  284
    u[72]     primal_lower11  681
    u[72]     primal_lower12  869
    u[72]     primal_lower13  422
    u[72]     primal_lower14  289
    u[72]     primal_lower15  489
    u[72]     primal_lower16  317
    u[72]     primal_lower17  927
    u[72]     primal_lower18  283
    u[72]     primal_lower19  203
    u[72]     primal_lower20  143
    u[72]     primal_lower21  312
    u[72]     primal_lower22  449
    u[72]     primal_lower23  767
    u[72]     primal_lower24  912
    u[72]     primal_lower25  479
    u[72]     primal_lower26  597
    u[72]     primal_lower27  298
    u[72]     primal_lower28  327
    u[72]     primal_lower29  759
    u[72]     primal_lower30  904
    u[72]     primal_lower31  532
    u[72]     primal_lower32  162
    u[72]     primal_lower33  434
    u[72]     primal_lower34  502
    u[72]     primal_lower35  20
    u[72]     primal_lower36  304
    u[72]     primal_lower37  392
    u[72]     primal_lower38  40
    u[72]     primal_lower39  236
    u[72]     primal_lower40  908
    u[72]     primal_lower41  928
    u[72]     primal_lower42  192
    u[72]     primal_lower43  719
    u[72]     primal_lower44  998
    u[72]     primal_lower45  686
    u[72]     primal_lower46  772
    u[72]     primal_lower47  320
    u[72]     primal_lower48  882
    u[72]     primal_lower49  424
    u[72]     primal_lower50  974
    u[72]     primal_lower51  4
    u[72]     primal_lower52  267
    u[72]     primal_lower53  780
    u[72]     primal_lower54  237
    u[72]     primal_lower55  626
    u[72]     primal_lower56  1
    u[72]     primal_lower57  383
    u[72]     primal_lower58  763
    u[72]     primal_lower59  681
    u[72]     primal_lower60  758
    u[72]     primal_lower61  770
    u[72]     primal_lower62  940
    u[72]     primal_lower63  909
    u[72]     primal_lower64  218
    u[72]     primal_lower65  160
    u[72]     primal_lower66  133
    u[72]     primal_lower67  864
    u[72]     primal_lower68  991
    u[72]     primal_lower69  94
    u[72]     primal_lower70  34
    u[72]     primal_lower71  624
    u[72]     primal_lower72  596
    u[72]     primal_lower73  976
    u[72]     primal_lower74  572
    u[72]     primal_lower75  589
    u[72]     primal_lower76  255
    u[72]     primal_lower77  799
    u[72]     primal_lower78  11
    u[72]     primal_lower79  880
    u[72]     primal_lower80  304
    u[72]     primal_lower81  774
    u[72]     primal_lower82  899
    u[72]     primal_lower83  966
    u[72]     primal_lower84  712
    u[72]     primal_lower85  162
    u[72]     primal_lower86  361
    u[72]     primal_lower87  940
    u[72]     primal_lower88  924
    u[72]     primal_lower89  113
    u[72]     primal_lower90  609
    u[72]     primal_lower91  96
    u[72]     primal_lower92  366
    u[72]     primal_lower93  967
    u[72]     primal_lower94  966
    u[72]     primal_lower95  732
    u[72]     primal_lower96  220
    u[72]     primal_lower97  285
    u[72]     primal_lower98  751
    u[72]     primal_lower99  65
    u[72]     interdiction[72]  1
    u[72]     mccormick1[72]  -1
    u[72]     mccormick3[72]  1
    u[73]     primal_lower0  430
    u[73]     primal_lower1  294
    u[73]     primal_lower2  715
    u[73]     primal_lower3  553
    u[73]     primal_lower4  645
    u[73]     primal_lower5  564
    u[73]     primal_lower6  624
    u[73]     primal_lower7  675
    u[73]     primal_lower8  197
    u[73]     primal_lower9  709
    u[73]     primal_lower10  257
    u[73]     primal_lower11  530
    u[73]     primal_lower12  158
    u[73]     primal_lower13  47
    u[73]     primal_lower14  42
    u[73]     primal_lower15  318
    u[73]     primal_lower16  558
    u[73]     primal_lower17  680
    u[73]     primal_lower18  884
    u[73]     primal_lower19  748
    u[73]     primal_lower20  92
    u[73]     primal_lower21  765
    u[73]     primal_lower22  926
    u[73]     primal_lower23  372
    u[73]     primal_lower24  97
    u[73]     primal_lower25  660
    u[73]     primal_lower26  982
    u[73]     primal_lower27  435
    u[73]     primal_lower28  992
    u[73]     primal_lower29  40
    u[73]     primal_lower30  913
    u[73]     primal_lower31  873
    u[73]     primal_lower32  427
    u[73]     primal_lower33  775
    u[73]     primal_lower34  871
    u[73]     primal_lower35  369
    u[73]     primal_lower36  901
    u[73]     primal_lower37  201
    u[73]     primal_lower38  529
    u[73]     primal_lower39  837
    u[73]     primal_lower40  885
    u[73]     primal_lower41  569
    u[73]     primal_lower42  913
    u[73]     primal_lower43  212
    u[73]     primal_lower44  623
    u[73]     primal_lower45  83
    u[73]     primal_lower46  257
    u[73]     primal_lower47  593
    u[73]     primal_lower48  875
    u[73]     primal_lower49  405
    u[73]     primal_lower50  471
    u[73]     primal_lower51  9
    u[73]     primal_lower52  700
    u[73]     primal_lower53  617
    u[73]     primal_lower54  218
    u[73]     primal_lower55  711
    u[73]     primal_lower56  182
    u[73]     primal_lower57  928
    u[73]     primal_lower58  272
    u[73]     primal_lower59  50
    u[73]     primal_lower60  535
    u[73]     primal_lower61  651
    u[73]     primal_lower62  5
    u[73]     primal_lower63  54
    u[73]     primal_lower64  443
    u[73]     primal_lower65  85
    u[73]     primal_lower66  570
    u[73]     primal_lower67  737
    u[73]     primal_lower68  496
    u[73]     primal_lower69  127
    u[73]     primal_lower70  363
    u[73]     primal_lower71  753
    u[73]     primal_lower72  617
    u[73]     primal_lower73  321
    u[73]     primal_lower74  137
    u[73]     primal_lower75  902
    u[73]     primal_lower76  172
    u[73]     primal_lower77  100
    u[73]     primal_lower78  748
    u[73]     primal_lower79  65
    u[73]     primal_lower80  381
    u[73]     primal_lower81  439
    u[73]     primal_lower82  500
    u[73]     primal_lower83  335
    u[73]     primal_lower84  209
    u[73]     primal_lower85  835
    u[73]     primal_lower86  874
    u[73]     primal_lower87  741
    u[73]     primal_lower88  49
    u[73]     primal_lower89  570
    u[73]     primal_lower90  198
    u[73]     primal_lower91  353
    u[73]     primal_lower92  631
    u[73]     primal_lower93  780
    u[73]     primal_lower94  211
    u[73]     primal_lower95  809
    u[73]     primal_lower96  17
    u[73]     primal_lower97  18
    u[73]     primal_lower98  420
    u[73]     primal_lower99  710
    u[73]     interdiction[73]  1
    u[73]     mccormick1[73]  -1
    u[73]     mccormick3[73]  1
    u[74]     primal_lower0  938
    u[74]     primal_lower1  79
    u[74]     primal_lower2  887
    u[74]     primal_lower3  306
    u[74]     primal_lower4  134
    u[74]     primal_lower5  80
    u[74]     primal_lower6  964
    u[74]     primal_lower7  740
    u[74]     primal_lower8  841
    u[74]     primal_lower9  398
    u[74]     primal_lower10  973
    u[74]     primal_lower11  747
    u[74]     primal_lower12  471
    u[74]     primal_lower13  160
    u[74]     primal_lower14  43
    u[74]     primal_lower15  250
    u[74]     primal_lower16  343
    u[74]     primal_lower17  929
    u[74]     primal_lower18  429
    u[74]     primal_lower19  917
    u[74]     primal_lower20  584
    u[74]     primal_lower21  689
    u[74]     primal_lower22  210
    u[74]     primal_lower23  624
    u[74]     primal_lower24  570
    u[74]     primal_lower25  832
    u[74]     primal_lower26  783
    u[74]     primal_lower27  308
    u[74]     primal_lower28  705
    u[74]     primal_lower29  889
    u[74]     primal_lower30  738
    u[74]     primal_lower31  285
    u[74]     primal_lower32  796
    u[74]     primal_lower33  179
    u[74]     primal_lower34  72
    u[74]     primal_lower35  637
    u[74]     primal_lower36  617
    u[74]     primal_lower37  434
    u[74]     primal_lower38  986
    u[74]     primal_lower39  790
    u[74]     primal_lower40  702
    u[74]     primal_lower41  178
    u[74]     primal_lower42  698
    u[74]     primal_lower43  40
    u[74]     primal_lower44  528
    u[74]     primal_lower45  335
    u[74]     primal_lower46  501
    u[74]     primal_lower47  410
    u[74]     primal_lower48  172
    u[74]     primal_lower49  273
    u[74]     primal_lower50  264
    u[74]     primal_lower51  941
    u[74]     primal_lower52  333
    u[74]     primal_lower53  165
    u[74]     primal_lower54  726
    u[74]     primal_lower55  259
    u[74]     primal_lower56  146
    u[74]     primal_lower57  857
    u[74]     primal_lower58  92
    u[74]     primal_lower59  195
    u[74]     primal_lower60  512
    u[74]     primal_lower61  476
    u[74]     primal_lower62  558
    u[74]     primal_lower63  919
    u[74]     primal_lower64  420
    u[74]     primal_lower65  33
    u[74]     primal_lower66  934
    u[74]     primal_lower67  362
    u[74]     primal_lower68  769
    u[74]     primal_lower69  320
    u[74]     primal_lower70  788
    u[74]     primal_lower71  186
    u[74]     primal_lower72  621
    u[74]     primal_lower73  74
    u[74]     primal_lower74  141
    u[74]     primal_lower75  47
    u[74]     primal_lower76  736
    u[74]     primal_lower77  408
    u[74]     primal_lower78  341
    u[74]     primal_lower79  810
    u[74]     primal_lower80  361
    u[74]     primal_lower81  832
    u[74]     primal_lower82  21
    u[74]     primal_lower83  656
    u[74]     primal_lower84  490
    u[74]     primal_lower85  36
    u[74]     primal_lower86  315
    u[74]     primal_lower87  54
    u[74]     primal_lower88  261
    u[74]     primal_lower89  539
    u[74]     primal_lower90  554
    u[74]     primal_lower91  34
    u[74]     primal_lower92  816
    u[74]     primal_lower93  704
    u[74]     primal_lower94  215
    u[74]     primal_lower95  589
    u[74]     primal_lower96  197
    u[74]     primal_lower97  846
    u[74]     primal_lower98  824
    u[74]     primal_lower99  818
    u[74]     interdiction[74]  1
    u[74]     mccormick1[74]  -1
    u[74]     mccormick3[74]  1
    u[75]     primal_lower0  239
    u[75]     primal_lower1  360
    u[75]     primal_lower2  668
    u[75]     primal_lower3  555
    u[75]     primal_lower4  839
    u[75]     primal_lower5  445
    u[75]     primal_lower6  33
    u[75]     primal_lower7  173
    u[75]     primal_lower8  678
    u[75]     primal_lower9  767
    u[75]     primal_lower10  122
    u[75]     primal_lower11  12
    u[75]     primal_lower12  120
    u[75]     primal_lower13  913
    u[75]     primal_lower14  796
    u[75]     primal_lower15  695
    u[75]     primal_lower16  872
    u[75]     primal_lower17  282
    u[75]     primal_lower18  454
    u[75]     primal_lower19  334
    u[75]     primal_lower20  685
    u[75]     primal_lower21  334
    u[75]     primal_lower22  663
    u[75]     primal_lower23  701
    u[75]     primal_lower24  115
    u[75]     primal_lower25  797
    u[75]     primal_lower26  640
    u[75]     primal_lower27  189
    u[75]     primal_lower28  634
    u[75]     primal_lower29  290
    u[75]     primal_lower30  203
    u[75]     primal_lower31  178
    u[75]     primal_lower32  125
    u[75]     primal_lower33  848
    u[75]     primal_lower34  785
    u[75]     primal_lower35  586
    u[75]     primal_lower36  46
    u[75]     primal_lower37  883
    u[75]     primal_lower38  211
    u[75]     primal_lower39  767
    u[75]     primal_lower40  727
    u[75]     primal_lower41  459
    u[75]     primal_lower42  235
    u[75]     primal_lower43  661
    u[75]     primal_lower44  385
    u[75]     primal_lower45  420
    u[75]     primal_lower46  674
    u[75]     primal_lower47  59
    u[75]     primal_lower48  245
    u[75]     primal_lower49  630
    u[75]     primal_lower50  889
    u[75]     primal_lower51  138
    u[75]     primal_lower52  790
    u[75]     primal_lower53  858
    u[75]     primal_lower54  299
    u[75]     primal_lower55  472
    u[75]     primal_lower56  167
    u[75]     primal_lower57  250
    u[75]     primal_lower58  361
    u[75]     primal_lower59  988
    u[75]     primal_lower60  113
    u[75]     primal_lower61  741
    u[75]     primal_lower62  543
    u[75]     primal_lower63  64
    u[75]     primal_lower64  357
    u[75]     primal_lower65  422
    u[75]     primal_lower66  763
    u[75]     primal_lower67  251
    u[75]     primal_lower68  762
    u[75]     primal_lower69  817
    u[75]     primal_lower70  5
    u[75]     primal_lower71  187
    u[75]     primal_lower72  418
    u[75]     primal_lower73  675
    u[75]     primal_lower74  906
    u[75]     primal_lower75  272
    u[75]     primal_lower76  645
    u[75]     primal_lower77  461
    u[75]     primal_lower78  630
    u[75]     primal_lower79  755
    u[75]     primal_lower80  878
    u[75]     primal_lower81  321
    u[75]     primal_lower82  198
    u[75]     primal_lower83  649
    u[75]     primal_lower84  387
    u[75]     primal_lower85  909
    u[75]     primal_lower86  564
    u[75]     primal_lower87  303
    u[75]     primal_lower88  290
    u[75]     primal_lower89  612
    u[75]     primal_lower90  567
    u[75]     primal_lower91  931
    u[75]     primal_lower92  425
    u[75]     primal_lower93  557
    u[75]     primal_lower94  4
    u[75]     primal_lower95  578
    u[75]     primal_lower96  346
    u[75]     primal_lower97  379
    u[75]     primal_lower98  293
    u[75]     primal_lower99  519
    u[75]     interdiction[75]  1
    u[75]     mccormick1[75]  -1
    u[75]     mccormick3[75]  1
    u[76]     primal_lower0  205
    u[76]     primal_lower1  10
    u[76]     primal_lower2  282
    u[76]     primal_lower3  13
    u[76]     primal_lower4  41
    u[76]     primal_lower5  411
    u[76]     primal_lower6  943
    u[76]     primal_lower7  799
    u[76]     primal_lower8  572
    u[76]     primal_lower9  569
    u[76]     primal_lower10  424
    u[76]     primal_lower11  438
    u[76]     primal_lower12  858
    u[76]     primal_lower13  603
    u[76]     primal_lower14  790
    u[76]     primal_lower15  461
    u[76]     primal_lower16  562
    u[76]     primal_lower17  44
    u[76]     primal_lower18  40
    u[76]     primal_lower19  64
    u[76]     primal_lower20  275
    u[76]     primal_lower21  548
    u[76]     primal_lower22  533
    u[76]     primal_lower23  723
    u[76]     primal_lower24  253
    u[76]     primal_lower25  883
    u[76]     primal_lower26  826
    u[76]     primal_lower27  903
    u[76]     primal_lower28  308
    u[76]     primal_lower29  940
    u[76]     primal_lower30  973
    u[76]     primal_lower31  384
    u[76]     primal_lower32  495
    u[76]     primal_lower33  918
    u[76]     primal_lower34  939
    u[76]     primal_lower35  968
    u[76]     primal_lower36  268
    u[76]     primal_lower37  309
    u[76]     primal_lower38  781
    u[76]     primal_lower39  417
    u[76]     primal_lower40  73
    u[76]     primal_lower41  397
    u[76]     primal_lower42  21
    u[76]     primal_lower43  99
    u[76]     primal_lower44  267
    u[76]     primal_lower45  458
    u[76]     primal_lower46  360
    u[76]     primal_lower47  85
    u[76]     primal_lower48  943
    u[76]     primal_lower49  700
    u[76]     primal_lower50  195
    u[76]     primal_lower51  576
    u[76]     primal_lower52  64
    u[76]     primal_lower53  344
    u[76]     primal_lower54  449
    u[76]     primal_lower55  158
    u[76]     primal_lower56  589
    u[76]     primal_lower57  980
    u[76]     primal_lower58  431
    u[76]     primal_lower59  134
    u[76]     primal_lower60  347
    u[76]     primal_lower61  439
    u[76]     primal_lower62  721
    u[76]     primal_lower63  82
    u[76]     primal_lower64  743
    u[76]     primal_lower65  356
    u[76]     primal_lower66  633
    u[76]     primal_lower67  37
    u[76]     primal_lower68  108
    u[76]     primal_lower69  91
    u[76]     primal_lower70  383
    u[76]     primal_lower71  829
    u[76]     primal_lower72  848
    u[76]     primal_lower73  309
    u[76]     primal_lower74  24
    u[76]     primal_lower75  362
    u[76]     primal_lower76  291
    u[76]     primal_lower77  963
    u[76]     primal_lower78  544
    u[76]     primal_lower79  597
    u[76]     primal_lower80  380
    u[76]     primal_lower81  379
    u[76]     primal_lower82  800
    u[76]     primal_lower83  851
    u[76]     primal_lower84  21
    u[76]     primal_lower85  199
    u[76]     primal_lower86  654
    u[76]     primal_lower87  313
    u[76]     primal_lower88  496
    u[76]     primal_lower89  230
    u[76]     primal_lower90  189
    u[76]     primal_lower91  317
    u[76]     primal_lower92  3
    u[76]     primal_lower93  643
    u[76]     primal_lower94  290
    u[76]     primal_lower95  552
    u[76]     primal_lower96  832
    u[76]     primal_lower97  489
    u[76]     primal_lower98  459
    u[76]     primal_lower99  61
    u[76]     interdiction[76]  1
    u[76]     mccormick1[76]  -1
    u[76]     mccormick3[76]  1
    u[77]     primal_lower0  514
    u[77]     primal_lower1  866
    u[77]     primal_lower2  983
    u[77]     primal_lower3  941
    u[77]     primal_lower4  385
    u[77]     primal_lower5  760
    u[77]     primal_lower6  516
    u[77]     primal_lower7  895
    u[77]     primal_lower8  617
    u[77]     primal_lower9  649
    u[77]     primal_lower10  653
    u[77]     primal_lower11  182
    u[77]     primal_lower12  826
    u[77]     primal_lower13  579
    u[77]     primal_lower14  686
    u[77]     primal_lower15  994
    u[77]     primal_lower16  154
    u[77]     primal_lower17  524
    u[77]     primal_lower18  616
    u[77]     primal_lower19  720
    u[77]     primal_lower20  368
    u[77]     primal_lower21  785
    u[77]     primal_lower22  90
    u[77]     primal_lower23  304
    u[77]     primal_lower24  253
    u[77]     primal_lower25  232
    u[77]     primal_lower26  162
    u[77]     primal_lower27  247
    u[77]     primal_lower28  420
    u[77]     primal_lower29  4
    u[77]     primal_lower30  45
    u[77]     primal_lower31  981
    u[77]     primal_lower32  31
    u[77]     primal_lower33  523
    u[77]     primal_lower34  219
    u[77]     primal_lower35  245
    u[77]     primal_lower36  25
    u[77]     primal_lower37  245
    u[77]     primal_lower38  533
    u[77]     primal_lower39  225
    u[77]     primal_lower40  273
    u[77]     primal_lower41  477
    u[77]     primal_lower42  941
    u[77]     primal_lower43  800
    u[77]     primal_lower44  51
    u[77]     primal_lower45  463
    u[77]     primal_lower46  29
    u[77]     primal_lower47  309
    u[77]     primal_lower48  623
    u[77]     primal_lower49  329
    u[77]     primal_lower50  731
    u[77]     primal_lower51  21
    u[77]     primal_lower52  960
    u[77]     primal_lower53  565
    u[77]     primal_lower54  598
    u[77]     primal_lower55  387
    u[77]     primal_lower56  74
    u[77]     primal_lower57  212
    u[77]     primal_lower58  820
    u[77]     primal_lower59  310
    u[77]     primal_lower60  635
    u[77]     primal_lower61  239
    u[77]     primal_lower62  593
    u[77]     primal_lower63  762
    u[77]     primal_lower64  295
    u[77]     primal_lower65  361
    u[77]     primal_lower66  150
    u[77]     primal_lower67  493
    u[77]     primal_lower68  220
    u[77]     primal_lower69  123
    u[77]     primal_lower70  127
    u[77]     primal_lower71  557
    u[77]     primal_lower72  13
    u[77]     primal_lower73  109
    u[77]     primal_lower74  485
    u[77]     primal_lower75  50
    u[77]     primal_lower76  824
    u[77]     primal_lower77  704
    u[77]     primal_lower78  672
    u[77]     primal_lower79  29
    u[77]     primal_lower80  897
    u[77]     primal_lower81  611
    u[77]     primal_lower82  48
    u[77]     primal_lower83  499
    u[77]     primal_lower84  13
    u[77]     primal_lower85  239
    u[77]     primal_lower86  310
    u[77]     primal_lower87  121
    u[77]     primal_lower88  837
    u[77]     primal_lower89  430
    u[77]     primal_lower90  266
    u[77]     primal_lower91  941
    u[77]     primal_lower92  443
    u[77]     primal_lower93  8
    u[77]     primal_lower94  503
    u[77]     primal_lower95  197
    u[77]     primal_lower96  589
    u[77]     primal_lower97  206
    u[77]     primal_lower98  544
    u[77]     primal_lower99  946
    u[77]     interdiction[77]  1
    u[77]     mccormick1[77]  -1
    u[77]     mccormick3[77]  1
    u[78]     primal_lower0  643
    u[78]     primal_lower1  936
    u[78]     primal_lower2  240
    u[78]     primal_lower3  123
    u[78]     primal_lower4  495
    u[78]     primal_lower5  521
    u[78]     primal_lower6  781
    u[78]     primal_lower7  773
    u[78]     primal_lower8  426
    u[78]     primal_lower9  703
    u[78]     primal_lower10  478
    u[78]     primal_lower11  196
    u[78]     primal_lower12  896
    u[78]     primal_lower13  289
    u[78]     primal_lower14  452
    u[78]     primal_lower15  731
    u[78]     primal_lower16  520
    u[78]     primal_lower17  258
    u[78]     primal_lower18  862
    u[78]     primal_lower19  254
    u[78]     primal_lower20  617
    u[78]     primal_lower21  738
    u[78]     primal_lower22  515
    u[78]     primal_lower23  985
    u[78]     primal_lower24  219
    u[78]     primal_lower25  617
    u[78]     primal_lower26  232
    u[78]     primal_lower27  941
    u[78]     primal_lower28  226
    u[78]     primal_lower29  146
    u[78]     primal_lower30  347
    u[78]     primal_lower31  22
    u[78]     primal_lower32  781
    u[78]     primal_lower33  60
    u[78]     primal_lower34  129
    u[78]     primal_lower35  470
    u[78]     primal_lower36  890
    u[78]     primal_lower37  787
    u[78]     primal_lower38  307
    u[78]     primal_lower39  831
    u[78]     primal_lower40  671
    u[78]     primal_lower41  299
    u[78]     primal_lower42  491
    u[78]     primal_lower43  105
    u[78]     primal_lower44  633
    u[78]     primal_lower45  312
    u[78]     primal_lower46  334
    u[78]     primal_lower47  611
    u[78]     primal_lower48  493
    u[78]     primal_lower49  562
    u[78]     primal_lower50  89
    u[78]     primal_lower51  790
    u[78]     primal_lower52  398
    u[78]     primal_lower53  782
    u[78]     primal_lower54  255
    u[78]     primal_lower55  884
    u[78]     primal_lower56  875
    u[78]     primal_lower57  506
    u[78]     primal_lower58  637
    u[78]     primal_lower59  780
    u[78]     primal_lower60  497
    u[78]     primal_lower61  669
    u[78]     primal_lower62  655
    u[78]     primal_lower63  512
    u[78]     primal_lower64  301
    u[78]     primal_lower65  330
    u[78]     primal_lower66  503
    u[78]     primal_lower67  731
    u[78]     primal_lower68  210
    u[78]     primal_lower69  537
    u[78]     primal_lower70  909
    u[78]     primal_lower71  67
    u[78]     primal_lower72  182
    u[78]     primal_lower73  155
    u[78]     primal_lower74  46
    u[78]     primal_lower75  592
    u[78]     primal_lower76  993
    u[78]     primal_lower77  961
    u[78]     primal_lower78  614
    u[78]     primal_lower79  811
    u[78]     primal_lower80  306
    u[78]     primal_lower81  801
    u[78]     primal_lower82  798
    u[78]     primal_lower83  49
    u[78]     primal_lower84  739
    u[78]     primal_lower85  213
    u[78]     primal_lower86  228
    u[78]     primal_lower87  671
    u[78]     primal_lower88  950
    u[78]     primal_lower89  500
    u[78]     primal_lower90  779
    u[78]     primal_lower91  187
    u[78]     primal_lower92  1
    u[78]     primal_lower93  649
    u[78]     primal_lower94  632
    u[78]     primal_lower95  526
    u[78]     primal_lower96  366
    u[78]     primal_lower97  135
    u[78]     primal_lower98  89
    u[78]     primal_lower99  51
    u[78]     interdiction[78]  1
    u[78]     mccormick1[78]  -1
    u[78]     mccormick3[78]  1
    u[79]     primal_lower0  449
    u[79]     primal_lower1  930
    u[79]     primal_lower2  110
    u[79]     primal_lower3  197
    u[79]     primal_lower4  425
    u[79]     primal_lower5  775
    u[79]     primal_lower6  531
    u[79]     primal_lower7  15
    u[79]     primal_lower8  352
    u[79]     primal_lower9  481
    u[79]     primal_lower10  588
    u[79]     primal_lower11  174
    u[79]     primal_lower12  354
    u[79]     primal_lower13  179
    u[79]     primal_lower14  310
    u[79]     primal_lower15  209
    u[79]     primal_lower16  402
    u[79]     primal_lower17  540
    u[79]     primal_lower18  336
    u[79]     primal_lower19  336
    u[79]     primal_lower20  719
    u[79]     primal_lower21  752
    u[79]     primal_lower22  761
    u[79]     primal_lower23  535
    u[79]     primal_lower24  765
    u[79]     primal_lower25  111
    u[79]     primal_lower26  522
    u[79]     primal_lower27  767
    u[79]     primal_lower28  148
    u[79]     primal_lower29  868
    u[79]     primal_lower30  981
    u[79]     primal_lower31  156
    u[79]     primal_lower32  495
    u[79]     primal_lower33  642
    u[79]     primal_lower34  355
    u[79]     primal_lower35  868
    u[79]     primal_lower36  728
    u[79]     primal_lower37  381
    u[79]     primal_lower38  61
    u[79]     primal_lower39  185
    u[79]     primal_lower40  41
    u[79]     primal_lower41  653
    u[79]     primal_lower42  261
    u[79]     primal_lower43  919
    u[79]     primal_lower44  19
    u[79]     primal_lower45  790
    u[79]     primal_lower46  940
    u[79]     primal_lower47  149
    u[79]     primal_lower48  431
    u[79]     primal_lower49  952
    u[79]     primal_lower50  179
    u[79]     primal_lower51  428
    u[79]     primal_lower52  856
    u[79]     primal_lower53  676
    u[79]     primal_lower54  365
    u[79]     primal_lower55  946
    u[79]     primal_lower56  985
    u[79]     primal_lower57  300
    u[79]     primal_lower58  715
    u[79]     primal_lower59  310
    u[79]     primal_lower60  19
    u[79]     primal_lower61  583
    u[79]     primal_lower62  233
    u[79]     primal_lower63  90
    u[79]     primal_lower64  15
    u[79]     primal_lower65  760
    u[79]     primal_lower66  493
    u[79]     primal_lower67  957
    u[79]     primal_lower68  380
    u[79]     primal_lower69  387
    u[79]     primal_lower70  159
    u[79]     primal_lower71  493
    u[79]     primal_lower72  372
    u[79]     primal_lower73  837
    u[79]     primal_lower74  852
    u[79]     primal_lower75  266
    u[79]     primal_lower76  951
    u[79]     primal_lower77  343
    u[79]     primal_lower78  328
    u[79]     primal_lower79  45
    u[79]     primal_lower80  592
    u[79]     primal_lower81  571
    u[79]     primal_lower82  512
    u[79]     primal_lower83  603
    u[79]     primal_lower84  957
    u[79]     primal_lower85  735
    u[79]     primal_lower86  702
    u[79]     primal_lower87  801
    u[79]     primal_lower88  380
    u[79]     primal_lower89  774
    u[79]     primal_lower90  769
    u[79]     primal_lower91  573
    u[79]     primal_lower92  355
    u[79]     primal_lower93  479
    u[79]     primal_lower94  126
    u[79]     primal_lower95  172
    u[79]     primal_lower96  20
    u[79]     primal_lower97  757
    u[79]     primal_lower98  783
    u[79]     primal_lower99  969
    u[79]     interdiction[79]  1
    u[79]     mccormick1[79]  -1
    u[79]     mccormick3[79]  1
    z[0]      primal_upper  32
    z[0]      mccormick1[0]  1
    z[0]      mccormick2[0]  1
    z[0]      mccormick3[0]  -1
    z[1]      primal_upper  12
    z[1]      mccormick1[1]  1
    z[1]      mccormick2[1]  1
    z[1]      mccormick3[1]  -1
    z[2]      primal_upper  6
    z[2]      mccormick1[2]  1
    z[2]      mccormick2[2]  1
    z[2]      mccormick3[2]  -1
    z[3]      primal_upper  66
    z[3]      mccormick1[3]  1
    z[3]      mccormick2[3]  1
    z[3]      mccormick3[3]  -1
    z[4]      primal_upper  36
    z[4]      mccormick1[4]  1
    z[4]      mccormick2[4]  1
    z[4]      mccormick3[4]  -1
    z[5]      primal_upper  11
    z[5]      mccormick1[5]  1
    z[5]      mccormick2[5]  1
    z[5]      mccormick3[5]  -1
    z[6]      primal_upper  29
    z[6]      mccormick1[6]  1
    z[6]      mccormick2[6]  1
    z[6]      mccormick3[6]  -1
    z[7]      primal_upper  64
    z[7]      mccormick1[7]  1
    z[7]      mccormick2[7]  1
    z[7]      mccormick3[7]  -1
    z[8]      primal_upper  60
    z[8]      mccormick1[8]  1
    z[8]      mccormick2[8]  1
    z[8]      mccormick3[8]  -1
    z[9]      primal_upper  68
    z[9]      mccormick1[9]  1
    z[9]      mccormick2[9]  1
    z[9]      mccormick3[9]  -1
    z[10]     primal_upper  84
    z[10]     mccormick1[10]  1
    z[10]     mccormick2[10]  1
    z[10]     mccormick3[10]  -1
    z[11]     primal_upper  58
    z[11]     mccormick1[11]  1
    z[11]     mccormick2[11]  1
    z[11]     mccormick3[11]  -1
    z[12]     primal_upper  28
    z[12]     mccormick1[12]  1
    z[12]     mccormick2[12]  1
    z[12]     mccormick3[12]  -1
    z[13]     primal_upper  16
    z[13]     mccormick1[13]  1
    z[13]     mccormick2[13]  1
    z[13]     mccormick3[13]  -1
    z[14]     primal_upper  7
    z[14]     mccormick1[14]  1
    z[14]     mccormick2[14]  1
    z[14]     mccormick3[14]  -1
    z[15]     primal_upper  45
    z[15]     mccormick1[15]  1
    z[15]     mccormick2[15]  1
    z[15]     mccormick3[15]  -1
    z[16]     primal_upper  2
    z[16]     mccormick1[16]  1
    z[16]     mccormick2[16]  1
    z[16]     mccormick3[16]  -1
    z[17]     primal_upper  95
    z[17]     mccormick1[17]  1
    z[17]     mccormick2[17]  1
    z[17]     mccormick3[17]  -1
    z[18]     primal_upper  74
    z[18]     mccormick1[18]  1
    z[18]     mccormick2[18]  1
    z[18]     mccormick3[18]  -1
    z[19]     primal_upper  34
    z[19]     mccormick1[19]  1
    z[19]     mccormick2[19]  1
    z[19]     mccormick3[19]  -1
    z[20]     primal_upper  23
    z[20]     mccormick1[20]  1
    z[20]     mccormick2[20]  1
    z[20]     mccormick3[20]  -1
    z[21]     mccormick1[21]  1
    z[21]     mccormick2[21]  1
    z[21]     mccormick3[21]  -1
    z[22]     primal_upper  89
    z[22]     mccormick1[22]  1
    z[22]     mccormick2[22]  1
    z[22]     mccormick3[22]  -1
    z[23]     primal_upper  96
    z[23]     mccormick1[23]  1
    z[23]     mccormick2[23]  1
    z[23]     mccormick3[23]  -1
    z[24]     primal_upper  2
    z[24]     mccormick1[24]  1
    z[24]     mccormick2[24]  1
    z[24]     mccormick3[24]  -1
    z[25]     primal_upper  25
    z[25]     mccormick1[25]  1
    z[25]     mccormick2[25]  1
    z[25]     mccormick3[25]  -1
    z[26]     primal_upper  95
    z[26]     mccormick1[26]  1
    z[26]     mccormick2[26]  1
    z[26]     mccormick3[26]  -1
    z[27]     primal_upper  59
    z[27]     mccormick1[27]  1
    z[27]     mccormick2[27]  1
    z[27]     mccormick3[27]  -1
    z[28]     primal_upper  15
    z[28]     mccormick1[28]  1
    z[28]     mccormick2[28]  1
    z[28]     mccormick3[28]  -1
    z[29]     primal_upper  51
    z[29]     mccormick1[29]  1
    z[29]     mccormick2[29]  1
    z[29]     mccormick3[29]  -1
    z[30]     primal_upper  29
    z[30]     mccormick1[30]  1
    z[30]     mccormick2[30]  1
    z[30]     mccormick3[30]  -1
    z[31]     primal_upper  15
    z[31]     mccormick1[31]  1
    z[31]     mccormick2[31]  1
    z[31]     mccormick3[31]  -1
    z[32]     primal_upper  43
    z[32]     mccormick1[32]  1
    z[32]     mccormick2[32]  1
    z[32]     mccormick3[32]  -1
    z[33]     primal_upper  13
    z[33]     mccormick1[33]  1
    z[33]     mccormick2[33]  1
    z[33]     mccormick3[33]  -1
    z[34]     primal_upper  66
    z[34]     mccormick1[34]  1
    z[34]     mccormick2[34]  1
    z[34]     mccormick3[34]  -1
    z[35]     primal_upper  52
    z[35]     mccormick1[35]  1
    z[35]     mccormick2[35]  1
    z[35]     mccormick3[35]  -1
    z[36]     primal_upper  77
    z[36]     mccormick1[36]  1
    z[36]     mccormick2[36]  1
    z[36]     mccormick3[36]  -1
    z[37]     primal_upper  66
    z[37]     mccormick1[37]  1
    z[37]     mccormick2[37]  1
    z[37]     mccormick3[37]  -1
    z[38]     primal_upper  8
    z[38]     mccormick1[38]  1
    z[38]     mccormick2[38]  1
    z[38]     mccormick3[38]  -1
    z[39]     primal_upper  20
    z[39]     mccormick1[39]  1
    z[39]     mccormick2[39]  1
    z[39]     mccormick3[39]  -1
    z[40]     primal_upper  39
    z[40]     mccormick1[40]  1
    z[40]     mccormick2[40]  1
    z[40]     mccormick3[40]  -1
    z[41]     primal_upper  47
    z[41]     mccormick1[41]  1
    z[41]     mccormick2[41]  1
    z[41]     mccormick3[41]  -1
    z[42]     primal_upper  15
    z[42]     mccormick1[42]  1
    z[42]     mccormick2[42]  1
    z[42]     mccormick3[42]  -1
    z[43]     primal_upper  77
    z[43]     mccormick1[43]  1
    z[43]     mccormick2[43]  1
    z[43]     mccormick3[43]  -1
    z[44]     primal_upper  1
    z[44]     mccormick1[44]  1
    z[44]     mccormick2[44]  1
    z[44]     mccormick3[44]  -1
    z[45]     primal_upper  71
    z[45]     mccormick1[45]  1
    z[45]     mccormick2[45]  1
    z[45]     mccormick3[45]  -1
    z[46]     primal_upper  14
    z[46]     mccormick1[46]  1
    z[46]     mccormick2[46]  1
    z[46]     mccormick3[46]  -1
    z[47]     primal_upper  8
    z[47]     mccormick1[47]  1
    z[47]     mccormick2[47]  1
    z[47]     mccormick3[47]  -1
    z[48]     primal_upper  72
    z[48]     mccormick1[48]  1
    z[48]     mccormick2[48]  1
    z[48]     mccormick3[48]  -1
    z[49]     primal_upper  22
    z[49]     mccormick1[49]  1
    z[49]     mccormick2[49]  1
    z[49]     mccormick3[49]  -1
    z[50]     primal_upper  84
    z[50]     mccormick1[50]  1
    z[50]     mccormick2[50]  1
    z[50]     mccormick3[50]  -1
    z[51]     primal_upper  55
    z[51]     mccormick1[51]  1
    z[51]     mccormick2[51]  1
    z[51]     mccormick3[51]  -1
    z[52]     primal_upper  35
    z[52]     mccormick1[52]  1
    z[52]     mccormick2[52]  1
    z[52]     mccormick3[52]  -1
    z[53]     primal_upper  68
    z[53]     mccormick1[53]  1
    z[53]     mccormick2[53]  1
    z[53]     mccormick3[53]  -1
    z[54]     primal_upper  39
    z[54]     mccormick1[54]  1
    z[54]     mccormick2[54]  1
    z[54]     mccormick3[54]  -1
    z[55]     primal_upper  54
    z[55]     mccormick1[55]  1
    z[55]     mccormick2[55]  1
    z[55]     mccormick3[55]  -1
    z[56]     primal_upper  12
    z[56]     mccormick1[56]  1
    z[56]     mccormick2[56]  1
    z[56]     mccormick3[56]  -1
    z[57]     primal_upper  89
    z[57]     mccormick1[57]  1
    z[57]     mccormick2[57]  1
    z[57]     mccormick3[57]  -1
    z[58]     primal_upper  52
    z[58]     mccormick1[58]  1
    z[58]     mccormick2[58]  1
    z[58]     mccormick3[58]  -1
    z[59]     primal_upper  2
    z[59]     mccormick1[59]  1
    z[59]     mccormick2[59]  1
    z[59]     mccormick3[59]  -1
    z[60]     primal_upper  24
    z[60]     mccormick1[60]  1
    z[60]     mccormick2[60]  1
    z[60]     mccormick3[60]  -1
    z[61]     primal_upper  72
    z[61]     mccormick1[61]  1
    z[61]     mccormick2[61]  1
    z[61]     mccormick3[61]  -1
    z[62]     primal_upper  22
    z[62]     mccormick1[62]  1
    z[62]     mccormick2[62]  1
    z[62]     mccormick3[62]  -1
    z[63]     primal_upper  92
    z[63]     mccormick1[63]  1
    z[63]     mccormick2[63]  1
    z[63]     mccormick3[63]  -1
    z[64]     primal_upper  15
    z[64]     mccormick1[64]  1
    z[64]     mccormick2[64]  1
    z[64]     mccormick3[64]  -1
    z[65]     primal_upper  99
    z[65]     mccormick1[65]  1
    z[65]     mccormick2[65]  1
    z[65]     mccormick3[65]  -1
    z[66]     primal_upper  56
    z[66]     mccormick1[66]  1
    z[66]     mccormick2[66]  1
    z[66]     mccormick3[66]  -1
    z[67]     primal_upper  18
    z[67]     mccormick1[67]  1
    z[67]     mccormick2[67]  1
    z[67]     mccormick3[67]  -1
    z[68]     primal_upper  26
    z[68]     mccormick1[68]  1
    z[68]     mccormick2[68]  1
    z[68]     mccormick3[68]  -1
    z[69]     primal_upper  44
    z[69]     mccormick1[69]  1
    z[69]     mccormick2[69]  1
    z[69]     mccormick3[69]  -1
    z[70]     primal_upper  36
    z[70]     mccormick1[70]  1
    z[70]     mccormick2[70]  1
    z[70]     mccormick3[70]  -1
    z[71]     primal_upper  94
    z[71]     mccormick1[71]  1
    z[71]     mccormick2[71]  1
    z[71]     mccormick3[71]  -1
    z[72]     primal_upper  84
    z[72]     mccormick1[72]  1
    z[72]     mccormick2[72]  1
    z[72]     mccormick3[72]  -1
    z[73]     primal_upper  58
    z[73]     mccormick1[73]  1
    z[73]     mccormick2[73]  1
    z[73]     mccormick3[73]  -1
    z[74]     primal_upper  40
    z[74]     mccormick1[74]  1
    z[74]     mccormick2[74]  1
    z[74]     mccormick3[74]  -1
    z[75]     primal_upper  68
    z[75]     mccormick1[75]  1
    z[75]     mccormick2[75]  1
    z[75]     mccormick3[75]  -1
    z[76]     primal_upper  87
    z[76]     mccormick1[76]  1
    z[76]     mccormick2[76]  1
    z[76]     mccormick3[76]  -1
    z[77]     primal_upper  35
    z[77]     mccormick1[77]  1
    z[77]     mccormick2[77]  1
    z[77]     mccormick3[77]  -1
    z[78]     primal_upper  70
    z[78]     mccormick1[78]  1
    z[78]     mccormick2[78]  1
    z[78]     mccormick3[78]  -1
    z[79]     primal_upper  69
    z[79]     mccormick1[79]  1
    z[79]     mccormick2[79]  1
    z[79]     mccormick3[79]  -1
    MARKER    'MARKER'                 'INTEND'
RHS
    RHS1      primal_upper  9089
    RHS1      primal_lower0  962
    RHS1      primal_lower1  9935
    RHS1      primal_lower2  983
    RHS1      primal_lower3  10433
    RHS1      primal_lower4  10291
    RHS1      primal_lower5  23667
    RHS1      primal_lower6  9471
    RHS1      primal_lower7  21815
    RHS1      primal_lower8  982
    RHS1      primal_lower9  10801
    RHS1      primal_lower10  16231
    RHS1      primal_lower11  17211
    RHS1      primal_lower12  999
    RHS1      primal_lower13  10833
    RHS1      primal_lower14  996
    RHS1      primal_lower15  8865
    RHS1      primal_lower16  999
    RHS1      primal_lower17  985
    RHS1      primal_lower18  19067
    RHS1      primal_lower19  19127
    RHS1      primal_lower20  10355
    RHS1      primal_lower21  993
    RHS1      primal_lower22  10677
    RHS1      primal_lower23  10743
    RHS1      primal_lower24  8725
    RHS1      primal_lower25  22271
    RHS1      primal_lower26  19483
    RHS1      primal_lower27  20123
    RHS1      primal_lower28  10115
    RHS1      primal_lower29  21823
    RHS1      primal_lower30  9187
    RHS1      primal_lower31  981
    RHS1      primal_lower32  10279
    RHS1      primal_lower33  10917
    RHS1      primal_lower34  9571
    RHS1      primal_lower35  1000
    RHS1      primal_lower36  1000
    RHS1      primal_lower37  21523
    RHS1      primal_lower38  9637
    RHS1      primal_lower39  955
    RHS1      primal_lower40  981
    RHS1      primal_lower41  1000
    RHS1      primal_lower42  9417
    RHS1      primal_lower43  10227
    RHS1      primal_lower44  998
    RHS1      primal_lower45  980
    RHS1      primal_lower46  9893
    RHS1      primal_lower47  999
    RHS1      primal_lower48  10499
    RHS1      primal_lower49  22787
    RHS1      primal_lower50  9723
    RHS1      primal_lower51  10431
    RHS1      primal_lower52  18127
    RHS1      primal_lower53  9579
    RHS1      primal_lower54  9845
    RHS1      primal_lower55  9605
    RHS1      primal_lower56  19331
    RHS1      primal_lower57  996
    RHS1      primal_lower58  999
    RHS1      primal_lower59  9047
    RHS1      primal_lower60  21475
    RHS1      primal_lower61  990
    RHS1      primal_lower62  10159
    RHS1      primal_lower63  19939
    RHS1      primal_lower64  9577
    RHS1      primal_lower65  995
    RHS1      primal_lower66  10499
    RHS1      primal_lower67  10643
    RHS1      primal_lower68  9419
    RHS1      primal_lower69  997
    RHS1      primal_lower70  8959
    RHS1      primal_lower71  967
    RHS1      primal_lower72  10357
    RHS1      primal_lower73  18339
    RHS1      primal_lower74  9507
    RHS1      primal_lower75  20535
    RHS1      primal_lower76  993
    RHS1      primal_lower77  9783
    RHS1      primal_lower78  9849
    RHS1      primal_lower79  20635
    RHS1      primal_lower80  996
    RHS1      primal_lower81  988
    RHS1      primal_lower82  999
    RHS1      primal_lower83  10637
    RHS1      primal_lower84  17435
    RHS1      primal_lower85  9877
    RHS1      primal_lower86  20699
    RHS1      primal_lower87  10517
    RHS1      primal_lower88  994
    RHS1      primal_lower89  9417
    RHS1      primal_lower90  9835
    RHS1      primal_lower91  999
    RHS1      primal_lower92  19895
    RHS1      primal_lower93  10515
    RHS1      primal_lower94  21347
    RHS1      primal_lower95  984
    RHS1      primal_lower96  9675
    RHS1      primal_lower97  9363
    RHS1      primal_lower98  19739
    RHS1      primal_lower99  991
    RHS1      interdiction[0]  1
    RHS1      interdiction[1]  1
    RHS1      interdiction[2]  1
    RHS1      interdiction[3]  1
    RHS1      interdiction[4]  1
    RHS1      interdiction[5]  1
    RHS1      interdiction[6]  1
    RHS1      interdiction[7]  1
    RHS1      interdiction[8]  1
    RHS1      interdiction[9]  1
    RHS1      interdiction[10]  1
    RHS1      interdiction[11]  1
    RHS1      interdiction[12]  1
    RHS1      interdiction[13]  1
    RHS1      interdiction[14]  1
    RHS1      interdiction[15]  1
    RHS1      interdiction[16]  1
    RHS1      interdiction[17]  1
    RHS1      interdiction[18]  1
    RHS1      interdiction[19]  1
    RHS1      interdiction[20]  1
    RHS1      interdiction[21]  1
    RHS1      interdiction[22]  1
    RHS1      interdiction[23]  1
    RHS1      interdiction[24]  1
    RHS1      interdiction[25]  1
    RHS1      interdiction[26]  1
    RHS1      interdiction[27]  1
    RHS1      interdiction[28]  1
    RHS1      interdiction[29]  1
    RHS1      interdiction[30]  1
    RHS1      interdiction[31]  1
    RHS1      interdiction[32]  1
    RHS1      interdiction[33]  1
    RHS1      interdiction[34]  1
    RHS1      interdiction[35]  1
    RHS1      interdiction[36]  1
    RHS1      interdiction[37]  1
    RHS1      interdiction[38]  1
    RHS1      interdiction[39]  1
    RHS1      interdiction[40]  1
    RHS1      interdiction[41]  1
    RHS1      interdiction[42]  1
    RHS1      interdiction[43]  1
    RHS1      interdiction[44]  1
    RHS1      interdiction[45]  1
    RHS1      interdiction[46]  1
    RHS1      interdiction[47]  1
    RHS1      interdiction[48]  1
    RHS1      interdiction[49]  1
    RHS1      interdiction[50]  1
    RHS1      interdiction[51]  1
    RHS1      interdiction[52]  1
    RHS1      interdiction[53]  1
    RHS1      interdiction[54]  1
    RHS1      interdiction[55]  1
    RHS1      interdiction[56]  1
    RHS1      interdiction[57]  1
    RHS1      interdiction[58]  1
    RHS1      interdiction[59]  1
    RHS1      interdiction[60]  1
    RHS1      interdiction[61]  1
    RHS1      interdiction[62]  1
    RHS1      interdiction[63]  1
    RHS1      interdiction[64]  1
    RHS1      interdiction[65]  1
    RHS1      interdiction[66]  1
    RHS1      interdiction[67]  1
    RHS1      interdiction[68]  1
    RHS1      interdiction[69]  1
    RHS1      interdiction[70]  1
    RHS1      interdiction[71]  1
    RHS1      interdiction[72]  1
    RHS1      interdiction[73]  1
    RHS1      interdiction[74]  1
    RHS1      interdiction[75]  1
    RHS1      interdiction[76]  1
    RHS1      interdiction[77]  1
    RHS1      interdiction[78]  1
    RHS1      interdiction[79]  1
    RHS1      mccormick3[0]  1
    RHS1      mccormick3[1]  1
    RHS1      mccormick3[2]  1
    RHS1      mccormick3[3]  1
    RHS1      mccormick3[4]  1
    RHS1      mccormick3[5]  1
    RHS1      mccormick3[6]  1
    RHS1      mccormick3[7]  1
    RHS1      mccormick3[8]  1
    RHS1      mccormick3[9]  1
    RHS1      mccormick3[10]  1
    RHS1      mccormick3[11]  1
    RHS1      mccormick3[12]  1
    RHS1      mccormick3[13]  1
    RHS1      mccormick3[14]  1
    RHS1      mccormick3[15]  1
    RHS1      mccormick3[16]  1
    RHS1      mccormick3[17]  1
    RHS1      mccormick3[18]  1
    RHS1      mccormick3[19]  1
    RHS1      mccormick3[20]  1
    RHS1      mccormick3[21]  1
    RHS1      mccormick3[22]  1
    RHS1      mccormick3[23]  1
    RHS1      mccormick3[24]  1
    RHS1      mccormick3[25]  1
    RHS1      mccormick3[26]  1
    RHS1      mccormick3[27]  1
    RHS1      mccormick3[28]  1
    RHS1      mccormick3[29]  1
    RHS1      mccormick3[30]  1
    RHS1      mccormick3[31]  1
    RHS1      mccormick3[32]  1
    RHS1      mccormick3[33]  1
    RHS1      mccormick3[34]  1
    RHS1      mccormick3[35]  1
    RHS1      mccormick3[36]  1
    RHS1      mccormick3[37]  1
    RHS1      mccormick3[38]  1
    RHS1      mccormick3[39]  1
    RHS1      mccormick3[40]  1
    RHS1      mccormick3[41]  1
    RHS1      mccormick3[42]  1
    RHS1      mccormick3[43]  1
    RHS1      mccormick3[44]  1
    RHS1      mccormick3[45]  1
    RHS1      mccormick3[46]  1
    RHS1      mccormick3[47]  1
    RHS1      mccormick3[48]  1
    RHS1      mccormick3[49]  1
    RHS1      mccormick3[50]  1
    RHS1      mccormick3[51]  1
    RHS1      mccormick3[52]  1
    RHS1      mccormick3[53]  1
    RHS1      mccormick3[54]  1
    RHS1      mccormick3[55]  1
    RHS1      mccormick3[56]  1
    RHS1      mccormick3[57]  1
    RHS1      mccormick3[58]  1
    RHS1      mccormick3[59]  1
    RHS1      mccormick3[60]  1
    RHS1      mccormick3[61]  1
    RHS1      mccormick3[62]  1
    RHS1      mccormick3[63]  1
    RHS1      mccormick3[64]  1
    RHS1      mccormick3[65]  1
    RHS1      mccormick3[66]  1
    RHS1      mccormick3[67]  1
    RHS1      mccormick3[68]  1
    RHS1      mccormick3[69]  1
    RHS1      mccormick3[70]  1
    RHS1      mccormick3[71]  1
    RHS1      mccormick3[72]  1
    RHS1      mccormick3[73]  1
    RHS1      mccormick3[74]  1
    RHS1      mccormick3[75]  1
    RHS1      mccormick3[76]  1
    RHS1      mccormick3[77]  1
    RHS1      mccormick3[78]  1
    RHS1      mccormick3[79]  1
BOUNDS
 BV BND1      x[0]    
 BV BND1      x[1]    
 BV BND1      x[2]    
 BV BND1      x[3]    
 BV BND1      x[4]    
 BV BND1      x[5]    
 BV BND1      x[6]    
 BV BND1      x[7]    
 BV BND1      x[8]    
 BV BND1      x[9]    
 BV BND1      x[10]   
 BV BND1      x[11]   
 BV BND1      x[12]   
 BV BND1      x[13]   
 BV BND1      x[14]   
 BV BND1      x[15]   
 BV BND1      x[16]   
 BV BND1      x[17]   
 BV BND1      x[18]   
 BV BND1      x[19]   
 BV BND1      x[20]   
 BV BND1      x[21]   
 BV BND1      x[22]   
 BV BND1      x[23]   
 BV BND1      x[24]   
 BV BND1      x[25]   
 BV BND1      x[26]   
 BV BND1      x[27]   
 BV BND1      x[28]   
 BV BND1      x[29]   
 BV BND1      x[30]   
 BV BND1      x[31]   
 BV BND1      x[32]   
 BV BND1      x[33]   
 BV BND1      x[34]   
 BV BND1      x[35]   
 BV BND1      x[36]   
 BV BND1      x[37]   
 BV BND1      x[38]   
 BV BND1      x[39]   
 BV BND1      x[40]   
 BV BND1      x[41]   
 BV BND1      x[42]   
 BV BND1      x[43]   
 BV BND1      x[44]   
 BV BND1      x[45]   
 BV BND1      x[46]   
 BV BND1      x[47]   
 BV BND1      x[48]   
 BV BND1      x[49]   
 BV BND1      x[50]   
 BV BND1      x[51]   
 BV BND1      x[52]   
 BV BND1      x[53]   
 BV BND1      x[54]   
 BV BND1      x[55]   
 BV BND1      x[56]   
 BV BND1      x[57]   
 BV BND1      x[58]   
 BV BND1      x[59]   
 BV BND1      x[60]   
 BV BND1      x[61]   
 BV BND1      x[62]   
 BV BND1      x[63]   
 BV BND1      x[64]   
 BV BND1      x[65]   
 BV BND1      x[66]   
 BV BND1      x[67]   
 BV BND1      x[68]   
 BV BND1      x[69]   
 BV BND1      x[70]   
 BV BND1      x[71]   
 BV BND1      x[72]   
 BV BND1      x[73]   
 BV BND1      x[74]   
 BV BND1      x[75]   
 BV BND1      x[76]   
 BV BND1      x[77]   
 BV BND1      x[78]   
 BV BND1      x[79]   
 BV BND1      y[0]    
 BV BND1      y[1]    
 BV BND1      y[2]    
 BV BND1      y[3]    
 BV BND1      y[4]    
 BV BND1      y[5]    
 BV BND1      y[6]    
 BV BND1      y[7]    
 BV BND1      y[8]    
 BV BND1      y[9]    
 BV BND1      y[10]   
 BV BND1      y[11]   
 BV BND1      y[12]   
 BV BND1      y[13]   
 BV BND1      y[14]   
 BV BND1      y[15]   
 BV BND1      y[16]   
 BV BND1      y[17]   
 BV BND1      y[18]   
 BV BND1      y[19]   
 BV BND1      y[20]   
 BV BND1      y[21]   
 BV BND1      y[22]   
 BV BND1      y[23]   
 BV BND1      y[24]   
 BV BND1      y[25]   
 BV BND1      y[26]   
 BV BND1      y[27]   
 BV BND1      y[28]   
 BV BND1      y[29]   
 BV BND1      y[30]   
 BV BND1      y[31]   
 BV BND1      y[32]   
 BV BND1      y[33]   
 BV BND1      y[34]   
 BV BND1      y[35]   
 BV BND1      y[36]   
 BV BND1      y[37]   
 BV BND1      y[38]   
 BV BND1      y[39]   
 BV BND1      y[40]   
 BV BND1      y[41]   
 BV BND1      y[42]   
 BV BND1      y[43]   
 BV BND1      y[44]   
 BV BND1      y[45]   
 BV BND1      y[46]   
 BV BND1      y[47]   
 BV BND1      y[48]   
 BV BND1      y[49]   
 BV BND1      y[50]   
 BV BND1      y[51]   
 BV BND1      y[52]   
 BV BND1      y[53]   
 BV BND1      y[54]   
 BV BND1      y[55]   
 BV BND1      y[56]   
 BV BND1      y[57]   
 BV BND1      y[58]   
 BV BND1      y[59]   
 BV BND1      y[60]   
 BV BND1      y[61]   
 BV BND1      y[62]   
 BV BND1      y[63]   
 BV BND1      y[64]   
 BV BND1      y[65]   
 BV BND1      y[66]   
 BV BND1      y[67]   
 BV BND1      y[68]   
 BV BND1      y[69]   
 BV BND1      y[70]   
 BV BND1      y[71]   
 BV BND1      y[72]   
 BV BND1      y[73]   
 BV BND1      y[74]   
 BV BND1      y[75]   
 BV BND1      y[76]   
 BV BND1      y[77]   
 BV BND1      y[78]   
 BV BND1      y[79]   
 BV BND1      u[0]    
 BV BND1      u[1]    
 BV BND1      u[2]    
 BV BND1      u[3]    
 BV BND1      u[4]    
 BV BND1      u[5]    
 BV BND1      u[6]    
 BV BND1      u[7]    
 BV BND1      u[8]    
 BV BND1      u[9]    
 BV BND1      u[10]   
 BV BND1      u[11]   
 BV BND1      u[12]   
 BV BND1      u[13]   
 BV BND1      u[14]   
 BV BND1      u[15]   
 BV BND1      u[16]   
 BV BND1      u[17]   
 BV BND1      u[18]   
 BV BND1      u[19]   
 BV BND1      u[20]   
 BV BND1      u[21]   
 BV BND1      u[22]   
 BV BND1      u[23]   
 BV BND1      u[24]   
 BV BND1      u[25]   
 BV BND1      u[26]   
 BV BND1      u[27]   
 BV BND1      u[28]   
 BV BND1      u[29]   
 BV BND1      u[30]   
 BV BND1      u[31]   
 BV BND1      u[32]   
 BV BND1      u[33]   
 BV BND1      u[34]   
 BV BND1      u[35]   
 BV BND1      u[36]   
 BV BND1      u[37]   
 BV BND1      u[38]   
 BV BND1      u[39]   
 BV BND1      u[40]   
 BV BND1      u[41]   
 BV BND1      u[42]   
 BV BND1      u[43]   
 BV BND1      u[44]   
 BV BND1      u[45]   
 BV BND1      u[46]   
 BV BND1      u[47]   
 BV BND1      u[48]   
 BV BND1      u[49]   
 BV BND1      u[50]   
 BV BND1      u[51]   
 BV BND1      u[52]   
 BV BND1      u[53]   
 BV BND1      u[54]   
 BV BND1      u[55]   
 BV BND1      u[56]   
 BV BND1      u[57]   
 BV BND1      u[58]   
 BV BND1      u[59]   
 BV BND1      u[60]   
 BV BND1      u[61]   
 BV BND1      u[62]   
 BV BND1      u[63]   
 BV BND1      u[64]   
 BV BND1      u[65]   
 BV BND1      u[66]   
 BV BND1      u[67]   
 BV BND1      u[68]   
 BV BND1      u[69]   
 BV BND1      u[70]   
 BV BND1      u[71]   
 BV BND1      u[72]   
 BV BND1      u[73]   
 BV BND1      u[74]   
 BV BND1      u[75]   
 BV BND1      u[76]   
 BV BND1      u[77]   
 BV BND1      u[78]   
 BV BND1      u[79]   
 BV BND1      z[0]    
 BV BND1      z[1]    
 BV BND1      z[2]    
 BV BND1      z[3]    
 BV BND1      z[4]    
 BV BND1      z[5]    
 BV BND1      z[6]    
 BV BND1      z[7]    
 BV BND1      z[8]    
 BV BND1      z[9]    
 BV BND1      z[10]   
 BV BND1      z[11]   
 BV BND1      z[12]   
 BV BND1      z[13]   
 BV BND1      z[14]   
 BV BND1      z[15]   
 BV BND1      z[16]   
 BV BND1      z[17]   
 BV BND1      z[18]   
 BV BND1      z[19]   
 BV BND1      z[20]   
 BV BND1      z[21]   
 BV BND1      z[22]   
 BV BND1      z[23]   
 BV BND1      z[24]   
 BV BND1      z[25]   
 BV BND1      z[26]   
 BV BND1      z[27]   
 BV BND1      z[28]   
 BV BND1      z[29]   
 BV BND1      z[30]   
 BV BND1      z[31]   
 BV BND1      z[32]   
 BV BND1      z[33]   
 BV BND1      z[34]   
 BV BND1      z[35]   
 BV BND1      z[36]   
 BV BND1      z[37]   
 BV BND1      z[38]   
 BV BND1      z[39]   
 BV BND1      z[40]   
 BV BND1      z[41]   
 BV BND1      z[42]   
 BV BND1      z[43]   
 BV BND1      z[44]   
 BV BND1      z[45]   
 BV BND1      z[46]   
 BV BND1      z[47]   
 BV BND1      z[48]   
 BV BND1      z[49]   
 BV BND1      z[50]   
 BV BND1      z[51]   
 BV BND1      z[52]   
 BV BND1      z[53]   
 BV BND1      z[54]   
 BV BND1      z[55]   
 BV BND1      z[56]   
 BV BND1      z[57]   
 BV BND1      z[58]   
 BV BND1      z[59]   
 BV BND1      z[60]   
 BV BND1      z[61]   
 BV BND1      z[62]   
 BV BND1      z[63]   
 BV BND1      z[64]   
 BV BND1      z[65]   
 BV BND1      z[66]   
 BV BND1      z[67]   
 BV BND1      z[68]   
 BV BND1      z[69]   
 BV BND1      z[70]   
 BV BND1      z[71]   
 BV BND1      z[72]   
 BV BND1      z[73]   
 BV BND1      z[74]   
 BV BND1      z[75]   
 BV BND1      z[76]   
 BV BND1      z[77]   
 BV BND1      z[78]   
 BV BND1      z[79]   
ENDATA
