\ Model knapsack_60_10_1
\ LP format - for model browsing. Use MPS format to capture full model detail.
\ Signature: 0xbc4645de2e69e5ab
Minimize
  10 x[0] + 10 x[1] + 10 x[2] + 10 x[3] + 10 x[4] + 10 x[5] + 10 x[6]
   + 10 x[7] + 10 x[8] + 10 x[9] + 10 x[10] + 10 x[11] + 10 x[12]
   + 10 x[13] + 10 x[14] + 10 x[15] + 10 x[16] + 10 x[17] + 10 x[18]
   + 10 x[19] + 10 x[20] + 10 x[21] + 10 x[22] + 10 x[23] + 10 x[24]
   + 10 x[25] + 10 x[26] + 10 x[27] + 10 x[28] + 10 x[29] + 10 x[30]
   + 10 x[31] + 10 x[32] + 10 x[33] + 10 x[34] + 10 x[35] + 10 x[36]
   + 10 x[37] + 10 x[38] + 10 x[39] + 10 x[40] + 10 x[41] + 10 x[42]
   + 10 x[43] + 10 x[44] + 10 x[45] + 10 x[46] + 10 x[47] + 10 x[48]
   + 10 x[49] + 10 x[50] + 10 x[51] + 10 x[52] + 10 x[53] + 10 x[54]
   + 10 x[55] + 10 x[56] + 10 x[57] + 10 x[58] + 10 x[59] - 610 y[0]
   - 542 y[1] - 460 y[2] - 692 y[3] - 829 y[4] - 529 y[5] - 253 y[6]
   - 515 y[7] - 754 y[8] - 762 y[9] - 155 y[10] - 963 y[11] - 439 y[12]
   - 602 y[13] - 211 y[14] - 356 y[15] - 98 y[16] - 802 y[17] - 86 y[18]
   - 81 y[19] - 405 y[20] - 663 y[21] - 48 y[22] - 976 y[23] - 765 y[24]
   - 782 y[25] - 508 y[26] - 543 y[27] - 582 y[28] - 320 y[29] - 889 y[30]
   - 1000 y[31] - 656 y[32] - 71 y[33] - 583 y[34] - 93 y[35] - 533 y[36]
   - 311 y[37] - 282 y[38] - 259 y[39] - 864 y[40] - 429 y[41] - 85 y[42]
   - 507 y[43] - 270 y[44] - 875 y[45] - 920 y[46] - 852 y[47] - 656 y[48]
   - 977 y[49] - 939 y[50] - 290 y[51] - 23 y[52] - 917 y[53] - 520 y[54]
   - 650 y[55] - 854 y[56] - 900 y[57] - 444 y[58] - 515 y[59]
Subject To
 primal_upper: 625 y[0] + 410 y[1] + 884 y[2] + 705 y[3] + 510 y[4]
   + 983 y[5] + 551 y[6] + 481 y[7] + 215 y[8] + 776 y[9] + 365 y[10]
   + 545 y[11] + 998 y[12] + 834 y[13] + 982 y[14] + 362 y[15] + 647 y[16]
   + 886 y[17] + 643 y[18] + 708 y[19] + 55 y[20] + 109 y[21] + 270 y[22]
   + 836 y[23] + 102 y[24] + 78 y[25] + 724 y[26] + 701 y[27] + 39 y[28]
   + 45 y[29] + 211 y[30] + 65 y[31] + 445 y[32] + 867 y[33] + 222 y[34]
   + 327 y[35] + 110 y[36] + 154 y[37] + 438 y[38] + 404 y[39] + 337 y[40]
   + 927 y[41] + 640 y[42] + 987 y[43] + 305 y[44] + 968 y[45] + 251 y[46]
   + 191 y[47] + 25 y[48] + 918 y[49] + 416 y[50] + 422 y[51] + 319 y[52]
   + 570 y[53] + 402 y[54] + 917 y[55] + 803 y[56] + 480 y[57] + 550 y[58]
   + 808 y[59] + 62 z[0] + 41 z[1] + 88 z[2] + 70 z[3] + 51 z[4] + 98 z[5]
   + 55 z[6] + 48 z[7] + 22 z[8] + 78 z[9] + 36 z[10] + 54 z[11]
   + 100 z[12] + 83 z[13] + 98 z[14] + 36 z[15] + 65 z[16] + 89 z[17]
   + 64 z[18] + 71 z[19] + 6 z[20] + 11 z[21] + 27 z[22] + 84 z[23]
   + 10 z[24] + 8 z[25] + 72 z[26] + 70 z[27] + 4 z[28] + 4 z[29]
   + 21 z[30] + 6 z[31] + 44 z[32] + 87 z[33] + 22 z[34] + 33 z[35]
   + 11 z[36] + 15 z[37] + 44 z[38] + 40 z[39] + 34 z[40] + 93 z[41]
   + 64 z[42] + 99 z[43] + 30 z[44] + 97 z[45] + 25 z[46] + 19 z[47]
   + 2 z[48] + 92 z[49] + 42 z[50] + 42 z[51] + 32 z[52] + 57 z[53]
   + 40 z[54] + 92 z[55] + 80 z[56] + 48 z[57] + 55 z[58] + 81 z[59]
   <= 15274
 primal_lower0: 851 u[0] + 276 u[1] + 646 u[2] + 915 u[3] + 192 u[4]
   + 577 u[5] + 937 u[6] + 275 u[7] + 553 u[8] + 962 u[9] + 351 u[10]
   + 243 u[11] + 952 u[12] + 324 u[13] + 248 u[14] + 324 u[15] + 417 u[16]
   + 672 u[17] + 789 u[18] + 614 u[19] + 177 u[20] + 623 u[21] + 360 u[22]
   + 742 u[23] + 248 u[24] + 480 u[25] + 782 u[26] + 495 u[27] + 513 u[28]
   + 223 u[29] + 757 u[30] + 731 u[31] + 327 u[32] + 405 u[33] + 760 u[34]
   + 497 u[35] + 656 u[36] + 12 u[37] + 328 u[38] + 398 u[39] + 195 u[40]
   + 345 u[41] + 322 u[42] + 173 u[43] + 243 u[44] + 906 u[45] + 733 u[46]
   + 761 u[47] + 339 u[48] + 176 u[49] + 970 u[50] + 728 u[51] + 417 u[52]
   + 572 u[53] + 316 u[54] + 511 u[55] + 573 u[56] + 866 u[57] + 8 u[58]
   + 130 u[59] <= 970
 primal_lower1: 771 u[0] + 855 u[1] + 293 u[2] + 670 u[3] + 855 u[4]
   + 173 u[5] + 320 u[6] + 151 u[7] + 520 u[8] + 909 u[9] + 887 u[10]
   + 750 u[11] + 719 u[12] + 607 u[13] + 96 u[14] + 728 u[15] + 720 u[16]
   + 811 u[17] + 700 u[18] + 657 u[19] + 824 u[20] + 523 u[21] + 271 u[22]
   + 538 u[23] + 688 u[24] + 499 u[25] + 773 u[26] + 779 u[27] + 497 u[28]
   + 266 u[29] + 613 u[30] + 255 u[31] + 47 u[32] + 632 u[33] + 935 u[34]
   + 564 u[35] + 759 u[36] + 872 u[37] + 287 u[38] + 578 u[39] + 778 u[40]
   + 789 u[41] + 9 u[42] + 953 u[43] + 290 u[44] + 622 u[45] + 117 u[46]
   + 85 u[47] + 906 u[48] + 435 u[49] + 778 u[50] + 291 u[51] + 984 u[52]
   + 183 u[53] + 636 u[54] + 587 u[55] + 932 u[56] + 926 u[57] + 671 u[58]
   + 261 u[59] <= 984
 primal_lower2: 718 u[0] + 175 u[1] + 633 u[2] + 54 u[3] + 771 u[4]
   + 156 u[5] + 644 u[6] + 174 u[7] + 932 u[8] + 821 u[9] + 802 u[10]
   + 78 u[11] + 195 u[12] + 303 u[13] + 27 u[14] + 383 u[15] + 148 u[16]
   + 299 u[17] + 408 u[18] + 177 u[19] + 284 u[20] + 186 u[21] + 307 u[22]
   + 609 u[23] + 499 u[24] + 555 u[25] + 241 u[26] + 74 u[27] + 980 u[28]
   + 98 u[29] + 704 u[30] + 790 u[31] + 898 u[32] + 992 u[33] + 515 u[34]
   + 724 u[35] + 355 u[36] + 607 u[37] + 499 u[38] + 457 u[39] + 726 u[40]
   + 284 u[41] + 469 u[42] + 112 u[43] + 278 u[44] + 821 u[45] + 616 u[46]
   + 868 u[47] + 990 u[48] + 459 u[49] + 981 u[50] + 923 u[51] + 92 u[52]
   + 967 u[53] + 815 u[54] + 514 u[55] + 776 u[56] + 869 u[57] + 59 u[58]
   + 893 u[59] <= 992
 primal_lower3: 215 u[0] + 712 u[1] + 570 u[2] + 423 u[3] + 220 u[4]
   + 661 u[5] + 973 u[6] + 871 u[7] + 365 u[8] + 6 u[9] + 403 u[10]
   + 287 u[11] + 12 u[12] + 600 u[13] + 476 u[14] + 568 u[15] + 909 u[16]
   + 476 u[17] + 393 u[18] + 106 u[19] + 29 u[20] + 35 u[21] + 668 u[22]
   + 434 u[23] + 644 u[24] + 940 u[25] + 426 u[26] + 891 u[27] + 5 u[28]
   + 595 u[29] + 993 u[30] + 7 u[31] + 931 u[32] + 281 u[33] + 780 u[34]
   + 821 u[35] + 316 u[36] + 464 u[37] + 116 u[38] + 434 u[39] + 639 u[40]
   + 653 u[41] + 534 u[42] + 345 u[43] + 231 u[44] + 478 u[45] + 345 u[46]
   + 165 u[47] + 583 u[48] + 316 u[49] + 894 u[50] + 316 u[51] + 69 u[52]
   + 472 u[53] + 40 u[54] + 99 u[55] + 649 u[56] + 246 u[57] + 172 u[58]
   + 902 u[59] <= 993
 primal_lower4: 983 u[0] + 275 u[1] + 713 u[2] + 442 u[3] + 27 u[4]
   + 697 u[5] + 60 u[6] + 523 u[7] + 292 u[8] + 81 u[9] + 19 u[10]
   + 74 u[11] + 651 u[12] + 891 u[13] + 532 u[14] + 932 u[15] + 44 u[16]
   + 583 u[17] + 176 u[18] + 733 u[19] + 428 u[20] + 695 u[21] + 427 u[22]
   + 286 u[23] + 628 u[24] + 839 u[25] + 345 u[26] + 447 u[27] + 333 u[28]
   + 654 u[29] + 761 u[30] + 651 u[31] + 539 u[32] + 44 u[33] + 947 u[34]
   + 640 u[35] + 59 u[36] + 148 u[37] + 11 u[38] + 310 u[39] + 574 u[40]
   + 521 u[41] + 325 u[42] + 373 u[43] + 974 u[44] + 634 u[45] + 705 u[46]
   + 185 u[47] + 374 u[48] + 847 u[49] + 998 u[50] + 719 u[51] + 780 u[52]
   + 251 u[53] + 768 u[54] + 399 u[55] + 944 u[56] + 162 u[57] + 763 u[58]
   + 881 u[59] <= 998
 primal_lower5: 767 u[0] + 496 u[1] + 322 u[2] + 487 u[3] + 204 u[4]
   + 501 u[5] + 237 u[6] + 311 u[7] + 61 u[8] + 798 u[9] + 971 u[10]
   + 863 u[11] + 788 u[12] + 872 u[13] + 476 u[14] + 88 u[15] + 453 u[16]
   + 604 u[17] + 9 u[18] + 378 u[19] + 533 u[20] + 611 u[21] + 612 u[22]
   + 842 u[23] + 668 u[24] + 716 u[25] + 530 u[26] + 723 u[27] + 485 u[28]
   + 515 u[29] + 521 u[30] + 407 u[31] + 587 u[32] + 209 u[33] + 780 u[34]
   + 421 u[35] + 852 u[36] + 224 u[37] + 36 u[38] + 610 u[39] + 983 u[40]
   + 69 u[41] + 774 u[42] + 393 u[43] + 871 u[44] + 230 u[45] + 769 u[46]
   + 445 u[47] + 135 u[48] + 548 u[49] + 134 u[50] + 564 u[51] + 645 u[52]
   + 248 u[53] + 464 u[54] + 339 u[55] + 521 u[56] + 230 u[57] + 132 u[58]
   + 766 u[59] <= 983
 primal_lower6: 764 u[0] + 893 u[1] + 135 u[2] + 604 u[3] + 609 u[4]
   + 554 u[5] + 890 u[6] + 92 u[7] + 74 u[8] + 235 u[9] + 16 u[10]
   + 700 u[11] + 849 u[12] + 629 u[13] + 281 u[14] + 445 u[15] + 762 u[16]
   + 737 u[17] + 942 u[18] + 895 u[19] + 738 u[20] + 296 u[21] + 49 u[22]
   + 103 u[23] + 17 u[24] + 113 u[25] + 319 u[26] + 168 u[27] + 106 u[28]
   + 368 u[29] + 398 u[30] + 220 u[31] + 240 u[32] + 566 u[33] + 817 u[34]
   + 122 u[35] + 825 u[36] + 469 u[37] + 81 u[38] + 111 u[39] + 196 u[40]
   + 106 u[41] + 843 u[42] + 846 u[43] + 444 u[44] + 835 u[45] + 278 u[46]
   + 106 u[47] + 796 u[48] + 209 u[49] + 883 u[50] + 617 u[51] + 218 u[52]
   + 437 u[53] + 597 u[54] + 344 u[55] + 678 u[56] + 899 u[57] + 137 u[58]
   + 739 u[59] <= 942
 primal_lower7: 721 u[0] + 546 u[1] + 508 u[2] + 561 u[3] + 654 u[4]
   + 479 u[5] + 359 u[6] + 145 u[7] + 359 u[8] + 416 u[9] + 421 u[10]
   + 801 u[11] + 206 u[12] + 354 u[13] + 606 u[14] + 562 u[15] + 223 u[16]
   + 102 u[17] + 843 u[18] + 252 u[19] + 191 u[20] + 557 u[21] + 934 u[22]
   + 868 u[23] + 574 u[24] + 990 u[25] + 700 u[26] + 653 u[27] + 343 u[28]
   + 237 u[29] + 107 u[30] + 241 u[31] + 973 u[32] + 99 u[33] + 302 u[34]
   + 71 u[35] + 478 u[36] + 314 u[37] + 398 u[38] + 580 u[39] + 297 u[40]
   + 215 u[41] + 592 u[42] + 947 u[43] + 489 u[44] + 400 u[45] + 251 u[46]
   + 447 u[47] + 321 u[48] + 358 u[49] + 368 u[50] + 310 u[51] + 647 u[52]
   + 626 u[53] + 130 u[54] + 173 u[55] + 539 u[56] + 504 u[57] + 366 u[58]
   + 968 u[59] <= 990
 primal_lower8: 299 u[0] + 15 u[1] + 829 u[2] + 726 u[3] + 863 u[4]
   + 373 u[5] + 280 u[6] + 879 u[7] + 464 u[8] + 757 u[9] + 847 u[10]
   + 902 u[11] + 895 u[12] + 71 u[13] + 776 u[14] + 760 u[15] + 496 u[16]
   + 619 u[17] + 340 u[18] + 449 u[19] + 664 u[20] + 619 u[21] + 103 u[22]
   + 818 u[23] + 992 u[24] + 43 u[25] + 653 u[26] + 435 u[27] + 761 u[28]
   + 466 u[29] + 525 u[30] + 623 u[31] + 943 u[32] + 1000 u[33] + 855 u[34]
   + 452 u[35] + 711 u[36] + 440 u[37] + 879 u[38] + 290 u[39] + 498 u[40]
   + 445 u[41] + 297 u[42] + 337 u[43] + 482 u[44] + 174 u[45] + 69 u[46]
   + 957 u[47] + 682 u[48] + 755 u[49] + 874 u[50] + 371 u[51] + 408 u[52]
   + 671 u[53] + 628 u[54] + 923 u[55] + 836 u[56] + 318 u[57] + 855 u[58]
   + 517 u[59] <= 1000
 primal_lower9: 604 u[0] + 344 u[1] + 62 u[2] + 911 u[3] + 728 u[4]
   + 982 u[5] + 777 u[6] + 168 u[7] + 673 u[8] + 446 u[9] + 832 u[10]
   + 647 u[11] + 248 u[12] + 936 u[13] + 201 u[14] + 177 u[15] + 417 u[16]
   + 972 u[17] + 301 u[18] + 578 u[19] + 729 u[20] + 868 u[21] + 384 u[22]
   + 883 u[23] + 697 u[24] + 52 u[25] + 702 u[26] + 900 u[27] + 554 u[28]
   + 435 u[29] + 870 u[30] + 864 u[31] + 976 u[32] + 593 u[33] + 264 u[34]
   + 893 u[35] + 568 u[36] + 801 u[37] + 384 u[38] + 307 u[39] + 499 u[40]
   + 94 u[41] + 66 u[42] + 650 u[43] + 595 u[44] + 559 u[45] + 630 u[46]
   + 414 u[47] + 259 u[48] + 756 u[49] + 771 u[50] + 604 u[51] + 425 u[52]
   + 464 u[53] + 925 u[54] + 124 u[55] + 469 u[56] + 607 u[57] + 736 u[58]
   + 718 u[59] <= 982
 interdiction[0]: x[0] + u[0] <= 1
 interdiction[1]: x[1] + u[1] <= 1
 interdiction[2]: x[2] + u[2] <= 1
 interdiction[3]: x[3] + u[3] <= 1
 interdiction[4]: x[4] + u[4] <= 1
 interdiction[5]: x[5] + u[5] <= 1
 interdiction[6]: x[6] + u[6] <= 1
 interdiction[7]: x[7] + u[7] <= 1
 interdiction[8]: x[8] + u[8] <= 1
 interdiction[9]: x[9] + u[9] <= 1
 interdiction[10]: x[10] + u[10] <= 1
 interdiction[11]: x[11] + u[11] <= 1
 interdiction[12]: x[12] + u[12] <= 1
 interdiction[13]: x[13] + u[13] <= 1
 interdiction[14]: x[14] + u[14] <= 1
 interdiction[15]: x[15] + u[15] <= 1
 interdiction[16]: x[16] + u[16] <= 1
 interdiction[17]: x[17] + u[17] <= 1
 interdiction[18]: x[18] + u[18] <= 1
 interdiction[19]: x[19] + u[19] <= 1
 interdiction[20]: x[20] + u[20] <= 1
 interdiction[21]: x[21] + u[21] <= 1
 interdiction[22]: x[22] + u[22] <= 1
 interdiction[23]: x[23] + u[23] <= 1
 interdiction[24]: x[24] + u[24] <= 1
 interdiction[25]: x[25] + u[25] <= 1
 interdiction[26]: x[26] + u[26] <= 1
 interdiction[27]: x[27] + u[27] <= 1
 interdiction[28]: x[28] + u[28] <= 1
 interdiction[29]: x[29] + u[29] <= 1
 interdiction[30]: x[30] + u[30] <= 1
 interdiction[31]: x[31] + u[31] <= 1
 interdiction[32]: x[32] + u[32] <= 1
 interdiction[33]: x[33] + u[33] <= 1
 interdiction[34]: x[34] + u[34] <= 1
 interdiction[35]: x[35] + u[35] <= 1
 interdiction[36]: x[36] + u[36] <= 1
 interdiction[37]: x[37] + u[37] <= 1
 interdiction[38]: x[38] + u[38] <= 1
 interdiction[39]: x[39] + u[39] <= 1
 interdiction[40]: x[40] + u[40] <= 1
 interdiction[41]: x[41] + u[41] <= 1
 interdiction[42]: x[42] + u[42] <= 1
 interdiction[43]: x[43] + u[43] <= 1
 interdiction[44]: x[44] + u[44] <= 1
 interdiction[45]: x[45] + u[45] <= 1
 interdiction[46]: x[46] + u[46] <= 1
 interdiction[47]: x[47] + u[47] <= 1
 interdiction[48]: x[48] + u[48] <= 1
 interdiction[49]: x[49] + u[49] <= 1
 interdiction[50]: x[50] + u[50] <= 1
 interdiction[51]: x[51] + u[51] <= 1
 interdiction[52]: x[52] + u[52] <= 1
 interdiction[53]: x[53] + u[53] <= 1
 interdiction[54]: x[54] + u[54] <= 1
 interdiction[55]: x[55] + u[55] <= 1
 interdiction[56]: x[56] + u[56] <= 1
 interdiction[57]: x[57] + u[57] <= 1
 interdiction[58]: x[58] + u[58] <= 1
 interdiction[59]: x[59] + u[59] <= 1
 mccormick1[0]: - u[0] + z[0] <= 0
 mccormick1[1]: - u[1] + z[1] <= 0
 mccormick1[2]: - u[2] + z[2] <= 0
 mccormick1[3]: - u[3] + z[3] <= 0
 mccormick1[4]: - u[4] + z[4] <= 0
 mccormick1[5]: - u[5] + z[5] <= 0
 mccormick1[6]: - u[6] + z[6] <= 0
 mccormick1[7]: - u[7] + z[7] <= 0
 mccormick1[8]: - u[8] + z[8] <= 0
 mccormick1[9]: - u[9] + z[9] <= 0
 mccormick1[10]: - u[10] + z[10] <= 0
 mccormick1[11]: - u[11] + z[11] <= 0
 mccormick1[12]: - u[12] + z[12] <= 0
 mccormick1[13]: - u[13] + z[13] <= 0
 mccormick1[14]: - u[14] + z[14] <= 0
 mccormick1[15]: - u[15] + z[15] <= 0
 mccormick1[16]: - u[16] + z[16] <= 0
 mccormick1[17]: - u[17] + z[17] <= 0
 mccormick1[18]: - u[18] + z[18] <= 0
 mccormick1[19]: - u[19] + z[19] <= 0
 mccormick1[20]: - u[20] + z[20] <= 0
 mccormick1[21]: - u[21] + z[21] <= 0
 mccormick1[22]: - u[22] + z[22] <= 0
 mccormick1[23]: - u[23] + z[23] <= 0
 mccormick1[24]: - u[24] + z[24] <= 0
 mccormick1[25]: - u[25] + z[25] <= 0
 mccormick1[26]: - u[26] + z[26] <= 0
 mccormick1[27]: - u[27] + z[27] <= 0
 mccormick1[28]: - u[28] + z[28] <= 0
 mccormick1[29]: - u[29] + z[29] <= 0
 mccormick1[30]: - u[30] + z[30] <= 0
 mccormick1[31]: - u[31] + z[31] <= 0
 mccormick1[32]: - u[32] + z[32] <= 0
 mccormick1[33]: - u[33] + z[33] <= 0
 mccormick1[34]: - u[34] + z[34] <= 0
 mccormick1[35]: - u[35] + z[35] <= 0
 mccormick1[36]: - u[36] + z[36] <= 0
 mccormick1[37]: - u[37] + z[37] <= 0
 mccormick1[38]: - u[38] + z[38] <= 0
 mccormick1[39]: - u[39] + z[39] <= 0
 mccormick1[40]: - u[40] + z[40] <= 0
 mccormick1[41]: - u[41] + z[41] <= 0
 mccormick1[42]: - u[42] + z[42] <= 0
 mccormick1[43]: - u[43] + z[43] <= 0
 mccormick1[44]: - u[44] + z[44] <= 0
 mccormick1[45]: - u[45] + z[45] <= 0
 mccormick1[46]: - u[46] + z[46] <= 0
 mccormick1[47]: - u[47] + z[47] <= 0
 mccormick1[48]: - u[48] + z[48] <= 0
 mccormick1[49]: - u[49] + z[49] <= 0
 mccormick1[50]: - u[50] + z[50] <= 0
 mccormick1[51]: - u[51] + z[51] <= 0
 mccormick1[52]: - u[52] + z[52] <= 0
 mccormick1[53]: - u[53] + z[53] <= 0
 mccormick1[54]: - u[54] + z[54] <= 0
 mccormick1[55]: - u[55] + z[55] <= 0
 mccormick1[56]: - u[56] + z[56] <= 0
 mccormick1[57]: - u[57] + z[57] <= 0
 mccormick1[58]: - u[58] + z[58] <= 0
 mccormick1[59]: - u[59] + z[59] <= 0
 mccormick2[0]: - y[0] + z[0] <= 0
 mccormick2[1]: - y[1] + z[1] <= 0
 mccormick2[2]: - y[2] + z[2] <= 0
 mccormick2[3]: - y[3] + z[3] <= 0
 mccormick2[4]: - y[4] + z[4] <= 0
 mccormick2[5]: - y[5] + z[5] <= 0
 mccormick2[6]: - y[6] + z[6] <= 0
 mccormick2[7]: - y[7] + z[7] <= 0
 mccormick2[8]: - y[8] + z[8] <= 0
 mccormick2[9]: - y[9] + z[9] <= 0
 mccormick2[10]: - y[10] + z[10] <= 0
 mccormick2[11]: - y[11] + z[11] <= 0
 mccormick2[12]: - y[12] + z[12] <= 0
 mccormick2[13]: - y[13] + z[13] <= 0
 mccormick2[14]: - y[14] + z[14] <= 0
 mccormick2[15]: - y[15] + z[15] <= 0
 mccormick2[16]: - y[16] + z[16] <= 0
 mccormick2[17]: - y[17] + z[17] <= 0
 mccormick2[18]: - y[18] + z[18] <= 0
 mccormick2[19]: - y[19] + z[19] <= 0
 mccormick2[20]: - y[20] + z[20] <= 0
 mccormick2[21]: - y[21] + z[21] <= 0
 mccormick2[22]: - y[22] + z[22] <= 0
 mccormick2[23]: - y[23] + z[23] <= 0
 mccormick2[24]: - y[24] + z[24] <= 0
 mccormick2[25]: - y[25] + z[25] <= 0
 mccormick2[26]: - y[26] + z[26] <= 0
 mccormick2[27]: - y[27] + z[27] <= 0
 mccormick2[28]: - y[28] + z[28] <= 0
 mccormick2[29]: - y[29] + z[29] <= 0
 mccormick2[30]: - y[30] + z[30] <= 0
 mccormick2[31]: - y[31] + z[31] <= 0
 mccormick2[32]: - y[32] + z[32] <= 0
 mccormick2[33]: - y[33] + z[33] <= 0
 mccormick2[34]: - y[34] + z[34] <= 0
 mccormick2[35]: - y[35] + z[35] <= 0
 mccormick2[36]: - y[36] + z[36] <= 0
 mccormick2[37]: - y[37] + z[37] <= 0
 mccormick2[38]: - y[38] + z[38] <= 0
 mccormick2[39]: - y[39] + z[39] <= 0
 mccormick2[40]: - y[40] + z[40] <= 0
 mccormick2[41]: - y[41] + z[41] <= 0
 mccormick2[42]: - y[42] + z[42] <= 0
 mccormick2[43]: - y[43] + z[43] <= 0
 mccormick2[44]: - y[44] + z[44] <= 0
 mccormick2[45]: - y[45] + z[45] <= 0
 mccormick2[46]: - y[46] + z[46] <= 0
 mccormick2[47]: - y[47] + z[47] <= 0
 mccormick2[48]: - y[48] + z[48] <= 0
 mccormick2[49]: - y[49] + z[49] <= 0
 mccormick2[50]: - y[50] + z[50] <= 0
 mccormick2[51]: - y[51] + z[51] <= 0
 mccormick2[52]: - y[52] + z[52] <= 0
 mccormick2[53]: - y[53] + z[53] <= 0
 mccormick2[54]: - y[54] + z[54] <= 0
 mccormick2[55]: - y[55] + z[55] <= 0
 mccormick2[56]: - y[56] + z[56] <= 0
 mccormick2[57]: - y[57] + z[57] <= 0
 mccormick2[58]: - y[58] + z[58] <= 0
 mccormick2[59]: - y[59] + z[59] <= 0
 mccormick3[0]: y[0] + u[0] - z[0] <= 1
 mccormick3[1]: y[1] + u[1] - z[1] <= 1
 mccormick3[2]: y[2] + u[2] - z[2] <= 1
 mccormick3[3]: y[3] + u[3] - z[3] <= 1
 mccormick3[4]: y[4] + u[4] - z[4] <= 1
 mccormick3[5]: y[5] + u[5] - z[5] <= 1
 mccormick3[6]: y[6] + u[6] - z[6] <= 1
 mccormick3[7]: y[7] + u[7] - z[7] <= 1
 mccormick3[8]: y[8] + u[8] - z[8] <= 1
 mccormick3[9]: y[9] + u[9] - z[9] <= 1
 mccormick3[10]: y[10] + u[10] - z[10] <= 1
 mccormick3[11]: y[11] + u[11] - z[11] <= 1
 mccormick3[12]: y[12] + u[12] - z[12] <= 1
 mccormick3[13]: y[13] + u[13] - z[13] <= 1
 mccormick3[14]: y[14] + u[14] - z[14] <= 1
 mccormick3[15]: y[15] + u[15] - z[15] <= 1
 mccormick3[16]: y[16] + u[16] - z[16] <= 1
 mccormick3[17]: y[17] + u[17] - z[17] <= 1
 mccormick3[18]: y[18] + u[18] - z[18] <= 1
 mccormick3[19]: y[19] + u[19] - z[19] <= 1
 mccormick3[20]: y[20] + u[20] - z[20] <= 1
 mccormick3[21]: y[21] + u[21] - z[21] <= 1
 mccormick3[22]: y[22] + u[22] - z[22] <= 1
 mccormick3[23]: y[23] + u[23] - z[23] <= 1
 mccormick3[24]: y[24] + u[24] - z[24] <= 1
 mccormick3[25]: y[25] + u[25] - z[25] <= 1
 mccormick3[26]: y[26] + u[26] - z[26] <= 1
 mccormick3[27]: y[27] + u[27] - z[27] <= 1
 mccormick3[28]: y[28] + u[28] - z[28] <= 1
 mccormick3[29]: y[29] + u[29] - z[29] <= 1
 mccormick3[30]: y[30] + u[30] - z[30] <= 1
 mccormick3[31]: y[31] + u[31] - z[31] <= 1
 mccormick3[32]: y[32] + u[32] - z[32] <= 1
 mccormick3[33]: y[33] + u[33] - z[33] <= 1
 mccormick3[34]: y[34] + u[34] - z[34] <= 1
 mccormick3[35]: y[35] + u[35] - z[35] <= 1
 mccormick3[36]: y[36] + u[36] - z[36] <= 1
 mccormick3[37]: y[37] + u[37] - z[37] <= 1
 mccormick3[38]: y[38] + u[38] - z[38] <= 1
 mccormick3[39]: y[39] + u[39] - z[39] <= 1
 mccormick3[40]: y[40] + u[40] - z[40] <= 1
 mccormick3[41]: y[41] + u[41] - z[41] <= 1
 mccormick3[42]: y[42] + u[42] - z[42] <= 1
 mccormick3[43]: y[43] + u[43] - z[43] <= 1
 mccormick3[44]: y[44] + u[44] - z[44] <= 1
 mccormick3[45]: y[45] + u[45] - z[45] <= 1
 mccormick3[46]: y[46] + u[46] - z[46] <= 1
 mccormick3[47]: y[47] + u[47] - z[47] <= 1
 mccormick3[48]: y[48] + u[48] - z[48] <= 1
 mccormick3[49]: y[49] + u[49] - z[49] <= 1
 mccormick3[50]: y[50] + u[50] - z[50] <= 1
 mccormick3[51]: y[51] + u[51] - z[51] <= 1
 mccormick3[52]: y[52] + u[52] - z[52] <= 1
 mccormick3[53]: y[53] + u[53] - z[53] <= 1
 mccormick3[54]: y[54] + u[54] - z[54] <= 1
 mccormick3[55]: y[55] + u[55] - z[55] <= 1
 mccormick3[56]: y[56] + u[56] - z[56] <= 1
 mccormick3[57]: y[57] + u[57] - z[57] <= 1
 mccormick3[58]: y[58] + u[58] - z[58] <= 1
 mccormick3[59]: y[59] + u[59] - z[59] <= 1
Bounds
Binaries
 x[0] x[1] x[2] x[3] x[4] x[5] x[6] x[7] x[8] x[9] x[10] x[11] x[12] x[13]
 x[14] x[15] x[16] x[17] x[18] x[19] x[20] x[21] x[22] x[23] x[24] x[25]
 x[26] x[27] x[28] x[29] x[30] x[31] x[32] x[33] x[34] x[35] x[36] x[37]
 x[38] x[39] x[40] x[41] x[42] x[43] x[44] x[45] x[46] x[47] x[48] x[49]
 x[50] x[51] x[52] x[53] x[54] x[55] x[56] x[57] x[58] x[59] y[0] y[1] y[2]
 y[3] y[4] y[5] y[6] y[7] y[8] y[9] y[10] y[11] y[12] y[13] y[14] y[15]
 y[16] y[17] y[18] y[19] y[20] y[21] y[22] y[23] y[24] y[25] y[26] y[27]
 y[28] y[29] y[30] y[31] y[32] y[33] y[34] y[35] y[36] y[37] y[38] y[39]
 y[40] y[41] y[42] y[43] y[44] y[45] y[46] y[47] y[48] y[49] y[50] y[51]
 y[52] y[53] y[54] y[55] y[56] y[57] y[58] y[59] u[0] u[1] u[2] u[3] u[4]
 u[5] u[6] u[7] u[8] u[9] u[10] u[11] u[12] u[13] u[14] u[15] u[16] u[17]
 u[18] u[19] u[20] u[21] u[22] u[23] u[24] u[25] u[26] u[27] u[28] u[29]
 u[30] u[31] u[32] u[33] u[34] u[35] u[36] u[37] u[38] u[39] u[40] u[41]
 u[42] u[43] u[44] u[45] u[46] u[47] u[48] u[49] u[50] u[51] u[52] u[53]
 u[54] u[55] u[56] u[57] u[58] u[59] z[0] z[1] z[2] z[3] z[4] z[5] z[6]
 z[7] z[8] z[9] z[10] z[11] z[12] z[13] z[14] z[15] z[16] z[17] z[18] z[19]
 z[20] z[21] z[22] z[23] z[24] z[25] z[26] z[27] z[28] z[29] z[30] z[31]
 z[32] z[33] z[34] z[35] z[36] z[37] z[38] z[39] z[40] z[41] z[42] z[43]
 z[44] z[45] z[46] z[47] z[48] z[49] z[50] z[51] z[52] z[53] z[54] z[55]
 z[56] z[57] z[58] z[59]
End
