* Signature: 0x6357969ace1194f9
NAME knapsack_20_100_5
ROWS
 N  OBJ
 L  primal_upper
 L  primal_lower0
 L  primal_lower1
 L  primal_lower2
 L  primal_lower3
 L  primal_lower4
 L  primal_lower5
 L  primal_lower6
 L  primal_lower7
 L  primal_lower8
 L  primal_lower9
 L  primal_lower10
 L  primal_lower11
 L  primal_lower12
 L  primal_lower13
 L  primal_lower14
 L  primal_lower15
 L  primal_lower16
 L  primal_lower17
 L  primal_lower18
 L  primal_lower19
 L  primal_lower20
 L  primal_lower21
 L  primal_lower22
 L  primal_lower23
 L  primal_lower24
 L  primal_lower25
 L  primal_lower26
 L  primal_lower27
 L  primal_lower28
 L  primal_lower29
 L  primal_lower30
 L  primal_lower31
 L  primal_lower32
 L  primal_lower33
 L  primal_lower34
 L  primal_lower35
 L  primal_lower36
 L  primal_lower37
 L  primal_lower38
 L  primal_lower39
 L  primal_lower40
 L  primal_lower41
 L  primal_lower42
 L  primal_lower43
 L  primal_lower44
 L  primal_lower45
 L  primal_lower46
 L  primal_lower47
 L  primal_lower48
 L  primal_lower49
 L  primal_lower50
 L  primal_lower51
 L  primal_lower52
 L  primal_lower53
 L  primal_lower54
 L  primal_lower55
 L  primal_lower56
 L  primal_lower57
 L  primal_lower58
 L  primal_lower59
 L  primal_lower60
 L  primal_lower61
 L  primal_lower62
 L  primal_lower63
 L  primal_lower64
 L  primal_lower65
 L  primal_lower66
 L  primal_lower67
 L  primal_lower68
 L  primal_lower69
 L  primal_lower70
 L  primal_lower71
 L  primal_lower72
 L  primal_lower73
 L  primal_lower74
 L  primal_lower75
 L  primal_lower76
 L  primal_lower77
 L  primal_lower78
 L  primal_lower79
 L  primal_lower80
 L  primal_lower81
 L  primal_lower82
 L  primal_lower83
 L  primal_lower84
 L  primal_lower85
 L  primal_lower86
 L  primal_lower87
 L  primal_lower88
 L  primal_lower89
 L  primal_lower90
 L  primal_lower91
 L  primal_lower92
 L  primal_lower93
 L  primal_lower94
 L  primal_lower95
 L  primal_lower96
 L  primal_lower97
 L  primal_lower98
 L  primal_lower99
 L  interdiction[0]
 L  interdiction[1]
 L  interdiction[2]
 L  interdiction[3]
 L  interdiction[4]
 L  interdiction[5]
 L  interdiction[6]
 L  interdiction[7]
 L  interdiction[8]
 L  interdiction[9]
 L  interdiction[10]
 L  interdiction[11]
 L  interdiction[12]
 L  interdiction[13]
 L  interdiction[14]
 L  interdiction[15]
 L  interdiction[16]
 L  interdiction[17]
 L  interdiction[18]
 L  interdiction[19]
 L  mccormick1[0]
 L  mccormick1[1]
 L  mccormick1[2]
 L  mccormick1[3]
 L  mccormick1[4]
 L  mccormick1[5]
 L  mccormick1[6]
 L  mccormick1[7]
 L  mccormick1[8]
 L  mccormick1[9]
 L  mccormick1[10]
 L  mccormick1[11]
 L  mccormick1[12]
 L  mccormick1[13]
 L  mccormick1[14]
 L  mccormick1[15]
 L  mccormick1[16]
 L  mccormick1[17]
 L  mccormick1[18]
 L  mccormick1[19]
 L  mccormick2[0]
 L  mccormick2[1]
 L  mccormick2[2]
 L  mccormick2[3]
 L  mccormick2[4]
 L  mccormick2[5]
 L  mccormick2[6]
 L  mccormick2[7]
 L  mccormick2[8]
 L  mccormick2[9]
 L  mccormick2[10]
 L  mccormick2[11]
 L  mccormick2[12]
 L  mccormick2[13]
 L  mccormick2[14]
 L  mccormick2[15]
 L  mccormick2[16]
 L  mccormick2[17]
 L  mccormick2[18]
 L  mccormick2[19]
 L  mccormick3[0]
 L  mccormick3[1]
 L  mccormick3[2]
 L  mccormick3[3]
 L  mccormick3[4]
 L  mccormick3[5]
 L  mccormick3[6]
 L  mccormick3[7]
 L  mccormick3[8]
 L  mccormick3[9]
 L  mccormick3[10]
 L  mccormick3[11]
 L  mccormick3[12]
 L  mccormick3[13]
 L  mccormick3[14]
 L  mccormick3[15]
 L  mccormick3[16]
 L  mccormick3[17]
 L  mccormick3[18]
 L  mccormick3[19]
COLUMNS
    MARKER    'MARKER'                 'INTORG'
    x[0]      OBJ       10
    x[0]      interdiction[0]  1
    x[1]      OBJ       10
    x[1]      interdiction[1]  1
    x[2]      OBJ       10
    x[2]      interdiction[2]  1
    x[3]      OBJ       10
    x[3]      interdiction[3]  1
    x[4]      OBJ       10
    x[4]      interdiction[4]  1
    x[5]      OBJ       10
    x[5]      interdiction[5]  1
    x[6]      OBJ       10
    x[6]      interdiction[6]  1
    x[7]      OBJ       10
    x[7]      interdiction[7]  1
    x[8]      OBJ       10
    x[8]      interdiction[8]  1
    x[9]      OBJ       10
    x[9]      interdiction[9]  1
    x[10]     OBJ       10
    x[10]     interdiction[10]  1
    x[11]     OBJ       10
    x[11]     interdiction[11]  1
    x[12]     OBJ       10
    x[12]     interdiction[12]  1
    x[13]     OBJ       10
    x[13]     interdiction[13]  1
    x[14]     OBJ       10
    x[14]     interdiction[14]  1
    x[15]     OBJ       10
    x[15]     interdiction[15]  1
    x[16]     OBJ       10
    x[16]     interdiction[16]  1
    x[17]     OBJ       10
    x[17]     interdiction[17]  1
    x[18]     OBJ       10
    x[18]     interdiction[18]  1
    x[19]     OBJ       10
    x[19]     interdiction[19]  1
    y[0]      OBJ       -623
    y[0]      primal_upper  237
    y[0]      mccormick2[0]  -1
    y[0]      mccormick3[0]  1
    y[1]      OBJ       -824
    y[1]      primal_upper  721
    y[1]      mccormick2[1]  -1
    y[1]      mccormick3[1]  1
    y[2]      OBJ       -801
    y[2]      primal_upper  775
    y[2]      mccormick2[2]  -1
    y[2]      mccormick3[2]  1
    y[3]      OBJ       -525
    y[3]      primal_upper  680
    y[3]      mccormick2[3]  -1
    y[3]      mccormick3[3]  1
    y[4]      OBJ       -939
    y[4]      primal_upper  825
    y[4]      mccormick2[4]  -1
    y[4]      mccormick3[4]  1
    y[5]      OBJ       -370
    y[5]      primal_upper  407
    y[5]      mccormick2[5]  -1
    y[5]      mccormick3[5]  1
    y[6]      OBJ       -739
    y[6]      primal_upper  458
    y[6]      mccormick2[6]  -1
    y[6]      mccormick3[6]  1
    y[7]      OBJ       -381
    y[7]      primal_upper  929
    y[7]      mccormick2[7]  -1
    y[7]      mccormick3[7]  1
    y[8]      OBJ       -728
    y[8]      primal_upper  426
    y[8]      mccormick2[8]  -1
    y[8]      mccormick3[8]  1
    y[9]      OBJ       -828
    y[9]      primal_upper  759
    y[9]      mccormick2[9]  -1
    y[9]      mccormick3[9]  1
    y[10]     OBJ       -712
    y[10]     primal_upper  545
    y[10]     mccormick2[10]  -1
    y[10]     mccormick3[10]  1
    y[11]     OBJ       -548
    y[11]     primal_upper  176
    y[11]     mccormick2[11]  -1
    y[11]     mccormick3[11]  1
    y[12]     OBJ       -852
    y[12]     primal_upper  921
    y[12]     mccormick2[12]  -1
    y[12]     mccormick3[12]  1
    y[13]     OBJ       -379
    y[13]     primal_upper  777
    y[13]     mccormick2[13]  -1
    y[13]     mccormick3[13]  1
    y[14]     OBJ       -616
    y[14]     primal_upper  858
    y[14]     mccormick2[14]  -1
    y[14]     mccormick3[14]  1
    y[15]     OBJ       -541
    y[15]     primal_upper  194
    y[15]     mccormick2[15]  -1
    y[15]     mccormick3[15]  1
    y[16]     OBJ       -871
    y[16]     primal_upper  306
    y[16]     mccormick2[16]  -1
    y[16]     mccormick3[16]  1
    y[17]     OBJ       -915
    y[17]     primal_upper  485
    y[17]     mccormick2[17]  -1
    y[17]     mccormick3[17]  1
    y[18]     OBJ       -836
    y[18]     primal_upper  374
    y[18]     mccormick2[18]  -1
    y[18]     mccormick3[18]  1
    y[19]     OBJ       -923
    y[19]     primal_upper  123
    y[19]     mccormick2[19]  -1
    y[19]     mccormick3[19]  1
    u[0]      primal_lower0  931
    u[0]      primal_lower1  892
    u[0]      primal_lower2  334
    u[0]      primal_lower3  287
    u[0]      primal_lower4  42
    u[0]      primal_lower5  759
    u[0]      primal_lower6  104
    u[0]      primal_lower7  408
    u[0]      primal_lower8  683
    u[0]      primal_lower9  714
    u[0]      primal_lower10  279
    u[0]      primal_lower11  641
    u[0]      primal_lower12  371
    u[0]      primal_lower13  996
    u[0]      primal_lower14  454
    u[0]      primal_lower15  503
    u[0]      primal_lower16  53
    u[0]      primal_lower17  79
    u[0]      primal_lower18  912
    u[0]      primal_lower19  659
    u[0]      primal_lower20  500
    u[0]      primal_lower21  730
    u[0]      primal_lower22  866
    u[0]      primal_lower23  363
    u[0]      primal_lower24  861
    u[0]      primal_lower25  653
    u[0]      primal_lower26  679
    u[0]      primal_lower27  990
    u[0]      primal_lower28  756
    u[0]      primal_lower29  34
    u[0]      primal_lower30  157
    u[0]      primal_lower31  949
    u[0]      primal_lower32  382
    u[0]      primal_lower33  749
    u[0]      primal_lower34  562
    u[0]      primal_lower35  539
    u[0]      primal_lower36  957
    u[0]      primal_lower37  200
    u[0]      primal_lower38  853
    u[0]      primal_lower39  680
    u[0]      primal_lower40  510
    u[0]      primal_lower41  727
    u[0]      primal_lower42  678
    u[0]      primal_lower43  698
    u[0]      primal_lower44  456
    u[0]      primal_lower45  917
    u[0]      primal_lower46  875
    u[0]      primal_lower47  353
    u[0]      primal_lower48  658
    u[0]      primal_lower49  732
    u[0]      primal_lower50  275
    u[0]      primal_lower51  171
    u[0]      primal_lower52  696
    u[0]      primal_lower53  896
    u[0]      primal_lower54  381
    u[0]      primal_lower55  969
    u[0]      primal_lower56  862
    u[0]      primal_lower57  686
    u[0]      primal_lower58  713
    u[0]      primal_lower59  731
    u[0]      primal_lower60  652
    u[0]      primal_lower61  340
    u[0]      primal_lower62  234
    u[0]      primal_lower63  390
    u[0]      primal_lower64  990
    u[0]      primal_lower65  5
    u[0]      primal_lower66  26
    u[0]      primal_lower67  580
    u[0]      primal_lower68  508
    u[0]      primal_lower69  316
    u[0]      primal_lower70  696
    u[0]      primal_lower71  154
    u[0]      primal_lower72  475
    u[0]      primal_lower73  325
    u[0]      primal_lower74  182
    u[0]      primal_lower75  12
    u[0]      primal_lower76  269
    u[0]      primal_lower77  457
    u[0]      primal_lower78  592
    u[0]      primal_lower79  714
    u[0]      primal_lower80  160
    u[0]      primal_lower81  59
    u[0]      primal_lower82  719
    u[0]      primal_lower83  155
    u[0]      primal_lower84  265
    u[0]      primal_lower85  724
    u[0]      primal_lower86  201
    u[0]      primal_lower87  373
    u[0]      primal_lower88  961
    u[0]      primal_lower89  342
    u[0]      primal_lower90  242
    u[0]      primal_lower91  545
    u[0]      primal_lower92  116
    u[0]      primal_lower93  895
    u[0]      primal_lower94  786
    u[0]      primal_lower95  432
    u[0]      primal_lower96  578
    u[0]      primal_lower97  943
    u[0]      primal_lower98  19
    u[0]      primal_lower99  85
    u[0]      interdiction[0]  1
    u[0]      mccormick1[0]  -1
    u[0]      mccormick3[0]  1
    u[1]      primal_lower0  831
    u[1]      primal_lower1  280
    u[1]      primal_lower2  546
    u[1]      primal_lower3  256
    u[1]      primal_lower4  299
    u[1]      primal_lower5  691
    u[1]      primal_lower6  92
    u[1]      primal_lower7  785
    u[1]      primal_lower8  207
    u[1]      primal_lower9  499
    u[1]      primal_lower10  960
    u[1]      primal_lower11  973
    u[1]      primal_lower12  84
    u[1]      primal_lower13  536
    u[1]      primal_lower14  807
    u[1]      primal_lower15  211
    u[1]      primal_lower16  457
    u[1]      primal_lower17  256
    u[1]      primal_lower18  900
    u[1]      primal_lower19  660
    u[1]      primal_lower20  365
    u[1]      primal_lower21  379
    u[1]      primal_lower22  11
    u[1]      primal_lower23  884
    u[1]      primal_lower24  558
    u[1]      primal_lower25  433
    u[1]      primal_lower26  864
    u[1]      primal_lower27  199
    u[1]      primal_lower28  701
    u[1]      primal_lower29  427
    u[1]      primal_lower30  110
    u[1]      primal_lower31  78
    u[1]      primal_lower32  42
    u[1]      primal_lower33  857
    u[1]      primal_lower34  382
    u[1]      primal_lower35  92
    u[1]      primal_lower36  457
    u[1]      primal_lower37  657
    u[1]      primal_lower38  134
    u[1]      primal_lower39  537
    u[1]      primal_lower40  319
    u[1]      primal_lower41  744
    u[1]      primal_lower42  535
    u[1]      primal_lower43  483
    u[1]      primal_lower44  356
    u[1]      primal_lower45  249
    u[1]      primal_lower46  743
    u[1]      primal_lower47  301
    u[1]      primal_lower48  635
    u[1]      primal_lower49  709
    u[1]      primal_lower50  980
    u[1]      primal_lower51  87
    u[1]      primal_lower52  444
    u[1]      primal_lower53  156
    u[1]      primal_lower54  366
    u[1]      primal_lower55  77
    u[1]      primal_lower56  399
    u[1]      primal_lower57  255
    u[1]      primal_lower58  586
    u[1]      primal_lower59  815
    u[1]      primal_lower60  712
    u[1]      primal_lower61  496
    u[1]      primal_lower62  443
    u[1]      primal_lower63  98
    u[1]      primal_lower64  122
    u[1]      primal_lower65  345
    u[1]      primal_lower66  494
    u[1]      primal_lower67  501
    u[1]      primal_lower68  325
    u[1]      primal_lower69  477
    u[1]      primal_lower70  145
    u[1]      primal_lower71  806
    u[1]      primal_lower72  847
    u[1]      primal_lower73  849
    u[1]      primal_lower74  303
    u[1]      primal_lower75  741
    u[1]      primal_lower76  241
    u[1]      primal_lower77  290
    u[1]      primal_lower78  36
    u[1]      primal_lower79  443
    u[1]      primal_lower80  473
    u[1]      primal_lower81  748
    u[1]      primal_lower82  795
    u[1]      primal_lower83  591
    u[1]      primal_lower84  690
    u[1]      primal_lower85  344
    u[1]      primal_lower86  773
    u[1]      primal_lower87  750
    u[1]      primal_lower88  810
    u[1]      primal_lower89  34
    u[1]      primal_lower90  598
    u[1]      primal_lower91  650
    u[1]      primal_lower92  408
    u[1]      primal_lower93  171
    u[1]      primal_lower94  987
    u[1]      primal_lower95  721
    u[1]      primal_lower96  926
    u[1]      primal_lower97  355
    u[1]      primal_lower98  151
    u[1]      primal_lower99  262
    u[1]      interdiction[1]  1
    u[1]      mccormick1[1]  -1
    u[1]      mccormick3[1]  1
    u[2]      primal_lower0  541
    u[2]      primal_lower1  942
    u[2]      primal_lower2  384
    u[2]      primal_lower3  530
    u[2]      primal_lower4  277
    u[2]      primal_lower5  73
    u[2]      primal_lower6  10
    u[2]      primal_lower7  619
    u[2]      primal_lower8  829
    u[2]      primal_lower9  381
    u[2]      primal_lower10  450
    u[2]      primal_lower11  779
    u[2]      primal_lower12  598
    u[2]      primal_lower13  174
    u[2]      primal_lower14  465
    u[2]      primal_lower15  201
    u[2]      primal_lower16  871
    u[2]      primal_lower17  290
    u[2]      primal_lower18  106
    u[2]      primal_lower19  238
    u[2]      primal_lower20  487
    u[2]      primal_lower21  749
    u[2]      primal_lower22  309
    u[2]      primal_lower23  998
    u[2]      primal_lower24  880
    u[2]      primal_lower25  967
    u[2]      primal_lower26  386
    u[2]      primal_lower27  9
    u[2]      primal_lower28  23
    u[2]      primal_lower29  701
    u[2]      primal_lower30  376
    u[2]      primal_lower31  1000
    u[2]      primal_lower32  624
    u[2]      primal_lower33  799
    u[2]      primal_lower34  964
    u[2]      primal_lower35  286
    u[2]      primal_lower36  823
    u[2]      primal_lower37  843
    u[2]      primal_lower38  456
    u[2]      primal_lower39  315
    u[2]      primal_lower40  537
    u[2]      primal_lower41  234
    u[2]      primal_lower42  361
    u[2]      primal_lower43  437
    u[2]      primal_lower44  562
    u[2]      primal_lower45  95
    u[2]      primal_lower46  637
    u[2]      primal_lower47  11
    u[2]      primal_lower48  29
    u[2]      primal_lower49  615
    u[2]      primal_lower50  382
    u[2]      primal_lower51  333
    u[2]      primal_lower52  114
    u[2]      primal_lower53  842
    u[2]      primal_lower54  832
    u[2]      primal_lower55  683
    u[2]      primal_lower56  49
    u[2]      primal_lower57  225
    u[2]      primal_lower58  100
    u[2]      primal_lower59  805
    u[2]      primal_lower60  766
    u[2]      primal_lower61  270
    u[2]      primal_lower62  437
    u[2]      primal_lower63  160
    u[2]      primal_lower64  192
    u[2]      primal_lower65  239
    u[2]      primal_lower66  996
    u[2]      primal_lower67  695
    u[2]      primal_lower68  623
    u[2]      primal_lower69  431
    u[2]      primal_lower70  811
    u[2]      primal_lower71  908
    u[2]      primal_lower72  77
    u[2]      primal_lower73  247
    u[2]      primal_lower74  273
    u[2]      primal_lower75  783
    u[2]      primal_lower76  967
    u[2]      primal_lower77  268
    u[2]      primal_lower78  586
    u[2]      primal_lower79  877
    u[2]      primal_lower80  211
    u[2]      primal_lower81  134
    u[2]      primal_lower82  729
    u[2]      primal_lower83  573
    u[2]      primal_lower84  388
    u[2]      primal_lower85  558
    u[2]      primal_lower86  555
    u[2]      primal_lower87  408
    u[2]      primal_lower88  676
    u[2]      primal_lower89  464
    u[2]      primal_lower90  708
    u[2]      primal_lower91  524
    u[2]      primal_lower92  54
    u[2]      primal_lower93  529
    u[2]      primal_lower94  837
    u[2]      primal_lower95  331
    u[2]      primal_lower96  388
    u[2]      primal_lower97  193
    u[2]      primal_lower98  93
    u[2]      primal_lower99  488
    u[2]      interdiction[2]  1
    u[2]      mccormick1[2]  -1
    u[2]      mccormick3[2]  1
    u[3]      primal_lower0  334
    u[3]      primal_lower1  847
    u[3]      primal_lower2  497
    u[3]      primal_lower3  975
    u[3]      primal_lower4  506
    u[3]      primal_lower5  890
    u[3]      primal_lower6  323
    u[3]      primal_lower7  272
    u[3]      primal_lower8  910
    u[3]      primal_lower9  562
    u[3]      primal_lower10  335
    u[3]      primal_lower11  68
    u[3]      primal_lower12  531
    u[3]      primal_lower13  287
    u[3]      primal_lower14  942
    u[3]      primal_lower15  986
    u[3]      primal_lower16  696
    u[3]      primal_lower17  647
    u[3]      primal_lower18  731
    u[3]      primal_lower19  947
    u[3]      primal_lower20  28
    u[3]      primal_lower21  234
    u[3]      primal_lower22  258
    u[3]      primal_lower23  931
    u[3]      primal_lower24  957
    u[3]      primal_lower25  296
    u[3]      primal_lower26  671
    u[3]      primal_lower27  782
    u[3]      primal_lower28  412
    u[3]      primal_lower29  242
    u[3]      primal_lower30  461
    u[3]      primal_lower31  597
    u[3]      primal_lower32  665
    u[3]      primal_lower33  544
    u[3]      primal_lower34  165
    u[3]      primal_lower35  731
    u[3]      primal_lower36  496
    u[3]      primal_lower37  824
    u[3]      primal_lower38  389
    u[3]      primal_lower39  360
    u[3]      primal_lower40  246
    u[3]      primal_lower41  815
    u[3]      primal_lower42  558
    u[3]      primal_lower43  234
    u[3]      primal_lower44  971
    u[3]      primal_lower45  912
    u[3]      primal_lower46  78
    u[3]      primal_lower47  716
    u[3]      primal_lower48  818
    u[3]      primal_lower49  20
    u[3]      primal_lower50  667
    u[3]      primal_lower51  990
    u[3]      primal_lower52  299
    u[3]      primal_lower53  43
    u[3]      primal_lower54  381
    u[3]      primal_lower55  996
    u[3]      primal_lower56  974
    u[3]      primal_lower57  246
    u[3]      primal_lower58  961
    u[3]      primal_lower59  606
    u[3]      primal_lower60  151
    u[3]      primal_lower61  431
    u[3]      primal_lower62  970
    u[3]      primal_lower63  393
    u[3]      primal_lower64  929
    u[3]      primal_lower65  504
    u[3]      primal_lower66  557
    u[3]      primal_lower67  500
    u[3]      primal_lower68  172
    u[3]      primal_lower69  964
    u[3]      primal_lower70  584
    u[3]      primal_lower71  269
    u[3]      primal_lower72  606
    u[3]      primal_lower73  808
    u[3]      primal_lower74  846
    u[3]      primal_lower75  348
    u[3]      primal_lower76  112
    u[3]      primal_lower77  977
    u[3]      primal_lower78  259
    u[3]      primal_lower79  570
    u[3]      primal_lower80  240
    u[3]      primal_lower81  747
    u[3]      primal_lower82  346
    u[3]      primal_lower83  294
    u[3]      primal_lower84  953
    u[3]      primal_lower85  231
    u[3]      primal_lower86  268
    u[3]      primal_lower87  813
    u[3]      primal_lower88  273
    u[3]      primal_lower89  137
    u[3]      primal_lower90  357
    u[3]      primal_lower91  153
    u[3]      primal_lower92  839
    u[3]      primal_lower93  314
    u[3]      primal_lower94  122
    u[3]      primal_lower95  480
    u[3]      primal_lower96  341
    u[3]      primal_lower97  442
    u[3]      primal_lower98  110
    u[3]      primal_lower99  573
    u[3]      interdiction[3]  1
    u[3]      mccormick1[3]  -1
    u[3]      mccormick3[3]  1
    u[4]      primal_lower0  799
    u[4]      primal_lower1  800
    u[4]      primal_lower2  186
    u[4]      primal_lower3  844
    u[4]      primal_lower4  839
    u[4]      primal_lower5  155
    u[4]      primal_lower6  684
    u[4]      primal_lower7  989
    u[4]      primal_lower8  335
    u[4]      primal_lower9  695
    u[4]      primal_lower10  868
    u[4]      primal_lower11  549
    u[4]      primal_lower12  400
    u[4]      primal_lower13  408
    u[4]      primal_lower14  851
    u[4]      primal_lower15  179
    u[4]      primal_lower16  817
    u[4]      primal_lower17  860
    u[4]      primal_lower18  852
    u[4]      primal_lower19  840
    u[4]      primal_lower20  121
    u[4]      primal_lower21  159
    u[4]      primal_lower22  839
    u[4]      primal_lower23  392
    u[4]      primal_lower24  402
    u[4]      primal_lower25  825
    u[4]      primal_lower26  980
    u[4]      primal_lower27  947
    u[4]      primal_lower28  209
    u[4]      primal_lower29  383
    u[4]      primal_lower30  394
    u[4]      primal_lower31  978
    u[4]      primal_lower32  122
    u[4]      primal_lower33  481
    u[4]      primal_lower34  422
    u[4]      primal_lower35  368
    u[4]      primal_lower36  497
    u[4]      primal_lower37  61
    u[4]      primal_lower38  482
    u[4]      primal_lower39  333
    u[4]      primal_lower40  675
    u[4]      primal_lower41  132
    u[4]      primal_lower42  155
    u[4]      primal_lower43  407
    u[4]      primal_lower44  780
    u[4]      primal_lower45  281
    u[4]      primal_lower46  119
    u[4]      primal_lower47  245
    u[4]      primal_lower48  279
    u[4]      primal_lower49  537
    u[4]      primal_lower50  336
    u[4]      primal_lower51  167
    u[4]      primal_lower52  516
    u[4]      primal_lower53  588
    u[4]      primal_lower54  610
    u[4]      primal_lower55  341
    u[4]      primal_lower56  195
    u[4]      primal_lower57  275
    u[4]      primal_lower58  942
    u[4]      primal_lower59  271
    u[4]      primal_lower60  720
    u[4]      primal_lower61  464
    u[4]      primal_lower62  103
    u[4]      primal_lower63  890
    u[4]      primal_lower64  466
    u[4]      primal_lower65  713
    u[4]      primal_lower66  38
    u[4]      primal_lower67  657
    u[4]      primal_lower68  377
    u[4]      primal_lower69  881
    u[4]      primal_lower70  773
    u[4]      primal_lower71  566
    u[4]      primal_lower72  71
    u[4]      primal_lower73  881
    u[4]      primal_lower74  331
    u[4]      primal_lower75  721
    u[4]      primal_lower76  545
    u[4]      primal_lower77  734
    u[4]      primal_lower78  596
    u[4]      primal_lower79  871
    u[4]      primal_lower80  589
    u[4]      primal_lower81  264
    u[4]      primal_lower82  651
    u[4]      primal_lower83  727
    u[4]      primal_lower84  870
    u[4]      primal_lower85  600
    u[4]      primal_lower86  421
    u[4]      primal_lower87  690
    u[4]      primal_lower88  278
    u[4]      primal_lower89  162
    u[4]      primal_lower90  166
    u[4]      primal_lower91  934
    u[4]      primal_lower92  880
    u[4]      primal_lower93  715
    u[4]      primal_lower94  495
    u[4]      primal_lower95  221
    u[4]      primal_lower96  974
    u[4]      primal_lower97  131
    u[4]      primal_lower98  311
    u[4]      primal_lower99  962
    u[4]      interdiction[4]  1
    u[4]      mccormick1[4]  -1
    u[4]      mccormick3[4]  1
    u[5]      primal_lower0  501
    u[5]      primal_lower1  790
    u[5]      primal_lower2  264
    u[5]      primal_lower3  269
    u[5]      primal_lower4  872
    u[5]      primal_lower5  457
    u[5]      primal_lower6  506
    u[5]      primal_lower7  742
    u[5]      primal_lower8  573
    u[5]      primal_lower9  336
    u[5]      primal_lower10  885
    u[5]      primal_lower11  939
    u[5]      primal_lower12  625
    u[5]      primal_lower13  358
    u[5]      primal_lower14  220
    u[5]      primal_lower15  777
    u[5]      primal_lower16  919
    u[5]      primal_lower17  117
    u[5]      primal_lower18  2
    u[5]      primal_lower19  641
    u[5]      primal_lower20  506
    u[5]      primal_lower21  440
    u[5]      primal_lower22  488
    u[5]      primal_lower23  473
    u[5]      primal_lower24  299
    u[5]      primal_lower25  863
    u[5]      primal_lower26  397
    u[5]      primal_lower27  972
    u[5]      primal_lower28  378
    u[5]      primal_lower29  112
    u[5]      primal_lower30  715
    u[5]      primal_lower31  675
    u[5]      primal_lower32  800
    u[5]      primal_lower33  887
    u[5]      primal_lower34  892
    u[5]      primal_lower35  17
    u[5]      primal_lower36  167
    u[5]      primal_lower37  174
    u[5]      primal_lower38  691
    u[5]      primal_lower39  910
    u[5]      primal_lower40  428
    u[5]      primal_lower41  797
    u[5]      primal_lower42  180
    u[5]      primal_lower43  488
    u[5]      primal_lower44  866
    u[5]      primal_lower45  143
    u[5]      primal_lower46  373
    u[5]      primal_lower47  291
    u[5]      primal_lower48  152
    u[5]      primal_lower49  74
    u[5]      primal_lower50  529
    u[5]      primal_lower51  589
    u[5]      primal_lower52  162
    u[5]      primal_lower53  802
    u[5]      primal_lower54  347
    u[5]      primal_lower55  203
    u[5]      primal_lower56  604
    u[5]      primal_lower57  836
    u[5]      primal_lower58  63
    u[5]      primal_lower59  133
    u[5]      primal_lower60  102
    u[5]      primal_lower61  654
    u[5]      primal_lower62  480
    u[5]      primal_lower63  232
    u[5]      primal_lower64  264
    u[5]      primal_lower65  247
    u[5]      primal_lower66  356
    u[5]      primal_lower67  842
    u[5]      primal_lower68  410
    u[5]      primal_lower69  10
    u[5]      primal_lower70  174
    u[5]      primal_lower71  4
    u[5]      primal_lower72  733
    u[5]      primal_lower73  399
    u[5]      primal_lower74  12
    u[5]      primal_lower75  234
    u[5]      primal_lower76  663
    u[5]      primal_lower77  567
    u[5]      primal_lower78  162
    u[5]      primal_lower79  568
    u[5]      primal_lower80  710
    u[5]      primal_lower81  441
    u[5]      primal_lower82  841
    u[5]      primal_lower83  349
    u[5]      primal_lower84  127
    u[5]      primal_lower85  558
    u[5]      primal_lower86  643
    u[5]      primal_lower87  739
    u[5]      primal_lower88  439
    u[5]      primal_lower89  648
    u[5]      primal_lower90  28
    u[5]      primal_lower91  831
    u[5]      primal_lower92  6
    u[5]      primal_lower93  73
    u[5]      primal_lower94  176
    u[5]      primal_lower95  278
    u[5]      primal_lower96  516
    u[5]      primal_lower97  201
    u[5]      primal_lower98  5
    u[5]      primal_lower99  83
    u[5]      interdiction[5]  1
    u[5]      mccormick1[5]  -1
    u[5]      mccormick3[5]  1
    u[6]      primal_lower0  784
    u[6]      primal_lower1  81
    u[6]      primal_lower2  91
    u[6]      primal_lower3  189
    u[6]      primal_lower4  40
    u[6]      primal_lower5  988
    u[6]      primal_lower6  133
    u[6]      primal_lower7  158
    u[6]      primal_lower8  896
    u[6]      primal_lower9  888
    u[6]      primal_lower10  773
    u[6]      primal_lower11  198
    u[6]      primal_lower12  225
    u[6]      primal_lower13  361
    u[6]      primal_lower14  964
    u[6]      primal_lower15  148
    u[6]      primal_lower16  530
    u[6]      primal_lower17  797
    u[6]      primal_lower18  325
    u[6]      primal_lower19  305
    u[6]      primal_lower20  906
    u[6]      primal_lower21  208
    u[6]      primal_lower22  520
    u[6]      primal_lower23  689
    u[6]      primal_lower24  219
    u[6]      primal_lower25  362
    u[6]      primal_lower26  869
    u[6]      primal_lower27  932
    u[6]      primal_lower28  306
    u[6]      primal_lower29  256
    u[6]      primal_lower30  739
    u[6]      primal_lower31  651
    u[6]      primal_lower32  179
    u[6]      primal_lower33  274
    u[6]      primal_lower34  95
    u[6]      primal_lower35  969
    u[6]      primal_lower36  626
    u[6]      primal_lower37  966
    u[6]      primal_lower38  619
    u[6]      primal_lower39  14
    u[6]      primal_lower40  692
    u[6]      primal_lower41  357
    u[6]      primal_lower42  700
    u[6]      primal_lower43  472
    u[6]      primal_lower44  701
    u[6]      primal_lower45  418
    u[6]      primal_lower46  64
    u[6]      primal_lower47  598
    u[6]      primal_lower48  264
    u[6]      primal_lower49  50
    u[6]      primal_lower50  889
    u[6]      primal_lower51  944
    u[6]      primal_lower52  829
    u[6]      primal_lower53  341
    u[6]      primal_lower54  507
    u[6]      primal_lower55  286
    u[6]      primal_lower56  396
    u[6]      primal_lower57  508
    u[6]      primal_lower58  815
    u[6]      primal_lower59  144
    u[6]      primal_lower60  65
    u[6]      primal_lower61  401
    u[6]      primal_lower62  704
    u[6]      primal_lower63  51
    u[6]      primal_lower64  27
    u[6]      primal_lower65  842
    u[6]      primal_lower66  983
    u[6]      primal_lower67  354
    u[6]      primal_lower68  482
    u[6]      primal_lower69  842
    u[6]      primal_lower70  94
    u[6]      primal_lower71  719
    u[6]      primal_lower72  696
    u[6]      primal_lower73  578
    u[6]      primal_lower74  172
    u[6]      primal_lower75  682
    u[6]      primal_lower76  554
    u[6]      primal_lower77  839
    u[6]      primal_lower78  781
    u[6]      primal_lower79  824
    u[6]      primal_lower80  350
    u[6]      primal_lower81  489
    u[6]      primal_lower82  444
    u[6]      primal_lower83  24
    u[6]      primal_lower84  71
    u[6]      primal_lower85  41
    u[6]      primal_lower86  102
    u[6]      primal_lower87  907
    u[6]      primal_lower88  247
    u[6]      primal_lower89  507
    u[6]      primal_lower90  583
    u[6]      primal_lower91  967
    u[6]      primal_lower92  857
    u[6]      primal_lower93  532
    u[6]      primal_lower94  232
    u[6]      primal_lower95  542
    u[6]      primal_lower96  575
    u[6]      primal_lower97  148
    u[6]      primal_lower98  488
    u[6]      primal_lower99  171
    u[6]      interdiction[6]  1
    u[6]      mccormick1[6]  -1
    u[6]      mccormick3[6]  1
    u[7]      primal_lower0  255
    u[7]      primal_lower1  32
    u[7]      primal_lower2  418
    u[7]      primal_lower3  511
    u[7]      primal_lower4  490
    u[7]      primal_lower5  339
    u[7]      primal_lower6  660
    u[7]      primal_lower7  312
    u[7]      primal_lower8  367
    u[7]      primal_lower9  50
    u[7]      primal_lower10  519
    u[7]      primal_lower11  517
    u[7]      primal_lower12  59
    u[7]      primal_lower13  560
    u[7]      primal_lower14  686
    u[7]      primal_lower15  467
    u[7]      primal_lower16  281
    u[7]      primal_lower17  559
    u[7]      primal_lower18  12
    u[7]      primal_lower19  187
    u[7]      primal_lower20  620
    u[7]      primal_lower21  370
    u[7]      primal_lower22  426
    u[7]      primal_lower23  291
    u[7]      primal_lower24  597
    u[7]      primal_lower25  225
    u[7]      primal_lower26  591
    u[7]      primal_lower27  894
    u[7]      primal_lower28  188
    u[7]      primal_lower29  938
    u[7]      primal_lower30  805
    u[7]      primal_lower31  29
    u[7]      primal_lower32  98
    u[7]      primal_lower33  225
    u[7]      primal_lower34  670
    u[7]      primal_lower35  891
    u[7]      primal_lower36  361
    u[7]      primal_lower37  8
    u[7]      primal_lower38  445
    u[7]      primal_lower39  568
    u[7]      primal_lower40  334
    u[7]      primal_lower41  135
    u[7]      primal_lower42  286
    u[7]      primal_lower43  986
    u[7]      primal_lower44  940
    u[7]      primal_lower45  113
    u[7]      primal_lower46  687
    u[7]      primal_lower47  557
    u[7]      primal_lower48  170
    u[7]      primal_lower49  372
    u[7]      primal_lower50  107
    u[7]      primal_lower51  943
    u[7]      primal_lower52  84
    u[7]      primal_lower53  412
    u[7]      primal_lower54  381
    u[7]      primal_lower55  245
    u[7]      primal_lower56  118
    u[7]      primal_lower57  358
    u[7]      primal_lower58  433
    u[7]      primal_lower59  447
    u[7]      primal_lower60  496
    u[7]      primal_lower61  288
    u[7]      primal_lower62  554
    u[7]      primal_lower63  450
    u[7]      primal_lower64  362
    u[7]      primal_lower65  465
    u[7]      primal_lower66  310
    u[7]      primal_lower67  92
    u[7]      primal_lower68  444
    u[7]      primal_lower69  276
    u[7]      primal_lower70  424
    u[7]      primal_lower71  110
    u[7]      primal_lower72  983
    u[7]      primal_lower73  105
    u[7]      primal_lower74  574
    u[7]      primal_lower75  860
    u[7]      primal_lower76  929
    u[7]      primal_lower77  249
    u[7]      primal_lower78  940
    u[7]      primal_lower79  906
    u[7]      primal_lower80  384
    u[7]      primal_lower81  59
    u[7]      primal_lower82  747
    u[7]      primal_lower83  679
    u[7]      primal_lower84  225
    u[7]      primal_lower85  104
    u[7]      primal_lower86  925
    u[7]      primal_lower87  37
    u[7]      primal_lower88  393
    u[7]      primal_lower89  410
    u[7]      primal_lower90  6
    u[7]      primal_lower91  505
    u[7]      primal_lower92  448
    u[7]      primal_lower93  779
    u[7]      primal_lower94  354
    u[7]      primal_lower95  984
    u[7]      primal_lower96  822
    u[7]      primal_lower97  611
    u[7]      primal_lower98  127
    u[7]      primal_lower99  573
    u[7]      interdiction[7]  1
    u[7]      mccormick1[7]  -1
    u[7]      mccormick3[7]  1
    u[8]      primal_lower0  128
    u[8]      primal_lower1  953
    u[8]      primal_lower2  547
    u[8]      primal_lower3  853
    u[8]      primal_lower4  472
    u[8]      primal_lower5  324
    u[8]      primal_lower6  837
    u[8]      primal_lower7  502
    u[8]      primal_lower8  768
    u[8]      primal_lower9  320
    u[8]      primal_lower10  917
    u[8]      primal_lower11  638
    u[8]      primal_lower12  625
    u[8]      primal_lower13  553
    u[8]      primal_lower14  660
    u[8]      primal_lower15  564
    u[8]      primal_lower16  34
    u[8]      primal_lower17  101
    u[8]      primal_lower18  781
    u[8]      primal_lower19  745
    u[8]      primal_lower20  106
    u[8]      primal_lower21  88
    u[8]      primal_lower22  832
    u[8]      primal_lower23  233
    u[8]      primal_lower24  499
    u[8]      primal_lower25  386
    u[8]      primal_lower26  829
    u[8]      primal_lower27  140
    u[8]      primal_lower28  498
    u[8]      primal_lower29  96
    u[8]      primal_lower30  915
    u[8]      primal_lower31  859
    u[8]      primal_lower32  723
    u[8]      primal_lower33  426
    u[8]      primal_lower34  567
    u[8]      primal_lower35  305
    u[8]      primal_lower36  410
    u[8]      primal_lower37  742
    u[8]      primal_lower38  363
    u[8]      primal_lower39  142
    u[8]      primal_lower40  548
    u[8]      primal_lower41  605
    u[8]      primal_lower42  156
    u[8]      primal_lower43  840
    u[8]      primal_lower44  589
    u[8]      primal_lower45  706
    u[8]      primal_lower46  848
    u[8]      primal_lower47  270
    u[8]      primal_lower48  944
    u[8]      primal_lower49  930
    u[8]      primal_lower50  433
    u[8]      primal_lower51  288
    u[8]      primal_lower52  589
    u[8]      primal_lower53  677
    u[8]      primal_lower54  571
    u[8]      primal_lower55  662
    u[8]      primal_lower56  972
    u[8]      primal_lower57  700
    u[8]      primal_lower58  743
    u[8]      primal_lower59  976
    u[8]      primal_lower60  457
    u[8]      primal_lower61  713
    u[8]      primal_lower62  248
    u[8]      primal_lower63  587
    u[8]      primal_lower64  219
    u[8]      primal_lower65  650
    u[8]      primal_lower66  615
    u[8]      primal_lower67  290
    u[8]      primal_lower68  74
    u[8]      primal_lower69  658
    u[8]      primal_lower70  534
    u[8]      primal_lower71  583
    u[8]      primal_lower72  400
    u[8]      primal_lower73  674
    u[8]      primal_lower74  956
    u[8]      primal_lower75  338
    u[8]      primal_lower76  890
    u[8]      primal_lower77  311
    u[8]      primal_lower78  757
    u[8]      primal_lower79  384
    u[8]      primal_lower80  22
    u[8]      primal_lower81  145
    u[8]      primal_lower82  148
    u[8]      primal_lower83  120
    u[8]      primal_lower84  831
    u[8]      primal_lower85  377
    u[8]      primal_lower86  430
    u[8]      primal_lower87  435
    u[8]      primal_lower88  983
    u[8]      primal_lower89  675
    u[8]      primal_lower90  511
    u[8]      primal_lower91  167
    u[8]      primal_lower92  217
    u[8]      primal_lower93  28
    u[8]      primal_lower94  872
    u[8]      primal_lower95  134
    u[8]      primal_lower96  367
    u[8]      primal_lower97  484
    u[8]      primal_lower98  24
    u[8]      primal_lower99  203
    u[8]      interdiction[8]  1
    u[8]      mccormick1[8]  -1
    u[8]      mccormick3[8]  1
    u[9]      primal_lower0  181
    u[9]      primal_lower1  182
    u[9]      primal_lower2  440
    u[9]      primal_lower3  766
    u[9]      primal_lower4  121
    u[9]      primal_lower5  289
    u[9]      primal_lower6  498
    u[9]      primal_lower7  191
    u[9]      primal_lower8  45
    u[9]      primal_lower9  169
    u[9]      primal_lower10  846
    u[9]      primal_lower11  683
    u[9]      primal_lower12  266
    u[9]      primal_lower13  758
    u[9]      primal_lower14  597
    u[9]      primal_lower15  841
    u[9]      primal_lower16  855
    u[9]      primal_lower17  718
    u[9]      primal_lower18  258
    u[9]      primal_lower19  562
    u[9]      primal_lower20  283
    u[9]      primal_lower21  809
    u[9]      primal_lower22  889
    u[9]      primal_lower23  386
    u[9]      primal_lower24  188
    u[9]      primal_lower25  7
    u[9]      primal_lower26  334
    u[9]      primal_lower27  645
    u[9]      primal_lower28  211
    u[9]      primal_lower29  553
    u[9]      primal_lower30  108
    u[9]      primal_lower31  596
    u[9]      primal_lower32  904
    u[9]      primal_lower33  639
    u[9]      primal_lower34  724
    u[9]      primal_lower35  834
    u[9]      primal_lower36  639
    u[9]      primal_lower37  879
    u[9]      primal_lower38  4
    u[9]      primal_lower39  423
    u[9]      primal_lower40  101
    u[9]      primal_lower41  782
    u[9]      primal_lower42  669
    u[9]      primal_lower43  105
    u[9]      primal_lower44  810
    u[9]      primal_lower45  999
    u[9]      primal_lower46  709
    u[9]      primal_lower47  635
    u[9]      primal_lower48  953
    u[9]      primal_lower49  539
    u[9]      primal_lower50  138
    u[9]      primal_lower51  565
    u[9]      primal_lower52  754
    u[9]      primal_lower53  978
    u[9]      primal_lower54  492
    u[9]      primal_lower55  691
    u[9]      primal_lower56  717
    u[9]      primal_lower57  5
    u[9]      primal_lower58  760
    u[9]      primal_lower59  709
    u[9]      primal_lower60  646
    u[9]      primal_lower61  438
    u[9]      primal_lower62  833
    u[9]      primal_lower63  504
    u[9]      primal_lower64  184
    u[9]      primal_lower65  991
    u[9]      primal_lower66  636
    u[9]      primal_lower67  875
    u[9]      primal_lower68  891
    u[9]      primal_lower69  75
    u[9]      primal_lower70  279
    u[9]      primal_lower71  620
    u[9]      primal_lower72  317
    u[9]      primal_lower73  215
    u[9]      primal_lower74  989
    u[9]      primal_lower75  435
    u[9]      primal_lower76  719
    u[9]      primal_lower77  8
    u[9]      primal_lower78  354
    u[9]      primal_lower79  545
    u[9]      primal_lower80  351
    u[9]      primal_lower81  698
    u[9]      primal_lower82  609
    u[9]      primal_lower83  717
    u[9]      primal_lower84  816
    u[9]      primal_lower85  302
    u[9]      primal_lower86  707
    u[9]      primal_lower87  500
    u[9]      primal_lower88  704
    u[9]      primal_lower89  168
    u[9]      primal_lower90  812
    u[9]      primal_lower91  880
    u[9]      primal_lower92  494
    u[9]      primal_lower93  737
    u[9]      primal_lower94  305
    u[9]      primal_lower95  431
    u[9]      primal_lower96  52
    u[9]      primal_lower97  241
    u[9]      primal_lower98  493
    u[9]      primal_lower99  148
    u[9]      interdiction[9]  1
    u[9]      mccormick1[9]  -1
    u[9]      mccormick3[9]  1
    u[10]     primal_lower0  199
    u[10]     primal_lower1  784
    u[10]     primal_lower2  554
    u[10]     primal_lower3  571
    u[10]     primal_lower4  462
    u[10]     primal_lower5  403
    u[10]     primal_lower6  108
    u[10]     primal_lower7  20
    u[10]     primal_lower8  23
    u[10]     primal_lower9  510
    u[10]     primal_lower10  571
    u[10]     primal_lower11  629
    u[10]     primal_lower12  727
    u[10]     primal_lower13  176
    u[10]     primal_lower14  490
    u[10]     primal_lower15  283
    u[10]     primal_lower16  513
    u[10]     primal_lower17  955
    u[10]     primal_lower18  20
    u[10]     primal_lower19  927
    u[10]     primal_lower20  760
    u[10]     primal_lower21  150
    u[10]     primal_lower22  262
    u[10]     primal_lower23  751
    u[10]     primal_lower24  81
    u[10]     primal_lower25  753
    u[10]     primal_lower26  443
    u[10]     primal_lower27  58
    u[10]     primal_lower28  656
    u[10]     primal_lower29  798
    u[10]     primal_lower30  921
    u[10]     primal_lower31  249
    u[10]     primal_lower32  778
    u[10]     primal_lower33  449
    u[10]     primal_lower34  934
    u[10]     primal_lower35  647
    u[10]     primal_lower36  873
    u[10]     primal_lower37  516
    u[10]     primal_lower38  385
    u[10]     primal_lower39  972
    u[10]     primal_lower40  794
    u[10]     primal_lower41  139
    u[10]     primal_lower42  330
    u[10]     primal_lower43  454
    u[10]     primal_lower44  340
    u[10]     primal_lower45  649
    u[10]     primal_lower46  335
    u[10]     primal_lower47  981
    u[10]     primal_lower48  174
    u[10]     primal_lower49  488
    u[10]     primal_lower50  919
    u[10]     primal_lower51  455
    u[10]     primal_lower52  652
    u[10]     primal_lower53  76
    u[10]     primal_lower54  457
    u[10]     primal_lower55  941
    u[10]     primal_lower56  362
    u[10]     primal_lower57  578
    u[10]     primal_lower58  925
    u[10]     primal_lower59  415
    u[10]     primal_lower60  360
    u[10]     primal_lower61  600
    u[10]     primal_lower62  774
    u[10]     primal_lower63  722
    u[10]     primal_lower64  738
    u[10]     primal_lower65  569
    u[10]     primal_lower66  726
    u[10]     primal_lower67  96
    u[10]     primal_lower68  64
    u[10]     primal_lower69  392
    u[10]     primal_lower70  308
    u[10]     primal_lower71  590
    u[10]     primal_lower72  271
    u[10]     primal_lower73  329
    u[10]     primal_lower74  314
    u[10]     primal_lower75  720
    u[10]     primal_lower76  577
    u[10]     primal_lower77  277
    u[10]     primal_lower78  124
    u[10]     primal_lower79  926
    u[10]     primal_lower80  628
    u[10]     primal_lower81  79
    u[10]     primal_lower82  347
    u[10]     primal_lower83  95
    u[10]     primal_lower84  381
    u[10]     primal_lower85  168
    u[10]     primal_lower86  893
    u[10]     primal_lower87  761
    u[10]     primal_lower88  485
    u[10]     primal_lower89  554
    u[10]     primal_lower90  62
    u[10]     primal_lower91  501
    u[10]     primal_lower92  624
    u[10]     primal_lower93  379
    u[10]     primal_lower94  94
    u[10]     primal_lower95  412
    u[10]     primal_lower96  878
    u[10]     primal_lower97  435
    u[10]     primal_lower98  367
    u[10]     primal_lower99  585
    u[10]     interdiction[10]  1
    u[10]     mccormick1[10]  -1
    u[10]     mccormick3[10]  1
    u[11]     primal_lower0  926
    u[11]     primal_lower1  799
    u[11]     primal_lower2  713
    u[11]     primal_lower3  199
    u[11]     primal_lower4  594
    u[11]     primal_lower5  146
    u[11]     primal_lower6  371
    u[11]     primal_lower7  256
    u[11]     primal_lower8  382
    u[11]     primal_lower9  362
    u[11]     primal_lower10  583
    u[11]     primal_lower11  188
    u[11]     primal_lower12  499
    u[11]     primal_lower13  527
    u[11]     primal_lower14  454
    u[11]     primal_lower15  554
    u[11]     primal_lower16  24
    u[11]     primal_lower17  527
    u[11]     primal_lower18  227
    u[11]     primal_lower19  467
    u[11]     primal_lower20  868
    u[11]     primal_lower21  834
    u[11]     primal_lower22  546
    u[11]     primal_lower23  203
    u[11]     primal_lower24  413
    u[11]     primal_lower25  200
    u[11]     primal_lower26  351
    u[11]     primal_lower27  774
    u[11]     primal_lower28  300
    u[11]     primal_lower29  418
    u[11]     primal_lower30  213
    u[11]     primal_lower31  557
    u[11]     primal_lower32  761
    u[11]     primal_lower33  504
    u[11]     primal_lower34  917
    u[11]     primal_lower35  59
    u[11]     primal_lower36  952
    u[11]     primal_lower37  552
    u[11]     primal_lower38  573
    u[11]     primal_lower39  760
    u[11]     primal_lower40  566
    u[11]     primal_lower41  687
    u[11]     primal_lower42  270
    u[11]     primal_lower43  706
    u[11]     primal_lower44  123
    u[11]     primal_lower45  352
    u[11]     primal_lower46  46
    u[11]     primal_lower47  252
    u[11]     primal_lower48  754
    u[11]     primal_lower49  524
    u[11]     primal_lower50  499
    u[11]     primal_lower51  910
    u[11]     primal_lower52  731
    u[11]     primal_lower53  955
    u[11]     primal_lower54  669
    u[11]     primal_lower55  788
    u[11]     primal_lower56  6
    u[11]     primal_lower57  118
    u[11]     primal_lower58  553
    u[11]     primal_lower59  526
    u[11]     primal_lower60  663
    u[11]     primal_lower61  495
    u[11]     primal_lower62  818
    u[11]     primal_lower63  977
    u[11]     primal_lower64  265
    u[11]     primal_lower65  456
    u[11]     primal_lower66  941
    u[11]     primal_lower67  516
    u[11]     primal_lower68  36
    u[11]     primal_lower69  28
    u[11]     primal_lower70  848
    u[11]     primal_lower71  413
    u[11]     primal_lower72  446
    u[11]     primal_lower73  72
    u[11]     primal_lower74  38
    u[11]     primal_lower75  516
    u[11]     primal_lower76  720
    u[11]     primal_lower77  81
    u[11]     primal_lower78  155
    u[11]     primal_lower79  274
    u[11]     primal_lower80  976
    u[11]     primal_lower81  467
    u[11]     primal_lower82  82
    u[11]     primal_lower83  726
    u[11]     primal_lower84  353
    u[11]     primal_lower85  647
    u[11]     primal_lower86  20
    u[11]     primal_lower87  829
    u[11]     primal_lower88  761
    u[11]     primal_lower89  521
    u[11]     primal_lower90  941
    u[11]     primal_lower91  209
    u[11]     primal_lower92  223
    u[11]     primal_lower93  202
    u[11]     primal_lower94  186
    u[11]     primal_lower95  944
    u[11]     primal_lower96  941
    u[11]     primal_lower97  714
    u[11]     primal_lower98  94
    u[11]     primal_lower99  205
    u[11]     interdiction[11]  1
    u[11]     mccormick1[11]  -1
    u[11]     mccormick3[11]  1
    u[12]     primal_lower0  351
    u[12]     primal_lower1  832
    u[12]     primal_lower2  2
    u[12]     primal_lower3  772
    u[12]     primal_lower4  71
    u[12]     primal_lower5  195
    u[12]     primal_lower6  484
    u[12]     primal_lower7  445
    u[12]     primal_lower8  87
    u[12]     primal_lower9  55
    u[12]     primal_lower10  332
    u[12]     primal_lower11  637
    u[12]     primal_lower12  712
    u[12]     primal_lower13  328
    u[12]     primal_lower14  43
    u[12]     primal_lower15  595
    u[12]     primal_lower16  177
    u[12]     primal_lower17  228
    u[12]     primal_lower18  388
    u[12]     primal_lower19  120
    u[12]     primal_lower20  105
    u[12]     primal_lower21  519
    u[12]     primal_lower22  263
    u[12]     primal_lower23  568
    u[12]     primal_lower24  146
    u[12]     primal_lower25  713
    u[12]     primal_lower26  4
    u[12]     primal_lower27  907
    u[12]     primal_lower28  961
    u[12]     primal_lower29  559
    u[12]     primal_lower30  354
    u[12]     primal_lower31  594
    u[12]     primal_lower32  234
    u[12]     primal_lower33  889
    u[12]     primal_lower34  862
    u[12]     primal_lower35  448
    u[12]     primal_lower36  129
    u[12]     primal_lower37  717
    u[12]     primal_lower38  714
    u[12]     primal_lower39  229
    u[12]     primal_lower40  203
    u[12]     primal_lower41  364
    u[12]     primal_lower42  107
    u[12]     primal_lower43  431
    u[12]     primal_lower44  180
    u[12]     primal_lower45  561
    u[12]     primal_lower46  319
    u[12]     primal_lower47  397
    u[12]     primal_lower48  367
    u[12]     primal_lower49  601
    u[12]     primal_lower50  48
    u[12]     primal_lower51  159
    u[12]     primal_lower52  812
    u[12]     primal_lower53  692
    u[12]     primal_lower54  906
    u[12]     primal_lower55  797
    u[12]     primal_lower56  547
    u[12]     primal_lower57  483
    u[12]     primal_lower58  310
    u[12]     primal_lower59  327
    u[12]     primal_lower60  104
    u[12]     primal_lower61  192
    u[12]     primal_lower62  583
    u[12]     primal_lower63  962
    u[12]     primal_lower64  82
    u[12]     primal_lower65  881
    u[12]     primal_lower66  918
    u[12]     primal_lower67  729
    u[12]     primal_lower68  865
    u[12]     primal_lower69  905
    u[12]     primal_lower70  765
    u[12]     primal_lower71  398
    u[12]     primal_lower72  231
    u[12]     primal_lower73  457
    u[12]     primal_lower74  427
    u[12]     primal_lower75  457
    u[12]     primal_lower76  329
    u[12]     primal_lower77  254
    u[12]     primal_lower78  308
    u[12]     primal_lower79  887
    u[12]     primal_lower80  773
    u[12]     primal_lower81  8
    u[12]     primal_lower82  355
    u[12]     primal_lower83  631
    u[12]     primal_lower84  462
    u[12]     primal_lower85  440
    u[12]     primal_lower86  149
    u[12]     primal_lower87  282
    u[12]     primal_lower88  598
    u[12]     primal_lower89  250
    u[12]     primal_lower90  774
    u[12]     primal_lower91  918
    u[12]     primal_lower92  8
    u[12]     primal_lower93  739
    u[12]     primal_lower94  647
    u[12]     primal_lower95  637
    u[12]     primal_lower96  838
    u[12]     primal_lower97  243
    u[12]     primal_lower98  215
    u[12]     primal_lower99  586
    u[12]     interdiction[12]  1
    u[12]     mccormick1[12]  -1
    u[12]     mccormick3[12]  1
    u[13]     primal_lower0  231
    u[13]     primal_lower1  288
    u[13]     primal_lower2  322
    u[13]     primal_lower3  552
    u[13]     primal_lower4  931
    u[13]     primal_lower5  851
    u[13]     primal_lower6  836
    u[13]     primal_lower7  961
    u[13]     primal_lower8  455
    u[13]     primal_lower9  723
    u[13]     primal_lower10  304
    u[13]     primal_lower11  829
    u[13]     primal_lower12  892
    u[13]     primal_lower13  80
    u[13]     primal_lower14  535
    u[13]     primal_lower15  355
    u[13]     primal_lower16  265
    u[13]     primal_lower17  672
    u[13]     primal_lower18  548
    u[13]     primal_lower19  36
    u[13]     primal_lower20  413
    u[13]     primal_lower21  371
    u[13]     primal_lower22  83
    u[13]     primal_lower23  300
    u[13]     primal_lower24  534
    u[13]     primal_lower25  881
    u[13]     primal_lower26  936
    u[13]     primal_lower27  455
    u[13]     primal_lower28  677
    u[13]     primal_lower29  67
    u[13]     primal_lower30  30
    u[13]     primal_lower31  790
    u[13]     primal_lower32  274
    u[13]     primal_lower33  553
    u[13]     primal_lower34  558
    u[13]     primal_lower35  20
    u[13]     primal_lower36  217
    u[13]     primal_lower37  377
    u[13]     primal_lower38  582
    u[13]     primal_lower39  177
    u[13]     primal_lower40  655
    u[13]     primal_lower41  576
    u[13]     primal_lower42  879
    u[13]     primal_lower43  987
    u[13]     primal_lower44  92
    u[13]     primal_lower45  369
    u[13]     primal_lower46  735
    u[13]     primal_lower47  653
    u[13]     primal_lower48  467
    u[13]     primal_lower49  709
    u[13]     primal_lower50  236
    u[13]     primal_lower51  895
    u[13]     primal_lower52  356
    u[13]     primal_lower53  940
    u[13]     primal_lower54  102
    u[13]     primal_lower55  717
    u[13]     primal_lower56  175
    u[13]     primal_lower57  559
    u[13]     primal_lower58  906
    u[13]     primal_lower59  967
    u[13]     primal_lower60  992
    u[13]     primal_lower61  328
    u[13]     primal_lower62  331
    u[13]     primal_lower63  946
    u[13]     primal_lower64  258
    u[13]     primal_lower65  1
    u[13]     primal_lower66  270
    u[13]     primal_lower67  221
    u[13]     primal_lower68  741
    u[13]     primal_lower69  637
    u[13]     primal_lower70  697
    u[13]     primal_lower71  134
    u[13]     primal_lower72  247
    u[13]     primal_lower73  961
    u[13]     primal_lower74  351
    u[13]     primal_lower75  645
    u[13]     primal_lower76  497
    u[13]     primal_lower77  146
    u[13]     primal_lower78  68
    u[13]     primal_lower79  883
    u[13]     primal_lower80  697
    u[13]     primal_lower81  92
    u[13]     primal_lower82  635
    u[13]     primal_lower83  935
    u[13]     primal_lower84  74
    u[13]     primal_lower85  336
    u[13]     primal_lower86  77
    u[13]     primal_lower87  150
    u[13]     primal_lower88  970
    u[13]     primal_lower89  378
    u[13]     primal_lower90  518
    u[13]     primal_lower91  954
    u[13]     primal_lower92  656
    u[13]     primal_lower93  875
    u[13]     primal_lower94  835
    u[13]     primal_lower95  281
    u[13]     primal_lower96  286
    u[13]     primal_lower97  387
    u[13]     primal_lower98  535
    u[13]     primal_lower99  518
    u[13]     interdiction[13]  1
    u[13]     mccormick1[13]  -1
    u[13]     mccormick3[13]  1
    u[14]     primal_lower0  952
    u[14]     primal_lower1  713
    u[14]     primal_lower2  75
    u[14]     primal_lower3  452
    u[14]     primal_lower4  615
    u[14]     primal_lower5  652
    u[14]     primal_lower6  733
    u[14]     primal_lower7  973
    u[14]     primal_lower8  296
    u[14]     primal_lower9  23
    u[14]     primal_lower10  844
    u[14]     primal_lower11  494
    u[14]     primal_lower12  88
    u[14]     primal_lower13  705
    u[14]     primal_lower14  411
    u[14]     primal_lower15  364
    u[14]     primal_lower16  394
    u[14]     primal_lower17  652
    u[14]     primal_lower18  69
    u[14]     primal_lower19  160
    u[14]     primal_lower20  169
    u[14]     primal_lower21  535
    u[14]     primal_lower22  215
    u[14]     primal_lower23  376
    u[14]     primal_lower24  810
    u[14]     primal_lower25  370
    u[14]     primal_lower26  628
    u[14]     primal_lower27  331
    u[14]     primal_lower28  297
    u[14]     primal_lower29  815
    u[14]     primal_lower30  730
    u[14]     primal_lower31  618
    u[14]     primal_lower32  115
    u[14]     primal_lower33  482
    u[14]     primal_lower34  151
    u[14]     primal_lower35  432
    u[14]     primal_lower36  562
    u[14]     primal_lower37  373
    u[14]     primal_lower38  210
    u[14]     primal_lower39  933
    u[14]     primal_lower40  771
    u[14]     primal_lower41  28
    u[14]     primal_lower42  619
    u[14]     primal_lower43  911
    u[14]     primal_lower44  125
    u[14]     primal_lower45  186
    u[14]     primal_lower46  64
    u[14]     primal_lower47  958
    u[14]     primal_lower48  999
    u[14]     primal_lower49  785
    u[14]     primal_lower50  992
    u[14]     primal_lower51  816
    u[14]     primal_lower52  357
    u[14]     primal_lower53  301
    u[14]     primal_lower54  458
    u[14]     primal_lower55  126
    u[14]     primal_lower56  363
    u[14]     primal_lower57  315
    u[14]     primal_lower58  686
    u[14]     primal_lower59  160
    u[14]     primal_lower60  249
    u[14]     primal_lower61  737
    u[14]     primal_lower62  607
    u[14]     primal_lower63  499
    u[14]     primal_lower64  147
    u[14]     primal_lower65  714
    u[14]     primal_lower66  23
    u[14]     primal_lower67  633
    u[14]     primal_lower68  873
    u[14]     primal_lower69  313
    u[14]     primal_lower70  909
    u[14]     primal_lower71  535
    u[14]     primal_lower72  224
    u[14]     primal_lower73  890
    u[14]     primal_lower74  67
    u[14]     primal_lower75  801
    u[14]     primal_lower76  850
    u[14]     primal_lower77  6
    u[14]     primal_lower78  429
    u[14]     primal_lower79  599
    u[14]     primal_lower80  893
    u[14]     primal_lower81  144
    u[14]     primal_lower82  68
    u[14]     primal_lower83  472
    u[14]     primal_lower84  870
    u[14]     primal_lower85  153
    u[14]     primal_lower86  622
    u[14]     primal_lower87  50
    u[14]     primal_lower88  30
    u[14]     primal_lower89  491
    u[14]     primal_lower90  879
    u[14]     primal_lower91  126
    u[14]     primal_lower92  257
    u[14]     primal_lower93  396
    u[14]     primal_lower94  575
    u[14]     primal_lower95  869
    u[14]     primal_lower96  951
    u[14]     primal_lower97  836
    u[14]     primal_lower98  200
    u[14]     primal_lower99  930
    u[14]     interdiction[14]  1
    u[14]     mccormick1[14]  -1
    u[14]     mccormick3[14]  1
    u[15]     primal_lower0  632
    u[15]     primal_lower1  121
    u[15]     primal_lower2  803
    u[15]     primal_lower3  864
    u[15]     primal_lower4  219
    u[15]     primal_lower5  276
    u[15]     primal_lower6  909
    u[15]     primal_lower7  329
    u[15]     primal_lower8  416
    u[15]     primal_lower9  11
    u[15]     primal_lower10  296
    u[15]     primal_lower11  894
    u[15]     primal_lower12  100
    u[15]     primal_lower13  817
    u[15]     primal_lower14  855
    u[15]     primal_lower15  588
    u[15]     primal_lower16  338
    u[15]     primal_lower17  80
    u[15]     primal_lower18  581
    u[15]     primal_lower19  532
    u[15]     primal_lower20  477
    u[15]     primal_lower21  467
    u[15]     primal_lower22  835
    u[15]     primal_lower23  556
    u[15]     primal_lower24  614
    u[15]     primal_lower25  930
    u[15]     primal_lower26  896
    u[15]     primal_lower27  503
    u[15]     primal_lower28  653
    u[15]     primal_lower29  307
    u[15]     primal_lower30  6
    u[15]     primal_lower31  854
    u[15]     primal_lower32  147
    u[15]     primal_lower33  450
    u[15]     primal_lower34  559
    u[15]     primal_lower35  356
    u[15]     primal_lower36  770
    u[15]     primal_lower37  473
    u[15]     primal_lower38  166
    u[15]     primal_lower39  865
    u[15]     primal_lower40  111
    u[15]     primal_lower41  264
    u[15]     primal_lower42  703
    u[15]     primal_lower43  115
    u[15]     primal_lower44  653
    u[15]     primal_lower45  922
    u[15]     primal_lower46  328
    u[15]     primal_lower47  462
    u[15]     primal_lower48  99
    u[15]     primal_lower49  581
    u[15]     primal_lower50  972
    u[15]     primal_lower51  280
    u[15]     primal_lower52  789
    u[15]     primal_lower53  77
    u[15]     primal_lower54  198
    u[15]     primal_lower55  246
    u[15]     primal_lower56  903
    u[15]     primal_lower57  31
    u[15]     primal_lower58  210
    u[15]     primal_lower59  392
    u[15]     primal_lower60  449
    u[15]     primal_lower61  113
    u[15]     primal_lower62  739
    u[15]     primal_lower63  691
    u[15]     primal_lower64  91
    u[15]     primal_lower65  210
    u[15]     primal_lower66  935
    u[15]     primal_lower67  709
    u[15]     primal_lower68  317
    u[15]     primal_lower69  573
    u[15]     primal_lower70  737
    u[15]     primal_lower71  439
    u[15]     primal_lower72  800
    u[15]     primal_lower73  42
    u[15]     primal_lower74  391
    u[15]     primal_lower75  245
    u[15]     primal_lower76  274
    u[15]     primal_lower77  474
    u[15]     primal_lower78  725
    u[15]     primal_lower79  939
    u[15]     primal_lower80  625
    u[15]     primal_lower81  572
    u[15]     primal_lower82  452
    u[15]     primal_lower83  848
    u[15]     primal_lower84  610
    u[15]     primal_lower85  185
    u[15]     primal_lower86  326
    u[15]     primal_lower87  750
    u[15]     primal_lower88  282
    u[15]     primal_lower89  371
    u[15]     primal_lower90  71
    u[15]     primal_lower91  82
    u[15]     primal_lower92  433
    u[15]     primal_lower93  276
    u[15]     primal_lower94  235
    u[15]     primal_lower95  137
    u[15]     primal_lower96  479
    u[15]     primal_lower97  596
    u[15]     primal_lower98  800
    u[15]     primal_lower99  270
    u[15]     interdiction[15]  1
    u[15]     mccormick1[15]  -1
    u[15]     mccormick3[15]  1
    u[16]     primal_lower0  752
    u[16]     primal_lower1  433
    u[16]     primal_lower2  523
    u[16]     primal_lower3  469
    u[16]     primal_lower4  952
    u[16]     primal_lower5  236
    u[16]     primal_lower6  749
    u[16]     primal_lower7  854
    u[16]     primal_lower8  360
    u[16]     primal_lower9  880
    u[16]     primal_lower10  381
    u[16]     primal_lower11  950
    u[16]     primal_lower12  529
    u[16]     primal_lower13  377
    u[16]     primal_lower14  132
    u[16]     primal_lower15  972
    u[16]     primal_lower16  986
    u[16]     primal_lower17  973
    u[16]     primal_lower18  317
    u[16]     primal_lower19  369
    u[16]     primal_lower20  242
    u[16]     primal_lower21  992
    u[16]     primal_lower22  648
    u[16]     primal_lower23  697
    u[16]     primal_lower24  475
    u[16]     primal_lower25  234
    u[16]     primal_lower26  181
    u[16]     primal_lower27  364
    u[16]     primal_lower28  666
    u[16]     primal_lower29  672
    u[16]     primal_lower30  203
    u[16]     primal_lower31  211
    u[16]     primal_lower32  699
    u[16]     primal_lower33  938
    u[16]     primal_lower34  983
    u[16]     primal_lower35  153
    u[16]     primal_lower36  770
    u[16]     primal_lower37  542
    u[16]     primal_lower38  763
    u[16]     primal_lower39  414
    u[16]     primal_lower40  684
    u[16]     primal_lower41  613
    u[16]     primal_lower42  36
    u[16]     primal_lower43  408
    u[16]     primal_lower44  149
    u[16]     primal_lower45  818
    u[16]     primal_lower46  496
    u[16]     primal_lower47  918
    u[16]     primal_lower48  568
    u[16]     primal_lower49  858
    u[16]     primal_lower50  577
    u[16]     primal_lower51  8
    u[16]     primal_lower52  421
    u[16]     primal_lower53  693
    u[16]     primal_lower54  395
    u[16]     primal_lower55  558
    u[16]     primal_lower56  692
    u[16]     primal_lower57  420
    u[16]     primal_lower58  487
    u[16]     primal_lower59  944
    u[16]     primal_lower60  969
    u[16]     primal_lower61  17
    u[16]     primal_lower62  480
    u[16]     primal_lower63  435
    u[16]     primal_lower64  587
    u[16]     primal_lower65  66
    u[16]     primal_lower66  959
    u[16]     primal_lower67  626
    u[16]     primal_lower68  850
    u[16]     primal_lower69  506
    u[16]     primal_lower70  678
    u[16]     primal_lower71  703
    u[16]     primal_lower72  560
    u[16]     primal_lower73  242
    u[16]     primal_lower74  532
    u[16]     primal_lower75  906
    u[16]     primal_lower76  370
    u[16]     primal_lower77  615
    u[16]     primal_lower78  29
    u[16]     primal_lower79  112
    u[16]     primal_lower80  734
    u[16]     primal_lower81  625
    u[16]     primal_lower82  684
    u[16]     primal_lower83  152
    u[16]     primal_lower84  847
    u[16]     primal_lower85  985
    u[16]     primal_lower86  870
    u[16]     primal_lower87  683
    u[16]     primal_lower88  343
    u[16]     primal_lower89  419
    u[16]     primal_lower90  95
    u[16]     primal_lower91  847
    u[16]     primal_lower92  1
    u[16]     primal_lower93  252
    u[16]     primal_lower94  672
    u[16]     primal_lower95  894
    u[16]     primal_lower96  807
    u[16]     primal_lower97  220
    u[16]     primal_lower98  624
    u[16]     primal_lower99  235
    u[16]     interdiction[16]  1
    u[16]     mccormick1[16]  -1
    u[16]     mccormick3[16]  1
    u[17]     primal_lower0  259
    u[17]     primal_lower1  52
    u[17]     primal_lower2  214
    u[17]     primal_lower3  596
    u[17]     primal_lower4  143
    u[17]     primal_lower5  7
    u[17]     primal_lower6  392
    u[17]     primal_lower7  109
    u[17]     primal_lower8  483
    u[17]     primal_lower9  575
    u[17]     primal_lower10  860
    u[17]     primal_lower11  753
    u[17]     primal_lower12  688
    u[17]     primal_lower13  52
    u[17]     primal_lower14  291
    u[17]     primal_lower15  335
    u[17]     primal_lower16  437
    u[17]     primal_lower17  884
    u[17]     primal_lower18  960
    u[17]     primal_lower19  984
    u[17]     primal_lower20  169
    u[17]     primal_lower21  151
    u[17]     primal_lower22  503
    u[17]     primal_lower23  400
    u[17]     primal_lower24  98
    u[17]     primal_lower25  77
    u[17]     primal_lower26  708
    u[17]     primal_lower27  171
    u[17]     primal_lower28  521
    u[17]     primal_lower29  663
    u[17]     primal_lower30  650
    u[17]     primal_lower31  498
    u[17]     primal_lower32  758
    u[17]     primal_lower33  397
    u[17]     primal_lower34  450
    u[17]     primal_lower35  792
    u[17]     primal_lower36  125
    u[17]     primal_lower37  661
    u[17]     primal_lower38  626
    u[17]     primal_lower39  925
    u[17]     primal_lower40  99
    u[17]     primal_lower41  460
    u[17]     primal_lower42  843
    u[17]     primal_lower43  903
    u[17]     primal_lower44  568
    u[17]     primal_lower45  93
    u[17]     primal_lower46  459
    u[17]     primal_lower47  505
    u[17]     primal_lower48  807
    u[17]     primal_lower49  193
    u[17]     primal_lower50  256
    u[17]     primal_lower51  619
    u[17]     primal_lower52  336
    u[17]     primal_lower53  536
    u[17]     primal_lower54  922
    u[17]     primal_lower55  9
    u[17]     primal_lower56  99
    u[17]     primal_lower57  779
    u[17]     primal_lower58  742
    u[17]     primal_lower59  371
    u[17]     primal_lower60  588
    u[17]     primal_lower61  268
    u[17]     primal_lower62  551
    u[17]     primal_lower63  878
    u[17]     primal_lower64  542
    u[17]     primal_lower65  485
    u[17]     primal_lower66  482
    u[17]     primal_lower67  953
    u[17]     primal_lower68  185
    u[17]     primal_lower69  297
    u[17]     primal_lower70  445
    u[17]     primal_lower71  882
    u[17]     primal_lower72  27
    u[17]     primal_lower73  317
    u[17]     primal_lower74  723
    u[17]     primal_lower75  353
    u[17]     primal_lower76  213
    u[17]     primal_lower77  246
    u[17]     primal_lower78  192
    u[17]     primal_lower79  135
    u[17]     primal_lower80  93
    u[17]     primal_lower81  664
    u[17]     primal_lower82  887
    u[17]     primal_lower83  443
    u[17]     primal_lower84  606
    u[17]     primal_lower85  588
    u[17]     primal_lower86  145
    u[17]     primal_lower87  450
    u[17]     primal_lower88  878
    u[17]     primal_lower89  950
    u[17]     primal_lower90  338
    u[17]     primal_lower91  278
    u[17]     primal_lower92  588
    u[17]     primal_lower93  215
    u[17]     primal_lower94  255
    u[17]     primal_lower95  997
    u[17]     primal_lower96  498
    u[17]     primal_lower97  847
    u[17]     primal_lower98  243
    u[17]     primal_lower99  186
    u[17]     interdiction[17]  1
    u[17]     mccormick1[17]  -1
    u[17]     mccormick3[17]  1
    u[18]     primal_lower0  940
    u[18]     primal_lower1  485
    u[18]     primal_lower2  791
    u[18]     primal_lower3  929
    u[18]     primal_lower4  196
    u[18]     primal_lower5  96
    u[18]     primal_lower6  97
    u[18]     primal_lower7  978
    u[18]     primal_lower8  580
    u[18]     primal_lower9  692
    u[18]     primal_lower10  665
    u[18]     primal_lower11  18
    u[18]     primal_lower12  181
    u[18]     primal_lower13  229
    u[18]     primal_lower14  216
    u[18]     primal_lower15  816
    u[18]     primal_lower16  246
    u[18]     primal_lower17  673
    u[18]     primal_lower18  169
    u[18]     primal_lower19  37
    u[18]     primal_lower20  126
    u[18]     primal_lower21  92
    u[18]     primal_lower22  532
    u[18]     primal_lower23  413
    u[18]     primal_lower24  543
    u[18]     primal_lower25  198
    u[18]     primal_lower26  977
    u[18]     primal_lower27  624
    u[18]     primal_lower28  870
    u[18]     primal_lower29  564
    u[18]     primal_lower30  239
    u[18]     primal_lower31  607
    u[18]     primal_lower32  719
    u[18]     primal_lower33  270
    u[18]     primal_lower34  147
    u[18]     primal_lower35  677
    u[18]     primal_lower36  686
    u[18]     primal_lower37  474
    u[18]     primal_lower38  31
    u[18]     primal_lower39  602
    u[18]     primal_lower40  496
    u[18]     primal_lower41  649
    u[18]     primal_lower42  16
    u[18]     primal_lower43  460
    u[18]     primal_lower44  137
    u[18]     primal_lower45  510
    u[18]     primal_lower46  364
    u[18]     primal_lower47  914
    u[18]     primal_lower48  44
    u[18]     primal_lower49  438
    u[18]     primal_lower50  981
    u[18]     primal_lower51  964
    u[18]     primal_lower52  25
    u[18]     primal_lower53  337
    u[18]     primal_lower54  935
    u[18]     primal_lower55  490
    u[18]     primal_lower56  496
    u[18]     primal_lower57  984
    u[18]     primal_lower58  851
    u[18]     primal_lower59  660
    u[18]     primal_lower60  173
    u[18]     primal_lower61  685
    u[18]     primal_lower62  844
    u[18]     primal_lower63  959
    u[18]     primal_lower64  191
    u[18]     primal_lower65  62
    u[18]     primal_lower66  27
    u[18]     primal_lower67  566
    u[18]     primal_lower68  494
    u[18]     primal_lower69  230
    u[18]     primal_lower70  602
    u[18]     primal_lower71  339
    u[18]     primal_lower72  564
    u[18]     primal_lower73  302
    u[18]     primal_lower74  384
    u[18]     primal_lower75  422
    u[18]     primal_lower76  150
    u[18]     primal_lower77  803
    u[18]     primal_lower78  977
    u[18]     primal_lower79  708
    u[18]     primal_lower80  90
    u[18]     primal_lower81  957
    u[18]     primal_lower82  208
    u[18]     primal_lower83  116
    u[18]     primal_lower84  523
    u[18]     primal_lower85  877
    u[18]     primal_lower86  794
    u[18]     primal_lower87  423
    u[18]     primal_lower88  187
    u[18]     primal_lower89  55
    u[18]     primal_lower90  803
    u[18]     primal_lower91  243
    u[18]     primal_lower92  933
    u[18]     primal_lower93  232
    u[18]     primal_lower94  244
    u[18]     primal_lower95  426
    u[18]     primal_lower96  651
    u[18]     primal_lower97  872
    u[18]     primal_lower98  492
    u[18]     primal_lower99  551
    u[18]     interdiction[18]  1
    u[18]     mccormick1[18]  -1
    u[18]     mccormick3[18]  1
    u[19]     primal_lower0  9
    u[19]     primal_lower1  106
    u[19]     primal_lower2  284
    u[19]     primal_lower3  874
    u[19]     primal_lower4  701
    u[19]     primal_lower5  357
    u[19]     primal_lower6  126
    u[19]     primal_lower7  283
    u[19]     primal_lower8  73
    u[19]     primal_lower9  453
    u[19]     primal_lower10  730
    u[19]     primal_lower11  919
    u[19]     primal_lower12  526
    u[19]     primal_lower13  658
    u[19]     primal_lower14  201
    u[19]     primal_lower15  173
    u[19]     primal_lower16  851
    u[19]     primal_lower17  82
    u[19]     primal_lower18  6
    u[19]     primal_lower19  86
    u[19]     primal_lower20  655
    u[19]     primal_lower21  725
    u[19]     primal_lower22  693
    u[19]     primal_lower23  990
    u[19]     primal_lower24  600
    u[19]     primal_lower25  907
    u[19]     primal_lower26  658
    u[19]     primal_lower27  697
    u[19]     primal_lower28  439
    u[19]     primal_lower29  773
    u[19]     primal_lower30  992
    u[19]     primal_lower31  656
    u[19]     primal_lower32  356
    u[19]     primal_lower33  243
    u[19]     primal_lower34  976
    u[19]     primal_lower35  878
    u[19]     primal_lower36  387
    u[19]     primal_lower37  963
    u[19]     primal_lower38  928
    u[19]     primal_lower39  875
    u[19]     primal_lower40  785
    u[19]     primal_lower41  698
    u[19]     primal_lower42  353
    u[19]     primal_lower43  485
    u[19]     primal_lower44  774
    u[19]     primal_lower45  755
    u[19]     primal_lower46  297
    u[19]     primal_lower47  807
    u[19]     primal_lower48  445
    u[19]     primal_lower49  479
    u[19]     primal_lower50  342
    u[19]     primal_lower51  817
    u[19]     primal_lower52  806
    u[19]     primal_lower53  966
    u[19]     primal_lower54  512
    u[19]     primal_lower55  639
    u[19]     primal_lower56  785
    u[19]     primal_lower57  177
    u[19]     primal_lower58  852
    u[19]     primal_lower59  185
    u[19]     primal_lower60  930
    u[19]     primal_lower61  458
    u[19]     primal_lower62  597
    u[19]     primal_lower63  924
    u[19]     primal_lower64  204
    u[19]     primal_lower65  939
    u[19]     primal_lower66  656
    u[19]     primal_lower67  95
    u[19]     primal_lower68  431
    u[19]     primal_lower69  31
    u[19]     primal_lower70  27
    u[19]     primal_lower71  448
    u[19]     primal_lower72  881
    u[19]     primal_lower73  851
    u[19]     primal_lower74  537
    u[19]     primal_lower75  535
    u[19]     primal_lower76  283
    u[19]     primal_lower77  316
    u[19]     primal_lower78  502
    u[19]     primal_lower79  717
    u[19]     primal_lower80  899
    u[19]     primal_lower81  846
    u[19]     primal_lower82  93
    u[19]     primal_lower83  705
    u[19]     primal_lower84  844
    u[19]     primal_lower85  170
    u[19]     primal_lower86  703
    u[19]     primal_lower87  648
    u[19]     primal_lower88  764
    u[19]     primal_lower89  428
    u[19]     primal_lower90  432
    u[19]     primal_lower91  916
    u[19]     primal_lower92  906
    u[19]     primal_lower93  381
    u[19]     primal_lower94  485
    u[19]     primal_lower95  315
    u[19]     primal_lower96  880
    u[19]     primal_lower97  277
    u[19]     primal_lower98  361
    u[19]     primal_lower99  184
    u[19]     interdiction[19]  1
    u[19]     mccormick1[19]  -1
    u[19]     mccormick3[19]  1
    z[0]      primal_upper  24
    z[0]      mccormick1[0]  1
    z[0]      mccormick2[0]  1
    z[0]      mccormick3[0]  -1
    z[1]      primal_upper  72
    z[1]      mccormick1[1]  1
    z[1]      mccormick2[1]  1
    z[1]      mccormick3[1]  -1
    z[2]      primal_upper  78
    z[2]      mccormick1[2]  1
    z[2]      mccormick2[2]  1
    z[2]      mccormick3[2]  -1
    z[3]      primal_upper  68
    z[3]      mccormick1[3]  1
    z[3]      mccormick2[3]  1
    z[3]      mccormick3[3]  -1
    z[4]      primal_upper  82
    z[4]      mccormick1[4]  1
    z[4]      mccormick2[4]  1
    z[4]      mccormick3[4]  -1
    z[5]      primal_upper  41
    z[5]      mccormick1[5]  1
    z[5]      mccormick2[5]  1
    z[5]      mccormick3[5]  -1
    z[6]      primal_upper  46
    z[6]      mccormick1[6]  1
    z[6]      mccormick2[6]  1
    z[6]      mccormick3[6]  -1
    z[7]      primal_upper  93
    z[7]      mccormick1[7]  1
    z[7]      mccormick2[7]  1
    z[7]      mccormick3[7]  -1
    z[8]      primal_upper  43
    z[8]      mccormick1[8]  1
    z[8]      mccormick2[8]  1
    z[8]      mccormick3[8]  -1
    z[9]      primal_upper  76
    z[9]      mccormick1[9]  1
    z[9]      mccormick2[9]  1
    z[9]      mccormick3[9]  -1
    z[10]     primal_upper  54
    z[10]     mccormick1[10]  1
    z[10]     mccormick2[10]  1
    z[10]     mccormick3[10]  -1
    z[11]     primal_upper  18
    z[11]     mccormick1[11]  1
    z[11]     mccormick2[11]  1
    z[11]     mccormick3[11]  -1
    z[12]     primal_upper  92
    z[12]     mccormick1[12]  1
    z[12]     mccormick2[12]  1
    z[12]     mccormick3[12]  -1
    z[13]     primal_upper  78
    z[13]     mccormick1[13]  1
    z[13]     mccormick2[13]  1
    z[13]     mccormick3[13]  -1
    z[14]     primal_upper  86
    z[14]     mccormick1[14]  1
    z[14]     mccormick2[14]  1
    z[14]     mccormick3[14]  -1
    z[15]     primal_upper  19
    z[15]     mccormick1[15]  1
    z[15]     mccormick2[15]  1
    z[15]     mccormick3[15]  -1
    z[16]     primal_upper  31
    z[16]     mccormick1[16]  1
    z[16]     mccormick2[16]  1
    z[16]     mccormick3[16]  -1
    z[17]     primal_upper  48
    z[17]     mccormick1[17]  1
    z[17]     mccormick2[17]  1
    z[17]     mccormick3[17]  -1
    z[18]     primal_upper  37
    z[18]     mccormick1[18]  1
    z[18]     mccormick2[18]  1
    z[18]     mccormick3[18]  -1
    z[19]     primal_upper  12
    z[19]     mccormick1[19]  1
    z[19]     mccormick2[19]  1
    z[19]     mccormick3[19]  -1
    MARKER    'MARKER'                 'INTEND'
RHS
    RHS1      primal_upper  1829
    RHS1      primal_lower0  952
    RHS1      primal_lower1  6941
    RHS1      primal_lower2  1331
    RHS1      primal_lower3  3919
    RHS1      primal_lower4  1473
    RHS1      primal_lower5  4092
    RHS1      primal_lower6  1442
    RHS1      primal_lower7  1697
    RHS1      primal_lower8  910
    RHS1      primal_lower9  2966
    RHS1      primal_lower10  4132
    RHS1      primal_lower11  973
    RHS1      primal_lower12  2908
    RHS1      primal_lower13  4470
    RHS1      primal_lower14  6849
    RHS1      primal_lower15  986
    RHS1      primal_lower16  4872
    RHS1      primal_lower17  5075
    RHS1      primal_lower18  2721
    RHS1      primal_lower19  6334
    RHS1      primal_lower20  2635
    RHS1      primal_lower21  3000
    RHS1      primal_lower22  1669
    RHS1      primal_lower23  1815
    RHS1      primal_lower24  4887
    RHS1      primal_lower25  1713
    RHS1      primal_lower26  4127
    RHS1      primal_lower27  7596
    RHS1      primal_lower28  4861
    RHS1      primal_lower29  3126
    RHS1      primal_lower30  1519
    RHS1      primal_lower31  1000
    RHS1      primal_lower32  6253
    RHS1      primal_lower33  1842
    RHS1      primal_lower34  5990
    RHS1      primal_lower35  1582
    RHS1      primal_lower36  3634
    RHS1      primal_lower37  7334
    RHS1      primal_lower38  3138
    RHS1      primal_lower39  1839
    RHS1      primal_lower40  3184
    RHS1      primal_lower41  1634
    RHS1      primal_lower42  4217
    RHS1      primal_lower43  3670
    RHS1      primal_lower44  5086
    RHS1      primal_lower45  999
    RHS1      primal_lower46  4288
    RHS1      primal_lower47  3608
    RHS1      primal_lower48  3208
    RHS1      primal_lower49  3411
    RHS1      primal_lower50  5279
    RHS1      primal_lower51  990
    RHS1      primal_lower52  3257
    RHS1      primal_lower53  5654
    RHS1      primal_lower54  3474
    RHS1      primal_lower55  6976
    RHS1      primal_lower56  974
    RHS1      primal_lower57  5692
    RHS1      primal_lower58  2106
    RHS1      primal_lower59  976
    RHS1      primal_lower60  6829
    RHS1      primal_lower61  1398
    RHS1      primal_lower62  5665
    RHS1      primal_lower63  3916
    RHS1      primal_lower64  990
    RHS1      primal_lower65  1564
    RHS1      primal_lower66  5474
    RHS1      primal_lower67  3510
    RHS1      primal_lower68  4581
    RHS1      primal_lower69  1473
    RHS1      primal_lower70  5265
    RHS1      primal_lower71  908
    RHS1      primal_lower72  1576
    RHS1      primal_lower73  1590
    RHS1      primal_lower74  4201
    RHS1      primal_lower75  3584
    RHS1      primal_lower76  5076
    RHS1      primal_lower77  1319
    RHS1      primal_lower78  1428
    RHS1      primal_lower79  4294
    RHS1      primal_lower80  976
    RHS1      primal_lower81  4119
    RHS1      primal_lower82  887
    RHS1      primal_lower83  1558
    RHS1      primal_lower84  953
    RHS1      primal_lower85  2796
    RHS1      primal_lower86  3208
    RHS1      primal_lower87  5339
    RHS1      primal_lower88  1843
    RHS1      primal_lower89  3982
    RHS1      primal_lower90  5949
    RHS1      primal_lower91  3743
    RHS1      primal_lower92  4474
    RHS1      primal_lower93  2906
    RHS1      primal_lower94  1565
    RHS1      primal_lower95  1744
    RHS1      primal_lower96  2124
    RHS1      primal_lower97  3058
    RHS1      primal_lower98  2876
    RHS1      primal_lower99  1299
    RHS1      interdiction[0]  1
    RHS1      interdiction[1]  1
    RHS1      interdiction[2]  1
    RHS1      interdiction[3]  1
    RHS1      interdiction[4]  1
    RHS1      interdiction[5]  1
    RHS1      interdiction[6]  1
    RHS1      interdiction[7]  1
    RHS1      interdiction[8]  1
    RHS1      interdiction[9]  1
    RHS1      interdiction[10]  1
    RHS1      interdiction[11]  1
    RHS1      interdiction[12]  1
    RHS1      interdiction[13]  1
    RHS1      interdiction[14]  1
    RHS1      interdiction[15]  1
    RHS1      interdiction[16]  1
    RHS1      interdiction[17]  1
    RHS1      interdiction[18]  1
    RHS1      interdiction[19]  1
    RHS1      mccormick3[0]  1
    RHS1      mccormick3[1]  1
    RHS1      mccormick3[2]  1
    RHS1      mccormick3[3]  1
    RHS1      mccormick3[4]  1
    RHS1      mccormick3[5]  1
    RHS1      mccormick3[6]  1
    RHS1      mccormick3[7]  1
    RHS1      mccormick3[8]  1
    RHS1      mccormick3[9]  1
    RHS1      mccormick3[10]  1
    RHS1      mccormick3[11]  1
    RHS1      mccormick3[12]  1
    RHS1      mccormick3[13]  1
    RHS1      mccormick3[14]  1
    RHS1      mccormick3[15]  1
    RHS1      mccormick3[16]  1
    RHS1      mccormick3[17]  1
    RHS1      mccormick3[18]  1
    RHS1      mccormick3[19]  1
BOUNDS
 BV BND1      x[0]    
 BV BND1      x[1]    
 BV BND1      x[2]    
 BV BND1      x[3]    
 BV BND1      x[4]    
 BV BND1      x[5]    
 BV BND1      x[6]    
 BV BND1      x[7]    
 BV BND1      x[8]    
 BV BND1      x[9]    
 BV BND1      x[10]   
 BV BND1      x[11]   
 BV BND1      x[12]   
 BV BND1      x[13]   
 BV BND1      x[14]   
 BV BND1      x[15]   
 BV BND1      x[16]   
 BV BND1      x[17]   
 BV BND1      x[18]   
 BV BND1      x[19]   
 BV BND1      y[0]    
 BV BND1      y[1]    
 BV BND1      y[2]    
 BV BND1      y[3]    
 BV BND1      y[4]    
 BV BND1      y[5]    
 BV BND1      y[6]    
 BV BND1      y[7]    
 BV BND1      y[8]    
 BV BND1      y[9]    
 BV BND1      y[10]   
 BV BND1      y[11]   
 BV BND1      y[12]   
 BV BND1      y[13]   
 BV BND1      y[14]   
 BV BND1      y[15]   
 BV BND1      y[16]   
 BV BND1      y[17]   
 BV BND1      y[18]   
 BV BND1      y[19]   
 BV BND1      u[0]    
 BV BND1      u[1]    
 BV BND1      u[2]    
 BV BND1      u[3]    
 BV BND1      u[4]    
 BV BND1      u[5]    
 BV BND1      u[6]    
 BV BND1      u[7]    
 BV BND1      u[8]    
 BV BND1      u[9]    
 BV BND1      u[10]   
 BV BND1      u[11]   
 BV BND1      u[12]   
 BV BND1      u[13]   
 BV BND1      u[14]   
 BV BND1      u[15]   
 BV BND1      u[16]   
 BV BND1      u[17]   
 BV BND1      u[18]   
 BV BND1      u[19]   
 BV BND1      z[0]    
 BV BND1      z[1]    
 BV BND1      z[2]    
 BV BND1      z[3]    
 BV BND1      z[4]    
 BV BND1      z[5]    
 BV BND1      z[6]    
 BV BND1      z[7]    
 BV BND1      z[8]    
 BV BND1      z[9]    
 BV BND1      z[10]   
 BV BND1      z[11]   
 BV BND1      z[12]   
 BV BND1      z[13]   
 BV BND1      z[14]   
 BV BND1      z[15]   
 BV BND1      z[16]   
 BV BND1      z[17]   
 BV BND1      z[18]   
 BV BND1      z[19]   
ENDATA
