* Signature: 0x6357969ace1194f9
NAME knapsack_20_100_1
ROWS
 N  OBJ
 L  primal_upper
 L  primal_lower0
 L  primal_lower1
 L  primal_lower2
 L  primal_lower3
 L  primal_lower4
 L  primal_lower5
 L  primal_lower6
 L  primal_lower7
 L  primal_lower8
 L  primal_lower9
 L  primal_lower10
 L  primal_lower11
 L  primal_lower12
 L  primal_lower13
 L  primal_lower14
 L  primal_lower15
 L  primal_lower16
 L  primal_lower17
 L  primal_lower18
 L  primal_lower19
 L  primal_lower20
 L  primal_lower21
 L  primal_lower22
 L  primal_lower23
 L  primal_lower24
 L  primal_lower25
 L  primal_lower26
 L  primal_lower27
 L  primal_lower28
 L  primal_lower29
 L  primal_lower30
 L  primal_lower31
 L  primal_lower32
 L  primal_lower33
 L  primal_lower34
 L  primal_lower35
 L  primal_lower36
 L  primal_lower37
 L  primal_lower38
 L  primal_lower39
 L  primal_lower40
 L  primal_lower41
 L  primal_lower42
 L  primal_lower43
 L  primal_lower44
 L  primal_lower45
 L  primal_lower46
 L  primal_lower47
 L  primal_lower48
 L  primal_lower49
 L  primal_lower50
 L  primal_lower51
 L  primal_lower52
 L  primal_lower53
 L  primal_lower54
 L  primal_lower55
 L  primal_lower56
 L  primal_lower57
 L  primal_lower58
 L  primal_lower59
 L  primal_lower60
 L  primal_lower61
 L  primal_lower62
 L  primal_lower63
 L  primal_lower64
 L  primal_lower65
 L  primal_lower66
 L  primal_lower67
 L  primal_lower68
 L  primal_lower69
 L  primal_lower70
 L  primal_lower71
 L  primal_lower72
 L  primal_lower73
 L  primal_lower74
 L  primal_lower75
 L  primal_lower76
 L  primal_lower77
 L  primal_lower78
 L  primal_lower79
 L  primal_lower80
 L  primal_lower81
 L  primal_lower82
 L  primal_lower83
 L  primal_lower84
 L  primal_lower85
 L  primal_lower86
 L  primal_lower87
 L  primal_lower88
 L  primal_lower89
 L  primal_lower90
 L  primal_lower91
 L  primal_lower92
 L  primal_lower93
 L  primal_lower94
 L  primal_lower95
 L  primal_lower96
 L  primal_lower97
 L  primal_lower98
 L  primal_lower99
 L  interdiction[0]
 L  interdiction[1]
 L  interdiction[2]
 L  interdiction[3]
 L  interdiction[4]
 L  interdiction[5]
 L  interdiction[6]
 L  interdiction[7]
 L  interdiction[8]
 L  interdiction[9]
 L  interdiction[10]
 L  interdiction[11]
 L  interdiction[12]
 L  interdiction[13]
 L  interdiction[14]
 L  interdiction[15]
 L  interdiction[16]
 L  interdiction[17]
 L  interdiction[18]
 L  interdiction[19]
 L  mccormick1[0]
 L  mccormick1[1]
 L  mccormick1[2]
 L  mccormick1[3]
 L  mccormick1[4]
 L  mccormick1[5]
 L  mccormick1[6]
 L  mccormick1[7]
 L  mccormick1[8]
 L  mccormick1[9]
 L  mccormick1[10]
 L  mccormick1[11]
 L  mccormick1[12]
 L  mccormick1[13]
 L  mccormick1[14]
 L  mccormick1[15]
 L  mccormick1[16]
 L  mccormick1[17]
 L  mccormick1[18]
 L  mccormick1[19]
 L  mccormick2[0]
 L  mccormick2[1]
 L  mccormick2[2]
 L  mccormick2[3]
 L  mccormick2[4]
 L  mccormick2[5]
 L  mccormick2[6]
 L  mccormick2[7]
 L  mccormick2[8]
 L  mccormick2[9]
 L  mccormick2[10]
 L  mccormick2[11]
 L  mccormick2[12]
 L  mccormick2[13]
 L  mccormick2[14]
 L  mccormick2[15]
 L  mccormick2[16]
 L  mccormick2[17]
 L  mccormick2[18]
 L  mccormick2[19]
 L  mccormick3[0]
 L  mccormick3[1]
 L  mccormick3[2]
 L  mccormick3[3]
 L  mccormick3[4]
 L  mccormick3[5]
 L  mccormick3[6]
 L  mccormick3[7]
 L  mccormick3[8]
 L  mccormick3[9]
 L  mccormick3[10]
 L  mccormick3[11]
 L  mccormick3[12]
 L  mccormick3[13]
 L  mccormick3[14]
 L  mccormick3[15]
 L  mccormick3[16]
 L  mccormick3[17]
 L  mccormick3[18]
 L  mccormick3[19]
COLUMNS
    MARKER    'MARKER'                 'INTORG'
    x[0]      OBJ       10
    x[0]      interdiction[0]  1
    x[1]      OBJ       10
    x[1]      interdiction[1]  1
    x[2]      OBJ       10
    x[2]      interdiction[2]  1
    x[3]      OBJ       10
    x[3]      interdiction[3]  1
    x[4]      OBJ       10
    x[4]      interdiction[4]  1
    x[5]      OBJ       10
    x[5]      interdiction[5]  1
    x[6]      OBJ       10
    x[6]      interdiction[6]  1
    x[7]      OBJ       10
    x[7]      interdiction[7]  1
    x[8]      OBJ       10
    x[8]      interdiction[8]  1
    x[9]      OBJ       10
    x[9]      interdiction[9]  1
    x[10]     OBJ       10
    x[10]     interdiction[10]  1
    x[11]     OBJ       10
    x[11]     interdiction[11]  1
    x[12]     OBJ       10
    x[12]     interdiction[12]  1
    x[13]     OBJ       10
    x[13]     interdiction[13]  1
    x[14]     OBJ       10
    x[14]     interdiction[14]  1
    x[15]     OBJ       10
    x[15]     interdiction[15]  1
    x[16]     OBJ       10
    x[16]     interdiction[16]  1
    x[17]     OBJ       10
    x[17]     interdiction[17]  1
    x[18]     OBJ       10
    x[18]     interdiction[18]  1
    x[19]     OBJ       10
    x[19]     interdiction[19]  1
    y[0]      OBJ       -550
    y[0]      primal_upper  664
    y[0]      mccormick2[0]  -1
    y[0]      mccormick3[0]  1
    y[1]      OBJ       -431
    y[1]      primal_upper  644
    y[1]      mccormick2[1]  -1
    y[1]      mccormick3[1]  1
    y[2]      OBJ       -680
    y[2]      primal_upper  202
    y[2]      mccormick2[2]  -1
    y[2]      mccormick3[2]  1
    y[3]      OBJ       -700
    y[3]      primal_upper  883
    y[3]      mccormick2[3]  -1
    y[3]      mccormick3[3]  1
    y[4]      OBJ       -962
    y[4]      primal_upper  276
    y[4]      mccormick2[4]  -1
    y[4]      mccormick3[4]  1
    y[5]      OBJ       -697
    y[5]      primal_upper  546
    y[5]      mccormick2[5]  -1
    y[5]      mccormick3[5]  1
    y[6]      OBJ       -994
    y[6]      primal_upper  389
    y[6]      mccormick2[6]  -1
    y[6]      mccormick3[6]  1
    y[7]      OBJ       -732
    y[7]      primal_upper  228
    y[7]      mccormick2[7]  -1
    y[7]      mccormick3[7]  1
    y[8]      OBJ       -335
    y[8]      primal_upper  45
    y[8]      mccormick2[8]  -1
    y[8]      mccormick3[8]  1
    y[9]      OBJ       -891
    y[9]      primal_upper  850
    y[9]      mccormick2[9]  -1
    y[9]      mccormick3[9]  1
    y[10]     OBJ       -855
    y[10]     primal_upper  404
    y[10]     mccormick2[10]  -1
    y[10]     mccormick3[10]  1
    y[11]     OBJ       -779
    y[11]     primal_upper  35
    y[11]     mccormick2[11]  -1
    y[11]     mccormick3[11]  1
    y[12]     OBJ       -195
    y[12]     primal_upper  692
    y[12]     mccormick2[12]  -1
    y[12]     mccormick3[12]  1
    y[13]     OBJ       -274
    y[13]     primal_upper  124
    y[13]     mccormick2[13]  -1
    y[13]     mccormick3[13]  1
    y[14]     OBJ       -223
    y[14]     primal_upper  413
    y[14]     mccormick2[14]  -1
    y[14]     mccormick3[14]  1
    y[15]     OBJ       -292
    y[15]     primal_upper  949
    y[15]     mccormick2[15]  -1
    y[15]     mccormick3[15]  1
    y[16]     OBJ       -758
    y[16]     primal_upper  965
    y[16]     mccormick2[16]  -1
    y[16]     mccormick3[16]  1
    y[17]     OBJ       -882
    y[17]     primal_upper  384
    y[17]     mccormick2[17]  -1
    y[17]     mccormick3[17]  1
    y[18]     OBJ       -147
    y[18]     primal_upper  265
    y[18]     mccormick2[18]  -1
    y[18]     mccormick3[18]  1
    y[19]     OBJ       -778
    y[19]     primal_upper  550
    y[19]     mccormick2[19]  -1
    y[19]     mccormick3[19]  1
    u[0]      primal_lower0  493
    u[0]      primal_lower1  148
    u[0]      primal_lower2  302
    u[0]      primal_lower3  208
    u[0]      primal_lower4  71
    u[0]      primal_lower5  703
    u[0]      primal_lower6  523
    u[0]      primal_lower7  182
    u[0]      primal_lower8  998
    u[0]      primal_lower9  449
    u[0]      primal_lower10  103
    u[0]      primal_lower11  754
    u[0]      primal_lower12  855
    u[0]      primal_lower13  38
    u[0]      primal_lower14  215
    u[0]      primal_lower15  44
    u[0]      primal_lower16  938
    u[0]      primal_lower17  683
    u[0]      primal_lower18  711
    u[0]      primal_lower19  849
    u[0]      primal_lower20  580
    u[0]      primal_lower21  643
    u[0]      primal_lower22  975
    u[0]      primal_lower23  341
    u[0]      primal_lower24  712
    u[0]      primal_lower25  556
    u[0]      primal_lower26  223
    u[0]      primal_lower27  379
    u[0]      primal_lower28  912
    u[0]      primal_lower29  523
    u[0]      primal_lower30  594
    u[0]      primal_lower31  672
    u[0]      primal_lower32  672
    u[0]      primal_lower33  650
    u[0]      primal_lower34  952
    u[0]      primal_lower35  727
    u[0]      primal_lower36  709
    u[0]      primal_lower37  285
    u[0]      primal_lower38  117
    u[0]      primal_lower39  183
    u[0]      primal_lower40  78
    u[0]      primal_lower41  1000
    u[0]      primal_lower42  305
    u[0]      primal_lower43  199
    u[0]      primal_lower44  385
    u[0]      primal_lower45  876
    u[0]      primal_lower46  556
    u[0]      primal_lower47  999
    u[0]      primal_lower48  735
    u[0]      primal_lower49  980
    u[0]      primal_lower50  326
    u[0]      primal_lower51  231
    u[0]      primal_lower52  157
    u[0]      primal_lower53  622
    u[0]      primal_lower54  97
    u[0]      primal_lower55  753
    u[0]      primal_lower56  544
    u[0]      primal_lower57  190
    u[0]      primal_lower58  831
    u[0]      primal_lower59  889
    u[0]      primal_lower60  922
    u[0]      primal_lower61  519
    u[0]      primal_lower62  224
    u[0]      primal_lower63  34
    u[0]      primal_lower64  195
    u[0]      primal_lower65  620
    u[0]      primal_lower66  446
    u[0]      primal_lower67  517
    u[0]      primal_lower68  685
    u[0]      primal_lower69  517
    u[0]      primal_lower70  554
    u[0]      primal_lower71  859
    u[0]      primal_lower72  33
    u[0]      primal_lower73  503
    u[0]      primal_lower74  858
    u[0]      primal_lower75  698
    u[0]      primal_lower76  259
    u[0]      primal_lower77  254
    u[0]      primal_lower78  183
    u[0]      primal_lower79  836
    u[0]      primal_lower80  137
    u[0]      primal_lower81  399
    u[0]      primal_lower82  902
    u[0]      primal_lower83  288
    u[0]      primal_lower84  256
    u[0]      primal_lower85  763
    u[0]      primal_lower86  288
    u[0]      primal_lower87  256
    u[0]      primal_lower88  850
    u[0]      primal_lower89  518
    u[0]      primal_lower90  806
    u[0]      primal_lower91  262
    u[0]      primal_lower92  711
    u[0]      primal_lower93  83
    u[0]      primal_lower94  369
    u[0]      primal_lower95  126
    u[0]      primal_lower96  685
    u[0]      primal_lower97  874
    u[0]      primal_lower98  258
    u[0]      primal_lower99  371
    u[0]      interdiction[0]  1
    u[0]      mccormick1[0]  -1
    u[0]      mccormick3[0]  1
    u[1]      primal_lower0  822
    u[1]      primal_lower1  992
    u[1]      primal_lower2  154
    u[1]      primal_lower3  457
    u[1]      primal_lower4  112
    u[1]      primal_lower5  864
    u[1]      primal_lower6  775
    u[1]      primal_lower7  170
    u[1]      primal_lower8  839
    u[1]      primal_lower9  541
    u[1]      primal_lower10  736
    u[1]      primal_lower11  763
    u[1]      primal_lower12  907
    u[1]      primal_lower13  463
    u[1]      primal_lower14  680
    u[1]      primal_lower15  781
    u[1]      primal_lower16  822
    u[1]      primal_lower17  951
    u[1]      primal_lower18  827
    u[1]      primal_lower19  837
    u[1]      primal_lower20  632
    u[1]      primal_lower21  127
    u[1]      primal_lower22  795
    u[1]      primal_lower23  561
    u[1]      primal_lower24  780
    u[1]      primal_lower25  968
    u[1]      primal_lower26  752
    u[1]      primal_lower27  935
    u[1]      primal_lower28  161
    u[1]      primal_lower29  108
    u[1]      primal_lower30  454
    u[1]      primal_lower31  625
    u[1]      primal_lower32  588
    u[1]      primal_lower33  214
    u[1]      primal_lower34  769
    u[1]      primal_lower35  867
    u[1]      primal_lower36  782
    u[1]      primal_lower37  417
    u[1]      primal_lower38  777
    u[1]      primal_lower39  856
    u[1]      primal_lower40  287
    u[1]      primal_lower41  676
    u[1]      primal_lower42  429
    u[1]      primal_lower43  75
    u[1]      primal_lower44  437
    u[1]      primal_lower45  320
    u[1]      primal_lower46  461
    u[1]      primal_lower47  51
    u[1]      primal_lower48  579
    u[1]      primal_lower49  701
    u[1]      primal_lower50  359
    u[1]      primal_lower51  299
    u[1]      primal_lower52  73
    u[1]      primal_lower53  519
    u[1]      primal_lower54  869
    u[1]      primal_lower55  426
    u[1]      primal_lower56  676
    u[1]      primal_lower57  250
    u[1]      primal_lower58  139
    u[1]      primal_lower59  669
    u[1]      primal_lower60  731
    u[1]      primal_lower61  616
    u[1]      primal_lower62  609
    u[1]      primal_lower63  606
    u[1]      primal_lower64  252
    u[1]      primal_lower65  205
    u[1]      primal_lower66  839
    u[1]      primal_lower67  606
    u[1]      primal_lower68  233
    u[1]      primal_lower69  425
    u[1]      primal_lower70  347
    u[1]      primal_lower71  127
    u[1]      primal_lower72  346
    u[1]      primal_lower73  944
    u[1]      primal_lower74  763
    u[1]      primal_lower75  534
    u[1]      primal_lower76  879
    u[1]      primal_lower77  735
    u[1]      primal_lower78  755
    u[1]      primal_lower79  728
    u[1]      primal_lower80  637
    u[1]      primal_lower81  600
    u[1]      primal_lower82  290
    u[1]      primal_lower83  641
    u[1]      primal_lower84  596
    u[1]      primal_lower85  39
    u[1]      primal_lower86  369
    u[1]      primal_lower87  17
    u[1]      primal_lower88  995
    u[1]      primal_lower89  554
    u[1]      primal_lower90  79
    u[1]      primal_lower91  898
    u[1]      primal_lower92  208
    u[1]      primal_lower93  983
    u[1]      primal_lower94  274
    u[1]      primal_lower95  730
    u[1]      primal_lower96  854
    u[1]      primal_lower97  142
    u[1]      primal_lower98  915
    u[1]      primal_lower99  84
    u[1]      interdiction[1]  1
    u[1]      mccormick1[1]  -1
    u[1]      mccormick3[1]  1
    u[2]      primal_lower0  936
    u[2]      primal_lower1  790
    u[2]      primal_lower2  728
    u[2]      primal_lower3  307
    u[2]      primal_lower4  922
    u[2]      primal_lower5  754
    u[2]      primal_lower6  861
    u[2]      primal_lower7  32
    u[2]      primal_lower8  801
    u[2]      primal_lower9  411
    u[2]      primal_lower10  554
    u[2]      primal_lower11  613
    u[2]      primal_lower12  297
    u[2]      primal_lower13  273
    u[2]      primal_lower14  242
    u[2]      primal_lower15  239
    u[2]      primal_lower16  164
    u[2]      primal_lower17  677
    u[2]      primal_lower18  25
    u[2]      primal_lower19  915
    u[2]      primal_lower20  94
    u[2]      primal_lower21  637
    u[2]      primal_lower22  785
    u[2]      primal_lower23  183
    u[2]      primal_lower24  930
    u[2]      primal_lower25  790
    u[2]      primal_lower26  386
    u[2]      primal_lower27  861
    u[2]      primal_lower28  883
    u[2]      primal_lower29  750
    u[2]      primal_lower30  476
    u[2]      primal_lower31  843
    u[2]      primal_lower32  810
    u[2]      primal_lower33  468
    u[2]      primal_lower34  827
    u[2]      primal_lower35  65
    u[2]      primal_lower36  312
    u[2]      primal_lower37  583
    u[2]      primal_lower38  975
    u[2]      primal_lower39  234
    u[2]      primal_lower40  585
    u[2]      primal_lower41  106
    u[2]      primal_lower42  731
    u[2]      primal_lower43  417
    u[2]      primal_lower44  595
    u[2]      primal_lower45  502
    u[2]      primal_lower46  543
    u[2]      primal_lower47  113
    u[2]      primal_lower48  697
    u[2]      primal_lower49  407
    u[2]      primal_lower50  449
    u[2]      primal_lower51  833
    u[2]      primal_lower52  343
    u[2]      primal_lower53  297
    u[2]      primal_lower54  603
    u[2]      primal_lower55  20
    u[2]      primal_lower56  114
    u[2]      primal_lower57  744
    u[2]      primal_lower58  825
    u[2]      primal_lower59  795
    u[2]      primal_lower60  325
    u[2]      primal_lower61  458
    u[2]      primal_lower62  355
    u[2]      primal_lower63  36
    u[2]      primal_lower64  350
    u[2]      primal_lower65  39
    u[2]      primal_lower66  761
    u[2]      primal_lower67  936
    u[2]      primal_lower68  879
    u[2]      primal_lower69  839
    u[2]      primal_lower70  661
    u[2]      primal_lower71  909
    u[2]      primal_lower72  260
    u[2]      primal_lower73  306
    u[2]      primal_lower74  693
    u[2]      primal_lower75  236
    u[2]      primal_lower76  133
    u[2]      primal_lower77  417
    u[2]      primal_lower78  129
    u[2]      primal_lower79  166
    u[2]      primal_lower80  411
    u[2]      primal_lower81  434
    u[2]      primal_lower82  688
    u[2]      primal_lower83  59
    u[2]      primal_lower84  898
    u[2]      primal_lower85  221
    u[2]      primal_lower86  379
    u[2]      primal_lower87  619
    u[2]      primal_lower88  365
    u[2]      primal_lower89  216
    u[2]      primal_lower90  249
    u[2]      primal_lower91  64
    u[2]      primal_lower92  578
    u[2]      primal_lower93  149
    u[2]      primal_lower94  724
    u[2]      primal_lower95  184
    u[2]      primal_lower96  168
    u[2]      primal_lower97  740
    u[2]      primal_lower98  133
    u[2]      primal_lower99  598
    u[2]      interdiction[2]  1
    u[2]      mccormick1[2]  -1
    u[2]      mccormick3[2]  1
    u[3]      primal_lower0  69
    u[3]      primal_lower1  991
    u[3]      primal_lower2  185
    u[3]      primal_lower3  504
    u[3]      primal_lower4  391
    u[3]      primal_lower5  951
    u[3]      primal_lower6  878
    u[3]      primal_lower7  649
    u[3]      primal_lower8  998
    u[3]      primal_lower9  20
    u[3]      primal_lower10  943
    u[3]      primal_lower11  138
    u[3]      primal_lower12  738
    u[3]      primal_lower13  902
    u[3]      primal_lower14  887
    u[3]      primal_lower15  868
    u[3]      primal_lower16  341
    u[3]      primal_lower17  406
    u[3]      primal_lower18  338
    u[3]      primal_lower19  412
    u[3]      primal_lower20  215
    u[3]      primal_lower21  446
    u[3]      primal_lower22  882
    u[3]      primal_lower23  152
    u[3]      primal_lower24  883
    u[3]      primal_lower25  807
    u[3]      primal_lower26  15
    u[3]      primal_lower27  934
    u[3]      primal_lower28  48
    u[3]      primal_lower29  587
    u[3]      primal_lower30  573
    u[3]      primal_lower31  696
    u[3]      primal_lower32  891
    u[3]      primal_lower33  845
    u[3]      primal_lower34  8
    u[3]      primal_lower35  474
    u[3]      primal_lower36  349
    u[3]      primal_lower37  904
    u[3]      primal_lower38  544
    u[3]      primal_lower39  471
    u[3]      primal_lower40  510
    u[3]      primal_lower41  419
    u[3]      primal_lower42  628
    u[3]      primal_lower43  450
    u[3]      primal_lower44  172
    u[3]      primal_lower45  703
    u[3]      primal_lower46  172
    u[3]      primal_lower47  858
    u[3]      primal_lower48  626
    u[3]      primal_lower49  476
    u[3]      primal_lower50  438
    u[3]      primal_lower51  242
    u[3]      primal_lower52  656
    u[3]      primal_lower53  238
    u[3]      primal_lower54  268
    u[3]      primal_lower55  969
    u[3]      primal_lower56  747
    u[3]      primal_lower57  641
    u[3]      primal_lower58  858
    u[3]      primal_lower59  76
    u[3]      primal_lower60  290
    u[3]      primal_lower61  559
    u[3]      primal_lower62  816
    u[3]      primal_lower63  85
    u[3]      primal_lower64  651
    u[3]      primal_lower65  44
    u[3]      primal_lower66  934
    u[3]      primal_lower67  701
    u[3]      primal_lower68  712
    u[3]      primal_lower69  24
    u[3]      primal_lower70  842
    u[3]      primal_lower71  318
    u[3]      primal_lower72  769
    u[3]      primal_lower73  455
    u[3]      primal_lower74  882
    u[3]      primal_lower75  957
    u[3]      primal_lower76  270
    u[3]      primal_lower77  222
    u[3]      primal_lower78  810
    u[3]      primal_lower79  143
    u[3]      primal_lower80  884
    u[3]      primal_lower81  487
    u[3]      primal_lower82  249
    u[3]      primal_lower83  80
    u[3]      primal_lower84  291
    u[3]      primal_lower85  590
    u[3]      primal_lower86  632
    u[3]      primal_lower87  720
    u[3]      primal_lower88  930
    u[3]      primal_lower89  625
    u[3]      primal_lower90  318
    u[3]      primal_lower91  665
    u[3]      primal_lower92  719
    u[3]      primal_lower93  862
    u[3]      primal_lower94  185
    u[3]      primal_lower95  281
    u[3]      primal_lower96  5
    u[3]      primal_lower97  325
    u[3]      primal_lower98  402
    u[3]      primal_lower99  531
    u[3]      interdiction[3]  1
    u[3]      mccormick1[3]  -1
    u[3]      mccormick3[3]  1
    u[4]      primal_lower0  874
    u[4]      primal_lower1  920
    u[4]      primal_lower2  602
    u[4]      primal_lower3  749
    u[4]      primal_lower4  28
    u[4]      primal_lower5  268
    u[4]      primal_lower6  599
    u[4]      primal_lower7  674
    u[4]      primal_lower8  67
    u[4]      primal_lower9  965
    u[4]      primal_lower10  948
    u[4]      primal_lower11  543
    u[4]      primal_lower12  867
    u[4]      primal_lower13  739
    u[4]      primal_lower14  788
    u[4]      primal_lower15  361
    u[4]      primal_lower16  126
    u[4]      primal_lower17  799
    u[4]      primal_lower18  331
    u[4]      primal_lower19  333
    u[4]      primal_lower20  952
    u[4]      primal_lower21  871
    u[4]      primal_lower22  283
    u[4]      primal_lower23  713
    u[4]      primal_lower24  124
    u[4]      primal_lower25  288
    u[4]      primal_lower26  308
    u[4]      primal_lower27  7
    u[4]      primal_lower28  645
    u[4]      primal_lower29  968
    u[4]      primal_lower30  230
    u[4]      primal_lower31  189
    u[4]      primal_lower32  852
    u[4]      primal_lower33  710
    u[4]      primal_lower34  829
    u[4]      primal_lower35  171
    u[4]      primal_lower36  922
    u[4]      primal_lower37  209
    u[4]      primal_lower38  777
    u[4]      primal_lower39  804
    u[4]      primal_lower40  123
    u[4]      primal_lower41  508
    u[4]      primal_lower42  349
    u[4]      primal_lower43  699
    u[4]      primal_lower44  941
    u[4]      primal_lower45  336
    u[4]      primal_lower46  225
    u[4]      primal_lower47  915
    u[4]      primal_lower48  603
    u[4]      primal_lower49  537
    u[4]      primal_lower50  123
    u[4]      primal_lower51  459
    u[4]      primal_lower52  249
    u[4]      primal_lower53  595
    u[4]      primal_lower54  21
    u[4]      primal_lower55  462
    u[4]      primal_lower56  292
    u[4]      primal_lower57  450
    u[4]      primal_lower58  459
    u[4]      primal_lower59  973
    u[4]      primal_lower60  367
    u[4]      primal_lower61  204
    u[4]      primal_lower62  237
    u[4]      primal_lower63  438
    u[4]      primal_lower64  192
    u[4]      primal_lower65  161
    u[4]      primal_lower66  339
    u[4]      primal_lower67  770
    u[4]      primal_lower68  65
    u[4]      primal_lower69  1
    u[4]      primal_lower70  47
    u[4]      primal_lower71  799
    u[4]      primal_lower72  646
    u[4]      primal_lower73  516
    u[4]      primal_lower74  807
    u[4]      primal_lower75  326
    u[4]      primal_lower76  767
    u[4]      primal_lower77  499
    u[4]      primal_lower78  579
    u[4]      primal_lower79  96
    u[4]      primal_lower80  773
    u[4]      primal_lower81  652
    u[4]      primal_lower82  986
    u[4]      primal_lower83  685
    u[4]      primal_lower84  140
    u[4]      primal_lower85  223
    u[4]      primal_lower86  661
    u[4]      primal_lower87  765
    u[4]      primal_lower88  743
    u[4]      primal_lower89  306
    u[4]      primal_lower90  827
    u[4]      primal_lower91  818
    u[4]      primal_lower92  812
    u[4]      primal_lower93  47
    u[4]      primal_lower94  678
    u[4]      primal_lower95  970
    u[4]      primal_lower96  946
    u[4]      primal_lower97  270
    u[4]      primal_lower98  743
    u[4]      primal_lower99  400
    u[4]      interdiction[4]  1
    u[4]      mccormick1[4]  -1
    u[4]      mccormick3[4]  1
    u[5]      primal_lower0  771
    u[5]      primal_lower1  550
    u[5]      primal_lower2  424
    u[5]      primal_lower3  966
    u[5]      primal_lower4  29
    u[5]      primal_lower5  517
    u[5]      primal_lower6  221
    u[5]      primal_lower7  48
    u[5]      primal_lower8  652
    u[5]      primal_lower9  995
    u[5]      primal_lower10  141
    u[5]      primal_lower11  128
    u[5]      primal_lower12  281
    u[5]      primal_lower13  428
    u[5]      primal_lower14  773
    u[5]      primal_lower15  802
    u[5]      primal_lower16  684
    u[5]      primal_lower17  229
    u[5]      primal_lower18  257
    u[5]      primal_lower19  187
    u[5]      primal_lower20  198
    u[5]      primal_lower21  965
    u[5]      primal_lower22  129
    u[5]      primal_lower23  711
    u[5]      primal_lower24  586
    u[5]      primal_lower25  990
    u[5]      primal_lower26  405
    u[5]      primal_lower27  637
    u[5]      primal_lower28  190
    u[5]      primal_lower29  569
    u[5]      primal_lower30  644
    u[5]      primal_lower31  390
    u[5]      primal_lower32  954
    u[5]      primal_lower33  676
    u[5]      primal_lower34  278
    u[5]      primal_lower35  473
    u[5]      primal_lower36  19
    u[5]      primal_lower37  815
    u[5]      primal_lower38  791
    u[5]      primal_lower39  789
    u[5]      primal_lower40  396
    u[5]      primal_lower41  826
    u[5]      primal_lower42  571
    u[5]      primal_lower43  641
    u[5]      primal_lower44  683
    u[5]      primal_lower45  710
    u[5]      primal_lower46  258
    u[5]      primal_lower47  593
    u[5]      primal_lower48  609
    u[5]      primal_lower49  370
    u[5]      primal_lower50  668
    u[5]      primal_lower51  689
    u[5]      primal_lower52  279
    u[5]      primal_lower53  700
    u[5]      primal_lower54  51
    u[5]      primal_lower55  231
    u[5]      primal_lower56  562
    u[5]      primal_lower57  360
    u[5]      primal_lower58  729
    u[5]      primal_lower59  27
    u[5]      primal_lower60  248
    u[5]      primal_lower61  229
    u[5]      primal_lower62  910
    u[5]      primal_lower63  556
    u[5]      primal_lower64  265
    u[5]      primal_lower65  266
    u[5]      primal_lower66  444
    u[5]      primal_lower67  819
    u[5]      primal_lower68  479
    u[5]      primal_lower69  663
    u[5]      primal_lower70  696
    u[5]      primal_lower71  589
    u[5]      primal_lower72  367
    u[5]      primal_lower73  381
    u[5]      primal_lower74  544
    u[5]      primal_lower75  708
    u[5]      primal_lower76  805
    u[5]      primal_lower77  892
    u[5]      primal_lower78  905
    u[5]      primal_lower79  822
    u[5]      primal_lower80  251
    u[5]      primal_lower81  965
    u[5]      primal_lower82  672
    u[5]      primal_lower83  254
    u[5]      primal_lower84  138
    u[5]      primal_lower85  181
    u[5]      primal_lower86  414
    u[5]      primal_lower87  142
    u[5]      primal_lower88  640
    u[5]      primal_lower89  304
    u[5]      primal_lower90  100
    u[5]      primal_lower91  312
    u[5]      primal_lower92  989
    u[5]      primal_lower93  965
    u[5]      primal_lower94  599
    u[5]      primal_lower95  296
    u[5]      primal_lower96  163
    u[5]      primal_lower97  508
    u[5]      primal_lower98  824
    u[5]      primal_lower99  625
    u[5]      interdiction[5]  1
    u[5]      mccormick1[5]  -1
    u[5]      mccormick3[5]  1
    u[6]      primal_lower0  99
    u[6]      primal_lower1  929
    u[6]      primal_lower2  603
    u[6]      primal_lower3  46
    u[6]      primal_lower4  357
    u[6]      primal_lower5  261
    u[6]      primal_lower6  520
    u[6]      primal_lower7  171
    u[6]      primal_lower8  708
    u[6]      primal_lower9  238
    u[6]      primal_lower10  853
    u[6]      primal_lower11  968
    u[6]      primal_lower12  452
    u[6]      primal_lower13  12
    u[6]      primal_lower14  277
    u[6]      primal_lower15  50
    u[6]      primal_lower16  191
    u[6]      primal_lower17  520
    u[6]      primal_lower18  140
    u[6]      primal_lower19  62
    u[6]      primal_lower20  681
    u[6]      primal_lower21  488
    u[6]      primal_lower22  588
    u[6]      primal_lower23  866
    u[6]      primal_lower24  669
    u[6]      primal_lower25  761
    u[6]      primal_lower26  981
    u[6]      primal_lower27  168
    u[6]      primal_lower28  126
    u[6]      primal_lower29  25
    u[6]      primal_lower30  191
    u[6]      primal_lower31  806
    u[6]      primal_lower32  101
    u[6]      primal_lower33  191
    u[6]      primal_lower34  566
    u[6]      primal_lower35  956
    u[6]      primal_lower36  67
    u[6]      primal_lower37  274
    u[6]      primal_lower38  258
    u[6]      primal_lower39  245
    u[6]      primal_lower40  628
    u[6]      primal_lower41  549
    u[6]      primal_lower42  646
    u[6]      primal_lower43  724
    u[6]      primal_lower44  294
    u[6]      primal_lower45  729
    u[6]      primal_lower46  762
    u[6]      primal_lower47  548
    u[6]      primal_lower48  660
    u[6]      primal_lower49  282
    u[6]      primal_lower50  892
    u[6]      primal_lower51  988
    u[6]      primal_lower52  34
    u[6]      primal_lower53  908
    u[6]      primal_lower54  718
    u[6]      primal_lower55  263
    u[6]      primal_lower56  597
    u[6]      primal_lower57  411
    u[6]      primal_lower58  100
    u[6]      primal_lower59  598
    u[6]      primal_lower60  512
    u[6]      primal_lower61  165
    u[6]      primal_lower62  990
    u[6]      primal_lower63  727
    u[6]      primal_lower64  809
    u[6]      primal_lower65  898
    u[6]      primal_lower66  660
    u[6]      primal_lower67  123
    u[6]      primal_lower68  802
    u[6]      primal_lower69  562
    u[6]      primal_lower70  288
    u[6]      primal_lower71  880
    u[6]      primal_lower72  927
    u[6]      primal_lower73  885
    u[6]      primal_lower74  872
    u[6]      primal_lower75  335
    u[6]      primal_lower76  808
    u[6]      primal_lower77  644
    u[6]      primal_lower78  748
    u[6]      primal_lower79  121
    u[6]      primal_lower80  462
    u[6]      primal_lower81  37
    u[6]      primal_lower82  931
    u[6]      primal_lower83  230
    u[6]      primal_lower84  853
    u[6]      primal_lower85  408
    u[6]      primal_lower86  990
    u[6]      primal_lower87  926
    u[6]      primal_lower88  296
    u[6]      primal_lower89  227
    u[6]      primal_lower90  444
    u[6]      primal_lower91  251
    u[6]      primal_lower92  205
    u[6]      primal_lower93  416
    u[6]      primal_lower94  879
    u[6]      primal_lower95  371
    u[6]      primal_lower96  603
    u[6]      primal_lower97  655
    u[6]      primal_lower98  840
    u[6]      primal_lower99  225
    u[6]      interdiction[6]  1
    u[6]      mccormick1[6]  -1
    u[6]      mccormick3[6]  1
    u[7]      primal_lower0  181
    u[7]      primal_lower1  984
    u[7]      primal_lower2  770
    u[7]      primal_lower3  848
    u[7]      primal_lower4  239
    u[7]      primal_lower5  911
    u[7]      primal_lower6  303
    u[7]      primal_lower7  594
    u[7]      primal_lower8  366
    u[7]      primal_lower9  925
    u[7]      primal_lower10  159
    u[7]      primal_lower11  250
    u[7]      primal_lower12  387
    u[7]      primal_lower13  494
    u[7]      primal_lower14  47
    u[7]      primal_lower15  164
    u[7]      primal_lower16  206
    u[7]      primal_lower17  967
    u[7]      primal_lower18  363
    u[7]      primal_lower19  557
    u[7]      primal_lower20  376
    u[7]      primal_lower21  471
    u[7]      primal_lower22  35
    u[7]      primal_lower23  689
    u[7]      primal_lower24  476
    u[7]      primal_lower25  280
    u[7]      primal_lower26  159
    u[7]      primal_lower27  223
    u[7]      primal_lower28  344
    u[7]      primal_lower29  539
    u[7]      primal_lower30  102
    u[7]      primal_lower31  632
    u[7]      primal_lower32  180
    u[7]      primal_lower33  758
    u[7]      primal_lower34  216
    u[7]      primal_lower35  859
    u[7]      primal_lower36  957
    u[7]      primal_lower37  977
    u[7]      primal_lower38  137
    u[7]      primal_lower39  759
    u[7]      primal_lower40  686
    u[7]      primal_lower41  148
    u[7]      primal_lower42  381
    u[7]      primal_lower43  931
    u[7]      primal_lower44  693
    u[7]      primal_lower45  304
    u[7]      primal_lower46  692
    u[7]      primal_lower47  755
    u[7]      primal_lower48  539
    u[7]      primal_lower49  60
    u[7]      primal_lower50  974
    u[7]      primal_lower51  35
    u[7]      primal_lower52  353
    u[7]      primal_lower53  926
    u[7]      primal_lower54  629
    u[7]      primal_lower55  577
    u[7]      primal_lower56  4
    u[7]      primal_lower57  266
    u[7]      primal_lower58  451
    u[7]      primal_lower59  309
    u[7]      primal_lower60  194
    u[7]      primal_lower61  23
    u[7]      primal_lower62  632
    u[7]      primal_lower63  614
    u[7]      primal_lower64  763
    u[7]      primal_lower65  684
    u[7]      primal_lower66  302
    u[7]      primal_lower67  373
    u[7]      primal_lower68  81
    u[7]      primal_lower69  505
    u[7]      primal_lower70  818
    u[7]      primal_lower71  439
    u[7]      primal_lower72  473
    u[7]      primal_lower73  519
    u[7]      primal_lower74  378
    u[7]      primal_lower75  502
    u[7]      primal_lower76  839
    u[7]      primal_lower77  926
    u[7]      primal_lower78  603
    u[7]      primal_lower79  1000
    u[7]      primal_lower80  869
    u[7]      primal_lower81  23
    u[7]      primal_lower82  82
    u[7]      primal_lower83  960
    u[7]      primal_lower84  836
    u[7]      primal_lower85  551
    u[7]      primal_lower86  496
    u[7]      primal_lower87  40
    u[7]      primal_lower88  554
    u[7]      primal_lower89  554
    u[7]      primal_lower90  358
    u[7]      primal_lower91  938
    u[7]      primal_lower92  487
    u[7]      primal_lower93  199
    u[7]      primal_lower94  473
    u[7]      primal_lower95  154
    u[7]      primal_lower96  845
    u[7]      primal_lower97  918
    u[7]      primal_lower98  594
    u[7]      primal_lower99  59
    u[7]      interdiction[7]  1
    u[7]      mccormick1[7]  -1
    u[7]      mccormick3[7]  1
    u[8]      primal_lower0  211
    u[8]      primal_lower1  129
    u[8]      primal_lower2  475
    u[8]      primal_lower3  14
    u[8]      primal_lower4  997
    u[8]      primal_lower5  261
    u[8]      primal_lower6  456
    u[8]      primal_lower7  747
    u[8]      primal_lower8  716
    u[8]      primal_lower9  966
    u[8]      primal_lower10  869
    u[8]      primal_lower11  768
    u[8]      primal_lower12  388
    u[8]      primal_lower13  516
    u[8]      primal_lower14  869
    u[8]      primal_lower15  954
    u[8]      primal_lower16  423
    u[8]      primal_lower17  720
    u[8]      primal_lower18  524
    u[8]      primal_lower19  534
    u[8]      primal_lower20  137
    u[8]      primal_lower21  456
    u[8]      primal_lower22  220
    u[8]      primal_lower23  474
    u[8]      primal_lower24  221
    u[8]      primal_lower25  425
    u[8]      primal_lower26  709
    u[8]      primal_lower27  16
    u[8]      primal_lower28  998
    u[8]      primal_lower29  777
    u[8]      primal_lower30  839
    u[8]      primal_lower31  998
    u[8]      primal_lower32  685
    u[8]      primal_lower33  455
    u[8]      primal_lower34  470
    u[8]      primal_lower35  988
    u[8]      primal_lower36  931
    u[8]      primal_lower37  66
    u[8]      primal_lower38  850
    u[8]      primal_lower39  533
    u[8]      primal_lower40  428
    u[8]      primal_lower41  733
    u[8]      primal_lower42  150
    u[8]      primal_lower43  316
    u[8]      primal_lower44  134
    u[8]      primal_lower45  409
    u[8]      primal_lower46  250
    u[8]      primal_lower47  700
    u[8]      primal_lower48  20
    u[8]      primal_lower49  562
    u[8]      primal_lower50  836
    u[8]      primal_lower51  420
    u[8]      primal_lower52  794
    u[8]      primal_lower53  140
    u[8]      primal_lower54  126
    u[8]      primal_lower55  631
    u[8]      primal_lower56  485
    u[8]      primal_lower57  243
    u[8]      primal_lower58  916
    u[8]      primal_lower59  910
    u[8]      primal_lower60  840
    u[8]      primal_lower61  653
    u[8]      primal_lower62  350
    u[8]      primal_lower63  415
    u[8]      primal_lower64  689
    u[8]      primal_lower65  466
    u[8]      primal_lower66  36
    u[8]      primal_lower67  203
    u[8]      primal_lower68  738
    u[8]      primal_lower69  362
    u[8]      primal_lower70  40
    u[8]      primal_lower71  944
    u[8]      primal_lower72  7
    u[8]      primal_lower73  653
    u[8]      primal_lower74  320
    u[8]      primal_lower75  959
    u[8]      primal_lower76  216
    u[8]      primal_lower77  572
    u[8]      primal_lower78  820
    u[8]      primal_lower79  105
    u[8]      primal_lower80  102
    u[8]      primal_lower81  621
    u[8]      primal_lower82  331
    u[8]      primal_lower83  270
    u[8]      primal_lower84  29
    u[8]      primal_lower85  80
    u[8]      primal_lower86  894
    u[8]      primal_lower87  590
    u[8]      primal_lower88  352
    u[8]      primal_lower89  731
    u[8]      primal_lower90  732
    u[8]      primal_lower91  491
    u[8]      primal_lower92  669
    u[8]      primal_lower93  832
    u[8]      primal_lower94  287
    u[8]      primal_lower95  123
    u[8]      primal_lower96  763
    u[8]      primal_lower97  607
    u[8]      primal_lower98  168
    u[8]      primal_lower99  625
    u[8]      interdiction[8]  1
    u[8]      mccormick1[8]  -1
    u[8]      mccormick3[8]  1
    u[9]      primal_lower0  188
    u[9]      primal_lower1  46
    u[9]      primal_lower2  744
    u[9]      primal_lower3  759
    u[9]      primal_lower4  222
    u[9]      primal_lower5  118
    u[9]      primal_lower6  293
    u[9]      primal_lower7  144
    u[9]      primal_lower8  989
    u[9]      primal_lower9  171
    u[9]      primal_lower10  142
    u[9]      primal_lower11  433
    u[9]      primal_lower12  473
    u[9]      primal_lower13  885
    u[9]      primal_lower14  734
    u[9]      primal_lower15  467
    u[9]      primal_lower16  804
    u[9]      primal_lower17  469
    u[9]      primal_lower18  97
    u[9]      primal_lower19  563
    u[9]      primal_lower20  462
    u[9]      primal_lower21  669
    u[9]      primal_lower22  465
    u[9]      primal_lower23  223
    u[9]      primal_lower24  826
    u[9]      primal_lower25  150
    u[9]      primal_lower26  398
    u[9]      primal_lower27  189
    u[9]      primal_lower28  367
    u[9]      primal_lower29  282
    u[9]      primal_lower30  172
    u[9]      primal_lower31  295
    u[9]      primal_lower32  250
    u[9]      primal_lower33  284
    u[9]      primal_lower34  247
    u[9]      primal_lower35  273
    u[9]      primal_lower36  844
    u[9]      primal_lower37  319
    u[9]      primal_lower38  335
    u[9]      primal_lower39  718
    u[9]      primal_lower40  733
    u[9]      primal_lower41  194
    u[9]      primal_lower42  283
    u[9]      primal_lower43  201
    u[9]      primal_lower44  611
    u[9]      primal_lower45  742
    u[9]      primal_lower46  675
    u[9]      primal_lower47  825
    u[9]      primal_lower48  449
    u[9]      primal_lower49  259
    u[9]      primal_lower50  253
    u[9]      primal_lower51  73
    u[9]      primal_lower52  63
    u[9]      primal_lower53  221
    u[9]      primal_lower54  459
    u[9]      primal_lower55  864
    u[9]      primal_lower56  314
    u[9]      primal_lower57  712
    u[9]      primal_lower58  57
    u[9]      primal_lower59  315
    u[9]      primal_lower60  585
    u[9]      primal_lower61  278
    u[9]      primal_lower62  183
    u[9]      primal_lower63  668
    u[9]      primal_lower64  706
    u[9]      primal_lower65  555
    u[9]      primal_lower66  893
    u[9]      primal_lower67  812
    u[9]      primal_lower68  911
    u[9]      primal_lower69  295
    u[9]      primal_lower70  105
    u[9]      primal_lower71  693
    u[9]      primal_lower72  560
    u[9]      primal_lower73  686
    u[9]      primal_lower74  433
    u[9]      primal_lower75  956
    u[9]      primal_lower76  757
    u[9]      primal_lower77  693
    u[9]      primal_lower78  145
    u[9]      primal_lower79  118
    u[9]      primal_lower80  875
    u[9]      primal_lower81  214
    u[9]      primal_lower82  816
    u[9]      primal_lower83  863
    u[9]      primal_lower84  58
    u[9]      primal_lower85  773
    u[9]      primal_lower86  79
    u[9]      primal_lower87  943
    u[9]      primal_lower88  825
    u[9]      primal_lower89  816
    u[9]      primal_lower90  69
    u[9]      primal_lower91  576
    u[9]      primal_lower92  566
    u[9]      primal_lower93  221
    u[9]      primal_lower94  752
    u[9]      primal_lower95  88
    u[9]      primal_lower96  700
    u[9]      primal_lower97  452
    u[9]      primal_lower98  353
    u[9]      primal_lower99  266
    u[9]      interdiction[9]  1
    u[9]      mccormick1[9]  -1
    u[9]      mccormick3[9]  1
    u[10]     primal_lower0  401
    u[10]     primal_lower1  152
    u[10]     primal_lower2  218
    u[10]     primal_lower3  876
    u[10]     primal_lower4  371
    u[10]     primal_lower5  139
    u[10]     primal_lower6  743
    u[10]     primal_lower7  410
    u[10]     primal_lower8  474
    u[10]     primal_lower9  677
    u[10]     primal_lower10  955
    u[10]     primal_lower11  510
    u[10]     primal_lower12  571
    u[10]     primal_lower13  34
    u[10]     primal_lower14  347
    u[10]     primal_lower15  24
    u[10]     primal_lower16  334
    u[10]     primal_lower17  55
    u[10]     primal_lower18  427
    u[10]     primal_lower19  549
    u[10]     primal_lower20  776
    u[10]     primal_lower21  495
    u[10]     primal_lower22  547
    u[10]     primal_lower23  217
    u[10]     primal_lower24  684
    u[10]     primal_lower25  304
    u[10]     primal_lower26  819
    u[10]     primal_lower27  655
    u[10]     primal_lower28  620
    u[10]     primal_lower29  839
    u[10]     primal_lower30  102
    u[10]     primal_lower31  252
    u[10]     primal_lower32  180
    u[10]     primal_lower33  270
    u[10]     primal_lower34  36
    u[10]     primal_lower35  11
    u[10]     primal_lower36  937
    u[10]     primal_lower37  769
    u[10]     primal_lower38  793
    u[10]     primal_lower39  763
    u[10]     primal_lower40  978
    u[10]     primal_lower41  772
    u[10]     primal_lower42  285
    u[10]     primal_lower43  803
    u[10]     primal_lower44  733
    u[10]     primal_lower45  312
    u[10]     primal_lower46  152
    u[10]     primal_lower47  19
    u[10]     primal_lower48  347
    u[10]     primal_lower49  608
    u[10]     primal_lower50  122
    u[10]     primal_lower51  387
    u[10]     primal_lower52  849
    u[10]     primal_lower53  578
    u[10]     primal_lower54  725
    u[10]     primal_lower55  589
    u[10]     primal_lower56  508
    u[10]     primal_lower57  882
    u[10]     primal_lower58  931
    u[10]     primal_lower59  301
    u[10]     primal_lower60  182
    u[10]     primal_lower61  827
    u[10]     primal_lower62  628
    u[10]     primal_lower63  254
    u[10]     primal_lower64  303
    u[10]     primal_lower65  152
    u[10]     primal_lower66  570
    u[10]     primal_lower67  377
    u[10]     primal_lower68  809
    u[10]     primal_lower69  81
    u[10]     primal_lower70  534
    u[10]     primal_lower71  279
    u[10]     primal_lower72  653
    u[10]     primal_lower73  187
    u[10]     primal_lower74  126
    u[10]     primal_lower75  22
    u[10]     primal_lower76  735
    u[10]     primal_lower77  122
    u[10]     primal_lower78  107
    u[10]     primal_lower79  616
    u[10]     primal_lower80  893
    u[10]     primal_lower81  963
    u[10]     primal_lower82  402
    u[10]     primal_lower83  268
    u[10]     primal_lower84  948
    u[10]     primal_lower85  999
    u[10]     primal_lower86  964
    u[10]     primal_lower87  684
    u[10]     primal_lower88  14
    u[10]     primal_lower89  2
    u[10]     primal_lower90  442
    u[10]     primal_lower91  218
    u[10]     primal_lower92  915
    u[10]     primal_lower93  815
    u[10]     primal_lower94  469
    u[10]     primal_lower95  410
    u[10]     primal_lower96  545
    u[10]     primal_lower97  110
    u[10]     primal_lower98  774
    u[10]     primal_lower99  727
    u[10]     interdiction[10]  1
    u[10]     mccormick1[10]  -1
    u[10]     mccormick3[10]  1
    u[11]     primal_lower0  773
    u[11]     primal_lower1  815
    u[11]     primal_lower2  393
    u[11]     primal_lower3  512
    u[11]     primal_lower4  47
    u[11]     primal_lower5  7
    u[11]     primal_lower6  702
    u[11]     primal_lower7  521
    u[11]     primal_lower8  718
    u[11]     primal_lower9  724
    u[11]     primal_lower10  791
    u[11]     primal_lower11  858
    u[11]     primal_lower12  514
    u[11]     primal_lower13  590
    u[11]     primal_lower14  303
    u[11]     primal_lower15  612
    u[11]     primal_lower16  277
    u[11]     primal_lower17  46
    u[11]     primal_lower18  938
    u[11]     primal_lower19  660
    u[11]     primal_lower20  231
    u[11]     primal_lower21  6
    u[11]     primal_lower22  146
    u[11]     primal_lower23  360
    u[11]     primal_lower24  627
    u[11]     primal_lower25  655
    u[11]     primal_lower26  647
    u[11]     primal_lower27  254
    u[11]     primal_lower28  776
    u[11]     primal_lower29  659
    u[11]     primal_lower30  917
    u[11]     primal_lower31  432
    u[11]     primal_lower32  155
    u[11]     primal_lower33  597
    u[11]     primal_lower34  792
    u[11]     primal_lower35  426
    u[11]     primal_lower36  613
    u[11]     primal_lower37  200
    u[11]     primal_lower38  264
    u[11]     primal_lower39  391
    u[11]     primal_lower40  710
    u[11]     primal_lower41  627
    u[11]     primal_lower42  84
    u[11]     primal_lower43  898
    u[11]     primal_lower44  508
    u[11]     primal_lower45  423
    u[11]     primal_lower46  628
    u[11]     primal_lower47  330
    u[11]     primal_lower48  314
    u[11]     primal_lower49  500
    u[11]     primal_lower50  590
    u[11]     primal_lower51  34
    u[11]     primal_lower52  936
    u[11]     primal_lower53  334
    u[11]     primal_lower54  788
    u[11]     primal_lower55  609
    u[11]     primal_lower56  99
    u[11]     primal_lower57  33
    u[11]     primal_lower58  10
    u[11]     primal_lower59  948
    u[11]     primal_lower60  186
    u[11]     primal_lower61  791
    u[11]     primal_lower62  176
    u[11]     primal_lower63  245
    u[11]     primal_lower64  147
    u[11]     primal_lower65  580
    u[11]     primal_lower66  118
    u[11]     primal_lower67  133
    u[11]     primal_lower68  896
    u[11]     primal_lower69  968
    u[11]     primal_lower70  42
    u[11]     primal_lower71  998
    u[11]     primal_lower72  697
    u[11]     primal_lower73  927
    u[11]     primal_lower74  250
    u[11]     primal_lower75  501
    u[11]     primal_lower76  438
    u[11]     primal_lower77  774
    u[11]     primal_lower78  858
    u[11]     primal_lower79  535
    u[11]     primal_lower80  820
    u[11]     primal_lower81  127
    u[11]     primal_lower82  585
    u[11]     primal_lower83  368
    u[11]     primal_lower84  787
    u[11]     primal_lower85  854
    u[11]     primal_lower86  176
    u[11]     primal_lower87  816
    u[11]     primal_lower88  82
    u[11]     primal_lower89  609
    u[11]     primal_lower90  974
    u[11]     primal_lower91  873
    u[11]     primal_lower92  543
    u[11]     primal_lower93  38
    u[11]     primal_lower94  281
    u[11]     primal_lower95  353
    u[11]     primal_lower96  93
    u[11]     primal_lower97  581
    u[11]     primal_lower98  106
    u[11]     primal_lower99  499
    u[11]     interdiction[11]  1
    u[11]     mccormick1[11]  -1
    u[11]     mccormick3[11]  1
    u[12]     primal_lower0  682
    u[12]     primal_lower1  368
    u[12]     primal_lower2  778
    u[12]     primal_lower3  693
    u[12]     primal_lower4  116
    u[12]     primal_lower5  12
    u[12]     primal_lower6  175
    u[12]     primal_lower7  954
    u[12]     primal_lower8  291
    u[12]     primal_lower9  157
    u[12]     primal_lower10  276
    u[12]     primal_lower11  791
    u[12]     primal_lower12  3
    u[12]     primal_lower13  11
    u[12]     primal_lower14  604
    u[12]     primal_lower15  97
    u[12]     primal_lower16  526
    u[12]     primal_lower17  199
    u[12]     primal_lower18  203
    u[12]     primal_lower19  221
    u[12]     primal_lower20  208
    u[12]     primal_lower21  895
    u[12]     primal_lower22  51
    u[12]     primal_lower23  937
    u[12]     primal_lower24  612
    u[12]     primal_lower25  808
    u[12]     primal_lower26  508
    u[12]     primal_lower27  567
    u[12]     primal_lower28  237
    u[12]     primal_lower29  368
    u[12]     primal_lower30  774
    u[12]     primal_lower31  917
    u[12]     primal_lower32  412
    u[12]     primal_lower33  38
    u[12]     primal_lower34  917
    u[12]     primal_lower35  451
    u[12]     primal_lower36  986
    u[12]     primal_lower37  737
    u[12]     primal_lower38  897
    u[12]     primal_lower39  860
    u[12]     primal_lower40  643
    u[12]     primal_lower41  204
    u[12]     primal_lower42  621
    u[12]     primal_lower43  171
    u[12]     primal_lower44  869
    u[12]     primal_lower45  184
    u[12]     primal_lower46  785
    u[12]     primal_lower47  755
    u[12]     primal_lower48  43
    u[12]     primal_lower49  761
    u[12]     primal_lower50  795
    u[12]     primal_lower51  219
    u[12]     primal_lower52  849
    u[12]     primal_lower53  91
    u[12]     primal_lower54  373
    u[12]     primal_lower55  118
    u[12]     primal_lower56  44
    u[12]     primal_lower57  442
    u[12]     primal_lower58  987
    u[12]     primal_lower59  245
    u[12]     primal_lower60  399
    u[12]     primal_lower61  444
    u[12]     primal_lower62  277
    u[12]     primal_lower63  814
    u[12]     primal_lower64  376
    u[12]     primal_lower65  377
    u[12]     primal_lower66  891
    u[12]     primal_lower67  738
    u[12]     primal_lower68  833
    u[12]     primal_lower69  817
    u[12]     primal_lower70  463
    u[12]     primal_lower71  999
    u[12]     primal_lower72  966
    u[12]     primal_lower73  284
    u[12]     primal_lower74  207
    u[12]     primal_lower75  310
    u[12]     primal_lower76  535
    u[12]     primal_lower77  43
    u[12]     primal_lower78  603
    u[12]     primal_lower79  872
    u[12]     primal_lower80  645
    u[12]     primal_lower81  212
    u[12]     primal_lower82  98
    u[12]     primal_lower83  837
    u[12]     primal_lower84  908
    u[12]     primal_lower85  375
    u[12]     primal_lower86  909
    u[12]     primal_lower87  677
    u[12]     primal_lower88  639
    u[12]     primal_lower89  186
    u[12]     primal_lower90  715
    u[12]     primal_lower91  626
    u[12]     primal_lower92  844
    u[12]     primal_lower93  247
    u[12]     primal_lower94  726
    u[12]     primal_lower95  2
    u[12]     primal_lower96  186
    u[12]     primal_lower97  302
    u[12]     primal_lower98  47
    u[12]     primal_lower99  712
    u[12]     interdiction[12]  1
    u[12]     mccormick1[12]  -1
    u[12]     mccormick3[12]  1
    u[13]     primal_lower0  606
    u[13]     primal_lower1  408
    u[13]     primal_lower2  498
    u[13]     primal_lower3  257
    u[13]     primal_lower4  800
    u[13]     primal_lower5  168
    u[13]     primal_lower6  775
    u[13]     primal_lower7  434
    u[13]     primal_lower8  887
    u[13]     primal_lower9  277
    u[13]     primal_lower10  248
    u[13]     primal_lower11  603
    u[13]     primal_lower12  187
    u[13]     primal_lower13  975
    u[13]     primal_lower14  48
    u[13]     primal_lower15  453
    u[13]     primal_lower16  830
    u[13]     primal_lower17  543
    u[13]     primal_lower18  355
    u[13]     primal_lower19  669
    u[13]     primal_lower20  48
    u[13]     primal_lower21  503
    u[13]     primal_lower22  99
    u[13]     primal_lower23  209
    u[13]     primal_lower24  748
    u[13]     primal_lower25  736
    u[13]     primal_lower26  864
    u[13]     primal_lower27  399
    u[13]     primal_lower28  553
    u[13]     primal_lower29  764
    u[13]     primal_lower30  798
    u[13]     primal_lower31  809
    u[13]     primal_lower32  236
    u[13]     primal_lower33  446
    u[13]     primal_lower34  425
    u[13]     primal_lower35  451
    u[13]     primal_lower36  622
    u[13]     primal_lower37  873
    u[13]     primal_lower38  217
    u[13]     primal_lower39  648
    u[13]     primal_lower40  135
    u[13]     primal_lower41  596
    u[13]     primal_lower42  773
    u[13]     primal_lower43  459
    u[13]     primal_lower44  493
    u[13]     primal_lower45  392
    u[13]     primal_lower46  173
    u[13]     primal_lower47  243
    u[13]     primal_lower48  939
    u[13]     primal_lower49  957
    u[13]     primal_lower50  15
    u[13]     primal_lower51  691
    u[13]     primal_lower52  457
    u[13]     primal_lower53  439
    u[13]     primal_lower54  613
    u[13]     primal_lower55  402
    u[13]     primal_lower56  396
    u[13]     primal_lower57  202
    u[13]     primal_lower58  459
    u[13]     primal_lower59  973
    u[13]     primal_lower60  107
    u[13]     primal_lower61  992
    u[13]     primal_lower62  841
    u[13]     primal_lower63  782
    u[13]     primal_lower64  908
    u[13]     primal_lower65  437
    u[13]     primal_lower66  447
    u[13]     primal_lower67  742
    u[13]     primal_lower68  921
    u[13]     primal_lower69  865
    u[13]     primal_lower70  315
    u[13]     primal_lower71  831
    u[13]     primal_lower72  778
    u[13]     primal_lower73  368
    u[13]     primal_lower74  291
    u[13]     primal_lower75  614
    u[13]     primal_lower76  279
    u[13]     primal_lower77  623
    u[13]     primal_lower78  283
    u[13]     primal_lower79  664
    u[13]     primal_lower80  933
    u[13]     primal_lower81  376
    u[13]     primal_lower82  370
    u[13]     primal_lower83  449
    u[13]     primal_lower84  620
    u[13]     primal_lower85  391
    u[13]     primal_lower86  321
    u[13]     primal_lower87  1
    u[13]     primal_lower88  155
    u[13]     primal_lower89  42
    u[13]     primal_lower90  175
    u[13]     primal_lower91  762
    u[13]     primal_lower92  304
    u[13]     primal_lower93  71
    u[13]     primal_lower94  714
    u[13]     primal_lower95  370
    u[13]     primal_lower96  446
    u[13]     primal_lower97  550
    u[13]     primal_lower98  763
    u[13]     primal_lower99  892
    u[13]     interdiction[13]  1
    u[13]     mccormick1[13]  -1
    u[13]     mccormick3[13]  1
    u[14]     primal_lower0  378
    u[14]     primal_lower1  281
    u[14]     primal_lower2  75
    u[14]     primal_lower3  389
    u[14]     primal_lower4  532
    u[14]     primal_lower5  532
    u[14]     primal_lower6  296
    u[14]     primal_lower7  675
    u[14]     primal_lower8  851
    u[14]     primal_lower9  822
    u[14]     primal_lower10  620
    u[14]     primal_lower11  823
    u[14]     primal_lower12  596
    u[14]     primal_lower13  91
    u[14]     primal_lower14  972
    u[14]     primal_lower15  969
    u[14]     primal_lower16  111
    u[14]     primal_lower17  904
    u[14]     primal_lower18  612
    u[14]     primal_lower19  358
    u[14]     primal_lower20  169
    u[14]     primal_lower21  912
    u[14]     primal_lower22  508
    u[14]     primal_lower23  154
    u[14]     primal_lower24  989
    u[14]     primal_lower25  593
    u[14]     primal_lower26  716
    u[14]     primal_lower27  320
    u[14]     primal_lower28  645
    u[14]     primal_lower29  656
    u[14]     primal_lower30  607
    u[14]     primal_lower31  685
    u[14]     primal_lower32  973
    u[14]     primal_lower33  751
    u[14]     primal_lower34  741
    u[14]     primal_lower35  620
    u[14]     primal_lower36  690
    u[14]     primal_lower37  650
    u[14]     primal_lower38  522
    u[14]     primal_lower39  940
    u[14]     primal_lower40  107
    u[14]     primal_lower41  53
    u[14]     primal_lower42  310
    u[14]     primal_lower43  348
    u[14]     primal_lower44  590
    u[14]     primal_lower45  833
    u[14]     primal_lower46  641
    u[14]     primal_lower47  612
    u[14]     primal_lower48  900
    u[14]     primal_lower49  849
    u[14]     primal_lower50  155
    u[14]     primal_lower51  908
    u[14]     primal_lower52  826
    u[14]     primal_lower53  299
    u[14]     primal_lower54  486
    u[14]     primal_lower55  62
    u[14]     primal_lower56  181
    u[14]     primal_lower57  979
    u[14]     primal_lower58  948
    u[14]     primal_lower59  126
    u[14]     primal_lower60  887
    u[14]     primal_lower61  236
    u[14]     primal_lower62  437
    u[14]     primal_lower63  831
    u[14]     primal_lower64  640
    u[14]     primal_lower65  409
    u[14]     primal_lower66  955
    u[14]     primal_lower67  170
    u[14]     primal_lower68  506
    u[14]     primal_lower69  130
    u[14]     primal_lower70  311
    u[14]     primal_lower71  480
    u[14]     primal_lower72  254
    u[14]     primal_lower73  252
    u[14]     primal_lower74  615
    u[14]     primal_lower75  935
    u[14]     primal_lower76  160
    u[14]     primal_lower77  195
    u[14]     primal_lower78  860
    u[14]     primal_lower79  97
    u[14]     primal_lower80  78
    u[14]     primal_lower81  332
    u[14]     primal_lower82  547
    u[14]     primal_lower83  885
    u[14]     primal_lower84  317
    u[14]     primal_lower85  720
    u[14]     primal_lower86  349
    u[14]     primal_lower87  797
    u[14]     primal_lower88  911
    u[14]     primal_lower89  171
    u[14]     primal_lower90  219
    u[14]     primal_lower91  27
    u[14]     primal_lower92  620
    u[14]     primal_lower93  680
    u[14]     primal_lower94  798
    u[14]     primal_lower95  883
    u[14]     primal_lower96  546
    u[14]     primal_lower97  519
    u[14]     primal_lower98  823
    u[14]     primal_lower99  88
    u[14]     interdiction[14]  1
    u[14]     mccormick1[14]  -1
    u[14]     mccormick3[14]  1
    u[15]     primal_lower0  758
    u[15]     primal_lower1  761
    u[15]     primal_lower2  987
    u[15]     primal_lower3  873
    u[15]     primal_lower4  96
    u[15]     primal_lower5  824
    u[15]     primal_lower6  976
    u[15]     primal_lower7  419
    u[15]     primal_lower8  463
    u[15]     primal_lower9  54
    u[15]     primal_lower10  56
    u[15]     primal_lower11  739
    u[15]     primal_lower12  356
    u[15]     primal_lower13  895
    u[15]     primal_lower14  200
    u[15]     primal_lower15  917
    u[15]     primal_lower16  303
    u[15]     primal_lower17  952
    u[15]     primal_lower18  348
    u[15]     primal_lower19  726
    u[15]     primal_lower20  761
    u[15]     primal_lower21  640
    u[15]     primal_lower22  412
    u[15]     primal_lower23  986
    u[15]     primal_lower24  269
    u[15]     primal_lower25  833
    u[15]     primal_lower26  992
    u[15]     primal_lower27  480
    u[15]     primal_lower28  433
    u[15]     primal_lower29  532
    u[15]     primal_lower30  471
    u[15]     primal_lower31  321
    u[15]     primal_lower32  861
    u[15]     primal_lower33  631
    u[15]     primal_lower34  937
    u[15]     primal_lower35  244
    u[15]     primal_lower36  574
    u[15]     primal_lower37  610
    u[15]     primal_lower38  258
    u[15]     primal_lower39  168
    u[15]     primal_lower40  719
    u[15]     primal_lower41  773
    u[15]     primal_lower42  166
    u[15]     primal_lower43  116
    u[15]     primal_lower44  326
    u[15]     primal_lower45  297
    u[15]     primal_lower46  829
    u[15]     primal_lower47  804
    u[15]     primal_lower48  396
    u[15]     primal_lower49  701
    u[15]     primal_lower50  207
    u[15]     primal_lower51  612
    u[15]     primal_lower52  546
    u[15]     primal_lower53  207
    u[15]     primal_lower54  286
    u[15]     primal_lower55  474
    u[15]     primal_lower56  821
    u[15]     primal_lower57  283
    u[15]     primal_lower58  60
    u[15]     primal_lower59  430
    u[15]     primal_lower60  235
    u[15]     primal_lower61  600
    u[15]     primal_lower62  913
    u[15]     primal_lower63  359
    u[15]     primal_lower64  60
    u[15]     primal_lower65  533
    u[15]     primal_lower66  751
    u[15]     primal_lower67  366
    u[15]     primal_lower68  770
    u[15]     primal_lower69  714
    u[15]     primal_lower70  35
    u[15]     primal_lower71  896
    u[15]     primal_lower72  314
    u[15]     primal_lower73  608
    u[15]     primal_lower74  971
    u[15]     primal_lower75  95
    u[15]     primal_lower76  912
    u[15]     primal_lower77  543
    u[15]     primal_lower78  756
    u[15]     primal_lower79  233
    u[15]     primal_lower80  230
    u[15]     primal_lower81  472
    u[15]     primal_lower82  827
    u[15]     primal_lower83  129
    u[15]     primal_lower84  365
    u[15]     primal_lower85  696
    u[15]     primal_lower86  737
    u[15]     primal_lower87  361
    u[15]     primal_lower88  939
    u[15]     primal_lower89  707
    u[15]     primal_lower90  159
    u[15]     primal_lower91  139
    u[15]     primal_lower92  392
    u[15]     primal_lower93  624
    u[15]     primal_lower94  258
    u[15]     primal_lower95  163
    u[15]     primal_lower96  646
    u[15]     primal_lower97  551
    u[15]     primal_lower98  451
    u[15]     primal_lower99  100
    u[15]     interdiction[15]  1
    u[15]     mccormick1[15]  -1
    u[15]     mccormick3[15]  1
    u[16]     primal_lower0  107
    u[16]     primal_lower1  377
    u[16]     primal_lower2  83
    u[16]     primal_lower3  838
    u[16]     primal_lower4  781
    u[16]     primal_lower5  405
    u[16]     primal_lower6  88
    u[16]     primal_lower7  923
    u[16]     primal_lower8  348
    u[16]     primal_lower9  294
    u[16]     primal_lower10  517
    u[16]     primal_lower11  600
    u[16]     primal_lower12  724
    u[16]     primal_lower13  244
    u[16]     primal_lower14  221
    u[16]     primal_lower15  714
    u[16]     primal_lower16  327
    u[16]     primal_lower17  792
    u[16]     primal_lower18  212
    u[16]     primal_lower19  958
    u[16]     primal_lower20  321
    u[16]     primal_lower21  32
    u[16]     primal_lower22  564
    u[16]     primal_lower23  178
    u[16]     primal_lower24  837
    u[16]     primal_lower25  193
    u[16]     primal_lower26  365
    u[16]     primal_lower27  800
    u[16]     primal_lower28  550
    u[16]     primal_lower29  305
    u[16]     primal_lower30  351
    u[16]     primal_lower31  582
    u[16]     primal_lower32  293
    u[16]     primal_lower33  927
    u[16]     primal_lower34  166
    u[16]     primal_lower35  828
    u[16]     primal_lower36  403
    u[16]     primal_lower37  346
    u[16]     primal_lower38  698
    u[16]     primal_lower39  621
    u[16]     primal_lower40  940
    u[16]     primal_lower41  493
    u[16]     primal_lower42  158
    u[16]     primal_lower43  28
    u[16]     primal_lower44  726
    u[16]     primal_lower45  729
    u[16]     primal_lower46  914
    u[16]     primal_lower47  356
    u[16]     primal_lower48  668
    u[16]     primal_lower49  226
    u[16]     primal_lower50  900
    u[16]     primal_lower51  100
    u[16]     primal_lower52  914
    u[16]     primal_lower53  828
    u[16]     primal_lower54  686
    u[16]     primal_lower55  591
    u[16]     primal_lower56  21
    u[16]     primal_lower57  931
    u[16]     primal_lower58  860
    u[16]     primal_lower59  326
    u[16]     primal_lower60  736
    u[16]     primal_lower61  493
    u[16]     primal_lower62  990
    u[16]     primal_lower63  463
    u[16]     primal_lower64  465
    u[16]     primal_lower65  370
    u[16]     primal_lower66  660
    u[16]     primal_lower67  251
    u[16]     primal_lower68  690
    u[16]     primal_lower69  866
    u[16]     primal_lower70  128
    u[16]     primal_lower71  688
    u[16]     primal_lower72  231
    u[16]     primal_lower73  853
    u[16]     primal_lower74  784
    u[16]     primal_lower75  383
    u[16]     primal_lower76  592
    u[16]     primal_lower77  556
    u[16]     primal_lower78  700
    u[16]     primal_lower79  521
    u[16]     primal_lower80  614
    u[16]     primal_lower81  645
    u[16]     primal_lower82  643
    u[16]     primal_lower83  382
    u[16]     primal_lower84  973
    u[16]     primal_lower85  208
    u[16]     primal_lower86  534
    u[16]     primal_lower87  646
    u[16]     primal_lower88  176
    u[16]     primal_lower89  211
    u[16]     primal_lower90  268
    u[16]     primal_lower91  227
    u[16]     primal_lower92  397
    u[16]     primal_lower93  216
    u[16]     primal_lower94  87
    u[16]     primal_lower95  419
    u[16]     primal_lower96  227
    u[16]     primal_lower97  503
    u[16]     primal_lower98  352
    u[16]     primal_lower99  529
    u[16]     interdiction[16]  1
    u[16]     mccormick1[16]  -1
    u[16]     mccormick3[16]  1
    u[17]     primal_lower0  554
    u[17]     primal_lower1  732
    u[17]     primal_lower2  222
    u[17]     primal_lower3  309
    u[17]     primal_lower4  884
    u[17]     primal_lower5  668
    u[17]     primal_lower6  995
    u[17]     primal_lower7  190
    u[17]     primal_lower8  451
    u[17]     primal_lower9  49
    u[17]     primal_lower10  884
    u[17]     primal_lower11  855
    u[17]     primal_lower12  935
    u[17]     primal_lower13  515
    u[17]     primal_lower14  36
    u[17]     primal_lower15  729
    u[17]     primal_lower16  538
    u[17]     primal_lower17  667
    u[17]     primal_lower18  455
    u[17]     primal_lower19  313
    u[17]     primal_lower20  116
    u[17]     primal_lower21  379
    u[17]     primal_lower22  863
    u[17]     primal_lower23  109
    u[17]     primal_lower24  800
    u[17]     primal_lower25  940
    u[17]     primal_lower26  740
    u[17]     primal_lower27  787
    u[17]     primal_lower28  421
    u[17]     primal_lower29  96
    u[17]     primal_lower30  306
    u[17]     primal_lower31  589
    u[17]     primal_lower32  160
    u[17]     primal_lower33  762
    u[17]     primal_lower34  437
    u[17]     primal_lower35  399
    u[17]     primal_lower36  90
    u[17]     primal_lower37  253
    u[17]     primal_lower38  117
    u[17]     primal_lower39  620
    u[17]     primal_lower40  147
    u[17]     primal_lower41  24
    u[17]     primal_lower42  785
    u[17]     primal_lower43  751
    u[17]     primal_lower44  833
    u[17]     primal_lower45  820
    u[17]     primal_lower46  601
    u[17]     primal_lower47  639
    u[17]     primal_lower48  167
    u[17]     primal_lower49  129
    u[17]     primal_lower50  739
    u[17]     primal_lower51  151
    u[17]     primal_lower52  221
    u[17]     primal_lower53  723
    u[17]     primal_lower54  105
    u[17]     primal_lower55  766
    u[17]     primal_lower56  552
    u[17]     primal_lower57  118
    u[17]     primal_lower58  639
    u[17]     primal_lower59  169
    u[17]     primal_lower60  951
    u[17]     primal_lower61  204
    u[17]     primal_lower62  133
    u[17]     primal_lower63  42
    u[17]     primal_lower64  280
    u[17]     primal_lower65  73
    u[17]     primal_lower66  859
    u[17]     primal_lower67  898
    u[17]     primal_lower68  29
    u[17]     primal_lower69  301
    u[17]     primal_lower70  175
    u[17]     primal_lower71  771
    u[17]     primal_lower72  582
    u[17]     primal_lower73  420
    u[17]     primal_lower74  39
    u[17]     primal_lower75  354
    u[17]     primal_lower76  75
    u[17]     primal_lower77  155
    u[17]     primal_lower78  527
    u[17]     primal_lower79  388
    u[17]     primal_lower80  297
    u[17]     primal_lower81  348
    u[17]     primal_lower82  230
    u[17]     primal_lower83  517
    u[17]     primal_lower84  344
    u[17]     primal_lower85  771
    u[17]     primal_lower86  653
    u[17]     primal_lower87  517
    u[17]     primal_lower88  23
    u[17]     primal_lower89  598
    u[17]     primal_lower90  443
    u[17]     primal_lower91  166
    u[17]     primal_lower92  428
    u[17]     primal_lower93  251
    u[17]     primal_lower94  758
    u[17]     primal_lower95  678
    u[17]     primal_lower96  426
    u[17]     primal_lower97  730
    u[17]     primal_lower98  135
    u[17]     primal_lower99  688
    u[17]     interdiction[17]  1
    u[17]     mccormick1[17]  -1
    u[17]     mccormick3[17]  1
    u[18]     primal_lower0  263
    u[18]     primal_lower1  85
    u[18]     primal_lower2  263
    u[18]     primal_lower3  218
    u[18]     primal_lower4  265
    u[18]     primal_lower5  369
    u[18]     primal_lower6  516
    u[18]     primal_lower7  783
    u[18]     primal_lower8  744
    u[18]     primal_lower9  690
    u[18]     primal_lower10  305
    u[18]     primal_lower11  852
    u[18]     primal_lower12  72
    u[18]     primal_lower13  40
    u[18]     primal_lower14  17
    u[18]     primal_lower15  398
    u[18]     primal_lower16  299
    u[18]     primal_lower17  268
    u[18]     primal_lower18  328
    u[18]     primal_lower19  514
    u[18]     primal_lower20  781
    u[18]     primal_lower21  460
    u[18]     primal_lower22  872
    u[18]     primal_lower23  566
    u[18]     primal_lower24  433
    u[18]     primal_lower25  109
    u[18]     primal_lower26  161
    u[18]     primal_lower27  364
    u[18]     primal_lower28  18
    u[18]     primal_lower29  637
    u[18]     primal_lower30  683
    u[18]     primal_lower31  82
    u[18]     primal_lower32  161
    u[18]     primal_lower33  499
    u[18]     primal_lower34  34
    u[18]     primal_lower35  352
    u[18]     primal_lower36  887
    u[18]     primal_lower37  6
    u[18]     primal_lower38  782
    u[18]     primal_lower39  465
    u[18]     primal_lower40  664
    u[18]     primal_lower41  537
    u[18]     primal_lower42  754
    u[18]     primal_lower43  176
    u[18]     primal_lower44  946
    u[18]     primal_lower45  237
    u[18]     primal_lower46  662
    u[18]     primal_lower47  384
    u[18]     primal_lower48  736
    u[18]     primal_lower49  262
    u[18]     primal_lower50  336
    u[18]     primal_lower51  568
    u[18]     primal_lower52  318
    u[18]     primal_lower53  704
    u[18]     primal_lower54  226
    u[18]     primal_lower55  379
    u[18]     primal_lower56  689
    u[18]     primal_lower57  439
    u[18]     primal_lower58  568
    u[18]     primal_lower59  650
    u[18]     primal_lower60  644
    u[18]     primal_lower61  337
    u[18]     primal_lower62  210
    u[18]     primal_lower63  251
    u[18]     primal_lower64  149
    u[18]     primal_lower65  454
    u[18]     primal_lower66  336
    u[18]     primal_lower67  47
    u[18]     primal_lower68  958
    u[18]     primal_lower69  598
    u[18]     primal_lower70  732
    u[18]     primal_lower71  972
    u[18]     primal_lower72  211
    u[18]     primal_lower73  585
    u[18]     primal_lower74  476
    u[18]     primal_lower75  899
    u[18]     primal_lower76  428
    u[18]     primal_lower77  952
    u[18]     primal_lower78  48
    u[18]     primal_lower79  317
    u[18]     primal_lower80  866
    u[18]     primal_lower81  289
    u[18]     primal_lower82  839
    u[18]     primal_lower83  682
    u[18]     primal_lower84  353
    u[18]     primal_lower85  52
    u[18]     primal_lower86  282
    u[18]     primal_lower87  642
    u[18]     primal_lower88  300
    u[18]     primal_lower89  423
    u[18]     primal_lower90  840
    u[18]     primal_lower91  615
    u[18]     primal_lower92  105
    u[18]     primal_lower93  828
    u[18]     primal_lower94  219
    u[18]     primal_lower95  767
    u[18]     primal_lower96  759
    u[18]     primal_lower97  811
    u[18]     primal_lower98  964
    u[18]     primal_lower99  181
    u[18]     interdiction[18]  1
    u[18]     mccormick1[18]  -1
    u[18]     mccormick3[18]  1
    u[19]     primal_lower0  224
    u[19]     primal_lower1  970
    u[19]     primal_lower2  844
    u[19]     primal_lower3  283
    u[19]     primal_lower4  850
    u[19]     primal_lower5  970
    u[19]     primal_lower6  337
    u[19]     primal_lower7  740
    u[19]     primal_lower8  753
    u[19]     primal_lower9  847
    u[19]     primal_lower10  162
    u[19]     primal_lower11  821
    u[19]     primal_lower12  205
    u[19]     primal_lower13  897
    u[19]     primal_lower14  370
    u[19]     primal_lower15  367
    u[19]     primal_lower16  880
    u[19]     primal_lower17  9
    u[19]     primal_lower18  805
    u[19]     primal_lower19  287
    u[19]     primal_lower20  250
    u[19]     primal_lower21  353
    u[19]     primal_lower22  133
    u[19]     primal_lower23  347
    u[19]     primal_lower24  30
    u[19]     primal_lower25  714
    u[19]     primal_lower26  810
    u[19]     primal_lower27  697
    u[19]     primal_lower28  331
    u[19]     primal_lower29  78
    u[19]     primal_lower30  728
    u[19]     primal_lower31  891
    u[19]     primal_lower32  78
    u[19]     primal_lower33  208
    u[19]     primal_lower34  611
    u[19]     primal_lower35  533
    u[19]     primal_lower36  600
    u[19]     primal_lower37  707
    u[19]     primal_lower38  459
    u[19]     primal_lower39  546
    u[19]     primal_lower40  369
    u[19]     primal_lower41  310
    u[19]     primal_lower42  279
    u[19]     primal_lower43  653
    u[19]     primal_lower44  999
    u[19]     primal_lower45  874
    u[19]     primal_lower46  911
    u[19]     primal_lower47  317
    u[19]     primal_lower48  381
    u[19]     primal_lower49  519
    u[19]     primal_lower50  369
    u[19]     primal_lower51  317
    u[19]     primal_lower52  371
    u[19]     primal_lower53  433
    u[19]     primal_lower54  383
    u[19]     primal_lower55  4
    u[19]     primal_lower56  126
    u[19]     primal_lower57  692
    u[19]     primal_lower58  949
    u[19]     primal_lower59  271
    u[19]     primal_lower60  301
    u[19]     primal_lower61  378
    u[19]     primal_lower62  675
    u[19]     primal_lower63  344
    u[19]     primal_lower64  286
    u[19]     primal_lower65  359
    u[19]     primal_lower66  913
    u[19]     primal_lower67  344
    u[19]     primal_lower68  163
    u[19]     primal_lower69  947
    u[19]     primal_lower70  349
    u[19]     primal_lower71  785
    u[19]     primal_lower72  828
    u[19]     primal_lower73  754
    u[19]     primal_lower74  309
    u[19]     primal_lower75  336
    u[19]     primal_lower76  993
    u[19]     primal_lower77  641
    u[19]     primal_lower78  485
    u[19]     primal_lower79  274
    u[19]     primal_lower80  927
    u[19]     primal_lower81  730
    u[19]     primal_lower82  972
    u[19]     primal_lower83  107
    u[19]     primal_lower84  390
    u[19]     primal_lower85  657
    u[19]     primal_lower86  987
    u[19]     primal_lower87  795
    u[19]     primal_lower88  725
    u[19]     primal_lower89  116
    u[19]     primal_lower90  825
    u[19]     primal_lower91  988
    u[19]     primal_lower92  338
    u[19]     primal_lower93  657
    u[19]     primal_lower94  628
    u[19]     primal_lower95  140
    u[19]     primal_lower96  80
    u[19]     primal_lower97  872
    u[19]     primal_lower98  165
    u[19]     primal_lower99  526
    u[19]     interdiction[19]  1
    u[19]     mccormick1[19]  -1
    u[19]     mccormick3[19]  1
    z[0]      primal_upper  66
    z[0]      mccormick1[0]  1
    z[0]      mccormick2[0]  1
    z[0]      mccormick3[0]  -1
    z[1]      primal_upper  64
    z[1]      mccormick1[1]  1
    z[1]      mccormick2[1]  1
    z[1]      mccormick3[1]  -1
    z[2]      primal_upper  20
    z[2]      mccormick1[2]  1
    z[2]      mccormick2[2]  1
    z[2]      mccormick3[2]  -1
    z[3]      primal_upper  88
    z[3]      mccormick1[3]  1
    z[3]      mccormick2[3]  1
    z[3]      mccormick3[3]  -1
    z[4]      primal_upper  28
    z[4]      mccormick1[4]  1
    z[4]      mccormick2[4]  1
    z[4]      mccormick3[4]  -1
    z[5]      primal_upper  55
    z[5]      mccormick1[5]  1
    z[5]      mccormick2[5]  1
    z[5]      mccormick3[5]  -1
    z[6]      primal_upper  39
    z[6]      mccormick1[6]  1
    z[6]      mccormick2[6]  1
    z[6]      mccormick3[6]  -1
    z[7]      primal_upper  23
    z[7]      mccormick1[7]  1
    z[7]      mccormick2[7]  1
    z[7]      mccormick3[7]  -1
    z[8]      primal_upper  4
    z[8]      mccormick1[8]  1
    z[8]      mccormick2[8]  1
    z[8]      mccormick3[8]  -1
    z[9]      primal_upper  85
    z[9]      mccormick1[9]  1
    z[9]      mccormick2[9]  1
    z[9]      mccormick3[9]  -1
    z[10]     primal_upper  40
    z[10]     mccormick1[10]  1
    z[10]     mccormick2[10]  1
    z[10]     mccormick3[10]  -1
    z[11]     primal_upper  4
    z[11]     mccormick1[11]  1
    z[11]     mccormick2[11]  1
    z[11]     mccormick3[11]  -1
    z[12]     primal_upper  69
    z[12]     mccormick1[12]  1
    z[12]     mccormick2[12]  1
    z[12]     mccormick3[12]  -1
    z[13]     primal_upper  12
    z[13]     mccormick1[13]  1
    z[13]     mccormick2[13]  1
    z[13]     mccormick3[13]  -1
    z[14]     primal_upper  41
    z[14]     mccormick1[14]  1
    z[14]     mccormick2[14]  1
    z[14]     mccormick3[14]  -1
    z[15]     primal_upper  95
    z[15]     mccormick1[15]  1
    z[15]     mccormick2[15]  1
    z[15]     mccormick3[15]  -1
    z[16]     primal_upper  96
    z[16]     mccormick1[16]  1
    z[16]     mccormick2[16]  1
    z[16]     mccormick3[16]  -1
    z[17]     primal_upper  38
    z[17]     mccormick1[17]  1
    z[17]     mccormick2[17]  1
    z[17]     mccormick3[17]  -1
    z[18]     primal_upper  26
    z[18]     mccormick1[18]  1
    z[18]     mccormick2[18]  1
    z[18]     mccormick3[18]  -1
    z[19]     primal_upper  55
    z[19]     mccormick1[19]  1
    z[19]     mccormick2[19]  1
    z[19]     mccormick3[19]  -1
    MARKER    'MARKER'                 'INTEND'
RHS
    RHS1      primal_upper  4754
    RHS1      primal_lower0  936
    RHS1      primal_lower1  992
    RHS1      primal_lower2  987
    RHS1      primal_lower3  966
    RHS1      primal_lower4  997
    RHS1      primal_lower5  970
    RHS1      primal_lower6  995
    RHS1      primal_lower7  954
    RHS1      primal_lower8  998
    RHS1      primal_lower9  995
    RHS1      primal_lower10  955
    RHS1      primal_lower11  968
    RHS1      primal_lower12  935
    RHS1      primal_lower13  975
    RHS1      primal_lower14  972
    RHS1      primal_lower15  969
    RHS1      primal_lower16  938
    RHS1      primal_lower17  967
    RHS1      primal_lower18  938
    RHS1      primal_lower19  958
    RHS1      primal_lower20  952
    RHS1      primal_lower21  965
    RHS1      primal_lower22  975
    RHS1      primal_lower23  986
    RHS1      primal_lower24  989
    RHS1      primal_lower25  990
    RHS1      primal_lower26  992
    RHS1      primal_lower27  935
    RHS1      primal_lower28  998
    RHS1      primal_lower29  968
    RHS1      primal_lower30  917
    RHS1      primal_lower31  998
    RHS1      primal_lower32  973
    RHS1      primal_lower33  927
    RHS1      primal_lower34  952
    RHS1      primal_lower35  988
    RHS1      primal_lower36  986
    RHS1      primal_lower37  977
    RHS1      primal_lower38  975
    RHS1      primal_lower39  940
    RHS1      primal_lower40  978
    RHS1      primal_lower41  1000
    RHS1      primal_lower42  785
    RHS1      primal_lower43  931
    RHS1      primal_lower44  999
    RHS1      primal_lower45  876
    RHS1      primal_lower46  914
    RHS1      primal_lower47  999
    RHS1      primal_lower48  939
    RHS1      primal_lower49  980
    RHS1      primal_lower50  974
    RHS1      primal_lower51  988
    RHS1      primal_lower52  936
    RHS1      primal_lower53  926
    RHS1      primal_lower54  869
    RHS1      primal_lower55  969
    RHS1      primal_lower56  821
    RHS1      primal_lower57  979
    RHS1      primal_lower58  987
    RHS1      primal_lower59  973
    RHS1      primal_lower60  951
    RHS1      primal_lower61  992
    RHS1      primal_lower62  990
    RHS1      primal_lower63  831
    RHS1      primal_lower64  908
    RHS1      primal_lower65  898
    RHS1      primal_lower66  955
    RHS1      primal_lower67  936
    RHS1      primal_lower68  958
    RHS1      primal_lower69  968
    RHS1      primal_lower70  842
    RHS1      primal_lower71  999
    RHS1      primal_lower72  966
    RHS1      primal_lower73  944
    RHS1      primal_lower74  971
    RHS1      primal_lower75  959
    RHS1      primal_lower76  993
    RHS1      primal_lower77  952
    RHS1      primal_lower78  905
    RHS1      primal_lower79  1000
    RHS1      primal_lower80  933
    RHS1      primal_lower81  965
    RHS1      primal_lower82  986
    RHS1      primal_lower83  960
    RHS1      primal_lower84  973
    RHS1      primal_lower85  999
    RHS1      primal_lower86  990
    RHS1      primal_lower87  943
    RHS1      primal_lower88  995
    RHS1      primal_lower89  816
    RHS1      primal_lower90  974
    RHS1      primal_lower91  988
    RHS1      primal_lower92  989
    RHS1      primal_lower93  983
    RHS1      primal_lower94  879
    RHS1      primal_lower95  970
    RHS1      primal_lower96  946
    RHS1      primal_lower97  918
    RHS1      primal_lower98  964
    RHS1      primal_lower99  892
    RHS1      interdiction[0]  1
    RHS1      interdiction[1]  1
    RHS1      interdiction[2]  1
    RHS1      interdiction[3]  1
    RHS1      interdiction[4]  1
    RHS1      interdiction[5]  1
    RHS1      interdiction[6]  1
    RHS1      interdiction[7]  1
    RHS1      interdiction[8]  1
    RHS1      interdiction[9]  1
    RHS1      interdiction[10]  1
    RHS1      interdiction[11]  1
    RHS1      interdiction[12]  1
    RHS1      interdiction[13]  1
    RHS1      interdiction[14]  1
    RHS1      interdiction[15]  1
    RHS1      interdiction[16]  1
    RHS1      interdiction[17]  1
    RHS1      interdiction[18]  1
    RHS1      interdiction[19]  1
    RHS1      mccormick3[0]  1
    RHS1      mccormick3[1]  1
    RHS1      mccormick3[2]  1
    RHS1      mccormick3[3]  1
    RHS1      mccormick3[4]  1
    RHS1      mccormick3[5]  1
    RHS1      mccormick3[6]  1
    RHS1      mccormick3[7]  1
    RHS1      mccormick3[8]  1
    RHS1      mccormick3[9]  1
    RHS1      mccormick3[10]  1
    RHS1      mccormick3[11]  1
    RHS1      mccormick3[12]  1
    RHS1      mccormick3[13]  1
    RHS1      mccormick3[14]  1
    RHS1      mccormick3[15]  1
    RHS1      mccormick3[16]  1
    RHS1      mccormick3[17]  1
    RHS1      mccormick3[18]  1
    RHS1      mccormick3[19]  1
BOUNDS
 BV BND1      x[0]    
 BV BND1      x[1]    
 BV BND1      x[2]    
 BV BND1      x[3]    
 BV BND1      x[4]    
 BV BND1      x[5]    
 BV BND1      x[6]    
 BV BND1      x[7]    
 BV BND1      x[8]    
 BV BND1      x[9]    
 BV BND1      x[10]   
 BV BND1      x[11]   
 BV BND1      x[12]   
 BV BND1      x[13]   
 BV BND1      x[14]   
 BV BND1      x[15]   
 BV BND1      x[16]   
 BV BND1      x[17]   
 BV BND1      x[18]   
 BV BND1      x[19]   
 BV BND1      y[0]    
 BV BND1      y[1]    
 BV BND1      y[2]    
 BV BND1      y[3]    
 BV BND1      y[4]    
 BV BND1      y[5]    
 BV BND1      y[6]    
 BV BND1      y[7]    
 BV BND1      y[8]    
 BV BND1      y[9]    
 BV BND1      y[10]   
 BV BND1      y[11]   
 BV BND1      y[12]   
 BV BND1      y[13]   
 BV BND1      y[14]   
 BV BND1      y[15]   
 BV BND1      y[16]   
 BV BND1      y[17]   
 BV BND1      y[18]   
 BV BND1      y[19]   
 BV BND1      u[0]    
 BV BND1      u[1]    
 BV BND1      u[2]    
 BV BND1      u[3]    
 BV BND1      u[4]    
 BV BND1      u[5]    
 BV BND1      u[6]    
 BV BND1      u[7]    
 BV BND1      u[8]    
 BV BND1      u[9]    
 BV BND1      u[10]   
 BV BND1      u[11]   
 BV BND1      u[12]   
 BV BND1      u[13]   
 BV BND1      u[14]   
 BV BND1      u[15]   
 BV BND1      u[16]   
 BV BND1      u[17]   
 BV BND1      u[18]   
 BV BND1      u[19]   
 BV BND1      z[0]    
 BV BND1      z[1]    
 BV BND1      z[2]    
 BV BND1      z[3]    
 BV BND1      z[4]    
 BV BND1      z[5]    
 BV BND1      z[6]    
 BV BND1      z[7]    
 BV BND1      z[8]    
 BV BND1      z[9]    
 BV BND1      z[10]   
 BV BND1      z[11]   
 BV BND1      z[12]   
 BV BND1      z[13]   
 BV BND1      z[14]   
 BV BND1      z[15]   
 BV BND1      z[16]   
 BV BND1      z[17]   
 BV BND1      z[18]   
 BV BND1      z[19]   
ENDATA
