\ Model knapsack_80_10_4
\ LP format - for model browsing. Use MPS format to capture full model detail.
\ Signature: 0x21f373f8b7b848c
Minimize
  10 x[0] + 10 x[1] + 10 x[2] + 10 x[3] + 10 x[4] + 10 x[5] + 10 x[6]
   + 10 x[7] + 10 x[8] + 10 x[9] + 10 x[10] + 10 x[11] + 10 x[12]
   + 10 x[13] + 10 x[14] + 10 x[15] + 10 x[16] + 10 x[17] + 10 x[18]
   + 10 x[19] + 10 x[20] + 10 x[21] + 10 x[22] + 10 x[23] + 10 x[24]
   + 10 x[25] + 10 x[26] + 10 x[27] + 10 x[28] + 10 x[29] + 10 x[30]
   + 10 x[31] + 10 x[32] + 10 x[33] + 10 x[34] + 10 x[35] + 10 x[36]
   + 10 x[37] + 10 x[38] + 10 x[39] + 10 x[40] + 10 x[41] + 10 x[42]
   + 10 x[43] + 10 x[44] + 10 x[45] + 10 x[46] + 10 x[47] + 10 x[48]
   + 10 x[49] + 10 x[50] + 10 x[51] + 10 x[52] + 10 x[53] + 10 x[54]
   + 10 x[55] + 10 x[56] + 10 x[57] + 10 x[58] + 10 x[59] + 10 x[60]
   + 10 x[61] + 10 x[62] + 10 x[63] + 10 x[64] + 10 x[65] + 10 x[66]
   + 10 x[67] + 10 x[68] + 10 x[69] + 10 x[70] + 10 x[71] + 10 x[72]
   + 10 x[73] + 10 x[74] + 10 x[75] + 10 x[76] + 10 x[77] + 10 x[78]
   + 10 x[79] - 26 y[0] - 598 y[1] - 956 y[2] - 100 y[3] - 685 y[4]
   - 737 y[5] - 221 y[6] - 443 y[7] - 778 y[8] - 58 y[9] - 931 y[10]
   - 275 y[11] - 631 y[12] - 802 y[13] - 179 y[14] - 540 y[15] - 466 y[16]
   - 762 y[17] - 710 y[18] - 585 y[19] - 541 y[20] - 567 y[21] - 920 y[22]
   - 1000 y[23] - 461 y[24] - 174 y[25] - 652 y[26] - 911 y[27] - 406 y[28]
   - 752 y[29] - 369 y[30] - 384 y[31] - 776 y[32] - 775 y[33] - 343 y[34]
   - 333 y[35] - 173 y[36] - 495 y[37] - 778 y[38] - 75 y[39] - 568 y[40]
   - 877 y[41] - 373 y[42] - 283 y[43] - 982 y[44] - 699 y[45] - 368 y[46]
   - 764 y[47] - 408 y[48] - 545 y[49] - 843 y[50] - 818 y[51] - 791 y[52]
   - 493 y[53] - 568 y[54] - 634 y[55] - 22 y[56] - 60 y[57] - 724 y[58]
   - 331 y[59] - 588 y[60] - 702 y[61] - 757 y[62] - 221 y[63] - 822 y[64]
   - 629 y[65] - 181 y[66] - 213 y[67] - 184 y[68] - 333 y[69] - 685 y[70]
   - 719 y[71] - 61 y[72] - 477 y[73] - 178 y[74] - 778 y[75] - 146 y[76]
   - 253 y[77] - 676 y[78] - 943 y[79]
Subject To
 primal_upper: 769 y[0] + 410 y[1] + 556 y[2] + 113 y[3] + 670 y[4]
   + 679 y[5] + 207 y[6] + 929 y[7] + 159 y[8] + 608 y[9] + 397 y[10]
   + 9 y[11] + 198 y[12] + 658 y[13] + 646 y[14] + 490 y[15] + 247 y[16]
   + 462 y[17] + 419 y[18] + 804 y[19] + 935 y[20] + 917 y[21] + 998 y[22]
   + 708 y[23] + 414 y[24] + 510 y[25] + 572 y[26] + 205 y[27] + 23 y[28]
   + 237 y[29] + 891 y[30] + 49 y[31] + 397 y[32] + 803 y[33] + 118 y[34]
   + 119 y[35] + 446 y[36] + 554 y[37] + 806 y[38] + 396 y[39] + 857 y[40]
   + 575 y[41] + 560 y[42] + 339 y[43] + 769 y[44] + 568 y[45] + 699 y[46]
   + 863 y[47] + 153 y[48] + 358 y[49] + 176 y[50] + 606 y[51] + 711 y[52]
   + 842 y[53] + 874 y[54] + 997 y[55] + 459 y[56] + 848 y[57] + 670 y[58]
   + 1000 y[59] + 118 y[60] + 816 y[61] + 721 y[62] + 512 y[63] + 997 y[64]
   + 450 y[65] + 534 y[66] + 76 y[67] + 830 y[68] + 183 y[69] + 375 y[70]
   + 523 y[71] + 168 y[72] + 253 y[73] + 697 y[74] + 606 y[75] + 340 y[76]
   + 897 y[77] + 970 y[78] + 496 y[79] + 77 z[0] + 41 z[1] + 56 z[2]
   + 11 z[3] + 67 z[4] + 68 z[5] + 21 z[6] + 93 z[7] + 16 z[8] + 61 z[9]
   + 40 z[10] + z[11] + 20 z[12] + 66 z[13] + 65 z[14] + 49 z[15]
   + 25 z[16] + 46 z[17] + 42 z[18] + 80 z[19] + 94 z[20] + 92 z[21]
   + 100 z[22] + 71 z[23] + 41 z[24] + 51 z[25] + 57 z[26] + 20 z[27]
   + 2 z[28] + 24 z[29] + 89 z[30] + 5 z[31] + 40 z[32] + 80 z[33]
   + 12 z[34] + 12 z[35] + 45 z[36] + 55 z[37] + 81 z[38] + 40 z[39]
   + 86 z[40] + 58 z[41] + 56 z[42] + 34 z[43] + 77 z[44] + 57 z[45]
   + 70 z[46] + 86 z[47] + 15 z[48] + 36 z[49] + 18 z[50] + 61 z[51]
   + 71 z[52] + 84 z[53] + 87 z[54] + 100 z[55] + 46 z[56] + 85 z[57]
   + 67 z[58] + 100 z[59] + 12 z[60] + 82 z[61] + 72 z[62] + 51 z[63]
   + 100 z[64] + 45 z[65] + 53 z[66] + 8 z[67] + 83 z[68] + 18 z[69]
   + 38 z[70] + 52 z[71] + 17 z[72] + 25 z[73] + 70 z[74] + 61 z[75]
   + 34 z[76] + 90 z[77] + 97 z[78] + 50 z[79] <= 8602
 primal_lower0: 706 u[0] + 371 u[1] + 733 u[2] + 442 u[3] + 351 u[4]
   + 936 u[5] + 312 u[6] + 602 u[7] + 544 u[8] + 881 u[9] + 454 u[10]
   + 930 u[11] + 983 u[12] + 67 u[13] + 855 u[14] + 955 u[15] + 968 u[16]
   + 431 u[17] + 564 u[18] + 277 u[19] + 864 u[20] + 902 u[21] + 823 u[22]
   + 565 u[23] + 767 u[24] + 855 u[25] + 325 u[26] + 782 u[27] + 664 u[28]
   + 526 u[29] + 76 u[30] + 618 u[31] + 494 u[32] + 220 u[33] + 775 u[34]
   + 864 u[35] + 727 u[36] + 739 u[37] + 503 u[38] + 37 u[39] + 634 u[40]
   + 208 u[41] + 513 u[42] + 260 u[43] + 354 u[44] + 681 u[45] + 100 u[46]
   + 840 u[47] + 866 u[48] + 135 u[49] + 313 u[50] + 991 u[51] + 184 u[52]
   + 187 u[53] + 547 u[54] + 22 u[55] + 828 u[56] + 481 u[57] + 415 u[58]
   + 497 u[59] + 375 u[60] + 529 u[61] + 322 u[62] + 993 u[63] + 94 u[64]
   + 259 u[65] + 23 u[66] + 909 u[67] + 479 u[68] + 168 u[69] + 64 u[70]
   + 804 u[71] + 833 u[72] + 638 u[73] + 618 u[74] + 47 u[75] + 653 u[76]
   + 314 u[77] + 379 u[78] + 721 u[79] <= 993
 primal_lower1: 704 u[0] + 257 u[1] + 851 u[2] + 112 u[3] + 173 u[4]
   + 374 u[5] + 30 u[6] + 920 u[7] + 334 u[8] + 311 u[9] + 836 u[10]
   + 344 u[11] + 661 u[12] + 17 u[13] + 717 u[14] + 353 u[15] + 182 u[16]
   + 5 u[17] + 634 u[18] + 715 u[19] + 302 u[20] + 708 u[21] + 333 u[22]
   + 515 u[23] + 85 u[24] + 325 u[25] + 963 u[26] + 396 u[27] + 150 u[28]
   + 20 u[29] + 482 u[30] + 904 u[31] + 132 u[32] + 578 u[33] + 725 u[34]
   + 646 u[35] + 517 u[36] + 801 u[37] + 997 u[38] + 435 u[39] + 456 u[40]
   + 318 u[41] + 111 u[42] + 594 u[43] + 72 u[44] + 791 u[45] + 474 u[46]
   + 318 u[47] + 280 u[48] + 413 u[49] + 703 u[50] + 789 u[51] + 174 u[52]
   + 209 u[53] + 657 u[54] + 572 u[55] + 394 u[56] + 495 u[57] + 477 u[58]
   + 543 u[59] + 821 u[60] + 415 u[61] + 816 u[62] + 87 u[63] + 908 u[64]
   + 49 u[65] + 157 u[66] + 3 u[67] + 13 u[68] + 870 u[69] + 910 u[70]
   + 458 u[71] + 159 u[72] + 412 u[73] + 448 u[74] + 325 u[75] + 995 u[76]
   + 568 u[77] + 81 u[78] + 879 u[79] <= 7351
 primal_lower2: 663 u[0] + 368 u[1] + 626 u[2] + 975 u[3] + 540 u[4]
   + 157 u[5] + 757 u[6] + 135 u[7] + 661 u[8] + 486 u[9] + 275 u[10]
   + 167 u[11] + 476 u[12] + 976 u[13] + 476 u[14] + 464 u[15] + 325 u[16]
   + 532 u[17] + 321 u[18] + 354 u[19] + 901 u[20] + 859 u[21] + 92 u[22]
   + 866 u[23] + 244 u[24] + 852 u[25] + 794 u[26] + 595 u[27] + 701 u[28]
   + 899 u[29] + 905 u[30] + 639 u[31] + 675 u[32] + 857 u[33] + 884 u[34]
   + 493 u[35] + 500 u[36] + 208 u[37] + 276 u[38] + 554 u[39] + 855 u[40]
   + 69 u[41] + 310 u[42] + 657 u[43] + 47 u[44] + 510 u[45] + 185 u[46]
   + 773 u[47] + 295 u[48] + 52 u[49] + 94 u[50] + 148 u[51] + 813 u[52]
   + 896 u[53] + 928 u[54] + 819 u[55] + 641 u[56] + 118 u[57] + 324 u[58]
   + 558 u[59] + 228 u[60] + 214 u[61] + 711 u[62] + 702 u[63] + 907 u[64]
   + 904 u[65] + 676 u[66] + 674 u[67] + 804 u[68] + 341 u[69] + 245 u[70]
   + 801 u[71] + 910 u[72] + 747 u[73] + 647 u[74] + 844 u[75] + 754 u[76]
   + 199 u[77] + 512 u[78] + 94 u[79] <= 976
 primal_lower3: 774 u[0] + 727 u[1] + 409 u[2] + 758 u[3] + 475 u[4]
   + 124 u[5] + 796 u[6] + 14 u[7] + 780 u[8] + 885 u[9] + 970 u[10]
   + 342 u[11] + 155 u[12] + 927 u[13] + 451 u[14] + 271 u[15] + 252 u[16]
   + 155 u[17] + 576 u[18] + 9 u[19] + 828 u[20] + 194 u[21] + 747 u[22]
   + 641 u[23] + 435 u[24] + 667 u[25] + 833 u[26] + 306 u[27] + 924 u[28]
   + 154 u[29] + 328 u[30] + 990 u[31] + 986 u[32] + 944 u[33] + 227 u[34]
   + 732 u[35] + 747 u[36] + 647 u[37] + 291 u[38] + 161 u[39] + 926 u[40]
   + 236 u[41] + 21 u[42] + 992 u[43] + 350 u[44] + 797 u[45] + 776 u[46]
   + 484 u[47] + 286 u[48] + 243 u[49] + 53 u[50] + 35 u[51] + 564 u[52]
   + 567 u[53] + 535 u[54] + 178 u[55] + 840 u[56] + 773 u[57] + 931 u[58]
   + 677 u[59] + 531 u[60] + 837 u[61] + 78 u[62] + 701 u[63] + 266 u[64]
   + 255 u[65] + 99 u[66] + 729 u[67] + 603 u[68] + 332 u[69] + 548 u[70]
   + 584 u[71] + 917 u[72] + 714 u[73] + 422 u[74] + 451 u[75] + 801 u[76]
   + 798 u[77] + 543 u[78] + 437 u[79] <= 8508
 primal_lower4: 291 u[0] + 487 u[1] + 965 u[2] + 38 u[3] + 551 u[4]
   + 717 u[5] + 472 u[6] + 807 u[7] + 920 u[8] + 421 u[9] + 599 u[10]
   + 54 u[11] + 519 u[12] + 391 u[13] + 80 u[14] + 432 u[15] + 112 u[16]
   + 875 u[17] + 564 u[18] + 625 u[19] + 112 u[20] + 883 u[21] + 151 u[22]
   + 826 u[23] + 136 u[24] + 475 u[25] + 477 u[26] + 155 u[27] + 905 u[28]
   + 898 u[29] + 133 u[30] + 39 u[31] + 935 u[32] + 440 u[33] + 279 u[34]
   + 452 u[35] + 119 u[36] + 536 u[37] + 743 u[38] + 66 u[39] + 306 u[40]
   + 213 u[41] + 185 u[42] + 193 u[43] + 746 u[44] + 382 u[45] + 213 u[46]
   + 789 u[47] + 698 u[48] + 283 u[49] + 530 u[50] + 355 u[51] + 400 u[52]
   + 343 u[53] + 108 u[54] + 987 u[55] + 28 u[56] + 46 u[57] + 55 u[58]
   + 885 u[59] + 920 u[60] + 398 u[61] + 283 u[62] + 126 u[63] + 999 u[64]
   + 983 u[65] + 728 u[66] + 58 u[67] + 7 u[68] + 293 u[69] + 985 u[70]
   + 793 u[71] + 841 u[72] + 298 u[73] + 323 u[74] + 852 u[75] + 614 u[76]
   + 606 u[77] + 652 u[78] + 86 u[79] <= 999
 primal_lower5: 276 u[0] + 261 u[1] + 471 u[2] + 844 u[3] + 785 u[4]
   + 658 u[5] + 530 u[6] + 828 u[7] + 634 u[8] + 83 u[9] + 256 u[10]
   + 660 u[11] + 553 u[12] + 405 u[13] + 521 u[14] + 357 u[15] + 818 u[16]
   + 97 u[17] + 470 u[18] + 423 u[19] + 394 u[20] + 880 u[21] + 393 u[22]
   + 191 u[23] + 121 u[24] + 161 u[25] + 575 u[26] + 808 u[27] + 842 u[28]
   + 592 u[29] + 350 u[30] + 532 u[31] + 296 u[32] + 806 u[33] + 961 u[34]
   + 138 u[35] + 345 u[36] + 805 u[37] + 897 u[38] + 999 u[39] + 12 u[40]
   + 738 u[41] + 603 u[42] + 998 u[43] + 772 u[44] + 843 u[45] + 62 u[46]
   + 722 u[47] + 860 u[48] + 361 u[49] + 387 u[50] + 449 u[51] + 594 u[52]
   + 685 u[53] + 893 u[54] + 752 u[55] + 422 u[56] + 691 u[57] + 577 u[58]
   + 123 u[59] + 801 u[60] + 723 u[61] + 380 u[62] + 11 u[63] + 200 u[64]
   + 509 u[65] + 569 u[66] + 79 u[67] + 873 u[68] + 130 u[69] + 298 u[70]
   + 374 u[71] + 219 u[72] + 840 u[73] + 588 u[74] + 145 u[75] + 367 u[76]
   + 764 u[77] + 909 u[78] + 43 u[79] <= 8276
 primal_lower6: 962 u[0] + 686 u[1] + 36 u[2] + 613 u[3] + 46 u[4]
   + 764 u[5] + 647 u[6] + 670 u[7] + 599 u[8] + 212 u[9] + 614 u[10]
   + 21 u[11] + 510 u[12] + 94 u[13] + 439 u[14] + 111 u[15] + 319 u[16]
   + 938 u[17] + 483 u[18] + 928 u[19] + 775 u[20] + 42 u[21] + 950 u[22]
   + 361 u[23] + 631 u[24] + 162 u[25] + 484 u[26] + 650 u[27] + 888 u[28]
   + 521 u[29] + 292 u[30] + 958 u[31] + 974 u[32] + 391 u[33] + 414 u[34]
   + 979 u[35] + 414 u[36] + 415 u[37] + 174 u[38] + 633 u[39] + 993 u[40]
   + 364 u[41] + 896 u[42] + 896 u[43] + 25 u[44] + 61 u[45] + 484 u[46]
   + 900 u[47] + 441 u[48] + 330 u[49] + 169 u[50] + 418 u[51] + 623 u[52]
   + 782 u[53] + 419 u[54] + 658 u[55] + 379 u[56] + 197 u[57] + 78 u[58]
   + 292 u[59] + 391 u[60] + 629 u[61] + 402 u[62] + 149 u[63] + 622 u[64]
   + 270 u[65] + 551 u[66] + 281 u[67] + 854 u[68] + 140 u[69] + 176 u[70]
   + 136 u[71] + 864 u[72] + 129 u[73] + 434 u[74] + 115 u[75] + 445 u[76]
   + 221 u[77] + 931 u[78] + 149 u[79] <= 15237
 primal_lower7: 280 u[0] + 313 u[1] + 843 u[2] + 904 u[3] + 85 u[4]
   + 174 u[5] + 118 u[6] + 144 u[7] + 30 u[8] + 671 u[9] + 212 u[10]
   + 768 u[11] + 373 u[12] + 841 u[13] + 157 u[14] + 193 u[15] + 798 u[16]
   + 341 u[17] + 42 u[18] + 227 u[19] + 726 u[20] + 180 u[21] + 901 u[22]
   + 947 u[23] + 165 u[24] + 861 u[25] + 691 u[26] + 364 u[27] + 262 u[28]
   + 372 u[29] + 90 u[30] + 456 u[31] + 164 u[32] + 914 u[33] + 469 u[34]
   + 758 u[35] + 93 u[36] + 329 u[37] + 245 u[38] + 19 u[39] + 1000 u[40]
   + 742 u[41] + 447 u[42] + 906 u[43] + 128 u[44] + 735 u[45] + 370 u[46]
   + 926 u[47] + 752 u[48] + 685 u[49] + 223 u[50] + 773 u[51] + 566 u[52]
   + 369 u[53] + 185 u[54] + 956 u[55] + 978 u[56] + 479 u[57] + 133 u[58]
   + 463 u[59] + 629 u[60] + 783 u[61] + 696 u[62] + 655 u[63] + 764 u[64]
   + 809 u[65] + 461 u[66] + 579 u[67] + 949 u[68] + 910 u[69] + 398 u[70]
   + 946 u[71] + 207 u[72] + 452 u[73] + 88 u[74] + 373 u[75] + 211 u[76]
   + 880 u[77] + 545 u[78] + 119 u[79] <= 1000
 primal_lower8: 777 u[0] + 357 u[1] + 27 u[2] + 908 u[3] + 789 u[4]
   + 219 u[5] + 446 u[6] + 621 u[7] + 446 u[8] + 331 u[9] + 965 u[10]
   + 4 u[11] + 21 u[12] + 509 u[13] + 558 u[14] + 382 u[15] + 838 u[16]
   + 857 u[17] + 474 u[18] + 959 u[19] + 782 u[20] + 337 u[21] + 517 u[22]
   + 896 u[23] + 838 u[24] + 65 u[25] + 323 u[26] + 393 u[27] + 663 u[28]
   + 624 u[29] + 955 u[30] + 477 u[31] + 341 u[32] + 566 u[33] + 901 u[34]
   + 90 u[35] + 637 u[36] + 110 u[37] + 309 u[38] + 952 u[39] + 24 u[40]
   + 635 u[41] + 519 u[42] + 703 u[43] + 720 u[44] + 444 u[45] + 643 u[46]
   + 763 u[47] + 984 u[48] + 17 u[49] + 320 u[50] + 729 u[51] + 854 u[52]
   + 509 u[53] + 578 u[54] + 377 u[55] + 10 u[56] + 132 u[57] + 629 u[58]
   + 347 u[59] + 110 u[60] + 820 u[61] + 465 u[62] + 660 u[63] + 349 u[64]
   + 813 u[65] + 686 u[66] + 224 u[67] + 405 u[68] + 291 u[69] + 135 u[70]
   + 71 u[71] + 791 u[72] + 32 u[73] + 9 u[74] + 842 u[75] + 116 u[76]
   + 396 u[77] + 338 u[78] + 308 u[79] <= 15624
 primal_lower9: 853 u[0] + 881 u[1] + 247 u[2] + 936 u[3] + 945 u[4]
   + 183 u[5] + 546 u[6] + 673 u[7] + 418 u[8] + 799 u[9] + 593 u[10]
   + 1000 u[11] + 257 u[12] + 721 u[13] + 386 u[14] + 194 u[15] + 202 u[16]
   + 389 u[17] + 694 u[18] + 115 u[19] + 506 u[20] + 757 u[21] + 57 u[22]
   + 772 u[23] + 570 u[24] + 685 u[25] + 335 u[26] + 85 u[27] + 587 u[28]
   + 548 u[29] + 735 u[30] + 553 u[31] + 441 u[32] + 114 u[33] + 897 u[34]
   + 94 u[35] + 801 u[36] + 418 u[37] + 57 u[38] + 436 u[39] + 756 u[40]
   + 535 u[41] + 243 u[42] + 515 u[43] + 12 u[44] + 784 u[45] + 815 u[46]
   + 631 u[47] + 764 u[48] + 373 u[49] + 300 u[50] + 213 u[51] + 898 u[52]
   + 969 u[53] + 342 u[54] + 197 u[55] + 382 u[56] + 40 u[57] + 777 u[58]
   + 511 u[59] + 34 u[60] + 256 u[61] + 677 u[62] + 800 u[63] + u[64]
   + 817 u[65] + 674 u[66] + 116 u[67] + 889 u[68] + 847 u[69] + 19 u[70]
   + 683 u[71] + 755 u[72] + 284 u[73] + 781 u[74] + 846 u[75] + 832 u[76]
   + 128 u[77] + 614 u[78] + 40 u[79] <= 1000
 interdiction[0]: x[0] + u[0] <= 1
 interdiction[1]: x[1] + u[1] <= 1
 interdiction[2]: x[2] + u[2] <= 1
 interdiction[3]: x[3] + u[3] <= 1
 interdiction[4]: x[4] + u[4] <= 1
 interdiction[5]: x[5] + u[5] <= 1
 interdiction[6]: x[6] + u[6] <= 1
 interdiction[7]: x[7] + u[7] <= 1
 interdiction[8]: x[8] + u[8] <= 1
 interdiction[9]: x[9] + u[9] <= 1
 interdiction[10]: x[10] + u[10] <= 1
 interdiction[11]: x[11] + u[11] <= 1
 interdiction[12]: x[12] + u[12] <= 1
 interdiction[13]: x[13] + u[13] <= 1
 interdiction[14]: x[14] + u[14] <= 1
 interdiction[15]: x[15] + u[15] <= 1
 interdiction[16]: x[16] + u[16] <= 1
 interdiction[17]: x[17] + u[17] <= 1
 interdiction[18]: x[18] + u[18] <= 1
 interdiction[19]: x[19] + u[19] <= 1
 interdiction[20]: x[20] + u[20] <= 1
 interdiction[21]: x[21] + u[21] <= 1
 interdiction[22]: x[22] + u[22] <= 1
 interdiction[23]: x[23] + u[23] <= 1
 interdiction[24]: x[24] + u[24] <= 1
 interdiction[25]: x[25] + u[25] <= 1
 interdiction[26]: x[26] + u[26] <= 1
 interdiction[27]: x[27] + u[27] <= 1
 interdiction[28]: x[28] + u[28] <= 1
 interdiction[29]: x[29] + u[29] <= 1
 interdiction[30]: x[30] + u[30] <= 1
 interdiction[31]: x[31] + u[31] <= 1
 interdiction[32]: x[32] + u[32] <= 1
 interdiction[33]: x[33] + u[33] <= 1
 interdiction[34]: x[34] + u[34] <= 1
 interdiction[35]: x[35] + u[35] <= 1
 interdiction[36]: x[36] + u[36] <= 1
 interdiction[37]: x[37] + u[37] <= 1
 interdiction[38]: x[38] + u[38] <= 1
 interdiction[39]: x[39] + u[39] <= 1
 interdiction[40]: x[40] + u[40] <= 1
 interdiction[41]: x[41] + u[41] <= 1
 interdiction[42]: x[42] + u[42] <= 1
 interdiction[43]: x[43] + u[43] <= 1
 interdiction[44]: x[44] + u[44] <= 1
 interdiction[45]: x[45] + u[45] <= 1
 interdiction[46]: x[46] + u[46] <= 1
 interdiction[47]: x[47] + u[47] <= 1
 interdiction[48]: x[48] + u[48] <= 1
 interdiction[49]: x[49] + u[49] <= 1
 interdiction[50]: x[50] + u[50] <= 1
 interdiction[51]: x[51] + u[51] <= 1
 interdiction[52]: x[52] + u[52] <= 1
 interdiction[53]: x[53] + u[53] <= 1
 interdiction[54]: x[54] + u[54] <= 1
 interdiction[55]: x[55] + u[55] <= 1
 interdiction[56]: x[56] + u[56] <= 1
 interdiction[57]: x[57] + u[57] <= 1
 interdiction[58]: x[58] + u[58] <= 1
 interdiction[59]: x[59] + u[59] <= 1
 interdiction[60]: x[60] + u[60] <= 1
 interdiction[61]: x[61] + u[61] <= 1
 interdiction[62]: x[62] + u[62] <= 1
 interdiction[63]: x[63] + u[63] <= 1
 interdiction[64]: x[64] + u[64] <= 1
 interdiction[65]: x[65] + u[65] <= 1
 interdiction[66]: x[66] + u[66] <= 1
 interdiction[67]: x[67] + u[67] <= 1
 interdiction[68]: x[68] + u[68] <= 1
 interdiction[69]: x[69] + u[69] <= 1
 interdiction[70]: x[70] + u[70] <= 1
 interdiction[71]: x[71] + u[71] <= 1
 interdiction[72]: x[72] + u[72] <= 1
 interdiction[73]: x[73] + u[73] <= 1
 interdiction[74]: x[74] + u[74] <= 1
 interdiction[75]: x[75] + u[75] <= 1
 interdiction[76]: x[76] + u[76] <= 1
 interdiction[77]: x[77] + u[77] <= 1
 interdiction[78]: x[78] + u[78] <= 1
 interdiction[79]: x[79] + u[79] <= 1
 mccormick1[0]: - u[0] + z[0] <= 0
 mccormick1[1]: - u[1] + z[1] <= 0
 mccormick1[2]: - u[2] + z[2] <= 0
 mccormick1[3]: - u[3] + z[3] <= 0
 mccormick1[4]: - u[4] + z[4] <= 0
 mccormick1[5]: - u[5] + z[5] <= 0
 mccormick1[6]: - u[6] + z[6] <= 0
 mccormick1[7]: - u[7] + z[7] <= 0
 mccormick1[8]: - u[8] + z[8] <= 0
 mccormick1[9]: - u[9] + z[9] <= 0
 mccormick1[10]: - u[10] + z[10] <= 0
 mccormick1[11]: - u[11] + z[11] <= 0
 mccormick1[12]: - u[12] + z[12] <= 0
 mccormick1[13]: - u[13] + z[13] <= 0
 mccormick1[14]: - u[14] + z[14] <= 0
 mccormick1[15]: - u[15] + z[15] <= 0
 mccormick1[16]: - u[16] + z[16] <= 0
 mccormick1[17]: - u[17] + z[17] <= 0
 mccormick1[18]: - u[18] + z[18] <= 0
 mccormick1[19]: - u[19] + z[19] <= 0
 mccormick1[20]: - u[20] + z[20] <= 0
 mccormick1[21]: - u[21] + z[21] <= 0
 mccormick1[22]: - u[22] + z[22] <= 0
 mccormick1[23]: - u[23] + z[23] <= 0
 mccormick1[24]: - u[24] + z[24] <= 0
 mccormick1[25]: - u[25] + z[25] <= 0
 mccormick1[26]: - u[26] + z[26] <= 0
 mccormick1[27]: - u[27] + z[27] <= 0
 mccormick1[28]: - u[28] + z[28] <= 0
 mccormick1[29]: - u[29] + z[29] <= 0
 mccormick1[30]: - u[30] + z[30] <= 0
 mccormick1[31]: - u[31] + z[31] <= 0
 mccormick1[32]: - u[32] + z[32] <= 0
 mccormick1[33]: - u[33] + z[33] <= 0
 mccormick1[34]: - u[34] + z[34] <= 0
 mccormick1[35]: - u[35] + z[35] <= 0
 mccormick1[36]: - u[36] + z[36] <= 0
 mccormick1[37]: - u[37] + z[37] <= 0
 mccormick1[38]: - u[38] + z[38] <= 0
 mccormick1[39]: - u[39] + z[39] <= 0
 mccormick1[40]: - u[40] + z[40] <= 0
 mccormick1[41]: - u[41] + z[41] <= 0
 mccormick1[42]: - u[42] + z[42] <= 0
 mccormick1[43]: - u[43] + z[43] <= 0
 mccormick1[44]: - u[44] + z[44] <= 0
 mccormick1[45]: - u[45] + z[45] <= 0
 mccormick1[46]: - u[46] + z[46] <= 0
 mccormick1[47]: - u[47] + z[47] <= 0
 mccormick1[48]: - u[48] + z[48] <= 0
 mccormick1[49]: - u[49] + z[49] <= 0
 mccormick1[50]: - u[50] + z[50] <= 0
 mccormick1[51]: - u[51] + z[51] <= 0
 mccormick1[52]: - u[52] + z[52] <= 0
 mccormick1[53]: - u[53] + z[53] <= 0
 mccormick1[54]: - u[54] + z[54] <= 0
 mccormick1[55]: - u[55] + z[55] <= 0
 mccormick1[56]: - u[56] + z[56] <= 0
 mccormick1[57]: - u[57] + z[57] <= 0
 mccormick1[58]: - u[58] + z[58] <= 0
 mccormick1[59]: - u[59] + z[59] <= 0
 mccormick1[60]: - u[60] + z[60] <= 0
 mccormick1[61]: - u[61] + z[61] <= 0
 mccormick1[62]: - u[62] + z[62] <= 0
 mccormick1[63]: - u[63] + z[63] <= 0
 mccormick1[64]: - u[64] + z[64] <= 0
 mccormick1[65]: - u[65] + z[65] <= 0
 mccormick1[66]: - u[66] + z[66] <= 0
 mccormick1[67]: - u[67] + z[67] <= 0
 mccormick1[68]: - u[68] + z[68] <= 0
 mccormick1[69]: - u[69] + z[69] <= 0
 mccormick1[70]: - u[70] + z[70] <= 0
 mccormick1[71]: - u[71] + z[71] <= 0
 mccormick1[72]: - u[72] + z[72] <= 0
 mccormick1[73]: - u[73] + z[73] <= 0
 mccormick1[74]: - u[74] + z[74] <= 0
 mccormick1[75]: - u[75] + z[75] <= 0
 mccormick1[76]: - u[76] + z[76] <= 0
 mccormick1[77]: - u[77] + z[77] <= 0
 mccormick1[78]: - u[78] + z[78] <= 0
 mccormick1[79]: - u[79] + z[79] <= 0
 mccormick2[0]: - y[0] + z[0] <= 0
 mccormick2[1]: - y[1] + z[1] <= 0
 mccormick2[2]: - y[2] + z[2] <= 0
 mccormick2[3]: - y[3] + z[3] <= 0
 mccormick2[4]: - y[4] + z[4] <= 0
 mccormick2[5]: - y[5] + z[5] <= 0
 mccormick2[6]: - y[6] + z[6] <= 0
 mccormick2[7]: - y[7] + z[7] <= 0
 mccormick2[8]: - y[8] + z[8] <= 0
 mccormick2[9]: - y[9] + z[9] <= 0
 mccormick2[10]: - y[10] + z[10] <= 0
 mccormick2[11]: - y[11] + z[11] <= 0
 mccormick2[12]: - y[12] + z[12] <= 0
 mccormick2[13]: - y[13] + z[13] <= 0
 mccormick2[14]: - y[14] + z[14] <= 0
 mccormick2[15]: - y[15] + z[15] <= 0
 mccormick2[16]: - y[16] + z[16] <= 0
 mccormick2[17]: - y[17] + z[17] <= 0
 mccormick2[18]: - y[18] + z[18] <= 0
 mccormick2[19]: - y[19] + z[19] <= 0
 mccormick2[20]: - y[20] + z[20] <= 0
 mccormick2[21]: - y[21] + z[21] <= 0
 mccormick2[22]: - y[22] + z[22] <= 0
 mccormick2[23]: - y[23] + z[23] <= 0
 mccormick2[24]: - y[24] + z[24] <= 0
 mccormick2[25]: - y[25] + z[25] <= 0
 mccormick2[26]: - y[26] + z[26] <= 0
 mccormick2[27]: - y[27] + z[27] <= 0
 mccormick2[28]: - y[28] + z[28] <= 0
 mccormick2[29]: - y[29] + z[29] <= 0
 mccormick2[30]: - y[30] + z[30] <= 0
 mccormick2[31]: - y[31] + z[31] <= 0
 mccormick2[32]: - y[32] + z[32] <= 0
 mccormick2[33]: - y[33] + z[33] <= 0
 mccormick2[34]: - y[34] + z[34] <= 0
 mccormick2[35]: - y[35] + z[35] <= 0
 mccormick2[36]: - y[36] + z[36] <= 0
 mccormick2[37]: - y[37] + z[37] <= 0
 mccormick2[38]: - y[38] + z[38] <= 0
 mccormick2[39]: - y[39] + z[39] <= 0
 mccormick2[40]: - y[40] + z[40] <= 0
 mccormick2[41]: - y[41] + z[41] <= 0
 mccormick2[42]: - y[42] + z[42] <= 0
 mccormick2[43]: - y[43] + z[43] <= 0
 mccormick2[44]: - y[44] + z[44] <= 0
 mccormick2[45]: - y[45] + z[45] <= 0
 mccormick2[46]: - y[46] + z[46] <= 0
 mccormick2[47]: - y[47] + z[47] <= 0
 mccormick2[48]: - y[48] + z[48] <= 0
 mccormick2[49]: - y[49] + z[49] <= 0
 mccormick2[50]: - y[50] + z[50] <= 0
 mccormick2[51]: - y[51] + z[51] <= 0
 mccormick2[52]: - y[52] + z[52] <= 0
 mccormick2[53]: - y[53] + z[53] <= 0
 mccormick2[54]: - y[54] + z[54] <= 0
 mccormick2[55]: - y[55] + z[55] <= 0
 mccormick2[56]: - y[56] + z[56] <= 0
 mccormick2[57]: - y[57] + z[57] <= 0
 mccormick2[58]: - y[58] + z[58] <= 0
 mccormick2[59]: - y[59] + z[59] <= 0
 mccormick2[60]: - y[60] + z[60] <= 0
 mccormick2[61]: - y[61] + z[61] <= 0
 mccormick2[62]: - y[62] + z[62] <= 0
 mccormick2[63]: - y[63] + z[63] <= 0
 mccormick2[64]: - y[64] + z[64] <= 0
 mccormick2[65]: - y[65] + z[65] <= 0
 mccormick2[66]: - y[66] + z[66] <= 0
 mccormick2[67]: - y[67] + z[67] <= 0
 mccormick2[68]: - y[68] + z[68] <= 0
 mccormick2[69]: - y[69] + z[69] <= 0
 mccormick2[70]: - y[70] + z[70] <= 0
 mccormick2[71]: - y[71] + z[71] <= 0
 mccormick2[72]: - y[72] + z[72] <= 0
 mccormick2[73]: - y[73] + z[73] <= 0
 mccormick2[74]: - y[74] + z[74] <= 0
 mccormick2[75]: - y[75] + z[75] <= 0
 mccormick2[76]: - y[76] + z[76] <= 0
 mccormick2[77]: - y[77] + z[77] <= 0
 mccormick2[78]: - y[78] + z[78] <= 0
 mccormick2[79]: - y[79] + z[79] <= 0
 mccormick3[0]: y[0] + u[0] - z[0] <= 1
 mccormick3[1]: y[1] + u[1] - z[1] <= 1
 mccormick3[2]: y[2] + u[2] - z[2] <= 1
 mccormick3[3]: y[3] + u[3] - z[3] <= 1
 mccormick3[4]: y[4] + u[4] - z[4] <= 1
 mccormick3[5]: y[5] + u[5] - z[5] <= 1
 mccormick3[6]: y[6] + u[6] - z[6] <= 1
 mccormick3[7]: y[7] + u[7] - z[7] <= 1
 mccormick3[8]: y[8] + u[8] - z[8] <= 1
 mccormick3[9]: y[9] + u[9] - z[9] <= 1
 mccormick3[10]: y[10] + u[10] - z[10] <= 1
 mccormick3[11]: y[11] + u[11] - z[11] <= 1
 mccormick3[12]: y[12] + u[12] - z[12] <= 1
 mccormick3[13]: y[13] + u[13] - z[13] <= 1
 mccormick3[14]: y[14] + u[14] - z[14] <= 1
 mccormick3[15]: y[15] + u[15] - z[15] <= 1
 mccormick3[16]: y[16] + u[16] - z[16] <= 1
 mccormick3[17]: y[17] + u[17] - z[17] <= 1
 mccormick3[18]: y[18] + u[18] - z[18] <= 1
 mccormick3[19]: y[19] + u[19] - z[19] <= 1
 mccormick3[20]: y[20] + u[20] - z[20] <= 1
 mccormick3[21]: y[21] + u[21] - z[21] <= 1
 mccormick3[22]: y[22] + u[22] - z[22] <= 1
 mccormick3[23]: y[23] + u[23] - z[23] <= 1
 mccormick3[24]: y[24] + u[24] - z[24] <= 1
 mccormick3[25]: y[25] + u[25] - z[25] <= 1
 mccormick3[26]: y[26] + u[26] - z[26] <= 1
 mccormick3[27]: y[27] + u[27] - z[27] <= 1
 mccormick3[28]: y[28] + u[28] - z[28] <= 1
 mccormick3[29]: y[29] + u[29] - z[29] <= 1
 mccormick3[30]: y[30] + u[30] - z[30] <= 1
 mccormick3[31]: y[31] + u[31] - z[31] <= 1
 mccormick3[32]: y[32] + u[32] - z[32] <= 1
 mccormick3[33]: y[33] + u[33] - z[33] <= 1
 mccormick3[34]: y[34] + u[34] - z[34] <= 1
 mccormick3[35]: y[35] + u[35] - z[35] <= 1
 mccormick3[36]: y[36] + u[36] - z[36] <= 1
 mccormick3[37]: y[37] + u[37] - z[37] <= 1
 mccormick3[38]: y[38] + u[38] - z[38] <= 1
 mccormick3[39]: y[39] + u[39] - z[39] <= 1
 mccormick3[40]: y[40] + u[40] - z[40] <= 1
 mccormick3[41]: y[41] + u[41] - z[41] <= 1
 mccormick3[42]: y[42] + u[42] - z[42] <= 1
 mccormick3[43]: y[43] + u[43] - z[43] <= 1
 mccormick3[44]: y[44] + u[44] - z[44] <= 1
 mccormick3[45]: y[45] + u[45] - z[45] <= 1
 mccormick3[46]: y[46] + u[46] - z[46] <= 1
 mccormick3[47]: y[47] + u[47] - z[47] <= 1
 mccormick3[48]: y[48] + u[48] - z[48] <= 1
 mccormick3[49]: y[49] + u[49] - z[49] <= 1
 mccormick3[50]: y[50] + u[50] - z[50] <= 1
 mccormick3[51]: y[51] + u[51] - z[51] <= 1
 mccormick3[52]: y[52] + u[52] - z[52] <= 1
 mccormick3[53]: y[53] + u[53] - z[53] <= 1
 mccormick3[54]: y[54] + u[54] - z[54] <= 1
 mccormick3[55]: y[55] + u[55] - z[55] <= 1
 mccormick3[56]: y[56] + u[56] - z[56] <= 1
 mccormick3[57]: y[57] + u[57] - z[57] <= 1
 mccormick3[58]: y[58] + u[58] - z[58] <= 1
 mccormick3[59]: y[59] + u[59] - z[59] <= 1
 mccormick3[60]: y[60] + u[60] - z[60] <= 1
 mccormick3[61]: y[61] + u[61] - z[61] <= 1
 mccormick3[62]: y[62] + u[62] - z[62] <= 1
 mccormick3[63]: y[63] + u[63] - z[63] <= 1
 mccormick3[64]: y[64] + u[64] - z[64] <= 1
 mccormick3[65]: y[65] + u[65] - z[65] <= 1
 mccormick3[66]: y[66] + u[66] - z[66] <= 1
 mccormick3[67]: y[67] + u[67] - z[67] <= 1
 mccormick3[68]: y[68] + u[68] - z[68] <= 1
 mccormick3[69]: y[69] + u[69] - z[69] <= 1
 mccormick3[70]: y[70] + u[70] - z[70] <= 1
 mccormick3[71]: y[71] + u[71] - z[71] <= 1
 mccormick3[72]: y[72] + u[72] - z[72] <= 1
 mccormick3[73]: y[73] + u[73] - z[73] <= 1
 mccormick3[74]: y[74] + u[74] - z[74] <= 1
 mccormick3[75]: y[75] + u[75] - z[75] <= 1
 mccormick3[76]: y[76] + u[76] - z[76] <= 1
 mccormick3[77]: y[77] + u[77] - z[77] <= 1
 mccormick3[78]: y[78] + u[78] - z[78] <= 1
 mccormick3[79]: y[79] + u[79] - z[79] <= 1
Bounds
Binaries
 x[0] x[1] x[2] x[3] x[4] x[5] x[6] x[7] x[8] x[9] x[10] x[11] x[12] x[13]
 x[14] x[15] x[16] x[17] x[18] x[19] x[20] x[21] x[22] x[23] x[24] x[25]
 x[26] x[27] x[28] x[29] x[30] x[31] x[32] x[33] x[34] x[35] x[36] x[37]
 x[38] x[39] x[40] x[41] x[42] x[43] x[44] x[45] x[46] x[47] x[48] x[49]
 x[50] x[51] x[52] x[53] x[54] x[55] x[56] x[57] x[58] x[59] x[60] x[61]
 x[62] x[63] x[64] x[65] x[66] x[67] x[68] x[69] x[70] x[71] x[72] x[73]
 x[74] x[75] x[76] x[77] x[78] x[79] y[0] y[1] y[2] y[3] y[4] y[5] y[6]
 y[7] y[8] y[9] y[10] y[11] y[12] y[13] y[14] y[15] y[16] y[17] y[18] y[19]
 y[20] y[21] y[22] y[23] y[24] y[25] y[26] y[27] y[28] y[29] y[30] y[31]
 y[32] y[33] y[34] y[35] y[36] y[37] y[38] y[39] y[40] y[41] y[42] y[43]
 y[44] y[45] y[46] y[47] y[48] y[49] y[50] y[51] y[52] y[53] y[54] y[55]
 y[56] y[57] y[58] y[59] y[60] y[61] y[62] y[63] y[64] y[65] y[66] y[67]
 y[68] y[69] y[70] y[71] y[72] y[73] y[74] y[75] y[76] y[77] y[78] y[79]
 u[0] u[1] u[2] u[3] u[4] u[5] u[6] u[7] u[8] u[9] u[10] u[11] u[12] u[13]
 u[14] u[15] u[16] u[17] u[18] u[19] u[20] u[21] u[22] u[23] u[24] u[25]
 u[26] u[27] u[28] u[29] u[30] u[31] u[32] u[33] u[34] u[35] u[36] u[37]
 u[38] u[39] u[40] u[41] u[42] u[43] u[44] u[45] u[46] u[47] u[48] u[49]
 u[50] u[51] u[52] u[53] u[54] u[55] u[56] u[57] u[58] u[59] u[60] u[61]
 u[62] u[63] u[64] u[65] u[66] u[67] u[68] u[69] u[70] u[71] u[72] u[73]
 u[74] u[75] u[76] u[77] u[78] u[79] z[0] z[1] z[2] z[3] z[4] z[5] z[6]
 z[7] z[8] z[9] z[10] z[11] z[12] z[13] z[14] z[15] z[16] z[17] z[18] z[19]
 z[20] z[21] z[22] z[23] z[24] z[25] z[26] z[27] z[28] z[29] z[30] z[31]
 z[32] z[33] z[34] z[35] z[36] z[37] z[38] z[39] z[40] z[41] z[42] z[43]
 z[44] z[45] z[46] z[47] z[48] z[49] z[50] z[51] z[52] z[53] z[54] z[55]
 z[56] z[57] z[58] z[59] z[60] z[61] z[62] z[63] z[64] z[65] z[66] z[67]
 z[68] z[69] z[70] z[71] z[72] z[73] z[74] z[75] z[76] z[77] z[78] z[79]
End
