\ Model knapsack_40_100_1
\ LP format - for model browsing. Use MPS format to capture full model detail.
\ Signature: 0xba60f4f0ca1d3fbc
Minimize
  10 x[0] + 10 x[1] + 10 x[2] + 10 x[3] + 10 x[4] + 10 x[5] + 10 x[6]
   + 10 x[7] + 10 x[8] + 10 x[9] + 10 x[10] + 10 x[11] + 10 x[12]
   + 10 x[13] + 10 x[14] + 10 x[15] + 10 x[16] + 10 x[17] + 10 x[18]
   + 10 x[19] + 10 x[20] + 10 x[21] + 10 x[22] + 10 x[23] + 10 x[24]
   + 10 x[25] + 10 x[26] + 10 x[27] + 10 x[28] + 10 x[29] + 10 x[30]
   + 10 x[31] + 10 x[32] + 10 x[33] + 10 x[34] + 10 x[35] + 10 x[36]
   + 10 x[37] + 10 x[38] + 10 x[39] - 34 y[0] - 46 y[1] - 116 y[2]
   - 812 y[3] - 909 y[4] - 833 y[5] - 557 y[6] - 867 y[7] - 666 y[8]
   - 234 y[9] - 75 y[10] - 139 y[11] - 879 y[12] - 10 y[13] - 995 y[14]
   - 740 y[15] - 602 y[16] - 266 y[17] - 662 y[18] - 201 y[19] - 725 y[20]
   - 407 y[21] - 768 y[22] - 840 y[23] - 445 y[24] - 910 y[25] - 196 y[26]
   - 879 y[27] - 190 y[28] - 112 y[29] - 785 y[30] - 192 y[31] - 208 y[32]
   - 183 y[33] - 959 y[34] - 229 y[35] - 853 y[36] - 39 y[37] - 10 y[38]
   - 19 y[39]
Subject To
 primal_upper: 273 y[0] + 930 y[1] + 964 y[2] + 409 y[3] + 214 y[4]
   + 551 y[5] + 615 y[6] + 73 y[7] + 831 y[8] + 112 y[9] + 605 y[10]
   + 881 y[11] + 542 y[12] + 290 y[13] + 862 y[14] + 106 y[15] + 167 y[16]
   + 94 y[17] + 995 y[18] + 60 y[19] + 375 y[20] + 357 y[21] + 478 y[22]
   + 908 y[23] + 302 y[24] + 294 y[25] + 972 y[26] + 677 y[27] + 255 y[28]
   + 589 y[29] + 995 y[30] + 881 y[31] + 141 y[32] + 931 y[33] + 70 y[34]
   + 439 y[35] + 782 y[36] + 666 y[37] + 846 y[38] + 124 y[39] + 27 z[0]
   + 93 z[1] + 96 z[2] + 41 z[3] + 21 z[4] + 55 z[5] + 62 z[6] + 7 z[7]
   + 83 z[8] + 11 z[9] + 60 z[10] + 88 z[11] + 54 z[12] + 29 z[13]
   + 86 z[14] + 11 z[15] + 17 z[16] + 9 z[17] + 100 z[18] + 6 z[19]
   + 38 z[20] + 36 z[21] + 48 z[22] + 91 z[23] + 30 z[24] + 29 z[25]
   + 97 z[26] + 68 z[27] + 26 z[28] + 59 z[29] + 100 z[30] + 88 z[31]
   + 14 z[32] + 93 z[33] + 7 z[34] + 44 z[35] + 78 z[36] + 67 z[37]
   + 85 z[38] + 12 z[39] <= 10328
 primal_lower0: 398 u[0] + 103 u[1] + 977 u[2] + 854 u[3] + 3 u[4]
   + 956 u[5] + 836 u[6] + 174 u[7] + 980 u[8] + 917 u[9] + 98 u[10]
   + 862 u[11] + 947 u[12] + 727 u[13] + 883 u[14] + 575 u[15] + 324 u[16]
   + 891 u[17] + 384 u[18] + 649 u[19] + 916 u[20] + 178 u[21] + 987 u[22]
   + 897 u[23] + 867 u[24] + 363 u[25] + 161 u[26] + 562 u[27] + 708 u[28]
   + 858 u[29] + 352 u[30] + 78 u[31] + 426 u[32] + 784 u[33] + 163 u[34]
   + 828 u[35] + 851 u[36] + 183 u[37] + 443 u[38] + 993 u[39] <= 993
 primal_lower1: 381 u[0] + 294 u[1] + 800 u[2] + 445 u[3] + 298 u[4]
   + 891 u[5] + 579 u[6] + 173 u[7] + 307 u[8] + 852 u[9] + 345 u[10]
   + 725 u[11] + 698 u[12] + 46 u[13] + 890 u[14] + 198 u[15] + 539 u[16]
   + 434 u[17] + 671 u[18] + 720 u[19] + 819 u[20] + 33 u[21] + 562 u[22]
   + 464 u[23] + 274 u[24] + 266 u[25] + 616 u[26] + 897 u[27] + 891 u[28]
   + 361 u[29] + 47 u[30] + 965 u[31] + 345 u[32] + 471 u[33] + 258 u[34]
   + 995 u[35] + 682 u[36] + 550 u[37] + 858 u[38] + 904 u[39] <= 995
 primal_lower2: 708 u[0] + 488 u[1] + 286 u[2] + 367 u[3] + 880 u[4]
   + 822 u[5] + 121 u[6] + 408 u[7] + 401 u[8] + 966 u[9] + 864 u[10]
   + 199 u[11] + 408 u[12] + 48 u[13] + 345 u[14] + 729 u[15] + 825 u[16]
   + 476 u[17] + 269 u[18] + 466 u[19] + 713 u[20] + 988 u[21] + 336 u[22]
   + 811 u[23] + 817 u[24] + 252 u[25] + 502 u[26] + 36 u[27] + 154 u[28]
   + 987 u[29] + 678 u[30] + 328 u[31] + 280 u[32] + 625 u[33] + 240 u[34]
   + 677 u[35] + 952 u[36] + 465 u[37] + 368 u[38] + 499 u[39] <= 988
 primal_lower3: 804 u[0] + 192 u[1] + 558 u[2] + 311 u[3] + 624 u[4]
   + 366 u[5] + 193 u[6] + 240 u[7] + 665 u[8] + 94 u[9] + 864 u[10]
   + 55 u[11] + 96 u[12] + 800 u[13] + 937 u[14] + 905 u[15] + 49 u[16]
   + 76 u[17] + 445 u[18] + 434 u[19] + 633 u[20] + 924 u[21] + 928 u[22]
   + 379 u[23] + 217 u[24] + 212 u[25] + 326 u[26] + 164 u[27] + 66 u[28]
   + 547 u[29] + 358 u[30] + 160 u[31] + 152 u[32] + 401 u[33] + 928 u[34]
   + 669 u[35] + 216 u[36] + 113 u[37] + 792 u[38] + 579 u[39] <= 937
 primal_lower4: 804 u[0] + 341 u[1] + 407 u[2] + 100 u[3] + 225 u[4]
   + 530 u[5] + 834 u[6] + 980 u[7] + 658 u[8] + 195 u[9] + 296 u[10]
   + 508 u[11] + 937 u[12] + 53 u[13] + 689 u[14] + 317 u[15] + 874 u[16]
   + 193 u[17] + 334 u[18] + 719 u[19] + 930 u[20] + 728 u[21] + 481 u[22]
   + 719 u[23] + 769 u[24] + 273 u[25] + 791 u[26] + 624 u[27] + 890 u[28]
   + 288 u[29] + 662 u[30] + 356 u[31] + 368 u[32] + 742 u[33] + 137 u[34]
   + 946 u[35] + 321 u[36] + 757 u[37] + 889 u[38] + 575 u[39] <= 980
 primal_lower5: 688 u[0] + 468 u[1] + 178 u[2] + 563 u[3] + 316 u[4]
   + 58 u[5] + 613 u[6] + 500 u[7] + 453 u[8] + 890 u[9] + 820 u[10]
   + 627 u[11] + 876 u[12] + 692 u[13] + 485 u[14] + 317 u[15] + 405 u[16]
   + 736 u[17] + 561 u[18] + 350 u[19] + 429 u[20] + 928 u[21] + 420 u[22]
   + 23 u[23] + 373 u[24] + 432 u[25] + 178 u[26] + 776 u[27] + 958 u[28]
   + 479 u[29] + 586 u[30] + 180 u[31] + 148 u[32] + 37 u[33] + 196 u[34]
   + 977 u[35] + 980 u[36] + 829 u[37] + 820 u[38] + 439 u[39] <= 980
 primal_lower6: 313 u[0] + 29 u[1] + 819 u[2] + 252 u[3] + 973 u[4]
   + 683 u[5] + 190 u[6] + 661 u[7] + 958 u[8] + 259 u[9] + 645 u[10]
   + 876 u[11] + 205 u[12] + 509 u[13] + 574 u[14] + 494 u[15] + 590 u[16]
   + 209 u[17] + 986 u[18] + 87 u[19] + 966 u[20] + 449 u[21] + 157 u[22]
   + 512 u[23] + 126 u[24] + 345 u[25] + 987 u[26] + 737 u[27] + 199 u[28]
   + 816 u[29] + 707 u[30] + 741 u[31] + 485 u[32] + 670 u[33] + 989 u[34]
   + 794 u[35] + 853 u[36] + 318 u[37] + 317 u[38] + 72 u[39] <= 989
 primal_lower7: 795 u[0] + 479 u[1] + 621 u[2] + 838 u[3] + 375 u[4]
   + 109 u[5] + 40 u[6] + 975 u[7] + 624 u[8] + 805 u[9] + 111 u[10]
   + 286 u[11] + 183 u[12] + 103 u[13] + 392 u[14] + 704 u[15] + 552 u[16]
   + 787 u[17] + 860 u[18] + 513 u[19] + 16 u[20] + 459 u[21] + 479 u[22]
   + 962 u[23] + 232 u[24] + 427 u[25] + 861 u[26] + 179 u[27] + 945 u[28]
   + 346 u[29] + 61 u[30] + 295 u[31] + 439 u[32] + 48 u[33] + 495 u[34]
   + 948 u[35] + 47 u[36] + 872 u[37] + 119 u[38] + 746 u[39] <= 975
 primal_lower8: 875 u[0] + 276 u[1] + 94 u[2] + 843 u[3] + 744 u[4]
   + 401 u[5] + 297 u[6] + 291 u[7] + 633 u[8] + 794 u[9] + 239 u[10]
   + 979 u[11] + 96 u[12] + 676 u[13] + 368 u[14] + 764 u[15] + 577 u[16]
   + 976 u[17] + 805 u[18] + 550 u[19] + 985 u[20] + 79 u[21] + 432 u[22]
   + 206 u[23] + 648 u[24] + 808 u[25] + 742 u[26] + 791 u[27] + 929 u[28]
   + 343 u[29] + 429 u[30] + 147 u[31] + 687 u[32] + 381 u[33] + 952 u[34]
   + 545 u[35] + 720 u[36] + 164 u[37] + 56 u[38] + 862 u[39] <= 985
 primal_lower9: 36 u[0] + 304 u[1] + 982 u[2] + 903 u[3] + 160 u[4]
   + 558 u[5] + 105 u[6] + 608 u[7] + 529 u[8] + 174 u[9] + 536 u[10]
   + 559 u[11] + 792 u[12] + 400 u[13] + 297 u[14] + 569 u[15] + 305 u[16]
   + 436 u[17] + 869 u[18] + 202 u[19] + 953 u[20] + 180 u[21] + 144 u[22]
   + 35 u[23] + 745 u[24] + 84 u[25] + 526 u[26] + 740 u[27] + 690 u[28]
   + 515 u[29] + 838 u[30] + 200 u[31] + 280 u[32] + 929 u[33] + 960 u[34]
   + 949 u[35] + 696 u[36] + 49 u[37] + 136 u[38] + 139 u[39] <= 982
 primal_lower10: 752 u[0] + 180 u[1] + 738 u[2] + 115 u[3] + 796 u[4]
   + 314 u[5] + 653 u[6] + 612 u[7] + 573 u[8] + 514 u[9] + 292 u[10]
   + 307 u[11] + 316 u[12] + 716 u[13] + 389 u[14] + 629 u[15] + 917 u[16]
   + 176 u[17] + 425 u[18] + 94 u[19] + 237 u[20] + 720 u[21] + 276 u[22]
   + 183 u[23] + 613 u[24] + 112 u[25] + 90 u[26] + 240 u[27] + 358 u[28]
   + 687 u[29] + 682 u[30] + 196 u[31] + 276 u[32] + 717 u[33] + 260 u[34]
   + 929 u[35] + 196 u[36] + 277 u[37] + 524 u[38] + 983 u[39] <= 983
 primal_lower11: 729 u[0] + 554 u[1] + 108 u[2] + 161 u[3] + 854 u[4]
   + 823 u[5] + 895 u[6] + 721 u[7] + 943 u[8] + 296 u[9] + 397 u[10]
   + 97 u[11] + 350 u[12] + 946 u[13] + 318 u[14] + 106 u[15] + 55 u[16]
   + 390 u[17] + 611 u[18] + 596 u[19] + 39 u[20] + 421 u[21] + 30 u[22]
   + 956 u[23] + 222 u[24] + 278 u[25] + 716 u[26] + 837 u[27] + 639 u[28]
   + 597 u[29] + 211 u[30] + 529 u[31] + 749 u[32] + 899 u[33] + 6 u[34]
   + 919 u[35] + 302 u[36] + 818 u[37] + 422 u[38] + 788 u[39] <= 956
 primal_lower12: 865 u[0] + 154 u[1] + 532 u[2] + 457 u[3] + 102 u[4]
   + 983 u[5] + 511 u[6] + 145 u[7] + 191 u[8] + 104 u[9] + 261 u[10]
   + 17 u[11] + 686 u[12] + 914 u[13] + 302 u[14] + 106 u[15] + 23 u[16]
   + 110 u[17] + 483 u[18] + 20 u[19] + 103 u[20] + 477 u[21] + 558 u[22]
   + 556 u[23] + 334 u[24] + 686 u[25] + 228 u[26] + 253 u[27] + 735 u[28]
   + 645 u[29] + 371 u[30] + 345 u[31] + 181 u[32] + 795 u[33] + 678 u[34]
   + 343 u[35] + 6 u[36] + 914 u[37] + 30 u[38] + 756 u[39] <= 983
 primal_lower13: 610 u[0] + 699 u[1] + 869 u[2] + 682 u[3] + 495 u[4]
   + 792 u[5] + 712 u[6] + 482 u[7] + 424 u[8] + 73 u[9] + 894 u[10]
   + 138 u[11] + 31 u[12] + 987 u[13] + 983 u[14] + 851 u[15] + 368 u[16]
   + 615 u[17] + 388 u[18] + 477 u[19] + 976 u[20] + 982 u[21] + 903 u[22]
   + 501 u[23] + 111 u[24] + 367 u[25] + 477 u[26] + 414 u[27] + 728 u[28]
   + 310 u[29] + 308 u[30] + 778 u[31] + 334 u[32] + 708 u[33] + 95 u[34]
   + 48 u[35] + 311 u[36] + 3 u[37] + 327 u[38] + 397 u[39] <= 987
 primal_lower14: 982 u[0] + 250 u[1] + 504 u[2] + 313 u[3] + 466 u[4]
   + 208 u[5] + 19 u[6] + 314 u[7] + 491 u[8] + 664 u[9] + 266 u[10]
   + 169 u[11] + 898 u[12] + 514 u[13] + 371 u[14] + 499 u[15] + 435 u[16]
   + 406 u[17] + 183 u[18] + 92 u[19] + 803 u[20] + 878 u[21] + 354 u[22]
   + 61 u[23] + 739 u[24] + 646 u[25] + 408 u[26] + 142 u[27] + 476 u[28]
   + 509 u[29] + 112 u[30] + 986 u[31] + 298 u[32] + 131 u[33] + 602 u[34]
   + 879 u[35] + 122 u[36] + 91 u[37] + 914 u[38] + 749 u[39] <= 986
 primal_lower15: 304 u[0] + 281 u[1] + 883 u[2] + 840 u[3] + 749 u[4]
   + 406 u[5] + 6 u[6] + 640 u[7] + 966 u[8] + 183 u[9] + 852 u[10]
   + 440 u[11] + 781 u[12] + 521 u[13] + 365 u[14] + 753 u[15] + 334 u[16]
   + 861 u[17] + 58 u[18] + 995 u[19] + 502 u[20] + 4 u[21] + 109 u[22]
   + 907 u[23] + 629 u[24] + 525 u[25] + 867 u[26] + 92 u[27] + 510 u[28]
   + 148 u[29] + 658 u[30] + 688 u[31] + 4 u[32] + 434 u[33] + 653 u[34]
   + 630 u[35] + 309 u[36] + 761 u[37] + 725 u[38] + 235 u[39] <= 995
 primal_lower16: 60 u[0] + 832 u[1] + 102 u[2] + 679 u[3] + 976 u[4]
   + 158 u[5] + 529 u[6] + 96 u[7] + 929 u[8] + 270 u[9] + 928 u[10]
   + 663 u[11] + 96 u[12] + 744 u[13] + 913 u[14] + 33 u[15] + 817 u[16]
   + 116 u[17] + 157 u[18] + 882 u[19] + 825 u[20] + 956 u[21] + 80 u[22]
   + 859 u[23] + 761 u[24] + 748 u[25] + 558 u[26] + 708 u[27] + 530 u[28]
   + 515 u[29] + 326 u[30] + 8 u[31] + 896 u[32] + 281 u[33] + 368 u[34]
   + 877 u[35] + 680 u[36] + 169 u[37] + 840 u[38] + 547 u[39] <= 976
 primal_lower17: 15 u[0] + 664 u[1] + 506 u[2] + 159 u[3] + 260 u[4]
   + 405 u[5] + 829 u[6] + 239 u[7] + 909 u[8] + 262 u[9] + 371 u[10]
   + 711 u[11] + 580 u[12] + 784 u[13] + 180 u[14] + 768 u[15] + 413 u[16]
   + 148 u[17] + 737 u[18] + 546 u[19] + 437 u[20] + 635 u[21] + 924 u[22]
   + 266 u[23] + 364 u[24] + 540 u[25] + 618 u[26] + 499 u[27] + 285 u[28]
   + 339 u[29] + 449 u[30] + 631 u[31] + 187 u[32] + 377 u[33] + 924 u[34]
   + 853 u[35] + 540 u[36] + 352 u[37] + 660 u[38] + 642 u[39] <= 924
 primal_lower18: 589 u[0] + 401 u[1] + 263 u[2] + 840 u[3] + 569 u[4]
   + 519 u[5] + 930 u[6] + 897 u[7] + 274 u[8] + 327 u[9] + 113 u[10]
   + 8 u[11] + 961 u[12] + 273 u[13] + 922 u[14] + 522 u[15] + 650 u[16]
   + 501 u[17] + 534 u[18] + 475 u[19] + 930 u[20] + 381 u[21] + 145 u[22]
   + 372 u[23] + 202 u[24] + 629 u[25] + 295 u[26] + 917 u[27] + 867 u[28]
   + 212 u[29] + 999 u[30] + 505 u[31] + 777 u[32] + 882 u[33] + 129 u[34]
   + 246 u[35] + 985 u[36] + 938 u[37] + 977 u[38] + 532 u[39] <= 999
 primal_lower19: 752 u[0] + 713 u[1] + 387 u[2] + 880 u[3] + 421 u[4]
   + 342 u[5] + 694 u[6] + 216 u[7] + 358 u[8] + 407 u[9] + 196 u[10]
   + 240 u[11] + 93 u[12] + 657 u[13] + 693 u[14] + 65 u[15] + 998 u[16]
   + 693 u[17] + 866 u[18] + 539 u[19] + 174 u[20] + 36 u[21] + 797 u[22]
   + 531 u[23] + 413 u[24] + 317 u[25] + 667 u[26] + 948 u[27] + 590 u[28]
   + 588 u[29] + 906 u[30] + 664 u[31] + 852 u[32] + 378 u[33] + 965 u[34]
   + 734 u[35] + 909 u[36] + 257 u[37] + 69 u[38] + 691 u[39] <= 998
 primal_lower20: 72 u[0] + 92 u[1] + 530 u[2] + 851 u[3] + 188 u[4]
   + 210 u[5] + 965 u[6] + 436 u[7] + 21 u[8] + 690 u[9] + 52 u[10]
   + 507 u[11] + 780 u[12] + 652 u[13] + 37 u[14] + 997 u[15] + 429 u[16]
   + 216 u[17] + 825 u[18] + 358 u[19] + 165 u[20] + 200 u[21] + 172 u[22]
   + 887 u[23] + 5 u[24] + 280 u[25] + 10 u[26] + 544 u[27] + 838 u[28]
   + 439 u[29] + 586 u[30] + 100 u[31] + 284 u[32] + 237 u[33] + 292 u[34]
   + 673 u[35] + 60 u[36] + 613 u[37] + 140 u[38] + 399 u[39] <= 997
 primal_lower21: 382 u[0] + 698 u[1] + 912 u[2] + 281 u[3] + 978 u[4]
   + 696 u[5] + 11 u[6] + 618 u[7] + 891 u[8] + 480 u[9] + 554 u[10]
   + 433 u[11] + 98 u[12] + 90 u[13] + 11 u[14] + 755 u[15] + 803 u[16]
   + 214 u[17] + 863 u[18] + 444 u[19] + 875 u[20] + 910 u[21] + 234 u[22]
   + 413 u[23] + 403 u[24] + 422 u[25] + 296 u[26] + 190 u[27] + 924 u[28]
   + 669 u[29] + 568 u[30] + 818 u[31] + 994 u[32] + 755 u[33] + 938 u[34]
   + 687 u[35] + 922 u[36] + 355 u[37] + 522 u[38] + 709 u[39] <= 994
 primal_lower22: 39 u[0] + 899 u[1] + 521 u[2] + 274 u[3] + 851 u[4]
   + 929 u[5] + 948 u[6] + 571 u[7] + 404 u[8] + 785 u[9] + 299 u[10]
   + 282 u[11] + 819 u[12] + 571 u[13] + 524 u[14] + 820 u[15] + 196 u[16]
   + 735 u[17] + 608 u[18] + 357 u[19] + 780 u[20] + 607 u[21] + 411 u[22]
   + 590 u[23] + 652 u[24] + 951 u[25] + 417 u[26] + 391 u[27] + 285 u[28]
   + 878 u[29] + 737 u[30] + 315 u[31] + 883 u[32] + 524 u[33] + 211 u[34]
   + 536 u[35] + 915 u[36] + 4 u[37] + 355 u[38] + 822 u[39] <= 951
 primal_lower23: 289 u[0] + 477 u[1] + 523 u[2] + 20 u[3] + 765 u[4]
   + 11 u[5] + 398 u[6] + 853 u[7] + 118 u[8] + 811 u[9] + 533 u[10]
   + 668 u[11] + 949 u[12] + 69 u[13] + 38 u[14] + 518 u[15] + 998 u[16]
   + 721 u[17] + 90 u[18] + 215 u[19] + 390 u[20] + 417 u[21] + 685 u[22]
   + 360 u[23] + 670 u[24] + 609 u[25] + 379 u[26] + 49 u[27] + 567 u[28]
   + 904 u[29] + 803 u[30] + 165 u[31] + 541 u[32] + 782 u[33] + 789 u[34]
   + 490 u[35] + 221 u[36] + 134 u[37] + 845 u[38] + 520 u[39] <= 998
 primal_lower24: 49 u[0] + 298 u[1] + 468 u[2] + 377 u[3] + 422 u[4]
   + 927 u[5] + 175 u[6] + u[7] + 231 u[8] + 840 u[9] + 405 u[10]
   + 113 u[11] + 638 u[12] + 482 u[13] + 334 u[14] + 962 u[15] + 391 u[16]
   + 646 u[17] + 875 u[18] + 84 u[19] + 839 u[20] + 645 u[21] + 494 u[22]
   + 788 u[23] + 806 u[24] + 374 u[25] + 100 u[26] + 805 u[27] + 503 u[28]
   + 909 u[29] + 611 u[30] + 545 u[31] + 725 u[32] + 827 u[33] + 334 u[34]
   + 319 u[35] + 206 u[36] + 266 u[37] + 358 u[38] + 828 u[39] <= 962
 primal_lower25: 999 u[0] + 563 u[1] + 257 u[2] + 762 u[3] + 691 u[4]
   + 681 u[5] + 940 u[6] + 163 u[7] + 692 u[8] + 881 u[9] + 187 u[10]
   + 842 u[11] + 67 u[12] + 827 u[13] + 156 u[14] + 900 u[15] + 428 u[16]
   + 967 u[17] + 184 u[18] + 197 u[19] + 732 u[20] + 439 u[21] + 395 u[22]
   + 230 u[23] + 492 u[24] + 695 u[25] + 393 u[26] + 343 u[27] + 693 u[28]
   + 806 u[29] + 985 u[30] + 99 u[31] + 291 u[32] + 236 u[33] + 451 u[34]
   + 352 u[35] + 51 u[36] + 52 u[37] + 395 u[38] + 742 u[39] <= 999
 primal_lower26: 832 u[0] + 468 u[1] + 850 u[2] + 163 u[3] + 476 u[4]
   + 754 u[5] + 269 u[6] + 756 u[7] + 589 u[8] + 722 u[9] + 852 u[10]
   + 91 u[11] + 76 u[12] + 516 u[13] + 149 u[14] + 253 u[15] + 5 u[16]
   + 504 u[17] + 529 u[18] + 446 u[19] + 501 u[20] + 928 u[21] + 148 u[22]
   + 895 u[23] + 685 u[24] + 672 u[25] + 26 u[26] + 280 u[27] + 134 u[28]
   + 671 u[29] + 74 u[30] + 356 u[31] + 100 u[32] + 781 u[33] + 284 u[34]
   + 769 u[35] + 316 u[36] + 37 u[37] + 188 u[38] + 431 u[39] <= 928
 primal_lower27: 129 u[0] + 762 u[1] + 52 u[2] + 481 u[3] + 422 u[4]
   + 871 u[5] + 927 u[6] + 81 u[7] + 727 u[8] + 840 u[9] + 629 u[10]
   + 41 u[11] + 166 u[12] + 258 u[13] + 950 u[14] + 658 u[15] + 199 u[16]
   + 734 u[17] + 891 u[18] + 380 u[19] + 559 u[20] + 293 u[21] + 126 u[22]
   + 356 u[23] + 182 u[24] + 790 u[25] + 780 u[26] + 29 u[27] + 463 u[28]
   + 957 u[29] + 811 u[30] + 9 u[31] + 965 u[32] + 403 u[33] + 278 u[34]
   + 303 u[35] + 486 u[36] + 378 u[37] + 990 u[38] + 756 u[39] <= 990
 primal_lower28: 679 u[0] + 512 u[1] + 106 u[2] + 231 u[3] + 772 u[4]
   + 421 u[5] + 973 u[6] + 551 u[7] + 533 u[8] + 814 u[9] + 219 u[10]
   + 855 u[11] + 476 u[12] + 800 u[13] + 772 u[14] + 432 u[15] + 613 u[16]
   + 748 u[17] + 609 u[18] + 234 u[19] + 973 u[20] + 603 u[21] + 972 u[22]
   + 266 u[23] + 932 u[24] + 324 u[25] + 882 u[26] + 67 u[27] + 237 u[28]
   + 523 u[29] + 233 u[30] + 967 u[31] + 723 u[32] + 801 u[33] + 476 u[34]
   + 237 u[35] + 180 u[36] + 480 u[37] + 748 u[38] + 754 u[39] <= 973
 primal_lower29: 991 u[0] + 424 u[1] + 786 u[2] + 967 u[3] + 572 u[4]
   + 333 u[5] + 701 u[6] + 471 u[7] + 405 u[8] + 158 u[9] + 619 u[10]
   + 847 u[11] + 52 u[12] + 976 u[13] + 244 u[14] + 816 u[15] + 29 u[16]
   + 572 u[17] + 321 u[18] + 850 u[19] + 885 u[20] + 19 u[21] + 876 u[22]
   + 42 u[23] + 68 u[24] + 948 u[25] + 642 u[26] + 155 u[27] + 53 u[28]
   + 419 u[29] + 921 u[30] + 863 u[31] + 155 u[32] + 281 u[33] + 668 u[34]
   + 189 u[35] + 860 u[36] + 496 u[37] + 84 u[38] + 186 u[39] <= 991
 primal_lower30: 80 u[0] + 564 u[1] + 2 u[2] + 899 u[3] + 220 u[4]
   + 394 u[5] + 933 u[6] + 476 u[7] + 981 u[8] + 354 u[9] + 332 u[10]
   + 187 u[11] + 660 u[12] + 564 u[13] + 93 u[14] + 933 u[15] + 109 u[16]
   + 368 u[17] + 993 u[18] + 822 u[19] + 789 u[20] + 856 u[21] + 108 u[22]
   + 239 u[23] + 485 u[24] + 496 u[25] + 826 u[26] + 344 u[27] + 926 u[28]
   + 943 u[29] + 458 u[30] + 924 u[31] + 444 u[32] + 613 u[33] + 68 u[34]
   + 121 u[35] + 348 u[36] + 541 u[37] + 260 u[38] + 847 u[39] <= 993
 primal_lower31: 949 u[0] + 129 u[1] + 607 u[2] + 320 u[3] + 897 u[4]
   + 895 u[5] + 514 u[6] + 545 u[7] + 978 u[8] + 447 u[9] + 817 u[10]
   + 352 u[11] + 473 u[12] + 609 u[13] + 642 u[14] + 834 u[15] + 186 u[16]
   + 949 u[17] + 46 u[18] + 507 u[19] + 506 u[20] + 733 u[21] + 41 u[22]
   + 548 u[23] + 650 u[24] + 813 u[25] + 431 u[26] + 669 u[27] + 507 u[28]
   + 948 u[29] + 783 u[30] + 657 u[31] + 329 u[32] + 90 u[33] + 401 u[34]
   + 150 u[35] + 313 u[36] + 106 u[37] + 177 u[38] + 892 u[39] <= 978
 primal_lower32: 619 u[0] + 436 u[1] + 902 u[2] + 963 u[3] + 488 u[4]
   + 417 u[5] + 457 u[6] + 179 u[7] + 65 u[8] + 666 u[9] + 983 u[10]
   + 931 u[11] + 376 u[12] + 852 u[13] + 424 u[14] + 244 u[15] + 9 u[16]
   + 560 u[17] + 765 u[18] + 966 u[19] + 633 u[20] + 967 u[21] + 984 u[22]
   + 542 u[23] + 552 u[24] + 536 u[25] + 382 u[26] + 535 u[27] + 873 u[28]
   + 399 u[29] + 45 u[30] + 419 u[31] + 391 u[32] + 453 u[33] + 800 u[34]
   + 817 u[35] + 640 u[36] + 500 u[37] + 80 u[38] + 78 u[39] <= 984
 primal_lower33: 821 u[0] + 262 u[1] + 512 u[2] + 845 u[3] + 930 u[4]
   + 619 u[5] + 443 u[6] + 381 u[7] + 555 u[8] + 460 u[9] + 25 u[10]
   + 741 u[11] + 194 u[12] + 294 u[13] + 506 u[14] + 326 u[15] + 67 u[16]
   + 994 u[17] + 7 u[18] + 688 u[19] + 891 u[20] + 401 u[21] + 418 u[22]
   + 704 u[23] + 970 u[24] + 586 u[25] + 456 u[26] + 921 u[27] + 323 u[28]
   + 801 u[29] + 311 u[30] + 397 u[31] + 617 u[32] + 799 u[33] + 466 u[34]
   + 707 u[35] + 634 u[36] + 110 u[37] + 634 u[38] + 944 u[39] <= 994
 primal_lower34: 330 u[0] + 598 u[1] + 452 u[2] + 557 u[3] + 86 u[4]
   + 796 u[5] + 711 u[6] + 830 u[7] + 559 u[8] + 4 u[9] + 150 u[10]
   + 613 u[11] + 934 u[12] + 806 u[13] + 535 u[14] + 847 u[15] + 215 u[16]
   + 242 u[17] + 483 u[18] + 632 u[19] + 655 u[20] + 890 u[21] + 702 u[22]
   + 289 u[23] + 839 u[24] + 490 u[25] + 380 u[26] + 770 u[27] + 624 u[28]
   + 681 u[29] + 988 u[30] + 702 u[31] + 910 u[32] + 719 u[33] + 310 u[34]
   + 875 u[35] + 918 u[36] + 631 u[37] + 366 u[38] + 873 u[39] <= 988
 primal_lower35: 214 u[0] + 866 u[1] + 504 u[2] + 945 u[3] + 714 u[4]
   + 616 u[5] + 403 u[6] + 722 u[7] + 883 u[8] + 704 u[9] + 106 u[10]
   + 209 u[11] + 322 u[12] + 746 u[13] + 523 u[14] + 187 u[15] + 899 u[16]
   + 678 u[17] + 87 u[18] + 36 u[19] + 955 u[20] + 742 u[21] + 994 u[22]
   + 453 u[23] + 235 u[24] + 470 u[25] + 48 u[26] + 254 u[27] + 308 u[28]
   + 277 u[29] + 160 u[30] + 834 u[31] + 338 u[32] + 451 u[33] + 578 u[34]
   + 799 u[35] + 554 u[36] + 547 u[37] + 346 u[38] + 213 u[39] <= 994
 primal_lower36: 903 u[0] + 115 u[1] + 137 u[2] + 514 u[3] + 483 u[4]
   + 289 u[5] + 244 u[6] + 539 u[7] + 476 u[8] + 137 u[9] + 155 u[10]
   + 322 u[11] + 267 u[12] + 987 u[13] + 956 u[14] + 188 u[15] + 772 u[16]
   + 183 u[17] + 320 u[18] + 101 u[19] + 236 u[20] + 119 u[21] + 211 u[22]
   + 974 u[23] + 36 u[24] + 135 u[25] + 113 u[26] + 823 u[27] + 565 u[28]
   + 454 u[29] + 881 u[30] + 915 u[31] + 835 u[32] + 356 u[33] + 755 u[34]
   + 104 u[35] + 411 u[36] + 372 u[37] + 227 u[38] + 958 u[39] <= 987
 primal_lower37: 704 u[0] + 668 u[1] + 890 u[2] + 355 u[3] + 724 u[4]
   + 386 u[5] + 733 u[6] + 980 u[7] + 613 u[8] + 794 u[9] + 348 u[10]
   + 131 u[11] + 716 u[12] + 236 u[13] + 181 u[14] + 845 u[15] + 333 u[16]
   + 240 u[17] + 209 u[18] + 342 u[19] + 101 u[20] + 856 u[21] + 508 u[22]
   + 39 u[23] + 85 u[24] + 264 u[25] + 354 u[26] + 176 u[27] + 918 u[28]
   + 503 u[29] + 906 u[30] + 668 u[31] + 692 u[32] + 877 u[33] + 740 u[34]
   + 617 u[35] + 988 u[36] + 653 u[37] + 124 u[38] + 439 u[39] <= 988
 primal_lower38: 418 u[0] + 318 u[1] + 220 u[2] + 901 u[3] + 374 u[4]
   + 556 u[5] + 839 u[6] + 710 u[7] + 223 u[8] + 364 u[9] + 318 u[10]
   + 197 u[11] + 102 u[12] + 942 u[13] + 311 u[14] + 479 u[15] + 751 u[16]
   + 210 u[17] + 683 u[18] + 632 u[19] + 959 u[20] + 674 u[21] + 830 u[22]
   + 585 u[23] + 47 u[24] + 546 u[25] + 436 u[26] + 658 u[27] + 456 u[28]
   + 961 u[29] + 812 u[30] + 214 u[31] + 966 u[32] + 279 u[33] + 758 u[34]
   + 259 u[35] + 326 u[36] + 223 u[37] + 38 u[38] + 593 u[39] <= 966
 primal_lower39: 227 u[0] + 948 u[1] + 822 u[2] + 139 u[3] + 232 u[4]
   + 833 u[5] + 41 u[6] + 891 u[7] + 825 u[8] + 266 u[9] + 999 u[10]
   + 835 u[11] + 744 u[12] + 220 u[13] + 488 u[14] + 20 u[15] + 249 u[16]
   + 960 u[17] + 453 u[18] + 390 u[19] + 665 u[20] + 831 u[21] + 32 u[22]
   + 134 u[23] + 448 u[24] + 592 u[25] + 494 u[26] + 815 u[27] + 713 u[28]
   + 799 u[29] + 645 u[30] + 331 u[31] + 991 u[32] + 509 u[33] + 104 u[34]
   + 433 u[35] + 48 u[36] + 844 u[37] + 456 u[38] + 142 u[39] <= 999
 primal_lower40: 55 u[0] + 928 u[1] + 738 u[2] + 735 u[3] + 108 u[4]
   + 197 u[5] + 101 u[6] + 631 u[7] + 357 u[8] + 526 u[9] + 371 u[10]
   + 399 u[11] + 316 u[12] + 472 u[13] + 980 u[14] + 688 u[15] + 133 u[16]
   + 620 u[17] + 897 u[18] + 914 u[19] + 677 u[20] + 899 u[21] + 396 u[22]
   + 546 u[23] + 436 u[24] + 988 u[25] + 162 u[26] + 835 u[27] + 869 u[28]
   + 51 u[29] + 657 u[30] + 191 u[31] + 331 u[32] + 137 u[33] + 132 u[34]
   + 149 u[35] + 556 u[36] + 680 u[37] + 260 u[38] + 106 u[39] <= 988
 primal_lower41: 450 u[0] + 758 u[1] + 620 u[2] + 149 u[3] + 526 u[4]
   + 484 u[5] + 471 u[6] + 134 u[7] + 767 u[8] + 588 u[9] + 430 u[10]
   + 629 u[11] + 910 u[12] + 654 u[13] + 983 u[14] + 295 u[15] + 95 u[16]
   + 226 u[17] + 683 u[18] + 488 u[19] + 831 u[20] + 506 u[21] + 878 u[22]
   + 601 u[23] + 975 u[24] + 922 u[25] + 564 u[26] + 962 u[27] + 560 u[28]
   + 881 u[29] + 612 u[30] + 70 u[31] + 950 u[32] + 511 u[33] + 46 u[34]
   + 907 u[35] + 318 u[36] + 391 u[37] + 134 u[38] + 553 u[39] <= 983
 primal_lower42: 444 u[0] + 261 u[1] + 591 u[2] + 180 u[3] + 497 u[4]
   + 178 u[5] + 546 u[6] + 292 u[7] + 658 u[8] + 747 u[9] + 368 u[10]
   + 860 u[11] + 705 u[12] + 581 u[13] + 113 u[14] + 541 u[15] + 770 u[16]
   + 977 u[17] + 454 u[18] + 263 u[19] + 274 u[20] + 144 u[21] + u[22]
   + 527 u[23] + 833 u[24] + 729 u[25] + 383 u[26] + 608 u[27] + 434 u[28]
   + 904 u[29] + 510 u[30] + 932 u[31] + 800 u[32] + 718 u[33] + 49 u[34]
   + 170 u[35] + 745 u[36] + 357 u[37] + 801 u[38] + 647 u[39] <= 977
 primal_lower43: 450 u[0] + 238 u[1] + 436 u[2] + 709 u[3] + 870 u[4]
   + 876 u[5] + 167 u[6] + 526 u[7] + 263 u[8] + 180 u[9] + 542 u[10]
   + 157 u[11] + 814 u[12] + 686 u[13] + 23 u[14] + 23 u[15] + 479 u[16]
   + 922 u[17] + 107 u[18] + 632 u[19] + 791 u[20] + 178 u[21] + 118 u[22]
   + 17 u[23] + 943 u[24] + 330 u[25] + 540 u[26] + 642 u[27] + 576 u[28]
   + 313 u[29] + 684 u[30] + 574 u[31] + 86 u[32] + 895 u[33] + 694 u[34]
   + 83 u[35] + 38 u[36] + 607 u[37] + 518 u[38] + 833 u[39] <= 943
 primal_lower44: 721 u[0] + 405 u[1] + 35 u[2] + 636 u[3] + 117 u[4]
   + 187 u[5] + 254 u[6] + 773 u[7] + 830 u[8] + 219 u[9] + 797 u[10]
   + 324 u[11] + 949 u[12] + 861 u[13] + 606 u[14] + 30 u[15] + 70 u[16]
   + 209 u[17] + 658 u[18] + 479 u[19] + 582 u[20] + 97 u[21] + 773 u[22]
   + 200 u[23] + 782 u[24] + 169 u[25] + 419 u[26] + 129 u[27] + 727 u[28]
   + 640 u[29] + 859 u[30] + 317 u[31] + 325 u[32] + 854 u[33] + 285 u[34]
   + 178 u[35] + 501 u[36] + 470 u[37] + 349 u[38] + 104 u[39] <= 949
 primal_lower45: 385 u[0] + 877 u[1] + 515 u[2] + 140 u[3] + 405 u[4]
   + 315 u[5] + 758 u[6] + 701 u[7] + 670 u[8] + 27 u[9] + 789 u[10]
   + 76 u[11] + 973 u[12] + 21 u[13] + 374 u[14] + 422 u[15] + 750 u[16]
   + 481 u[17] + 674 u[18] + 895 u[19] + 310 u[20] + 545 u[21] + 957 u[22]
   + 160 u[23] + 302 u[24] + 361 u[25] + 619 u[26] + 801 u[27] + 711 u[28]
   + 976 u[29] + 803 u[30] + 469 u[31] + 701 u[32] + 526 u[33] + 397 u[34]
   + 898 u[35] + 365 u[36] + 446 u[37] + 925 u[38] + 536 u[39] <= 976
 primal_lower46: 762 u[0] + 347 u[1] + 901 u[2] + 170 u[3] + 31 u[4]
   + 40 u[5] + 872 u[6] + 770 u[7] + 600 u[8] + 153 u[9] + 150 u[10]
   + 714 u[11] + 7 u[12] + 3 u[13] + 111 u[14] + 819 u[15] + 624 u[16]
   + 887 u[17] + 988 u[18] + 949 u[19] + 768 u[20] + 590 u[21] + 295 u[22]
   + 589 u[23] + 263 u[24] + 631 u[25] + 805 u[26] + 958 u[27] + 200 u[28]
   + 230 u[29] + 588 u[30] + 354 u[31] + 30 u[32] + 660 u[33] + 183 u[34]
   + 152 u[35] + 511 u[36] + 827 u[37] + 39 u[38] + 221 u[39] <= 988
 primal_lower47: 337 u[0] + 10 u[1] + 604 u[2] + 993 u[3] + 38 u[4]
   + 983 u[5] + 383 u[6] + 985 u[7] + 415 u[8] + 512 u[9] + 21 u[10]
   + 993 u[11] + 878 u[12] + 786 u[13] + 982 u[14] + 322 u[15] + 463 u[16]
   + 694 u[17] + 939 u[18] + 908 u[19] + 471 u[20] + 101 u[21] + 62 u[22]
   + 932 u[23] + 902 u[24] + 974 u[25] + 740 u[26] + 381 u[27] + 55 u[28]
   + 213 u[29] + 819 u[30] + 473 u[31] + 45 u[32] + 251 u[33] + 358 u[34]
   + 447 u[35] + 574 u[36] + 802 u[37] + 966 u[38] + 860 u[39] <= 993
 primal_lower48: 525 u[0] + 385 u[1] + 167 u[2] + 168 u[3] + 65 u[4]
   + 567 u[5] + 330 u[6] + 329 u[7] + 330 u[8] + 903 u[9] + 193 u[10]
   + 944 u[11] + 577 u[12] + 193 u[13] + 834 u[14] + 746 u[15] + 474 u[16]
   + 509 u[17] + 966 u[18] + 723 u[19] + 618 u[20] + 741 u[21] + u[22]
   + 652 u[23] + 298 u[24] + 397 u[25] + 151 u[26] + 765 u[27] + 635 u[28]
   + 444 u[29] + 447 u[30] + 97 u[31] + 929 u[32] + 330 u[33] + 337 u[34]
   + 454 u[35] + 17 u[36] + 626 u[37] + 665 u[38] + 188 u[39] <= 966
 primal_lower49: 211 u[0] + 199 u[1] + 853 u[2] + 990 u[3] + 63 u[4]
   + 85 u[5] + 856 u[6] + 663 u[7] + 904 u[8] + 405 u[9] + 39 u[10]
   + 270 u[11] + 759 u[12] + 399 u[13] + 512 u[14] + 616 u[15] + 832 u[16]
   + 547 u[17] + 268 u[18] + 273 u[19] + 40 u[20] + 867 u[21] + 87 u[22]
   + 114 u[23] + 64 u[24] + 723 u[25] + 541 u[26] + 115 u[27] + 129 u[28]
   + 914 u[29] + 741 u[30] + 71 u[31] + 111 u[32] + 376 u[33] + 255 u[34]
   + 804 u[35] + 999 u[36] + 776 u[37] + 79 u[38] + 810 u[39] <= 999
 primal_lower50: 52 u[0] + 493 u[1] + 871 u[2] + 828 u[3] + 793 u[4]
   + 938 u[5] + 562 u[6] + 844 u[7] + 986 u[8] + 451 u[9] + 552 u[10]
   + 692 u[11] + 689 u[12] + 749 u[13] + 249 u[14] + 69 u[15] + 746 u[16]
   + 497 u[17] + 782 u[18] + 215 u[19] + 482 u[20] + 192 u[21] + 361 u[22]
   + 191 u[23] + 769 u[24] + 953 u[25] + 623 u[26] + 392 u[27] + 874 u[28]
   + 176 u[29] + 206 u[30] + 692 u[31] + 384 u[32] + 422 u[33] + 201 u[34]
   + 522 u[35] + 169 u[36] + 621 u[37] + 289 u[38] + 471 u[39] <= 986
 primal_lower51: 207 u[0] + 747 u[1] + 537 u[2] + 10 u[3] + 251 u[4]
   + 209 u[5] + 196 u[6] + 419 u[7] + 388 u[8] + 817 u[9] + 275 u[10]
   + 634 u[11] + 963 u[12] + 251 u[13] + 372 u[14] + 636 u[15] + 508 u[16]
   + 663 u[17] + 672 u[18] + 445 u[19] + 524 u[20] + 687 u[21] + 179 u[22]
   + 206 u[23] + 884 u[24] + 735 u[25] + 57 u[26] + 111 u[27] + 485 u[28]
   + 846 u[29] + 697 u[30] + 987 u[31] + 299 u[32] + 460 u[33] + 171 u[34]
   + 608 u[35] + 803 u[36] + 460 u[37] + 251 u[38] + 750 u[39] <= 987
 primal_lower52: 974 u[0] + 138 u[1] + 464 u[2] + 785 u[3] + 66 u[4]
   + 8 u[5] + 83 u[6] + 10 u[7] + 691 u[8] + 632 u[9] + 738 u[10]
   + 865 u[11] + 194 u[12] + 2 u[13] + 563 u[14] + 75 u[15] + 739 u[16]
   + 846 u[17] + 151 u[18] + 404 u[19] + 115 u[20] + 286 u[21] + 850 u[22]
   + 389 u[23] + 67 u[24] + 694 u[25] + 128 u[26] + 486 u[27] + 196 u[28]
   + 445 u[29] + 552 u[30] + 50 u[31] + 362 u[32] + 347 u[33] + 530 u[34]
   + 967 u[35] + 794 u[36] + 51 u[37] + 282 u[38] + 485 u[39] <= 974
 primal_lower53: 578 u[0] + 854 u[1] + 356 u[2] + 405 u[3] + 854 u[4]
   + 60 u[5] + 647 u[6] + 614 u[7] + 103 u[8] + 412 u[9] + 766 u[10]
   + 997 u[11] + 630 u[12] + 230 u[13] + 383 u[14] + 479 u[15] + 759 u[16]
   + 10 u[17] + 387 u[18] + 88 u[19] + 47 u[20] + 82 u[21] + 798 u[22]
   + 537 u[23] + 863 u[24] + 642 u[25] + 476 u[26] + 818 u[27] + 592 u[28]
   + 81 u[29] + 988 u[30] + 70 u[31] + 702 u[32] + 383 u[33] + 934 u[34]
   + 707 u[35] + 78 u[36] + 839 u[37] + 374 u[38] + 633 u[39] <= 997
 primal_lower54: 707 u[0] + 463 u[1] + 77 u[2] + 238 u[3] + 319 u[4]
   + 333 u[5] + 80 u[6] + 199 u[7] + 600 u[8] + 549 u[9] + 303 u[10]
   + 294 u[11] + 655 u[12] + 479 u[13] + 184 u[14] + 488 u[15] + 24 u[16]
   + 299 u[17] + 276 u[18] + 825 u[19] + 896 u[20] + 171 u[21] + 71 u[22]
   + 586 u[23] + 736 u[24] + 59 u[25] + 565 u[26] + 731 u[27] + 297 u[28]
   + 842 u[29] + 29 u[30] + 663 u[31] + 39 u[32] + 520 u[33] + 703 u[34]
   + 916 u[35] + 15 u[36] + 408 u[37] + 271 u[38] + 746 u[39] <= 916
 primal_lower55: 445 u[0] + 865 u[1] + 271 u[2] + 880 u[3] + 433 u[4]
   + 663 u[5] + 514 u[6] + 105 u[7] + 706 u[8] + 279 u[9] + 193 u[10]
   + 928 u[11] + 689 u[12] + 769 u[13] + 794 u[14] + 170 u[15] + 898 u[16]
   + 981 u[17] + 158 u[18] + 499 u[19] + 826 u[20] + 365 u[21] + 65 u[22]
   + 956 u[23] + 722 u[24] + 125 u[25] + 247 u[26] + 837 u[27] + 675 u[28]
   + 164 u[29] + 87 u[30] + 865 u[31] + 825 u[32] + 714 u[33] + 113 u[34]
   + 54 u[35] + 921 u[36] + 154 u[37] + 705 u[38] + 780 u[39] <= 981
 primal_lower56: 208 u[0] + 153 u[1] + 299 u[2] + 520 u[3] + 293 u[4]
   + 238 u[5] + 110 u[6] + 560 u[7] + 142 u[8] + 703 u[9] + 516 u[10]
   + 144 u[11] + 549 u[12] + 577 u[13] + 541 u[14] + 921 u[15] + 494 u[16]
   + 813 u[17] + 250 u[18] + 619 u[19] + 694 u[20] + 124 u[21] + 581 u[22]
   + 51 u[23] + 653 u[24] + 205 u[25] + 291 u[26] + 988 u[27] + 582 u[28]
   + 388 u[29] + 258 u[30] + 928 u[31] + 860 u[32] + 930 u[33] + 789 u[34]
   + 686 u[35] + 141 u[36] + 257 u[37] + 245 u[38] + 163 u[39] <= 988
 primal_lower57: 177 u[0] + 165 u[1] + 755 u[2] + 852 u[3] + 389 u[4]
   + 203 u[5] + 246 u[6] + 165 u[7] + 654 u[8] + 827 u[9] + 197 u[10]
   + 724 u[11] + 725 u[12] + 797 u[13] + 662 u[14] + 470 u[15] + 318 u[16]
   + 409 u[17] + 106 u[18] + 903 u[19] + 646 u[20] + 977 u[21] + 117 u[22]
   + 632 u[23] + 486 u[24] + 601 u[25] + 883 u[26] + 553 u[27] + 687 u[28]
   + 56 u[29] + 83 u[30] + 997 u[31] + 437 u[32] + 118 u[33] + 461 u[34]
   + 762 u[35] + 885 u[36] + 262 u[37] + 901 u[38] + 776 u[39] <= 997
 primal_lower58: 310 u[0] + 826 u[1] + 848 u[2] + 937 u[3] + 154 u[4]
   + 992 u[5] + 75 u[6] + 66 u[7] + 547 u[8] + 552 u[9] + 690 u[10]
   + 321 u[11] + 570 u[12] + 290 u[13] + 99 u[14] + 315 u[15] + 563 u[16]
   + 134 u[17] + 759 u[18] + 444 u[19] + 827 u[20] + 366 u[21] + 90 u[22]
   + 629 u[23] + 595 u[24] + 526 u[25] + 88 u[26] + 22 u[27] + 620 u[28]
   + 405 u[29] + 56 u[30] + 706 u[31] + 450 u[32] + 171 u[33] + 930 u[34]
   + 399 u[35] + 762 u[36] + 163 u[37] + 146 u[38] + 909 u[39] <= 992
 primal_lower59: 893 u[0] + 953 u[1] + 871 u[2] + 536 u[3] + 961 u[4]
   + 111 u[5] + 226 u[6] + 9 u[7] + 266 u[8] + 271 u[9] + 313 u[10]
   + 208 u[11] + 865 u[12] + 721 u[13] + 826 u[14] + 898 u[15] + 666 u[16]
   + 269 u[17] + 110 u[18] + 323 u[19] + 106 u[20] + 701 u[21] + 561 u[22]
   + 852 u[23] + 394 u[24] + 797 u[25] + 767 u[26] + 365 u[27] + 763 u[28]
   + 100 u[29] + 23 u[30] + 841 u[31] + 225 u[32] + 554 u[33] + 801 u[34]
   + 670 u[35] + 401 u[36] + 410 u[37] + 401 u[38] + 380 u[39] <= 961
 primal_lower60: 848 u[0] + 273 u[1] + 323 u[2] + 112 u[3] + 277 u[4]
   + 270 u[5] + 326 u[6] + 936 u[7] + 254 u[8] + 207 u[9] + 588 u[10]
   + 936 u[11] + 37 u[12] + 177 u[13] + 741 u[14] + 729 u[15] + 190 u[16]
   + 165 u[17] + 698 u[18] + 299 u[19] + 198 u[20] + 428 u[21] + 397 u[22]
   + 43 u[23] + 461 u[24] + 397 u[25] + 203 u[26] + 876 u[27] + 910 u[28]
   + 788 u[29] + 522 u[30] + 576 u[31] + 844 u[32] + 954 u[33] + 221 u[34]
   + 622 u[35] + 181 u[36] + 465 u[37] + 85 u[38] + 51 u[39] <= 954
 primal_lower61: 77 u[0] + 190 u[1] + 344 u[2] + 445 u[3] + 250 u[4]
   + 451 u[5] + 659 u[6] + 461 u[7] + 363 u[8] + 484 u[9] + 113 u[10]
   + 861 u[11] + 682 u[12] + 702 u[13] + 378 u[14] + 286 u[15] + 91 u[16]
   + 482 u[17] + 407 u[18] + 936 u[19] + 67 u[20] + 137 u[21] + 554 u[22]
   + 296 u[23] + 26 u[24] + 690 u[25] + 688 u[26] + 865 u[27] + 163 u[28]
   + 681 u[29] + 407 u[30] + 277 u[31] + 313 u[32] + 887 u[33] + 386 u[34]
   + 507 u[35] + 890 u[36] + 46 u[37] + 498 u[38] + 968 u[39] <= 968
 primal_lower62: 649 u[0] + 733 u[1] + 539 u[2] + 156 u[3] + 549 u[4]
   + 163 u[5] + 46 u[6] + 781 u[7] + 142 u[8] + 195 u[9] + 933 u[10]
   + 188 u[11] + 813 u[12] + 205 u[13] + 446 u[14] + 854 u[15] + 694 u[16]
   + 545 u[17] + 874 u[18] + 991 u[19] + 30 u[20] + 89 u[21] + 637 u[22]
   + 896 u[23] + 542 u[24] + 321 u[25] + 395 u[26] + 281 u[27] + 631 u[28]
   + 712 u[29] + 595 u[30] + 901 u[31] + 349 u[32] + 174 u[33] + 277 u[34]
   + 82 u[35] + 661 u[36] + 78 u[37] + 213 u[38] + 824 u[39] <= 991
 primal_lower63: 772 u[0] + 552 u[1] + 318 u[2] + 167 u[3] + 760 u[4]
   + 862 u[5] + 57 u[6] + 560 u[7] + 817 u[8] + 918 u[9] + 560 u[10]
   + 183 u[11] + 376 u[12] + 16 u[13] + 297 u[14] + 505 u[15] + 905 u[16]
   + 492 u[17] + 309 u[18] + 442 u[19] + 601 u[20] + 12 u[21] + 584 u[22]
   + 179 u[23] + 545 u[24] + 100 u[25] + 878 u[26] + 956 u[27] + 370 u[28]
   + 843 u[29] + 334 u[30] + 424 u[31] + 424 u[32] + 121 u[33] + 928 u[34]
   + 501 u[35] + 416 u[36] + 145 u[37] + 768 u[38] + 611 u[39] <= 956
 primal_lower64: 442 u[0] + 523 u[1] + 941 u[2] + 962 u[3] + 87 u[4]
   + 608 u[5] + 936 u[6] + 914 u[7] + 584 u[8] + 873 u[9] + 222 u[10]
   + 586 u[11] + 927 u[12] + 459 u[13] + 391 u[14] + 891 u[15] + 568 u[16]
   + 727 u[17] + 756 u[18] + 157 u[19] + 664 u[20] + 926 u[21] + 279 u[22]
   + 813 u[23] + 23 u[24] + 295 u[25] + 949 u[26] + 150 u[27] + 312 u[28]
   + 414 u[29] + 588 u[30] + 602 u[31] + 230 u[32] + 492 u[33] + 111 u[34]
   + 480 u[35] + 823 u[36] + 763 u[37] + 503 u[38] + 45 u[39] <= 962
 primal_lower65: 862 u[0] + 522 u[1] + 880 u[2] + 633 u[3] + 426 u[4]
   + 280 u[5] + 995 u[6] + 842 u[7] + 355 u[8] + 400 u[9] + 234 u[10]
   + 745 u[11] + 634 u[12] + 50 u[13] + 147 u[14] + 75 u[15] + 715 u[16]
   + 38 u[17] + 199 u[18] + 428 u[19] + 843 u[20] + 774 u[21] + 58 u[22]
   + 405 u[23] + 483 u[24] + 974 u[25] + 184 u[26] + 582 u[27] + 932 u[28]
   + 749 u[29] + 512 u[30] + 962 u[31] + 722 u[32] + 795 u[33] + 450 u[34]
   + 599 u[35] + 826 u[36] + 843 u[37] + 682 u[38] + 357 u[39] <= 995
 primal_lower66: 398 u[0] + 642 u[1] + 552 u[2] + 25 u[3] + 498 u[4]
   + 384 u[5] + 531 u[6] + 586 u[7] + 459 u[8] + 856 u[9] + 306 u[10]
   + 873 u[11] + 378 u[12] + 842 u[13] + 339 u[14] + 139 u[15] + 291 u[16]
   + 862 u[17] + 207 u[18] + 996 u[19] + 595 u[20] + 766 u[21] + 10 u[22]
   + 821 u[23] + 347 u[24] + 158 u[25] + 64 u[26] + 758 u[27] + 676 u[28]
   + 317 u[29] + 672 u[30] + 266 u[31] + 106 u[32] + 651 u[33] + 10 u[34]
   + 911 u[35] + 986 u[36] + 19 u[37] + 450 u[38] + 93 u[39] <= 996
 primal_lower67: 209 u[0] + 106 u[1] + 476 u[2] + 713 u[3] + 734 u[4]
   + 271 u[5] + 415 u[6] + 369 u[7] + 679 u[8] + 480 u[9] + 157 u[10]
   + 105 u[11] + 94 u[12] + 898 u[13] + 942 u[14] + 354 u[15] + 247 u[16]
   + 310 u[17] + 979 u[18] + 468 u[19] + 895 u[20] + 37 u[21] + 110 u[22]
   + 4 u[23] + 454 u[24] + 398 u[25] + 940 u[26] + 773 u[27] + 431 u[28]
   + 173 u[29] + 555 u[30] + 937 u[31] + 653 u[32] + 507 u[33] + 774 u[34]
   + 367 u[35] + 422 u[36] + 498 u[37] + 982 u[38] + 300 u[39] <= 982
 primal_lower68: 505 u[0] + 698 u[1] + 676 u[2] + 617 u[3] + 606 u[4]
   + 447 u[5] + 359 u[6] + 769 u[7] + 55 u[8] + 768 u[9] + 861 u[10]
   + 57 u[11] + 102 u[12] + 898 u[13] + 118 u[14] + 378 u[15] + 335 u[16]
   + 910 u[17] + 563 u[18] + 916 u[19] + 303 u[20] + 917 u[21] + 310 u[22]
   + 836 u[23] + 718 u[24] + 238 u[25] + 892 u[26] + 117 u[27] + 79 u[28]
   + 53 u[29] + 163 u[30] + 729 u[31] + 629 u[32] + 355 u[33] + 478 u[34]
   + 39 u[35] + 142 u[36] + 170 u[37] + 734 u[38] + 828 u[39] <= 917
 primal_lower69: 121 u[0] + 418 u[1] + 36 u[2] + 905 u[3] + 878 u[4]
   + 399 u[5] + 983 u[6] + 505 u[7] + 319 u[8] + 392 u[9] + 853 u[10]
   + 505 u[11] + 334 u[12] + 122 u[13] + 670 u[14] + 282 u[15] + 207 u[16]
   + 974 u[17] + 155 u[18] + 820 u[19] + 151 u[20] + 533 u[21] + 942 u[22]
   + 700 u[23] + 6 u[24] + 126 u[25] + 340 u[26] + 677 u[27] + 807 u[28]
   + 405 u[29] + 475 u[30] + 809 u[31] + 941 u[32] + 259 u[33] + 6 u[34]
   + 831 u[35] + 182 u[36] + 626 u[37] + 62 u[38] + 724 u[39] <= 983
 primal_lower70: 237 u[0] + 166 u[1] + 592 u[2] + 917 u[3] + 386 u[4]
   + 779 u[5] + 123 u[6] + 565 u[7] + 971 u[8] + 756 u[9] + 617 u[10]
   + 37 u[11] + 314 u[12] + 326 u[13] + 234 u[14] + 190 u[15] + 123 u[16]
   + 930 u[17] + 455 u[18] + 96 u[19] + 59 u[20] + 785 u[21] + 986 u[22]
   + 384 u[23] + 482 u[24] + 978 u[25] + 64 u[26] + 977 u[27] + 707 u[28]
   + 385 u[29] + 855 u[30] + 365 u[31] + 273 u[32] + 351 u[33] + 338 u[34]
   + 91 u[35] + 874 u[36] + 166 u[37] + 610 u[38] + 8 u[39] <= 986
 primal_lower71: 897 u[0] + 117 u[1] + 979 u[2] + 124 u[3] + 261 u[4]
   + 843 u[5] + 782 u[6] + 917 u[7] + 78 u[8] + 867 u[9] + 245 u[10]
   + 604 u[11] + 693 u[12] + 525 u[13] + 286 u[14] + 366 u[15] + 54 u[16]
   + 49 u[17] + 26 u[18] + 167 u[19] + 302 u[20] + 721 u[21] + 389 u[22]
   + 352 u[23] + 46 u[24] + 713 u[25] + 195 u[26] + 745 u[27] + 607 u[28]
   + 88 u[29] + 107 u[30] + 693 u[31] + 453 u[32] + 214 u[33] + 733 u[34]
   + 218 u[35] + 293 u[36] + 462 u[37] + 101 u[38] + 488 u[39] <= 979
 primal_lower72: 368 u[0] + 833 u[1] + 771 u[2] + 736 u[3] + 661 u[4]
   + 550 u[5] + 550 u[6] + 576 u[7] + 390 u[8] + 79 u[9] + 380 u[10]
   + 104 u[11] + 629 u[12] + 905 u[13] + 965 u[14] + 433 u[15] + 534 u[16]
   + 741 u[17] + 106 u[18] + 283 u[19] + 870 u[20] + 884 u[21] + 733 u[22]
   + 59 u[23] + 821 u[24] + 181 u[25] + 427 u[26] + 348 u[27] + 310 u[28]
   + 60 u[29] + 498 u[30] + 896 u[31] + 476 u[32] + 234 u[33] + 205 u[34]
   + 622 u[35] + 885 u[36] + 313 u[37] + 181 u[38] + 923 u[39] <= 965
 primal_lower73: 248 u[0] + 740 u[1] + 930 u[2] + 619 u[3] + 820 u[4]
   + 578 u[5] + 709 u[6] + 44 u[7] + 629 u[8] + 554 u[9] + 4 u[10]
   + 739 u[11] + 572 u[12] + 92 u[13] + 685 u[14] + 893 u[15] + 909 u[16]
   + 448 u[17] + 625 u[18] + 142 u[19] + 101 u[20] + 720 u[21] + 540 u[22]
   + 927 u[23] + 573 u[24] + 568 u[25] + 354 u[26] + 608 u[27] + 342 u[28]
   + 839 u[29] + 178 u[30] + 100 u[31] + 548 u[32] + 21 u[33] + 52 u[34]
   + 689 u[35] + 836 u[36] + 973 u[37] + 84 u[38] + 391 u[39] <= 973
 primal_lower74: 861 u[0] + 902 u[1] + 592 u[2] + 341 u[3] + 546 u[4]
   + 595 u[5] + 387 u[6] + 269 u[7] + 331 u[8] + 612 u[9] + 497 u[10]
   + 549 u[11] + 282 u[12] + 718 u[13] + 914 u[14] + 6 u[15] + 371 u[16]
   + 642 u[17] + 399 u[18] + 512 u[19] + 83 u[20] + 641 u[21] + 850 u[22]
   + 128 u[23] + 722 u[24] + 746 u[25] + 928 u[26] + 569 u[27] + 107 u[28]
   + 721 u[29] + 383 u[30] + 341 u[31] + 937 u[32] + 975 u[33] + 786 u[34]
   + 531 u[35] + 130 u[36] + 590 u[37] + 250 u[38] + 408 u[39] <= 975
 primal_lower75: 784 u[0] + 316 u[1] + 322 u[2] + 379 u[3] + 492 u[4]
   + 514 u[5] + 349 u[6] + 748 u[7] + 245 u[8] + 490 u[9] + 44 u[10]
   + 371 u[11] + 788 u[12] + 748 u[13] + 213 u[14] + 493 u[15] + 725 u[16]
   + 504 u[17] + 265 u[18] + 286 u[19] + 773 u[20] + 672 u[21] + 100 u[22]
   + 943 u[23] + 141 u[24] + 776 u[25] + 962 u[26] + 328 u[27] + 78 u[28]
   + 759 u[29] + 162 u[30] + 324 u[31] + 916 u[32] + 869 u[33] + 796 u[34]
   + 129 u[35] + 556 u[36] + 109 u[37] + 964 u[38] + 559 u[39] <= 964
 primal_lower76: 827 u[0] + 612 u[1] + 422 u[2] + 347 u[3] + 984 u[4]
   + 73 u[5] + 985 u[6] + 67 u[7] + 489 u[8] + 506 u[9] + 71 u[10]
   + 747 u[11] + 688 u[12] + 324 u[13] + 888 u[14] + 908 u[15] + 225 u[16]
   + 840 u[17] + 741 u[18] + 702 u[19] + 929 u[20] + 871 u[21] + 376 u[22]
   + 38 u[23] + 376 u[24] + 528 u[25] + 862 u[26] + 175 u[27] + 457 u[28]
   + 295 u[29] + 509 u[30] + 419 u[31] + 831 u[32] + 773 u[33] + 328 u[34]
   + 881 u[35] + 72 u[36] + 108 u[37] + 696 u[38] + 566 u[39] <= 985
 primal_lower77: 890 u[0] + 982 u[1] + 212 u[2] + 597 u[3] + 46 u[4]
   + 852 u[5] + 935 u[6] + 854 u[7] + 607 u[8] + 724 u[9] + 694 u[10]
   + 93 u[11] + 158 u[12] + 694 u[13] + 775 u[14] + 375 u[15] + 255 u[16]
   + 450 u[17] + 515 u[18] + 896 u[19] + 663 u[20] + 754 u[21] + 238 u[22]
   + 449 u[23] + 631 u[24] + 338 u[25] + 812 u[26] + 818 u[27] + 200 u[28]
   + 889 u[29] + 92 u[30] + 350 u[31] + 654 u[32] + 591 u[33] + 918 u[34]
   + 35 u[35] + 214 u[36] + 111 u[37] + 478 u[38] + 209 u[39] <= 982
 primal_lower78: 321 u[0] + 501 u[1] + 99 u[2] + 300 u[3] + 5 u[4]
   + 675 u[5] + 158 u[6] + 701 u[7] + 918 u[8] + 731 u[9] + 925 u[10]
   + 556 u[11] + 277 u[12] + 421 u[13] + 822 u[14] + 622 u[15] + 270 u[16]
   + 553 u[17] + 154 u[18] + 551 u[19] + 590 u[20] + 105 u[21] + 93 u[22]
   + 864 u[23] + 414 u[24] + 369 u[25] + 803 u[26] + 537 u[27] + 95 u[28]
   + 128 u[29] + 579 u[30] + 565 u[31] + 645 u[32] + 238 u[33] + 573 u[34]
   + 242 u[35] + 141 u[36] + 246 u[37] + 437 u[38] + 520 u[39] <= 925
 primal_lower79: 411 u[0] + 903 u[1] + 13 u[2] + 870 u[3] + 71 u[4]
   + 45 u[5] + 832 u[6] + 623 u[7] + 720 u[8] + 533 u[9] + 655 u[10]
   + 326 u[11] + 55 u[12] + 31 u[13] + 704 u[14] + 24 u[15] + 432 u[16]
   + 331 u[17] + 260 u[18] + 921 u[19] + 48 u[20] + 571 u[21] + 639 u[22]
   + 746 u[23] + 232 u[24] + 195 u[25] + 69 u[26] + 987 u[27] + 49 u[28]
   + 666 u[29] + 973 u[30] + 447 u[31] + 407 u[32] + 984 u[33] + 679 u[34]
   + 92 u[35] + 655 u[36] + 456 u[37] + 887 u[38] + 554 u[39] <= 987
 primal_lower80: 933 u[0] + 801 u[1] + 279 u[2] + 952 u[3] + 89 u[4]
   + 639 u[5] + 626 u[6] + 825 u[7] + 162 u[8] + 231 u[9] + 401 u[10]
   + 352 u[11] + 929 u[12] + 49 u[13] + 738 u[14] + 914 u[15] + 314 u[16]
   + 365 u[17] + 526 u[18] + 171 u[19] + 482 u[20] + 13 u[21] + 201 u[22]
   + 620 u[23] + 282 u[24] + 437 u[25] + 415 u[26] + 77 u[27] + 771 u[28]
   + 308 u[29] + 399 u[30] + 945 u[31] + 489 u[32] + 538 u[33] + 697 u[34]
   + 878 u[35] + 153 u[36] + 490 u[37] + 497 u[38] + 692 u[39] <= 952
 primal_lower81: 158 u[0] + 663 u[1] + 337 u[2] + 86 u[3] + 867 u[4]
   + 684 u[5] + 812 u[6] + 798 u[7] + 684 u[8] + 837 u[9] + 370 u[10]
   + 566 u[11] + 787 u[12] + 327 u[13] + 603 u[14] + 975 u[15] + 484 u[16]
   + 355 u[17] + 128 u[18] + u[19] + 396 u[20] + 882 u[21] + 115 u[22]
   + 241 u[23] + 419 u[24] + 659 u[25] + 105 u[26] + 610 u[27] + 204 u[28]
   + 106 u[29] + 896 u[30] + 718 u[31] + 34 u[32] + 936 u[33] + 267 u[34]
   + 260 u[35] + 587 u[36] + 951 u[37] + 699 u[38] + 25 u[39] <= 975
 primal_lower82: 126 u[0] + 90 u[1] + 504 u[2] + 257 u[3] + 58 u[4]
   + 792 u[5] + 179 u[6] + 586 u[7] + 931 u[8] + 768 u[9] + 546 u[10]
   + 617 u[11] + 314 u[12] + 890 u[13] + 347 u[14] + 995 u[15] + 531 u[16]
   + 806 u[17] + 527 u[18] + 540 u[19] + 243 u[20] + 966 u[21] + 658 u[22]
   + 733 u[23] + 811 u[24] + 862 u[25] + 904 u[26] + 438 u[27] + 52 u[28]
   + 213 u[29] + 344 u[30] + 354 u[31] + 594 u[32] + 187 u[33] + 178 u[34]
   + 519 u[35] + 626 u[36] + 403 u[37] + 34 u[38] + 693 u[39] <= 995
 primal_lower83: 887 u[0] + 952 u[1] + 458 u[2] + 527 u[3] + 220 u[4]
   + 397 u[5] + 829 u[6] + 511 u[7] + 821 u[8] + 278 u[9] + 891 u[10]
   + 95 u[11] + 124 u[12] + 16 u[13] + 164 u[14] + 120 u[15] + 133 u[16]
   + 108 u[17] + 401 u[18] + 922 u[19] + 525 u[20] + 923 u[21] + 68 u[22]
   + 42 u[23] + 92 u[24] + 652 u[25] + 954 u[26] + 667 u[27] + 237 u[28]
   + 131 u[29] + 353 u[30] + 895 u[31] + 971 u[32] + 969 u[33] + 860 u[34]
   + 101 u[35] + 876 u[36] + 48 u[37] + 172 u[38] + 378 u[39] <= 971
 primal_lower84: 297 u[0] + 498 u[1] + 60 u[2] + 425 u[3] + 366 u[4]
   + 423 u[5] + 239 u[6] + 449 u[7] + 839 u[8] + 624 u[9] + 437 u[10]
   + 217 u[11] + 166 u[12] + 258 u[13] + 758 u[14] + 522 u[15] + 167 u[16]
   + 974 u[17] + 795 u[18] + 612 u[19] + 967 u[20] + 301 u[21] + 286 u[22]
   + 716 u[23] + 630 u[24] + 670 u[25] + 972 u[26] + 341 u[27] + 279 u[28]
   + 77 u[29] + 259 u[30] + 953 u[31] + 37 u[32] + 643 u[33] + 678 u[34]
   + 927 u[35] + 550 u[36] + 306 u[37] + 38 u[38] + 300 u[39] <= 974
 primal_lower85: 745 u[0] + 133 u[1] + 803 u[2] + 116 u[3] + 837 u[4]
   + 171 u[5] + 182 u[6] + 517 u[7] + 342 u[8] + 267 u[9] + 381 u[10]
   + 868 u[11] + 165 u[12] + 277 u[13] + 998 u[14] + 78 u[15] + 574 u[16]
   + 649 u[17] + 82 u[18] + 295 u[19] + 614 u[20] + 761 u[21] + 5 u[22]
   + 208 u[23] + 350 u[24] + 569 u[25] + 579 u[26] + u[27] + 351 u[28]
   + 616 u[29] + 763 u[30] + 197 u[31] + 685 u[32] + 254 u[33] + 405 u[34]
   + 818 u[35] + 293 u[36] + 198 u[37] + 789 u[38] + 136 u[39] <= 998
 primal_lower86: 333 u[0] + 974 u[1] + 32 u[2] + 333 u[3] + 682 u[4]
   + 667 u[5] + 627 u[6] + 429 u[7] + 803 u[8] + 180 u[9] + 785 u[10]
   + 821 u[11] + 426 u[12] + 878 u[13] + 706 u[14] + 926 u[15] + 891 u[16]
   + 842 u[17] + 271 u[18] + 592 u[19] + 155 u[20] + 713 u[21] + 698 u[22]
   + 832 u[23] + 730 u[24] + 106 u[25] + 16 u[26] + 609 u[27] + 219 u[28]
   + 9 u[29] + 439 u[30] + 237 u[31] + 937 u[32] + 967 u[33] + 66 u[34]
   + 11 u[35] + 154 u[36] + 734 u[37] + 146 u[38] + 656 u[39] <= 974
 primal_lower87: 285 u[0] + 201 u[1] + 407 u[2] + 256 u[3] + 9 u[4]
   + 743 u[5] + 906 u[6] + 657 u[7] + 434 u[8] + 159 u[9] + 49 u[10]
   + 96 u[11] + 977 u[12] + 585 u[13] + 730 u[14] + 98 u[15] + 266 u[16]
   + 445 u[17] + 398 u[18] + 515 u[19] + 858 u[20] + 325 u[21] + 249 u[22]
   + 796 u[23] + 426 u[24] + 981 u[25] + 503 u[26] + 261 u[27] + 339 u[28]
   + 260 u[29] + 207 u[30] + 585 u[31] + 969 u[32] + 234 u[33] + 105 u[34]
   + 302 u[35] + 697 u[36] + 362 u[37] + 489 u[38] + 836 u[39] <= 981
 primal_lower88: 398 u[0] + 791 u[1] + 593 u[2] + 814 u[3] + 291 u[4]
   + 548 u[5] + 172 u[6] + 326 u[7] + 452 u[8] + 957 u[9] + 738 u[10]
   + 326 u[11] + 219 u[12] + 95 u[13] + 283 u[14] + 551 u[15] + 924 u[16]
   + 979 u[17] + 904 u[18] + 281 u[19] + 892 u[20] + 570 u[21] + 563 u[22]
   + 969 u[23] + 707 u[24] + 219 u[25] + 529 u[26] + 218 u[27] + 500 u[28]
   + 58 u[29] + 976 u[30] + 270 u[31] + 322 u[32] + 992 u[33] + 219 u[34]
   + 996 u[35] + 91 u[36] + 855 u[37] + 547 u[38] + 89 u[39] <= 996
 primal_lower89: 924 u[0] + 600 u[1] + 566 u[2] + 223 u[3] + 72 u[4]
   + 174 u[5] + 449 u[6] + 664 u[7] + 761 u[8] + 46 u[9] + 8 u[10]
   + 367 u[11] + 656 u[12] + 56 u[13] + 953 u[14] + 129 u[15] + 825 u[16]
   + 556 u[17] + 557 u[18] + 754 u[19] + 49 u[20] + 44 u[21] + 472 u[22]
   + 123 u[23] + 9 u[24] + 340 u[25] + 710 u[26] + 340 u[27] + 834 u[28]
   + 883 u[29] + 86 u[30] + 960 u[31] + 432 u[32] + 217 u[33] + 920 u[34]
   + 509 u[35] + 552 u[36] + 569 u[37] + 456 u[38] + 579 u[39] <= 960
 primal_lower90: 705 u[0] + 765 u[1] + 211 u[2] + 68 u[3] + 53 u[4]
   + 35 u[5] + 478 u[6] + 93 u[7] + 134 u[8] + 91 u[9] + 405 u[10]
   + 252 u[11] + 5 u[12] + 981 u[13] + 126 u[14] + 598 u[15] + 118 u[16]
   + 57 u[17] + 282 u[18] + 591 u[19] + 198 u[20] + 121 u[21] + 221 u[22]
   + 48 u[23] + 430 u[24] + 145 u[25] + 99 u[26] + 969 u[27] + 359 u[28]
   + 840 u[29] + 267 u[30] + 597 u[31] + 557 u[32] + 654 u[33] + 157 u[34]
   + 594 u[35] + 69 u[36] + 334 u[37] + 269 u[38] + 104 u[39] <= 981
 primal_lower91: 899 u[0] + 767 u[1] + 181 u[2] + 814 u[3] + 415 u[4]
   + 565 u[5] + 824 u[6] + 327 u[7] + 720 u[8] + 845 u[9] + 559 u[10]
   + 806 u[11] + 87 u[12] + 447 u[13] + 888 u[14] + 768 u[15] + 800 u[16]
   + 419 u[17] + 172 u[18] + 801 u[19] + 88 u[20] + 123 u[21] + 423 u[22]
   + 138 u[23] + 704 u[24] + 315 u[25] + 757 u[26] + 515 u[27] + 329 u[28]
   + 450 u[29] + 933 u[30] + 871 u[31] + 815 u[32] + 280 u[33] + 711 u[34]
   + 836 u[35] + 231 u[36] + 976 u[37] + 319 u[38] + 658 u[39] <= 976
 primal_lower92: 745 u[0] + 786 u[1] + 228 u[2] + 945 u[3] + 150 u[4]
   + 743 u[5] + 487 u[6] + 913 u[7] + 863 u[8] + 520 u[9] + 173 u[10]
   + 665 u[11] + 734 u[12] + 162 u[13] + 542 u[14] + 514 u[15] + 607 u[16]
   + 678 u[17] + 259 u[18] + 948 u[19] + 743 u[20] + 981 u[21] + 982 u[22]
   + 284 u[23] + 870 u[24] + 582 u[25] + 676 u[26] + 805 u[27] + 575 u[28]
   + 157 u[29] + 443 u[30] + 9 u[31] + 5 u[32] + 387 u[33] + 558 u[34]
   + 735 u[35] + 158 u[36] + 362 u[37] + 974 u[38] + 228 u[39] <= 982
 primal_lower93: 474 u[0] + 766 u[1] + 556 u[2] + 485 u[3] + 878 u[4]
   + 476 u[5] + 591 u[6] + 822 u[7] + 663 u[8] + 276 u[9] + 934 u[10]
   + 453 u[11] + 310 u[12] + 838 u[13] + 447 u[14] + 487 u[15] + 991 u[16]
   + 602 u[17] + 587 u[18] + 312 u[19] + 663 u[20] + 954 u[21] + 54 u[22]
   + 33 u[23] + 959 u[24] + 994 u[25] + 572 u[26] + 418 u[27] + 416 u[28]
   + 313 u[29] + 172 u[30] + 574 u[31] + 894 u[32] + 247 u[33] + 102 u[34]
   + 11 u[35] + 22 u[36] + 727 u[37] + 414 u[38] + 241 u[39] <= 994
 primal_lower94: 527 u[0] + 512 u[1] + 322 u[2] + 631 u[3] + 212 u[4]
   + 549 u[5] + 541 u[6] + 199 u[7] + 821 u[8] + 150 u[9] + 635 u[10]
   + 991 u[11] + 580 u[12] + 216 u[13] + 124 u[14] + 512 u[15] + 725 u[16]
   + 956 u[17] + 761 u[18] + 682 u[19] + 269 u[20] + 731 u[21] + 252 u[22]
   + 466 u[23] + 364 u[24] + 348 u[25] + 66 u[26] + 539 u[27] + 397 u[28]
   + 475 u[29] + 337 u[30] + 975 u[31] + 195 u[32] + 17 u[33] + 740 u[34]
   + 653 u[35] + 660 u[36] + 760 u[37] + 100 u[38] + 778 u[39] <= 991
 primal_lower95: 893 u[0] + 361 u[1] + 655 u[2] + 968 u[3] + 993 u[4]
   + 47 u[5] + 994 u[6] + 193 u[7] + 690 u[8] + 223 u[9] + 121 u[10]
   + 792 u[11] + 753 u[12] + 697 u[13] + 298 u[14] + 434 u[15] + 2 u[16]
   + 477 u[17] + 462 u[18] + 483 u[19] + 450 u[20] + 469 u[21] + 65 u[22]
   + 188 u[23] + 82 u[24] + 13 u[25] + 263 u[26] + 525 u[27] + 771 u[28]
   + 172 u[29] + 551 u[30] + 881 u[31] + 105 u[32] + 602 u[33] + 897 u[34]
   + 766 u[35] + 465 u[36] + 810 u[37] + 425 u[38] + 44 u[39] <= 994
 primal_lower96: 358 u[0] + 607 u[1] + 41 u[2] + 878 u[3] + 275 u[4]
   + 596 u[5] + 332 u[6] + 398 u[7] + 380 u[8] + 477 u[9] + 234 u[10]
   + 22 u[11] + 603 u[12] + 535 u[13] + 827 u[14] + 215 u[15] + 244 u[16]
   + 755 u[17] + 144 u[18] + 33 u[19] + 620 u[20] + 98 u[21] + 739 u[22]
   + 337 u[23] + 467 u[24] + 891 u[25] + 785 u[26] + 306 u[27] + 708 u[28]
   + 490 u[29] + 344 u[30] + 246 u[31] + 178 u[32] + 1000 u[33] + 83 u[34]
   + 300 u[35] + 347 u[36] + 335 u[37] + 43 u[38] + 249 u[39] <= 1000
 primal_lower97: 940 u[0] + 525 u[1] + 7 u[2] + 428 u[3] + 753 u[4]
   + 234 u[5] + 770 u[6] + 828 u[7] + 354 u[8] + 891 u[9] + 440 u[10]
   + 76 u[11] + 601 u[12] + 661 u[13] + 785 u[14] + 413 u[15] + 962 u[16]
   + 729 u[17] + 462 u[18] + 815 u[19] + 130 u[20] + 640 u[21] + 177 u[22]
   + 999 u[23] + 697 u[24] + 873 u[25] + 407 u[26] + 224 u[27] + 602 u[28]
   + 640 u[29] + 798 u[30] + 524 u[31] + 728 u[32] + 862 u[33] + 497 u[34]
   + 282 u[35] + 761 u[36] + 989 u[37] + 993 u[38] + 775 u[39] <= 999
 primal_lower98: 112 u[0] + 372 u[1] + 482 u[2] + 371 u[3] + 716 u[4]
   + 690 u[5] + 101 u[6] + 892 u[7] + 797 u[8] + 162 u[9] + 388 u[10]
   + 51 u[11] + 364 u[12] + 556 u[13] + 981 u[14] + 845 u[15] + 429 u[16]
   + 736 u[17] + 265 u[18] + 590 u[19] + 757 u[20] + 832 u[21] + 884 u[22]
   + 119 u[23] + 965 u[24] + 872 u[25] + 810 u[26] + 888 u[27] + 430 u[28]
   + 279 u[29] + 178 u[30] + 548 u[31] + 204 u[32] + 485 u[33] + 580 u[34]
   + 825 u[35] + 916 u[36] + 397 u[37] + 772 u[38] + 191 u[39] <= 981
 primal_lower99: 660 u[0] + 933 u[1] + 951 u[2] + 68 u[3] + 33 u[4]
   + 898 u[5] + 410 u[6] + 348 u[7] + 482 u[8] + 603 u[9] + 264 u[10]
   + 460 u[11] + 41 u[12] + 253 u[13] + 745 u[14] + 845 u[15] + 938 u[16]
   + 409 u[17] + 14 u[18] + 655 u[19] + 706 u[20] + 152 u[21] + 865 u[22]
   + 511 u[23] + 577 u[24] + 817 u[25] + 255 u[26] + 152 u[27] + 706 u[28]
   + 24 u[29] + 454 u[30] + 140 u[31] + 728 u[32] + 950 u[33] + 953 u[34]
   + 58 u[35] + 921 u[36] + 149 u[37] + 305 u[38] + 919 u[39] <= 953
 interdiction[0]: x[0] + u[0] <= 1
 interdiction[1]: x[1] + u[1] <= 1
 interdiction[2]: x[2] + u[2] <= 1
 interdiction[3]: x[3] + u[3] <= 1
 interdiction[4]: x[4] + u[4] <= 1
 interdiction[5]: x[5] + u[5] <= 1
 interdiction[6]: x[6] + u[6] <= 1
 interdiction[7]: x[7] + u[7] <= 1
 interdiction[8]: x[8] + u[8] <= 1
 interdiction[9]: x[9] + u[9] <= 1
 interdiction[10]: x[10] + u[10] <= 1
 interdiction[11]: x[11] + u[11] <= 1
 interdiction[12]: x[12] + u[12] <= 1
 interdiction[13]: x[13] + u[13] <= 1
 interdiction[14]: x[14] + u[14] <= 1
 interdiction[15]: x[15] + u[15] <= 1
 interdiction[16]: x[16] + u[16] <= 1
 interdiction[17]: x[17] + u[17] <= 1
 interdiction[18]: x[18] + u[18] <= 1
 interdiction[19]: x[19] + u[19] <= 1
 interdiction[20]: x[20] + u[20] <= 1
 interdiction[21]: x[21] + u[21] <= 1
 interdiction[22]: x[22] + u[22] <= 1
 interdiction[23]: x[23] + u[23] <= 1
 interdiction[24]: x[24] + u[24] <= 1
 interdiction[25]: x[25] + u[25] <= 1
 interdiction[26]: x[26] + u[26] <= 1
 interdiction[27]: x[27] + u[27] <= 1
 interdiction[28]: x[28] + u[28] <= 1
 interdiction[29]: x[29] + u[29] <= 1
 interdiction[30]: x[30] + u[30] <= 1
 interdiction[31]: x[31] + u[31] <= 1
 interdiction[32]: x[32] + u[32] <= 1
 interdiction[33]: x[33] + u[33] <= 1
 interdiction[34]: x[34] + u[34] <= 1
 interdiction[35]: x[35] + u[35] <= 1
 interdiction[36]: x[36] + u[36] <= 1
 interdiction[37]: x[37] + u[37] <= 1
 interdiction[38]: x[38] + u[38] <= 1
 interdiction[39]: x[39] + u[39] <= 1
 mccormick1[0]: - u[0] + z[0] <= 0
 mccormick1[1]: - u[1] + z[1] <= 0
 mccormick1[2]: - u[2] + z[2] <= 0
 mccormick1[3]: - u[3] + z[3] <= 0
 mccormick1[4]: - u[4] + z[4] <= 0
 mccormick1[5]: - u[5] + z[5] <= 0
 mccormick1[6]: - u[6] + z[6] <= 0
 mccormick1[7]: - u[7] + z[7] <= 0
 mccormick1[8]: - u[8] + z[8] <= 0
 mccormick1[9]: - u[9] + z[9] <= 0
 mccormick1[10]: - u[10] + z[10] <= 0
 mccormick1[11]: - u[11] + z[11] <= 0
 mccormick1[12]: - u[12] + z[12] <= 0
 mccormick1[13]: - u[13] + z[13] <= 0
 mccormick1[14]: - u[14] + z[14] <= 0
 mccormick1[15]: - u[15] + z[15] <= 0
 mccormick1[16]: - u[16] + z[16] <= 0
 mccormick1[17]: - u[17] + z[17] <= 0
 mccormick1[18]: - u[18] + z[18] <= 0
 mccormick1[19]: - u[19] + z[19] <= 0
 mccormick1[20]: - u[20] + z[20] <= 0
 mccormick1[21]: - u[21] + z[21] <= 0
 mccormick1[22]: - u[22] + z[22] <= 0
 mccormick1[23]: - u[23] + z[23] <= 0
 mccormick1[24]: - u[24] + z[24] <= 0
 mccormick1[25]: - u[25] + z[25] <= 0
 mccormick1[26]: - u[26] + z[26] <= 0
 mccormick1[27]: - u[27] + z[27] <= 0
 mccormick1[28]: - u[28] + z[28] <= 0
 mccormick1[29]: - u[29] + z[29] <= 0
 mccormick1[30]: - u[30] + z[30] <= 0
 mccormick1[31]: - u[31] + z[31] <= 0
 mccormick1[32]: - u[32] + z[32] <= 0
 mccormick1[33]: - u[33] + z[33] <= 0
 mccormick1[34]: - u[34] + z[34] <= 0
 mccormick1[35]: - u[35] + z[35] <= 0
 mccormick1[36]: - u[36] + z[36] <= 0
 mccormick1[37]: - u[37] + z[37] <= 0
 mccormick1[38]: - u[38] + z[38] <= 0
 mccormick1[39]: - u[39] + z[39] <= 0
 mccormick2[0]: - y[0] + z[0] <= 0
 mccormick2[1]: - y[1] + z[1] <= 0
 mccormick2[2]: - y[2] + z[2] <= 0
 mccormick2[3]: - y[3] + z[3] <= 0
 mccormick2[4]: - y[4] + z[4] <= 0
 mccormick2[5]: - y[5] + z[5] <= 0
 mccormick2[6]: - y[6] + z[6] <= 0
 mccormick2[7]: - y[7] + z[7] <= 0
 mccormick2[8]: - y[8] + z[8] <= 0
 mccormick2[9]: - y[9] + z[9] <= 0
 mccormick2[10]: - y[10] + z[10] <= 0
 mccormick2[11]: - y[11] + z[11] <= 0
 mccormick2[12]: - y[12] + z[12] <= 0
 mccormick2[13]: - y[13] + z[13] <= 0
 mccormick2[14]: - y[14] + z[14] <= 0
 mccormick2[15]: - y[15] + z[15] <= 0
 mccormick2[16]: - y[16] + z[16] <= 0
 mccormick2[17]: - y[17] + z[17] <= 0
 mccormick2[18]: - y[18] + z[18] <= 0
 mccormick2[19]: - y[19] + z[19] <= 0
 mccormick2[20]: - y[20] + z[20] <= 0
 mccormick2[21]: - y[21] + z[21] <= 0
 mccormick2[22]: - y[22] + z[22] <= 0
 mccormick2[23]: - y[23] + z[23] <= 0
 mccormick2[24]: - y[24] + z[24] <= 0
 mccormick2[25]: - y[25] + z[25] <= 0
 mccormick2[26]: - y[26] + z[26] <= 0
 mccormick2[27]: - y[27] + z[27] <= 0
 mccormick2[28]: - y[28] + z[28] <= 0
 mccormick2[29]: - y[29] + z[29] <= 0
 mccormick2[30]: - y[30] + z[30] <= 0
 mccormick2[31]: - y[31] + z[31] <= 0
 mccormick2[32]: - y[32] + z[32] <= 0
 mccormick2[33]: - y[33] + z[33] <= 0
 mccormick2[34]: - y[34] + z[34] <= 0
 mccormick2[35]: - y[35] + z[35] <= 0
 mccormick2[36]: - y[36] + z[36] <= 0
 mccormick2[37]: - y[37] + z[37] <= 0
 mccormick2[38]: - y[38] + z[38] <= 0
 mccormick2[39]: - y[39] + z[39] <= 0
 mccormick3[0]: y[0] + u[0] - z[0] <= 1
 mccormick3[1]: y[1] + u[1] - z[1] <= 1
 mccormick3[2]: y[2] + u[2] - z[2] <= 1
 mccormick3[3]: y[3] + u[3] - z[3] <= 1
 mccormick3[4]: y[4] + u[4] - z[4] <= 1
 mccormick3[5]: y[5] + u[5] - z[5] <= 1
 mccormick3[6]: y[6] + u[6] - z[6] <= 1
 mccormick3[7]: y[7] + u[7] - z[7] <= 1
 mccormick3[8]: y[8] + u[8] - z[8] <= 1
 mccormick3[9]: y[9] + u[9] - z[9] <= 1
 mccormick3[10]: y[10] + u[10] - z[10] <= 1
 mccormick3[11]: y[11] + u[11] - z[11] <= 1
 mccormick3[12]: y[12] + u[12] - z[12] <= 1
 mccormick3[13]: y[13] + u[13] - z[13] <= 1
 mccormick3[14]: y[14] + u[14] - z[14] <= 1
 mccormick3[15]: y[15] + u[15] - z[15] <= 1
 mccormick3[16]: y[16] + u[16] - z[16] <= 1
 mccormick3[17]: y[17] + u[17] - z[17] <= 1
 mccormick3[18]: y[18] + u[18] - z[18] <= 1
 mccormick3[19]: y[19] + u[19] - z[19] <= 1
 mccormick3[20]: y[20] + u[20] - z[20] <= 1
 mccormick3[21]: y[21] + u[21] - z[21] <= 1
 mccormick3[22]: y[22] + u[22] - z[22] <= 1
 mccormick3[23]: y[23] + u[23] - z[23] <= 1
 mccormick3[24]: y[24] + u[24] - z[24] <= 1
 mccormick3[25]: y[25] + u[25] - z[25] <= 1
 mccormick3[26]: y[26] + u[26] - z[26] <= 1
 mccormick3[27]: y[27] + u[27] - z[27] <= 1
 mccormick3[28]: y[28] + u[28] - z[28] <= 1
 mccormick3[29]: y[29] + u[29] - z[29] <= 1
 mccormick3[30]: y[30] + u[30] - z[30] <= 1
 mccormick3[31]: y[31] + u[31] - z[31] <= 1
 mccormick3[32]: y[32] + u[32] - z[32] <= 1
 mccormick3[33]: y[33] + u[33] - z[33] <= 1
 mccormick3[34]: y[34] + u[34] - z[34] <= 1
 mccormick3[35]: y[35] + u[35] - z[35] <= 1
 mccormick3[36]: y[36] + u[36] - z[36] <= 1
 mccormick3[37]: y[37] + u[37] - z[37] <= 1
 mccormick3[38]: y[38] + u[38] - z[38] <= 1
 mccormick3[39]: y[39] + u[39] - z[39] <= 1
Bounds
Binaries
 x[0] x[1] x[2] x[3] x[4] x[5] x[6] x[7] x[8] x[9] x[10] x[11] x[12] x[13]
 x[14] x[15] x[16] x[17] x[18] x[19] x[20] x[21] x[22] x[23] x[24] x[25]
 x[26] x[27] x[28] x[29] x[30] x[31] x[32] x[33] x[34] x[35] x[36] x[37]
 x[38] x[39] y[0] y[1] y[2] y[3] y[4] y[5] y[6] y[7] y[8] y[9] y[10] y[11]
 y[12] y[13] y[14] y[15] y[16] y[17] y[18] y[19] y[20] y[21] y[22] y[23]
 y[24] y[25] y[26] y[27] y[28] y[29] y[30] y[31] y[32] y[33] y[34] y[35]
 y[36] y[37] y[38] y[39] u[0] u[1] u[2] u[3] u[4] u[5] u[6] u[7] u[8] u[9]
 u[10] u[11] u[12] u[13] u[14] u[15] u[16] u[17] u[18] u[19] u[20] u[21]
 u[22] u[23] u[24] u[25] u[26] u[27] u[28] u[29] u[30] u[31] u[32] u[33]
 u[34] u[35] u[36] u[37] u[38] u[39] z[0] z[1] z[2] z[3] z[4] z[5] z[6]
 z[7] z[8] z[9] z[10] z[11] z[12] z[13] z[14] z[15] z[16] z[17] z[18] z[19]
 z[20] z[21] z[22] z[23] z[24] z[25] z[26] z[27] z[28] z[29] z[30] z[31]
 z[32] z[33] z[34] z[35] z[36] z[37] z[38] z[39]
End
