\ Model knapsack_20_100_5
\ LP format - for model browsing. Use MPS format to capture full model detail.
\ Signature: 0x6357969ace1194f9
Minimize
  10 x[0] + 10 x[1] + 10 x[2] + 10 x[3] + 10 x[4] + 10 x[5] + 10 x[6]
   + 10 x[7] + 10 x[8] + 10 x[9] + 10 x[10] + 10 x[11] + 10 x[12]
   + 10 x[13] + 10 x[14] + 10 x[15] + 10 x[16] + 10 x[17] + 10 x[18]
   + 10 x[19] - 623 y[0] - 824 y[1] - 801 y[2] - 525 y[3] - 939 y[4]
   - 370 y[5] - 739 y[6] - 381 y[7] - 728 y[8] - 828 y[9] - 712 y[10]
   - 548 y[11] - 852 y[12] - 379 y[13] - 616 y[14] - 541 y[15] - 871 y[16]
   - 915 y[17] - 836 y[18] - 923 y[19]
Subject To
 primal_upper: 237 y[0] + 721 y[1] + 775 y[2] + 680 y[3] + 825 y[4]
   + 407 y[5] + 458 y[6] + 929 y[7] + 426 y[8] + 759 y[9] + 545 y[10]
   + 176 y[11] + 921 y[12] + 777 y[13] + 858 y[14] + 194 y[15] + 306 y[16]
   + 485 y[17] + 374 y[18] + 123 y[19] + 24 z[0] + 72 z[1] + 78 z[2]
   + 68 z[3] + 82 z[4] + 41 z[5] + 46 z[6] + 93 z[7] + 43 z[8] + 76 z[9]
   + 54 z[10] + 18 z[11] + 92 z[12] + 78 z[13] + 86 z[14] + 19 z[15]
   + 31 z[16] + 48 z[17] + 37 z[18] + 12 z[19] <= 1829
 primal_lower0: 931 u[0] + 831 u[1] + 541 u[2] + 334 u[3] + 799 u[4]
   + 501 u[5] + 784 u[6] + 255 u[7] + 128 u[8] + 181 u[9] + 199 u[10]
   + 926 u[11] + 351 u[12] + 231 u[13] + 952 u[14] + 632 u[15] + 752 u[16]
   + 259 u[17] + 940 u[18] + 9 u[19] <= 952
 primal_lower1: 892 u[0] + 280 u[1] + 942 u[2] + 847 u[3] + 800 u[4]
   + 790 u[5] + 81 u[6] + 32 u[7] + 953 u[8] + 182 u[9] + 784 u[10]
   + 799 u[11] + 832 u[12] + 288 u[13] + 713 u[14] + 121 u[15] + 433 u[16]
   + 52 u[17] + 485 u[18] + 106 u[19] <= 6941
 primal_lower2: 334 u[0] + 546 u[1] + 384 u[2] + 497 u[3] + 186 u[4]
   + 264 u[5] + 91 u[6] + 418 u[7] + 547 u[8] + 440 u[9] + 554 u[10]
   + 713 u[11] + 2 u[12] + 322 u[13] + 75 u[14] + 803 u[15] + 523 u[16]
   + 214 u[17] + 791 u[18] + 284 u[19] <= 1331
 primal_lower3: 287 u[0] + 256 u[1] + 530 u[2] + 975 u[3] + 844 u[4]
   + 269 u[5] + 189 u[6] + 511 u[7] + 853 u[8] + 766 u[9] + 571 u[10]
   + 199 u[11] + 772 u[12] + 552 u[13] + 452 u[14] + 864 u[15] + 469 u[16]
   + 596 u[17] + 929 u[18] + 874 u[19] <= 3919
 primal_lower4: 42 u[0] + 299 u[1] + 277 u[2] + 506 u[3] + 839 u[4]
   + 872 u[5] + 40 u[6] + 490 u[7] + 472 u[8] + 121 u[9] + 462 u[10]
   + 594 u[11] + 71 u[12] + 931 u[13] + 615 u[14] + 219 u[15] + 952 u[16]
   + 143 u[17] + 196 u[18] + 701 u[19] <= 1473
 primal_lower5: 759 u[0] + 691 u[1] + 73 u[2] + 890 u[3] + 155 u[4]
   + 457 u[5] + 988 u[6] + 339 u[7] + 324 u[8] + 289 u[9] + 403 u[10]
   + 146 u[11] + 195 u[12] + 851 u[13] + 652 u[14] + 276 u[15] + 236 u[16]
   + 7 u[17] + 96 u[18] + 357 u[19] <= 4092
 primal_lower6: 104 u[0] + 92 u[1] + 10 u[2] + 323 u[3] + 684 u[4]
   + 506 u[5] + 133 u[6] + 660 u[7] + 837 u[8] + 498 u[9] + 108 u[10]
   + 371 u[11] + 484 u[12] + 836 u[13] + 733 u[14] + 909 u[15] + 749 u[16]
   + 392 u[17] + 97 u[18] + 126 u[19] <= 1442
 primal_lower7: 408 u[0] + 785 u[1] + 619 u[2] + 272 u[3] + 989 u[4]
   + 742 u[5] + 158 u[6] + 312 u[7] + 502 u[8] + 191 u[9] + 20 u[10]
   + 256 u[11] + 445 u[12] + 961 u[13] + 973 u[14] + 329 u[15] + 854 u[16]
   + 109 u[17] + 978 u[18] + 283 u[19] <= 1697
 primal_lower8: 683 u[0] + 207 u[1] + 829 u[2] + 910 u[3] + 335 u[4]
   + 573 u[5] + 896 u[6] + 367 u[7] + 768 u[8] + 45 u[9] + 23 u[10]
   + 382 u[11] + 87 u[12] + 455 u[13] + 296 u[14] + 416 u[15] + 360 u[16]
   + 483 u[17] + 580 u[18] + 73 u[19] <= 910
 primal_lower9: 714 u[0] + 499 u[1] + 381 u[2] + 562 u[3] + 695 u[4]
   + 336 u[5] + 888 u[6] + 50 u[7] + 320 u[8] + 169 u[9] + 510 u[10]
   + 362 u[11] + 55 u[12] + 723 u[13] + 23 u[14] + 11 u[15] + 880 u[16]
   + 575 u[17] + 692 u[18] + 453 u[19] <= 2966
 primal_lower10: 279 u[0] + 960 u[1] + 450 u[2] + 335 u[3] + 868 u[4]
   + 885 u[5] + 773 u[6] + 519 u[7] + 917 u[8] + 846 u[9] + 571 u[10]
   + 583 u[11] + 332 u[12] + 304 u[13] + 844 u[14] + 296 u[15] + 381 u[16]
   + 860 u[17] + 665 u[18] + 730 u[19] <= 4132
 primal_lower11: 641 u[0] + 973 u[1] + 779 u[2] + 68 u[3] + 549 u[4]
   + 939 u[5] + 198 u[6] + 517 u[7] + 638 u[8] + 683 u[9] + 629 u[10]
   + 188 u[11] + 637 u[12] + 829 u[13] + 494 u[14] + 894 u[15] + 950 u[16]
   + 753 u[17] + 18 u[18] + 919 u[19] <= 973
 primal_lower12: 371 u[0] + 84 u[1] + 598 u[2] + 531 u[3] + 400 u[4]
   + 625 u[5] + 225 u[6] + 59 u[7] + 625 u[8] + 266 u[9] + 727 u[10]
   + 499 u[11] + 712 u[12] + 892 u[13] + 88 u[14] + 100 u[15] + 529 u[16]
   + 688 u[17] + 181 u[18] + 526 u[19] <= 2908
 primal_lower13: 996 u[0] + 536 u[1] + 174 u[2] + 287 u[3] + 408 u[4]
   + 358 u[5] + 361 u[6] + 560 u[7] + 553 u[8] + 758 u[9] + 176 u[10]
   + 527 u[11] + 328 u[12] + 80 u[13] + 705 u[14] + 817 u[15] + 377 u[16]
   + 52 u[17] + 229 u[18] + 658 u[19] <= 4470
 primal_lower14: 454 u[0] + 807 u[1] + 465 u[2] + 942 u[3] + 851 u[4]
   + 220 u[5] + 964 u[6] + 686 u[7] + 660 u[8] + 597 u[9] + 490 u[10]
   + 454 u[11] + 43 u[12] + 535 u[13] + 411 u[14] + 855 u[15] + 132 u[16]
   + 291 u[17] + 216 u[18] + 201 u[19] <= 6849
 primal_lower15: 503 u[0] + 211 u[1] + 201 u[2] + 986 u[3] + 179 u[4]
   + 777 u[5] + 148 u[6] + 467 u[7] + 564 u[8] + 841 u[9] + 283 u[10]
   + 554 u[11] + 595 u[12] + 355 u[13] + 364 u[14] + 588 u[15] + 972 u[16]
   + 335 u[17] + 816 u[18] + 173 u[19] <= 986
 primal_lower16: 53 u[0] + 457 u[1] + 871 u[2] + 696 u[3] + 817 u[4]
   + 919 u[5] + 530 u[6] + 281 u[7] + 34 u[8] + 855 u[9] + 513 u[10]
   + 24 u[11] + 177 u[12] + 265 u[13] + 394 u[14] + 338 u[15] + 986 u[16]
   + 437 u[17] + 246 u[18] + 851 u[19] <= 4872
 primal_lower17: 79 u[0] + 256 u[1] + 290 u[2] + 647 u[3] + 860 u[4]
   + 117 u[5] + 797 u[6] + 559 u[7] + 101 u[8] + 718 u[9] + 955 u[10]
   + 527 u[11] + 228 u[12] + 672 u[13] + 652 u[14] + 80 u[15] + 973 u[16]
   + 884 u[17] + 673 u[18] + 82 u[19] <= 5075
 primal_lower18: 912 u[0] + 900 u[1] + 106 u[2] + 731 u[3] + 852 u[4]
   + 2 u[5] + 325 u[6] + 12 u[7] + 781 u[8] + 258 u[9] + 20 u[10]
   + 227 u[11] + 388 u[12] + 548 u[13] + 69 u[14] + 581 u[15] + 317 u[16]
   + 960 u[17] + 169 u[18] + 6 u[19] <= 2721
 primal_lower19: 659 u[0] + 660 u[1] + 238 u[2] + 947 u[3] + 840 u[4]
   + 641 u[5] + 305 u[6] + 187 u[7] + 745 u[8] + 562 u[9] + 927 u[10]
   + 467 u[11] + 120 u[12] + 36 u[13] + 160 u[14] + 532 u[15] + 369 u[16]
   + 984 u[17] + 37 u[18] + 86 u[19] <= 6334
 primal_lower20: 500 u[0] + 365 u[1] + 487 u[2] + 28 u[3] + 121 u[4]
   + 506 u[5] + 906 u[6] + 620 u[7] + 106 u[8] + 283 u[9] + 760 u[10]
   + 868 u[11] + 105 u[12] + 413 u[13] + 169 u[14] + 477 u[15] + 242 u[16]
   + 169 u[17] + 126 u[18] + 655 u[19] <= 2635
 primal_lower21: 730 u[0] + 379 u[1] + 749 u[2] + 234 u[3] + 159 u[4]
   + 440 u[5] + 208 u[6] + 370 u[7] + 88 u[8] + 809 u[9] + 150 u[10]
   + 834 u[11] + 519 u[12] + 371 u[13] + 535 u[14] + 467 u[15] + 992 u[16]
   + 151 u[17] + 92 u[18] + 725 u[19] <= 3000
 primal_lower22: 866 u[0] + 11 u[1] + 309 u[2] + 258 u[3] + 839 u[4]
   + 488 u[5] + 520 u[6] + 426 u[7] + 832 u[8] + 889 u[9] + 262 u[10]
   + 546 u[11] + 263 u[12] + 83 u[13] + 215 u[14] + 835 u[15] + 648 u[16]
   + 503 u[17] + 532 u[18] + 693 u[19] <= 1669
 primal_lower23: 363 u[0] + 884 u[1] + 998 u[2] + 931 u[3] + 392 u[4]
   + 473 u[5] + 689 u[6] + 291 u[7] + 233 u[8] + 386 u[9] + 751 u[10]
   + 203 u[11] + 568 u[12] + 300 u[13] + 376 u[14] + 556 u[15] + 697 u[16]
   + 400 u[17] + 413 u[18] + 990 u[19] <= 1815
 primal_lower24: 861 u[0] + 558 u[1] + 880 u[2] + 957 u[3] + 402 u[4]
   + 299 u[5] + 219 u[6] + 597 u[7] + 499 u[8] + 188 u[9] + 81 u[10]
   + 413 u[11] + 146 u[12] + 534 u[13] + 810 u[14] + 614 u[15] + 475 u[16]
   + 98 u[17] + 543 u[18] + 600 u[19] <= 4887
 primal_lower25: 653 u[0] + 433 u[1] + 967 u[2] + 296 u[3] + 825 u[4]
   + 863 u[5] + 362 u[6] + 225 u[7] + 386 u[8] + 7 u[9] + 753 u[10]
   + 200 u[11] + 713 u[12] + 881 u[13] + 370 u[14] + 930 u[15] + 234 u[16]
   + 77 u[17] + 198 u[18] + 907 u[19] <= 1713
 primal_lower26: 679 u[0] + 864 u[1] + 386 u[2] + 671 u[3] + 980 u[4]
   + 397 u[5] + 869 u[6] + 591 u[7] + 829 u[8] + 334 u[9] + 443 u[10]
   + 351 u[11] + 4 u[12] + 936 u[13] + 628 u[14] + 896 u[15] + 181 u[16]
   + 708 u[17] + 977 u[18] + 658 u[19] <= 4127
 primal_lower27: 990 u[0] + 199 u[1] + 9 u[2] + 782 u[3] + 947 u[4]
   + 972 u[5] + 932 u[6] + 894 u[7] + 140 u[8] + 645 u[9] + 58 u[10]
   + 774 u[11] + 907 u[12] + 455 u[13] + 331 u[14] + 503 u[15] + 364 u[16]
   + 171 u[17] + 624 u[18] + 697 u[19] <= 7596
 primal_lower28: 756 u[0] + 701 u[1] + 23 u[2] + 412 u[3] + 209 u[4]
   + 378 u[5] + 306 u[6] + 188 u[7] + 498 u[8] + 211 u[9] + 656 u[10]
   + 300 u[11] + 961 u[12] + 677 u[13] + 297 u[14] + 653 u[15] + 666 u[16]
   + 521 u[17] + 870 u[18] + 439 u[19] <= 4861
 primal_lower29: 34 u[0] + 427 u[1] + 701 u[2] + 242 u[3] + 383 u[4]
   + 112 u[5] + 256 u[6] + 938 u[7] + 96 u[8] + 553 u[9] + 798 u[10]
   + 418 u[11] + 559 u[12] + 67 u[13] + 815 u[14] + 307 u[15] + 672 u[16]
   + 663 u[17] + 564 u[18] + 773 u[19] <= 3126
 primal_lower30: 157 u[0] + 110 u[1] + 376 u[2] + 461 u[3] + 394 u[4]
   + 715 u[5] + 739 u[6] + 805 u[7] + 915 u[8] + 108 u[9] + 921 u[10]
   + 213 u[11] + 354 u[12] + 30 u[13] + 730 u[14] + 6 u[15] + 203 u[16]
   + 650 u[17] + 239 u[18] + 992 u[19] <= 1519
 primal_lower31: 949 u[0] + 78 u[1] + 1000 u[2] + 597 u[3] + 978 u[4]
   + 675 u[5] + 651 u[6] + 29 u[7] + 859 u[8] + 596 u[9] + 249 u[10]
   + 557 u[11] + 594 u[12] + 790 u[13] + 618 u[14] + 854 u[15] + 211 u[16]
   + 498 u[17] + 607 u[18] + 656 u[19] <= 1000
 primal_lower32: 382 u[0] + 42 u[1] + 624 u[2] + 665 u[3] + 122 u[4]
   + 800 u[5] + 179 u[6] + 98 u[7] + 723 u[8] + 904 u[9] + 778 u[10]
   + 761 u[11] + 234 u[12] + 274 u[13] + 115 u[14] + 147 u[15] + 699 u[16]
   + 758 u[17] + 719 u[18] + 356 u[19] <= 6253
 primal_lower33: 749 u[0] + 857 u[1] + 799 u[2] + 544 u[3] + 481 u[4]
   + 887 u[5] + 274 u[6] + 225 u[7] + 426 u[8] + 639 u[9] + 449 u[10]
   + 504 u[11] + 889 u[12] + 553 u[13] + 482 u[14] + 450 u[15] + 938 u[16]
   + 397 u[17] + 270 u[18] + 243 u[19] <= 1842
 primal_lower34: 562 u[0] + 382 u[1] + 964 u[2] + 165 u[3] + 422 u[4]
   + 892 u[5] + 95 u[6] + 670 u[7] + 567 u[8] + 724 u[9] + 934 u[10]
   + 917 u[11] + 862 u[12] + 558 u[13] + 151 u[14] + 559 u[15] + 983 u[16]
   + 450 u[17] + 147 u[18] + 976 u[19] <= 5990
 primal_lower35: 539 u[0] + 92 u[1] + 286 u[2] + 731 u[3] + 368 u[4]
   + 17 u[5] + 969 u[6] + 891 u[7] + 305 u[8] + 834 u[9] + 647 u[10]
   + 59 u[11] + 448 u[12] + 20 u[13] + 432 u[14] + 356 u[15] + 153 u[16]
   + 792 u[17] + 677 u[18] + 878 u[19] <= 1582
 primal_lower36: 957 u[0] + 457 u[1] + 823 u[2] + 496 u[3] + 497 u[4]
   + 167 u[5] + 626 u[6] + 361 u[7] + 410 u[8] + 639 u[9] + 873 u[10]
   + 952 u[11] + 129 u[12] + 217 u[13] + 562 u[14] + 770 u[15] + 770 u[16]
   + 125 u[17] + 686 u[18] + 387 u[19] <= 3634
 primal_lower37: 200 u[0] + 657 u[1] + 843 u[2] + 824 u[3] + 61 u[4]
   + 174 u[5] + 966 u[6] + 8 u[7] + 742 u[8] + 879 u[9] + 516 u[10]
   + 552 u[11] + 717 u[12] + 377 u[13] + 373 u[14] + 473 u[15] + 542 u[16]
   + 661 u[17] + 474 u[18] + 963 u[19] <= 7334
 primal_lower38: 853 u[0] + 134 u[1] + 456 u[2] + 389 u[3] + 482 u[4]
   + 691 u[5] + 619 u[6] + 445 u[7] + 363 u[8] + 4 u[9] + 385 u[10]
   + 573 u[11] + 714 u[12] + 582 u[13] + 210 u[14] + 166 u[15] + 763 u[16]
   + 626 u[17] + 31 u[18] + 928 u[19] <= 3138
 primal_lower39: 680 u[0] + 537 u[1] + 315 u[2] + 360 u[3] + 333 u[4]
   + 910 u[5] + 14 u[6] + 568 u[7] + 142 u[8] + 423 u[9] + 972 u[10]
   + 760 u[11] + 229 u[12] + 177 u[13] + 933 u[14] + 865 u[15] + 414 u[16]
   + 925 u[17] + 602 u[18] + 875 u[19] <= 1839
 primal_lower40: 510 u[0] + 319 u[1] + 537 u[2] + 246 u[3] + 675 u[4]
   + 428 u[5] + 692 u[6] + 334 u[7] + 548 u[8] + 101 u[9] + 794 u[10]
   + 566 u[11] + 203 u[12] + 655 u[13] + 771 u[14] + 111 u[15] + 684 u[16]
   + 99 u[17] + 496 u[18] + 785 u[19] <= 3184
 primal_lower41: 727 u[0] + 744 u[1] + 234 u[2] + 815 u[3] + 132 u[4]
   + 797 u[5] + 357 u[6] + 135 u[7] + 605 u[8] + 782 u[9] + 139 u[10]
   + 687 u[11] + 364 u[12] + 576 u[13] + 28 u[14] + 264 u[15] + 613 u[16]
   + 460 u[17] + 649 u[18] + 698 u[19] <= 1634
 primal_lower42: 678 u[0] + 535 u[1] + 361 u[2] + 558 u[3] + 155 u[4]
   + 180 u[5] + 700 u[6] + 286 u[7] + 156 u[8] + 669 u[9] + 330 u[10]
   + 270 u[11] + 107 u[12] + 879 u[13] + 619 u[14] + 703 u[15] + 36 u[16]
   + 843 u[17] + 16 u[18] + 353 u[19] <= 4217
 primal_lower43: 698 u[0] + 483 u[1] + 437 u[2] + 234 u[3] + 407 u[4]
   + 488 u[5] + 472 u[6] + 986 u[7] + 840 u[8] + 105 u[9] + 454 u[10]
   + 706 u[11] + 431 u[12] + 987 u[13] + 911 u[14] + 115 u[15] + 408 u[16]
   + 903 u[17] + 460 u[18] + 485 u[19] <= 3670
 primal_lower44: 456 u[0] + 356 u[1] + 562 u[2] + 971 u[3] + 780 u[4]
   + 866 u[5] + 701 u[6] + 940 u[7] + 589 u[8] + 810 u[9] + 340 u[10]
   + 123 u[11] + 180 u[12] + 92 u[13] + 125 u[14] + 653 u[15] + 149 u[16]
   + 568 u[17] + 137 u[18] + 774 u[19] <= 5086
 primal_lower45: 917 u[0] + 249 u[1] + 95 u[2] + 912 u[3] + 281 u[4]
   + 143 u[5] + 418 u[6] + 113 u[7] + 706 u[8] + 999 u[9] + 649 u[10]
   + 352 u[11] + 561 u[12] + 369 u[13] + 186 u[14] + 922 u[15] + 818 u[16]
   + 93 u[17] + 510 u[18] + 755 u[19] <= 999
 primal_lower46: 875 u[0] + 743 u[1] + 637 u[2] + 78 u[3] + 119 u[4]
   + 373 u[5] + 64 u[6] + 687 u[7] + 848 u[8] + 709 u[9] + 335 u[10]
   + 46 u[11] + 319 u[12] + 735 u[13] + 64 u[14] + 328 u[15] + 496 u[16]
   + 459 u[17] + 364 u[18] + 297 u[19] <= 4288
 primal_lower47: 353 u[0] + 301 u[1] + 11 u[2] + 716 u[3] + 245 u[4]
   + 291 u[5] + 598 u[6] + 557 u[7] + 270 u[8] + 635 u[9] + 981 u[10]
   + 252 u[11] + 397 u[12] + 653 u[13] + 958 u[14] + 462 u[15] + 918 u[16]
   + 505 u[17] + 914 u[18] + 807 u[19] <= 3608
 primal_lower48: 658 u[0] + 635 u[1] + 29 u[2] + 818 u[3] + 279 u[4]
   + 152 u[5] + 264 u[6] + 170 u[7] + 944 u[8] + 953 u[9] + 174 u[10]
   + 754 u[11] + 367 u[12] + 467 u[13] + 999 u[14] + 99 u[15] + 568 u[16]
   + 807 u[17] + 44 u[18] + 445 u[19] <= 3208
 primal_lower49: 732 u[0] + 709 u[1] + 615 u[2] + 20 u[3] + 537 u[4]
   + 74 u[5] + 50 u[6] + 372 u[7] + 930 u[8] + 539 u[9] + 488 u[10]
   + 524 u[11] + 601 u[12] + 709 u[13] + 785 u[14] + 581 u[15] + 858 u[16]
   + 193 u[17] + 438 u[18] + 479 u[19] <= 3411
 primal_lower50: 275 u[0] + 980 u[1] + 382 u[2] + 667 u[3] + 336 u[4]
   + 529 u[5] + 889 u[6] + 107 u[7] + 433 u[8] + 138 u[9] + 919 u[10]
   + 499 u[11] + 48 u[12] + 236 u[13] + 992 u[14] + 972 u[15] + 577 u[16]
   + 256 u[17] + 981 u[18] + 342 u[19] <= 5279
 primal_lower51: 171 u[0] + 87 u[1] + 333 u[2] + 990 u[3] + 167 u[4]
   + 589 u[5] + 944 u[6] + 943 u[7] + 288 u[8] + 565 u[9] + 455 u[10]
   + 910 u[11] + 159 u[12] + 895 u[13] + 816 u[14] + 280 u[15] + 8 u[16]
   + 619 u[17] + 964 u[18] + 817 u[19] <= 990
 primal_lower52: 696 u[0] + 444 u[1] + 114 u[2] + 299 u[3] + 516 u[4]
   + 162 u[5] + 829 u[6] + 84 u[7] + 589 u[8] + 754 u[9] + 652 u[10]
   + 731 u[11] + 812 u[12] + 356 u[13] + 357 u[14] + 789 u[15] + 421 u[16]
   + 336 u[17] + 25 u[18] + 806 u[19] <= 3257
 primal_lower53: 896 u[0] + 156 u[1] + 842 u[2] + 43 u[3] + 588 u[4]
   + 802 u[5] + 341 u[6] + 412 u[7] + 677 u[8] + 978 u[9] + 76 u[10]
   + 955 u[11] + 692 u[12] + 940 u[13] + 301 u[14] + 77 u[15] + 693 u[16]
   + 536 u[17] + 337 u[18] + 966 u[19] <= 5654
 primal_lower54: 381 u[0] + 366 u[1] + 832 u[2] + 381 u[3] + 610 u[4]
   + 347 u[5] + 507 u[6] + 381 u[7] + 571 u[8] + 492 u[9] + 457 u[10]
   + 669 u[11] + 906 u[12] + 102 u[13] + 458 u[14] + 198 u[15] + 395 u[16]
   + 922 u[17] + 935 u[18] + 512 u[19] <= 3474
 primal_lower55: 969 u[0] + 77 u[1] + 683 u[2] + 996 u[3] + 341 u[4]
   + 203 u[5] + 286 u[6] + 245 u[7] + 662 u[8] + 691 u[9] + 941 u[10]
   + 788 u[11] + 797 u[12] + 717 u[13] + 126 u[14] + 246 u[15] + 558 u[16]
   + 9 u[17] + 490 u[18] + 639 u[19] <= 6976
 primal_lower56: 862 u[0] + 399 u[1] + 49 u[2] + 974 u[3] + 195 u[4]
   + 604 u[5] + 396 u[6] + 118 u[7] + 972 u[8] + 717 u[9] + 362 u[10]
   + 6 u[11] + 547 u[12] + 175 u[13] + 363 u[14] + 903 u[15] + 692 u[16]
   + 99 u[17] + 496 u[18] + 785 u[19] <= 974
 primal_lower57: 686 u[0] + 255 u[1] + 225 u[2] + 246 u[3] + 275 u[4]
   + 836 u[5] + 508 u[6] + 358 u[7] + 700 u[8] + 5 u[9] + 578 u[10]
   + 118 u[11] + 483 u[12] + 559 u[13] + 315 u[14] + 31 u[15] + 420 u[16]
   + 779 u[17] + 984 u[18] + 177 u[19] <= 5692
 primal_lower58: 713 u[0] + 586 u[1] + 100 u[2] + 961 u[3] + 942 u[4]
   + 63 u[5] + 815 u[6] + 433 u[7] + 743 u[8] + 760 u[9] + 925 u[10]
   + 553 u[11] + 310 u[12] + 906 u[13] + 686 u[14] + 210 u[15] + 487 u[16]
   + 742 u[17] + 851 u[18] + 852 u[19] <= 2106
 primal_lower59: 731 u[0] + 815 u[1] + 805 u[2] + 606 u[3] + 271 u[4]
   + 133 u[5] + 144 u[6] + 447 u[7] + 976 u[8] + 709 u[9] + 415 u[10]
   + 526 u[11] + 327 u[12] + 967 u[13] + 160 u[14] + 392 u[15] + 944 u[16]
   + 371 u[17] + 660 u[18] + 185 u[19] <= 976
 primal_lower60: 652 u[0] + 712 u[1] + 766 u[2] + 151 u[3] + 720 u[4]
   + 102 u[5] + 65 u[6] + 496 u[7] + 457 u[8] + 646 u[9] + 360 u[10]
   + 663 u[11] + 104 u[12] + 992 u[13] + 249 u[14] + 449 u[15] + 969 u[16]
   + 588 u[17] + 173 u[18] + 930 u[19] <= 6829
 primal_lower61: 340 u[0] + 496 u[1] + 270 u[2] + 431 u[3] + 464 u[4]
   + 654 u[5] + 401 u[6] + 288 u[7] + 713 u[8] + 438 u[9] + 600 u[10]
   + 495 u[11] + 192 u[12] + 328 u[13] + 737 u[14] + 113 u[15] + 17 u[16]
   + 268 u[17] + 685 u[18] + 458 u[19] <= 1398
 primal_lower62: 234 u[0] + 443 u[1] + 437 u[2] + 970 u[3] + 103 u[4]
   + 480 u[5] + 704 u[6] + 554 u[7] + 248 u[8] + 833 u[9] + 774 u[10]
   + 818 u[11] + 583 u[12] + 331 u[13] + 607 u[14] + 739 u[15] + 480 u[16]
   + 551 u[17] + 844 u[18] + 597 u[19] <= 5665
 primal_lower63: 390 u[0] + 98 u[1] + 160 u[2] + 393 u[3] + 890 u[4]
   + 232 u[5] + 51 u[6] + 450 u[7] + 587 u[8] + 504 u[9] + 722 u[10]
   + 977 u[11] + 962 u[12] + 946 u[13] + 499 u[14] + 691 u[15] + 435 u[16]
   + 878 u[17] + 959 u[18] + 924 u[19] <= 3916
 primal_lower64: 990 u[0] + 122 u[1] + 192 u[2] + 929 u[3] + 466 u[4]
   + 264 u[5] + 27 u[6] + 362 u[7] + 219 u[8] + 184 u[9] + 738 u[10]
   + 265 u[11] + 82 u[12] + 258 u[13] + 147 u[14] + 91 u[15] + 587 u[16]
   + 542 u[17] + 191 u[18] + 204 u[19] <= 990
 primal_lower65: 5 u[0] + 345 u[1] + 239 u[2] + 504 u[3] + 713 u[4]
   + 247 u[5] + 842 u[6] + 465 u[7] + 650 u[8] + 991 u[9] + 569 u[10]
   + 456 u[11] + 881 u[12] + u[13] + 714 u[14] + 210 u[15] + 66 u[16]
   + 485 u[17] + 62 u[18] + 939 u[19] <= 1564
 primal_lower66: 26 u[0] + 494 u[1] + 996 u[2] + 557 u[3] + 38 u[4]
   + 356 u[5] + 983 u[6] + 310 u[7] + 615 u[8] + 636 u[9] + 726 u[10]
   + 941 u[11] + 918 u[12] + 270 u[13] + 23 u[14] + 935 u[15] + 959 u[16]
   + 482 u[17] + 27 u[18] + 656 u[19] <= 5474
 primal_lower67: 580 u[0] + 501 u[1] + 695 u[2] + 500 u[3] + 657 u[4]
   + 842 u[5] + 354 u[6] + 92 u[7] + 290 u[8] + 875 u[9] + 96 u[10]
   + 516 u[11] + 729 u[12] + 221 u[13] + 633 u[14] + 709 u[15] + 626 u[16]
   + 953 u[17] + 566 u[18] + 95 u[19] <= 3510
 primal_lower68: 508 u[0] + 325 u[1] + 623 u[2] + 172 u[3] + 377 u[4]
   + 410 u[5] + 482 u[6] + 444 u[7] + 74 u[8] + 891 u[9] + 64 u[10]
   + 36 u[11] + 865 u[12] + 741 u[13] + 873 u[14] + 317 u[15] + 850 u[16]
   + 185 u[17] + 494 u[18] + 431 u[19] <= 4581
 primal_lower69: 316 u[0] + 477 u[1] + 431 u[2] + 964 u[3] + 881 u[4]
   + 10 u[5] + 842 u[6] + 276 u[7] + 658 u[8] + 75 u[9] + 392 u[10]
   + 28 u[11] + 905 u[12] + 637 u[13] + 313 u[14] + 573 u[15] + 506 u[16]
   + 297 u[17] + 230 u[18] + 31 u[19] <= 1473
 primal_lower70: 696 u[0] + 145 u[1] + 811 u[2] + 584 u[3] + 773 u[4]
   + 174 u[5] + 94 u[6] + 424 u[7] + 534 u[8] + 279 u[9] + 308 u[10]
   + 848 u[11] + 765 u[12] + 697 u[13] + 909 u[14] + 737 u[15] + 678 u[16]
   + 445 u[17] + 602 u[18] + 27 u[19] <= 5265
 primal_lower71: 154 u[0] + 806 u[1] + 908 u[2] + 269 u[3] + 566 u[4]
   + 4 u[5] + 719 u[6] + 110 u[7] + 583 u[8] + 620 u[9] + 590 u[10]
   + 413 u[11] + 398 u[12] + 134 u[13] + 535 u[14] + 439 u[15] + 703 u[16]
   + 882 u[17] + 339 u[18] + 448 u[19] <= 908
 primal_lower72: 475 u[0] + 847 u[1] + 77 u[2] + 606 u[3] + 71 u[4]
   + 733 u[5] + 696 u[6] + 983 u[7] + 400 u[8] + 317 u[9] + 271 u[10]
   + 446 u[11] + 231 u[12] + 247 u[13] + 224 u[14] + 800 u[15] + 560 u[16]
   + 27 u[17] + 564 u[18] + 881 u[19] <= 1576
 primal_lower73: 325 u[0] + 849 u[1] + 247 u[2] + 808 u[3] + 881 u[4]
   + 399 u[5] + 578 u[6] + 105 u[7] + 674 u[8] + 215 u[9] + 329 u[10]
   + 72 u[11] + 457 u[12] + 961 u[13] + 890 u[14] + 42 u[15] + 242 u[16]
   + 317 u[17] + 302 u[18] + 851 u[19] <= 1590
 primal_lower74: 182 u[0] + 303 u[1] + 273 u[2] + 846 u[3] + 331 u[4]
   + 12 u[5] + 172 u[6] + 574 u[7] + 956 u[8] + 989 u[9] + 314 u[10]
   + 38 u[11] + 427 u[12] + 351 u[13] + 67 u[14] + 391 u[15] + 532 u[16]
   + 723 u[17] + 384 u[18] + 537 u[19] <= 4201
 primal_lower75: 12 u[0] + 741 u[1] + 783 u[2] + 348 u[3] + 721 u[4]
   + 234 u[5] + 682 u[6] + 860 u[7] + 338 u[8] + 435 u[9] + 720 u[10]
   + 516 u[11] + 457 u[12] + 645 u[13] + 801 u[14] + 245 u[15] + 906 u[16]
   + 353 u[17] + 422 u[18] + 535 u[19] <= 3584
 primal_lower76: 269 u[0] + 241 u[1] + 967 u[2] + 112 u[3] + 545 u[4]
   + 663 u[5] + 554 u[6] + 929 u[7] + 890 u[8] + 719 u[9] + 577 u[10]
   + 720 u[11] + 329 u[12] + 497 u[13] + 850 u[14] + 274 u[15] + 370 u[16]
   + 213 u[17] + 150 u[18] + 283 u[19] <= 5076
 primal_lower77: 457 u[0] + 290 u[1] + 268 u[2] + 977 u[3] + 734 u[4]
   + 567 u[5] + 839 u[6] + 249 u[7] + 311 u[8] + 8 u[9] + 277 u[10]
   + 81 u[11] + 254 u[12] + 146 u[13] + 6 u[14] + 474 u[15] + 615 u[16]
   + 246 u[17] + 803 u[18] + 316 u[19] <= 1319
 primal_lower78: 592 u[0] + 36 u[1] + 586 u[2] + 259 u[3] + 596 u[4]
   + 162 u[5] + 781 u[6] + 940 u[7] + 757 u[8] + 354 u[9] + 124 u[10]
   + 155 u[11] + 308 u[12] + 68 u[13] + 429 u[14] + 725 u[15] + 29 u[16]
   + 192 u[17] + 977 u[18] + 502 u[19] <= 1428
 primal_lower79: 714 u[0] + 443 u[1] + 877 u[2] + 570 u[3] + 871 u[4]
   + 568 u[5] + 824 u[6] + 906 u[7] + 384 u[8] + 545 u[9] + 926 u[10]
   + 274 u[11] + 887 u[12] + 883 u[13] + 599 u[14] + 939 u[15] + 112 u[16]
   + 135 u[17] + 708 u[18] + 717 u[19] <= 4294
 primal_lower80: 160 u[0] + 473 u[1] + 211 u[2] + 240 u[3] + 589 u[4]
   + 710 u[5] + 350 u[6] + 384 u[7] + 22 u[8] + 351 u[9] + 628 u[10]
   + 976 u[11] + 773 u[12] + 697 u[13] + 893 u[14] + 625 u[15] + 734 u[16]
   + 93 u[17] + 90 u[18] + 899 u[19] <= 976
 primal_lower81: 59 u[0] + 748 u[1] + 134 u[2] + 747 u[3] + 264 u[4]
   + 441 u[5] + 489 u[6] + 59 u[7] + 145 u[8] + 698 u[9] + 79 u[10]
   + 467 u[11] + 8 u[12] + 92 u[13] + 144 u[14] + 572 u[15] + 625 u[16]
   + 664 u[17] + 957 u[18] + 846 u[19] <= 4119
 primal_lower82: 719 u[0] + 795 u[1] + 729 u[2] + 346 u[3] + 651 u[4]
   + 841 u[5] + 444 u[6] + 747 u[7] + 148 u[8] + 609 u[9] + 347 u[10]
   + 82 u[11] + 355 u[12] + 635 u[13] + 68 u[14] + 452 u[15] + 684 u[16]
   + 887 u[17] + 208 u[18] + 93 u[19] <= 887
 primal_lower83: 155 u[0] + 591 u[1] + 573 u[2] + 294 u[3] + 727 u[4]
   + 349 u[5] + 24 u[6] + 679 u[7] + 120 u[8] + 717 u[9] + 95 u[10]
   + 726 u[11] + 631 u[12] + 935 u[13] + 472 u[14] + 848 u[15] + 152 u[16]
   + 443 u[17] + 116 u[18] + 705 u[19] <= 1558
 primal_lower84: 265 u[0] + 690 u[1] + 388 u[2] + 953 u[3] + 870 u[4]
   + 127 u[5] + 71 u[6] + 225 u[7] + 831 u[8] + 816 u[9] + 381 u[10]
   + 353 u[11] + 462 u[12] + 74 u[13] + 870 u[14] + 610 u[15] + 847 u[16]
   + 606 u[17] + 523 u[18] + 844 u[19] <= 953
 primal_lower85: 724 u[0] + 344 u[1] + 558 u[2] + 231 u[3] + 600 u[4]
   + 558 u[5] + 41 u[6] + 104 u[7] + 377 u[8] + 302 u[9] + 168 u[10]
   + 647 u[11] + 440 u[12] + 336 u[13] + 153 u[14] + 185 u[15] + 985 u[16]
   + 588 u[17] + 877 u[18] + 170 u[19] <= 2796
 primal_lower86: 201 u[0] + 773 u[1] + 555 u[2] + 268 u[3] + 421 u[4]
   + 643 u[5] + 102 u[6] + 925 u[7] + 430 u[8] + 707 u[9] + 893 u[10]
   + 20 u[11] + 149 u[12] + 77 u[13] + 622 u[14] + 326 u[15] + 870 u[16]
   + 145 u[17] + 794 u[18] + 703 u[19] <= 3208
 primal_lower87: 373 u[0] + 750 u[1] + 408 u[2] + 813 u[3] + 690 u[4]
   + 739 u[5] + 907 u[6] + 37 u[7] + 435 u[8] + 500 u[9] + 761 u[10]
   + 829 u[11] + 282 u[12] + 150 u[13] + 50 u[14] + 750 u[15] + 683 u[16]
   + 450 u[17] + 423 u[18] + 648 u[19] <= 5339
 primal_lower88: 961 u[0] + 810 u[1] + 676 u[2] + 273 u[3] + 278 u[4]
   + 439 u[5] + 247 u[6] + 393 u[7] + 983 u[8] + 704 u[9] + 485 u[10]
   + 761 u[11] + 598 u[12] + 970 u[13] + 30 u[14] + 282 u[15] + 343 u[16]
   + 878 u[17] + 187 u[18] + 764 u[19] <= 1843
 primal_lower89: 342 u[0] + 34 u[1] + 464 u[2] + 137 u[3] + 162 u[4]
   + 648 u[5] + 507 u[6] + 410 u[7] + 675 u[8] + 168 u[9] + 554 u[10]
   + 521 u[11] + 250 u[12] + 378 u[13] + 491 u[14] + 371 u[15] + 419 u[16]
   + 950 u[17] + 55 u[18] + 428 u[19] <= 3982
 primal_lower90: 242 u[0] + 598 u[1] + 708 u[2] + 357 u[3] + 166 u[4]
   + 28 u[5] + 583 u[6] + 6 u[7] + 511 u[8] + 812 u[9] + 62 u[10]
   + 941 u[11] + 774 u[12] + 518 u[13] + 879 u[14] + 71 u[15] + 95 u[16]
   + 338 u[17] + 803 u[18] + 432 u[19] <= 5949
 primal_lower91: 545 u[0] + 650 u[1] + 524 u[2] + 153 u[3] + 934 u[4]
   + 831 u[5] + 967 u[6] + 505 u[7] + 167 u[8] + 880 u[9] + 501 u[10]
   + 209 u[11] + 918 u[12] + 954 u[13] + 126 u[14] + 82 u[15] + 847 u[16]
   + 278 u[17] + 243 u[18] + 916 u[19] <= 3743
 primal_lower92: 116 u[0] + 408 u[1] + 54 u[2] + 839 u[3] + 880 u[4]
   + 6 u[5] + 857 u[6] + 448 u[7] + 217 u[8] + 494 u[9] + 624 u[10]
   + 223 u[11] + 8 u[12] + 656 u[13] + 257 u[14] + 433 u[15] + u[16]
   + 588 u[17] + 933 u[18] + 906 u[19] <= 4474
 primal_lower93: 895 u[0] + 171 u[1] + 529 u[2] + 314 u[3] + 715 u[4]
   + 73 u[5] + 532 u[6] + 779 u[7] + 28 u[8] + 737 u[9] + 379 u[10]
   + 202 u[11] + 739 u[12] + 875 u[13] + 396 u[14] + 276 u[15] + 252 u[16]
   + 215 u[17] + 232 u[18] + 381 u[19] <= 2906
 primal_lower94: 786 u[0] + 987 u[1] + 837 u[2] + 122 u[3] + 495 u[4]
   + 176 u[5] + 232 u[6] + 354 u[7] + 872 u[8] + 305 u[9] + 94 u[10]
   + 186 u[11] + 647 u[12] + 835 u[13] + 575 u[14] + 235 u[15] + 672 u[16]
   + 255 u[17] + 244 u[18] + 485 u[19] <= 1565
 primal_lower95: 432 u[0] + 721 u[1] + 331 u[2] + 480 u[3] + 221 u[4]
   + 278 u[5] + 542 u[6] + 984 u[7] + 134 u[8] + 431 u[9] + 412 u[10]
   + 944 u[11] + 637 u[12] + 281 u[13] + 869 u[14] + 137 u[15] + 894 u[16]
   + 997 u[17] + 426 u[18] + 315 u[19] <= 1744
 primal_lower96: 578 u[0] + 926 u[1] + 388 u[2] + 341 u[3] + 974 u[4]
   + 516 u[5] + 575 u[6] + 822 u[7] + 367 u[8] + 52 u[9] + 878 u[10]
   + 941 u[11] + 838 u[12] + 286 u[13] + 951 u[14] + 479 u[15] + 807 u[16]
   + 498 u[17] + 651 u[18] + 880 u[19] <= 2124
 primal_lower97: 943 u[0] + 355 u[1] + 193 u[2] + 442 u[3] + 131 u[4]
   + 201 u[5] + 148 u[6] + 611 u[7] + 484 u[8] + 241 u[9] + 435 u[10]
   + 714 u[11] + 243 u[12] + 387 u[13] + 836 u[14] + 596 u[15] + 220 u[16]
   + 847 u[17] + 872 u[18] + 277 u[19] <= 3058
 primal_lower98: 19 u[0] + 151 u[1] + 93 u[2] + 110 u[3] + 311 u[4]
   + 5 u[5] + 488 u[6] + 127 u[7] + 24 u[8] + 493 u[9] + 367 u[10]
   + 94 u[11] + 215 u[12] + 535 u[13] + 200 u[14] + 800 u[15] + 624 u[16]
   + 243 u[17] + 492 u[18] + 361 u[19] <= 2876
 primal_lower99: 85 u[0] + 262 u[1] + 488 u[2] + 573 u[3] + 962 u[4]
   + 83 u[5] + 171 u[6] + 573 u[7] + 203 u[8] + 148 u[9] + 585 u[10]
   + 205 u[11] + 586 u[12] + 518 u[13] + 930 u[14] + 270 u[15] + 235 u[16]
   + 186 u[17] + 551 u[18] + 184 u[19] <= 1299
 interdiction[0]: x[0] + u[0] <= 1
 interdiction[1]: x[1] + u[1] <= 1
 interdiction[2]: x[2] + u[2] <= 1
 interdiction[3]: x[3] + u[3] <= 1
 interdiction[4]: x[4] + u[4] <= 1
 interdiction[5]: x[5] + u[5] <= 1
 interdiction[6]: x[6] + u[6] <= 1
 interdiction[7]: x[7] + u[7] <= 1
 interdiction[8]: x[8] + u[8] <= 1
 interdiction[9]: x[9] + u[9] <= 1
 interdiction[10]: x[10] + u[10] <= 1
 interdiction[11]: x[11] + u[11] <= 1
 interdiction[12]: x[12] + u[12] <= 1
 interdiction[13]: x[13] + u[13] <= 1
 interdiction[14]: x[14] + u[14] <= 1
 interdiction[15]: x[15] + u[15] <= 1
 interdiction[16]: x[16] + u[16] <= 1
 interdiction[17]: x[17] + u[17] <= 1
 interdiction[18]: x[18] + u[18] <= 1
 interdiction[19]: x[19] + u[19] <= 1
 mccormick1[0]: - u[0] + z[0] <= 0
 mccormick1[1]: - u[1] + z[1] <= 0
 mccormick1[2]: - u[2] + z[2] <= 0
 mccormick1[3]: - u[3] + z[3] <= 0
 mccormick1[4]: - u[4] + z[4] <= 0
 mccormick1[5]: - u[5] + z[5] <= 0
 mccormick1[6]: - u[6] + z[6] <= 0
 mccormick1[7]: - u[7] + z[7] <= 0
 mccormick1[8]: - u[8] + z[8] <= 0
 mccormick1[9]: - u[9] + z[9] <= 0
 mccormick1[10]: - u[10] + z[10] <= 0
 mccormick1[11]: - u[11] + z[11] <= 0
 mccormick1[12]: - u[12] + z[12] <= 0
 mccormick1[13]: - u[13] + z[13] <= 0
 mccormick1[14]: - u[14] + z[14] <= 0
 mccormick1[15]: - u[15] + z[15] <= 0
 mccormick1[16]: - u[16] + z[16] <= 0
 mccormick1[17]: - u[17] + z[17] <= 0
 mccormick1[18]: - u[18] + z[18] <= 0
 mccormick1[19]: - u[19] + z[19] <= 0
 mccormick2[0]: - y[0] + z[0] <= 0
 mccormick2[1]: - y[1] + z[1] <= 0
 mccormick2[2]: - y[2] + z[2] <= 0
 mccormick2[3]: - y[3] + z[3] <= 0
 mccormick2[4]: - y[4] + z[4] <= 0
 mccormick2[5]: - y[5] + z[5] <= 0
 mccormick2[6]: - y[6] + z[6] <= 0
 mccormick2[7]: - y[7] + z[7] <= 0
 mccormick2[8]: - y[8] + z[8] <= 0
 mccormick2[9]: - y[9] + z[9] <= 0
 mccormick2[10]: - y[10] + z[10] <= 0
 mccormick2[11]: - y[11] + z[11] <= 0
 mccormick2[12]: - y[12] + z[12] <= 0
 mccormick2[13]: - y[13] + z[13] <= 0
 mccormick2[14]: - y[14] + z[14] <= 0
 mccormick2[15]: - y[15] + z[15] <= 0
 mccormick2[16]: - y[16] + z[16] <= 0
 mccormick2[17]: - y[17] + z[17] <= 0
 mccormick2[18]: - y[18] + z[18] <= 0
 mccormick2[19]: - y[19] + z[19] <= 0
 mccormick3[0]: y[0] + u[0] - z[0] <= 1
 mccormick3[1]: y[1] + u[1] - z[1] <= 1
 mccormick3[2]: y[2] + u[2] - z[2] <= 1
 mccormick3[3]: y[3] + u[3] - z[3] <= 1
 mccormick3[4]: y[4] + u[4] - z[4] <= 1
 mccormick3[5]: y[5] + u[5] - z[5] <= 1
 mccormick3[6]: y[6] + u[6] - z[6] <= 1
 mccormick3[7]: y[7] + u[7] - z[7] <= 1
 mccormick3[8]: y[8] + u[8] - z[8] <= 1
 mccormick3[9]: y[9] + u[9] - z[9] <= 1
 mccormick3[10]: y[10] + u[10] - z[10] <= 1
 mccormick3[11]: y[11] + u[11] - z[11] <= 1
 mccormick3[12]: y[12] + u[12] - z[12] <= 1
 mccormick3[13]: y[13] + u[13] - z[13] <= 1
 mccormick3[14]: y[14] + u[14] - z[14] <= 1
 mccormick3[15]: y[15] + u[15] - z[15] <= 1
 mccormick3[16]: y[16] + u[16] - z[16] <= 1
 mccormick3[17]: y[17] + u[17] - z[17] <= 1
 mccormick3[18]: y[18] + u[18] - z[18] <= 1
 mccormick3[19]: y[19] + u[19] - z[19] <= 1
Bounds
Binaries
 x[0] x[1] x[2] x[3] x[4] x[5] x[6] x[7] x[8] x[9] x[10] x[11] x[12] x[13]
 x[14] x[15] x[16] x[17] x[18] x[19] y[0] y[1] y[2] y[3] y[4] y[5] y[6]
 y[7] y[8] y[9] y[10] y[11] y[12] y[13] y[14] y[15] y[16] y[17] y[18] y[19]
 u[0] u[1] u[2] u[3] u[4] u[5] u[6] u[7] u[8] u[9] u[10] u[11] u[12] u[13]
 u[14] u[15] u[16] u[17] u[18] u[19] z[0] z[1] z[2] z[3] z[4] z[5] z[6]
 z[7] z[8] z[9] z[10] z[11] z[12] z[13] z[14] z[15] z[16] z[17] z[18] z[19]
End
