* Signature: 0x6357969ace1194f9
NAME knapsack_20_100_2
ROWS
 N  OBJ
 L  primal_upper
 L  primal_lower0
 L  primal_lower1
 L  primal_lower2
 L  primal_lower3
 L  primal_lower4
 L  primal_lower5
 L  primal_lower6
 L  primal_lower7
 L  primal_lower8
 L  primal_lower9
 L  primal_lower10
 L  primal_lower11
 L  primal_lower12
 L  primal_lower13
 L  primal_lower14
 L  primal_lower15
 L  primal_lower16
 L  primal_lower17
 L  primal_lower18
 L  primal_lower19
 L  primal_lower20
 L  primal_lower21
 L  primal_lower22
 L  primal_lower23
 L  primal_lower24
 L  primal_lower25
 L  primal_lower26
 L  primal_lower27
 L  primal_lower28
 L  primal_lower29
 L  primal_lower30
 L  primal_lower31
 L  primal_lower32
 L  primal_lower33
 L  primal_lower34
 L  primal_lower35
 L  primal_lower36
 L  primal_lower37
 L  primal_lower38
 L  primal_lower39
 L  primal_lower40
 L  primal_lower41
 L  primal_lower42
 L  primal_lower43
 L  primal_lower44
 L  primal_lower45
 L  primal_lower46
 L  primal_lower47
 L  primal_lower48
 L  primal_lower49
 L  primal_lower50
 L  primal_lower51
 L  primal_lower52
 L  primal_lower53
 L  primal_lower54
 L  primal_lower55
 L  primal_lower56
 L  primal_lower57
 L  primal_lower58
 L  primal_lower59
 L  primal_lower60
 L  primal_lower61
 L  primal_lower62
 L  primal_lower63
 L  primal_lower64
 L  primal_lower65
 L  primal_lower66
 L  primal_lower67
 L  primal_lower68
 L  primal_lower69
 L  primal_lower70
 L  primal_lower71
 L  primal_lower72
 L  primal_lower73
 L  primal_lower74
 L  primal_lower75
 L  primal_lower76
 L  primal_lower77
 L  primal_lower78
 L  primal_lower79
 L  primal_lower80
 L  primal_lower81
 L  primal_lower82
 L  primal_lower83
 L  primal_lower84
 L  primal_lower85
 L  primal_lower86
 L  primal_lower87
 L  primal_lower88
 L  primal_lower89
 L  primal_lower90
 L  primal_lower91
 L  primal_lower92
 L  primal_lower93
 L  primal_lower94
 L  primal_lower95
 L  primal_lower96
 L  primal_lower97
 L  primal_lower98
 L  primal_lower99
 L  interdiction[0]
 L  interdiction[1]
 L  interdiction[2]
 L  interdiction[3]
 L  interdiction[4]
 L  interdiction[5]
 L  interdiction[6]
 L  interdiction[7]
 L  interdiction[8]
 L  interdiction[9]
 L  interdiction[10]
 L  interdiction[11]
 L  interdiction[12]
 L  interdiction[13]
 L  interdiction[14]
 L  interdiction[15]
 L  interdiction[16]
 L  interdiction[17]
 L  interdiction[18]
 L  interdiction[19]
 L  mccormick1[0]
 L  mccormick1[1]
 L  mccormick1[2]
 L  mccormick1[3]
 L  mccormick1[4]
 L  mccormick1[5]
 L  mccormick1[6]
 L  mccormick1[7]
 L  mccormick1[8]
 L  mccormick1[9]
 L  mccormick1[10]
 L  mccormick1[11]
 L  mccormick1[12]
 L  mccormick1[13]
 L  mccormick1[14]
 L  mccormick1[15]
 L  mccormick1[16]
 L  mccormick1[17]
 L  mccormick1[18]
 L  mccormick1[19]
 L  mccormick2[0]
 L  mccormick2[1]
 L  mccormick2[2]
 L  mccormick2[3]
 L  mccormick2[4]
 L  mccormick2[5]
 L  mccormick2[6]
 L  mccormick2[7]
 L  mccormick2[8]
 L  mccormick2[9]
 L  mccormick2[10]
 L  mccormick2[11]
 L  mccormick2[12]
 L  mccormick2[13]
 L  mccormick2[14]
 L  mccormick2[15]
 L  mccormick2[16]
 L  mccormick2[17]
 L  mccormick2[18]
 L  mccormick2[19]
 L  mccormick3[0]
 L  mccormick3[1]
 L  mccormick3[2]
 L  mccormick3[3]
 L  mccormick3[4]
 L  mccormick3[5]
 L  mccormick3[6]
 L  mccormick3[7]
 L  mccormick3[8]
 L  mccormick3[9]
 L  mccormick3[10]
 L  mccormick3[11]
 L  mccormick3[12]
 L  mccormick3[13]
 L  mccormick3[14]
 L  mccormick3[15]
 L  mccormick3[16]
 L  mccormick3[17]
 L  mccormick3[18]
 L  mccormick3[19]
COLUMNS
    MARKER    'MARKER'                 'INTORG'
    x[0]      OBJ       10
    x[0]      interdiction[0]  1
    x[1]      OBJ       10
    x[1]      interdiction[1]  1
    x[2]      OBJ       10
    x[2]      interdiction[2]  1
    x[3]      OBJ       10
    x[3]      interdiction[3]  1
    x[4]      OBJ       10
    x[4]      interdiction[4]  1
    x[5]      OBJ       10
    x[5]      interdiction[5]  1
    x[6]      OBJ       10
    x[6]      interdiction[6]  1
    x[7]      OBJ       10
    x[7]      interdiction[7]  1
    x[8]      OBJ       10
    x[8]      interdiction[8]  1
    x[9]      OBJ       10
    x[9]      interdiction[9]  1
    x[10]     OBJ       10
    x[10]     interdiction[10]  1
    x[11]     OBJ       10
    x[11]     interdiction[11]  1
    x[12]     OBJ       10
    x[12]     interdiction[12]  1
    x[13]     OBJ       10
    x[13]     interdiction[13]  1
    x[14]     OBJ       10
    x[14]     interdiction[14]  1
    x[15]     OBJ       10
    x[15]     interdiction[15]  1
    x[16]     OBJ       10
    x[16]     interdiction[16]  1
    x[17]     OBJ       10
    x[17]     interdiction[17]  1
    x[18]     OBJ       10
    x[18]     interdiction[18]  1
    x[19]     OBJ       10
    x[19]     interdiction[19]  1
    y[0]      OBJ       -463
    y[0]      primal_upper  85
    y[0]      mccormick2[0]  -1
    y[0]      mccormick3[0]  1
    y[1]      OBJ       -248
    y[1]      primal_upper  465
    y[1]      mccormick2[1]  -1
    y[1]      mccormick3[1]  1
    y[2]      OBJ       -305
    y[2]      primal_upper  919
    y[2]      mccormick2[2]  -1
    y[2]      mccormick3[2]  1
    y[3]      OBJ       -557
    y[3]      primal_upper  32
    y[3]      mccormick2[3]  -1
    y[3]      mccormick3[3]  1
    y[4]      OBJ       -451
    y[4]      primal_upper  569
    y[4]      mccormick2[4]  -1
    y[4]      mccormick3[4]  1
    y[5]      OBJ       -634
    y[5]      primal_upper  895
    y[5]      mccormick2[5]  -1
    y[5]      mccormick3[5]  1
    y[6]      OBJ       -691
    y[6]      primal_upper  426
    y[6]      mccormick2[6]  -1
    y[6]      mccormick3[6]  1
    y[7]      OBJ       -333
    y[7]      primal_upper  65
    y[7]      mccormick2[7]  -1
    y[7]      mccormick3[7]  1
    y[8]      OBJ       -728
    y[8]      primal_upper  506
    y[8]      mccormick2[8]  -1
    y[8]      mccormick3[8]  1
    y[9]      OBJ       -532
    y[9]      primal_upper  567
    y[9]      mccormick2[9]  -1
    y[9]      mccormick3[9]  1
    y[10]     OBJ       -624
    y[10]     primal_upper  377
    y[10]     mccormick2[10]  -1
    y[10]     mccormick3[10]  1
    y[11]     OBJ       -476
    y[11]     primal_upper  56
    y[11]     mccormick2[11]  -1
    y[11]     mccormick3[11]  1
    y[12]     OBJ       -756
    y[12]     primal_upper  273
    y[12]     mccormick2[12]  -1
    y[12]     mccormick3[12]  1
    y[13]     OBJ       -995
    y[13]     primal_upper  401
    y[13]     mccormick2[13]  -1
    y[13]     mccormick3[13]  1
    y[14]     OBJ       -744
    y[14]     primal_upper  34
    y[14]     mccormick2[14]  -1
    y[14]     mccormick3[14]  1
    y[15]     OBJ       -885
    y[15]     primal_upper  322
    y[15]     mccormick2[15]  -1
    y[15]     mccormick3[15]  1
    y[16]     OBJ       -967
    y[16]     primal_upper  978
    y[16]     mccormick2[16]  -1
    y[16]     mccormick3[16]  1
    y[17]     OBJ       -803
    y[17]     primal_upper  29
    y[17]     mccormick2[17]  -1
    y[17]     mccormick3[17]  1
    y[18]     OBJ       -68
    y[18]     primal_upper  30
    y[18]     mccormick2[18]  -1
    y[18]     mccormick3[18]  1
    y[19]     OBJ       -219
    y[19]     primal_upper  323
    y[19]     mccormick2[19]  -1
    y[19]     mccormick3[19]  1
    u[0]      primal_lower0  664
    u[0]      primal_lower1  899
    u[0]      primal_lower2  603
    u[0]      primal_lower3  898
    u[0]      primal_lower4  152
    u[0]      primal_lower5  604
    u[0]      primal_lower6  10
    u[0]      primal_lower7  987
    u[0]      primal_lower8  944
    u[0]      primal_lower9  954
    u[0]      primal_lower10  752
    u[0]      primal_lower11  713
    u[0]      primal_lower12  204
    u[0]      primal_lower13  206
    u[0]      primal_lower14  813
    u[0]      primal_lower15  366
    u[0]      primal_lower16  493
    u[0]      primal_lower17  551
    u[0]      primal_lower18  627
    u[0]      primal_lower19  97
    u[0]      primal_lower20  988
    u[0]      primal_lower21  259
    u[0]      primal_lower22  820
    u[0]      primal_lower23  416
    u[0]      primal_lower24  943
    u[0]      primal_lower25  95
    u[0]      primal_lower26  320
    u[0]      primal_lower27  570
    u[0]      primal_lower28  27
    u[0]      primal_lower29  348
    u[0]      primal_lower30  907
    u[0]      primal_lower31  821
    u[0]      primal_lower32  944
    u[0]      primal_lower33  807
    u[0]      primal_lower34  101
    u[0]      primal_lower35  775
    u[0]      primal_lower36  865
    u[0]      primal_lower37  127
    u[0]      primal_lower38  941
    u[0]      primal_lower39  773
    u[0]      primal_lower40  61
    u[0]      primal_lower41  655
    u[0]      primal_lower42  482
    u[0]      primal_lower43  998
    u[0]      primal_lower44  399
    u[0]      primal_lower45  82
    u[0]      primal_lower46  21
    u[0]      primal_lower47  778
    u[0]      primal_lower48  323
    u[0]      primal_lower49  991
    u[0]      primal_lower50  833
    u[0]      primal_lower51  131
    u[0]      primal_lower52  428
    u[0]      primal_lower53  466
    u[0]      primal_lower54  168
    u[0]      primal_lower55  39
    u[0]      primal_lower56  883
    u[0]      primal_lower57  252
    u[0]      primal_lower58  106
    u[0]      primal_lower59  718
    u[0]      primal_lower60  238
    u[0]      primal_lower61  76
    u[0]      primal_lower62  837
    u[0]      primal_lower63  416
    u[0]      primal_lower64  869
    u[0]      primal_lower65  788
    u[0]      primal_lower66  626
    u[0]      primal_lower67  631
    u[0]      primal_lower68  107
    u[0]      primal_lower69  137
    u[0]      primal_lower70  414
    u[0]      primal_lower71  433
    u[0]      primal_lower72  443
    u[0]      primal_lower73  855
    u[0]      primal_lower74  47
    u[0]      primal_lower75  486
    u[0]      primal_lower76  561
    u[0]      primal_lower77  15
    u[0]      primal_lower78  872
    u[0]      primal_lower79  133
    u[0]      primal_lower80  579
    u[0]      primal_lower81  160
    u[0]      primal_lower82  32
    u[0]      primal_lower83  125
    u[0]      primal_lower84  282
    u[0]      primal_lower85  571
    u[0]      primal_lower86  889
    u[0]      primal_lower87  92
    u[0]      primal_lower88  711
    u[0]      primal_lower89  54
    u[0]      primal_lower90  401
    u[0]      primal_lower91  647
    u[0]      primal_lower92  820
    u[0]      primal_lower93  337
    u[0]      primal_lower94  582
    u[0]      primal_lower95  341
    u[0]      primal_lower96  73
    u[0]      primal_lower97  353
    u[0]      primal_lower98  938
    u[0]      primal_lower99  869
    u[0]      interdiction[0]  1
    u[0]      mccormick1[0]  -1
    u[0]      mccormick3[0]  1
    u[1]      primal_lower0  244
    u[1]      primal_lower1  60
    u[1]      primal_lower2  556
    u[1]      primal_lower3  750
    u[1]      primal_lower4  596
    u[1]      primal_lower5  504
    u[1]      primal_lower6  142
    u[1]      primal_lower7  4
    u[1]      primal_lower8  180
    u[1]      primal_lower9  579
    u[1]      primal_lower10  273
    u[1]      primal_lower11  205
    u[1]      primal_lower12  680
    u[1]      primal_lower13  794
    u[1]      primal_lower14  382
    u[1]      primal_lower15  570
    u[1]      primal_lower16  201
    u[1]      primal_lower17  91
    u[1]      primal_lower18  799
    u[1]      primal_lower19  610
    u[1]      primal_lower20  64
    u[1]      primal_lower21  119
    u[1]      primal_lower22  285
    u[1]      primal_lower23  548
    u[1]      primal_lower24  723
    u[1]      primal_lower25  547
    u[1]      primal_lower26  620
    u[1]      primal_lower27  307
    u[1]      primal_lower28  239
    u[1]      primal_lower29  120
    u[1]      primal_lower30  540
    u[1]      primal_lower31  217
    u[1]      primal_lower32  785
    u[1]      primal_lower33  864
    u[1]      primal_lower34  737
    u[1]      primal_lower35  296
    u[1]      primal_lower36  426
    u[1]      primal_lower37  803
    u[1]      primal_lower38  822
    u[1]      primal_lower39  377
    u[1]      primal_lower40  878
    u[1]      primal_lower41  384
    u[1]      primal_lower42  678
    u[1]      primal_lower43  322
    u[1]      primal_lower44  992
    u[1]      primal_lower45  830
    u[1]      primal_lower46  393
    u[1]      primal_lower47  238
    u[1]      primal_lower48  748
    u[1]      primal_lower49  947
    u[1]      primal_lower50  298
    u[1]      primal_lower51  351
    u[1]      primal_lower52  861
    u[1]      primal_lower53  555
    u[1]      primal_lower54  129
    u[1]      primal_lower55  520
    u[1]      primal_lower56  204
    u[1]      primal_lower57  741
    u[1]      primal_lower58  747
    u[1]      primal_lower59  642
    u[1]      primal_lower60  439
    u[1]      primal_lower61  144
    u[1]      primal_lower62  945
    u[1]      primal_lower63  297
    u[1]      primal_lower64  446
    u[1]      primal_lower65  69
    u[1]      primal_lower66  774
    u[1]      primal_lower67  467
    u[1]      primal_lower68  620
    u[1]      primal_lower69  453
    u[1]      primal_lower70  522
    u[1]      primal_lower71  778
    u[1]      primal_lower72  495
    u[1]      primal_lower73  672
    u[1]      primal_lower74  83
    u[1]      primal_lower75  335
    u[1]      primal_lower76  610
    u[1]      primal_lower77  203
    u[1]      primal_lower78  764
    u[1]      primal_lower79  214
    u[1]      primal_lower80  7
    u[1]      primal_lower81  956
    u[1]      primal_lower82  705
    u[1]      primal_lower83  761
    u[1]      primal_lower84  971
    u[1]      primal_lower85  807
    u[1]      primal_lower86  541
    u[1]      primal_lower87  464
    u[1]      primal_lower88  616
    u[1]      primal_lower89  954
    u[1]      primal_lower90  26
    u[1]      primal_lower91  640
    u[1]      primal_lower92  109
    u[1]      primal_lower93  573
    u[1]      primal_lower94  546
    u[1]      primal_lower95  289
    u[1]      primal_lower96  261
    u[1]      primal_lower97  922
    u[1]      primal_lower98  302
    u[1]      primal_lower99  918
    u[1]      interdiction[1]  1
    u[1]      mccormick1[1]  -1
    u[1]      mccormick3[1]  1
    u[2]      primal_lower0  986
    u[2]      primal_lower1  94
    u[2]      primal_lower2  534
    u[2]      primal_lower3  540
    u[2]      primal_lower4  818
    u[2]      primal_lower5  734
    u[2]      primal_lower6  380
    u[2]      primal_lower7  606
    u[2]      primal_lower8  834
    u[2]      primal_lower9  701
    u[2]      primal_lower10  275
    u[2]      primal_lower11  355
    u[2]      primal_lower12  478
    u[2]      primal_lower13  360
    u[2]      primal_lower14  256
    u[2]      primal_lower15  40
    u[2]      primal_lower16  647
    u[2]      primal_lower17  49
    u[2]      primal_lower18  117
    u[2]      primal_lower19  668
    u[2]      primal_lower20  814
    u[2]      primal_lower21  485
    u[2]      primal_lower22  239
    u[2]      primal_lower23  50
    u[2]      primal_lower24  273
    u[2]      primal_lower25  585
    u[2]      primal_lower26  34
    u[2]      primal_lower27  101
    u[2]      primal_lower28  765
    u[2]      primal_lower29  262
    u[2]      primal_lower30  22
    u[2]      primal_lower31  911
    u[2]      primal_lower32  323
    u[2]      primal_lower33  914
    u[2]      primal_lower34  935
    u[2]      primal_lower35  978
    u[2]      primal_lower36  212
    u[2]      primal_lower37  137
    u[2]      primal_lower38  896
    u[2]      primal_lower39  959
    u[2]      primal_lower40  624
    u[2]      primal_lower41  122
    u[2]      primal_lower42  28
    u[2]      primal_lower43  872
    u[2]      primal_lower44  82
    u[2]      primal_lower45  404
    u[2]      primal_lower46  319
    u[2]      primal_lower47  92
    u[2]      primal_lower48  302
    u[2]      primal_lower49  641
    u[2]      primal_lower50  196
    u[2]      primal_lower51  853
    u[2]      primal_lower52  231
    u[2]      primal_lower53  861
    u[2]      primal_lower54  611
    u[2]      primal_lower55  810
    u[2]      primal_lower56  94
    u[2]      primal_lower57  503
    u[2]      primal_lower58  917
    u[2]      primal_lower59  176
    u[2]      primal_lower60  305
    u[2]      primal_lower61  822
    u[2]      primal_lower62  375
    u[2]      primal_lower63  875
    u[2]      primal_lower64  176
    u[2]      primal_lower65  391
    u[2]      primal_lower66  908
    u[2]      primal_lower67  801
    u[2]      primal_lower68  414
    u[2]      primal_lower69  371
    u[2]      primal_lower70  920
    u[2]      primal_lower71  868
    u[2]      primal_lower72  317
    u[2]      primal_lower73  730
    u[2]      primal_lower74  673
    u[2]      primal_lower75  697
    u[2]      primal_lower76  964
    u[2]      primal_lower77  161
    u[2]      primal_lower78  410
    u[2]      primal_lower79  368
    u[2]      primal_lower80  101
    u[2]      primal_lower81  362
    u[2]      primal_lower82  659
    u[2]      primal_lower83  479
    u[2]      primal_lower84  5
    u[2]      primal_lower85  421
    u[2]      primal_lower86  259
    u[2]      primal_lower87  110
    u[2]      primal_lower88  362
    u[2]      primal_lower89  328
    u[2]      primal_lower90  700
    u[2]      primal_lower91  162
    u[2]      primal_lower92  767
    u[2]      primal_lower93  547
    u[2]      primal_lower94  216
    u[2]      primal_lower95  503
    u[2]      primal_lower96  803
    u[2]      primal_lower97  300
    u[2]      primal_lower98  980
    u[2]      primal_lower99  424
    u[2]      interdiction[2]  1
    u[2]      mccormick1[2]  -1
    u[2]      mccormick3[2]  1
    u[3]      primal_lower0  315
    u[3]      primal_lower1  667
    u[3]      primal_lower2  291
    u[3]      primal_lower3  741
    u[3]      primal_lower4  355
    u[3]      primal_lower5  375
    u[3]      primal_lower6  381
    u[3]      primal_lower7  331
    u[3]      primal_lower8  707
    u[3]      primal_lower9  354
    u[3]      primal_lower10  912
    u[3]      primal_lower11  580
    u[3]      primal_lower12  487
    u[3]      primal_lower13  817
    u[3]      primal_lower14  365
    u[3]      primal_lower15  617
    u[3]      primal_lower16  584
    u[3]      primal_lower17  130
    u[3]      primal_lower18  270
    u[3]      primal_lower19  625
    u[3]      primal_lower20  591
    u[3]      primal_lower21  374
    u[3]      primal_lower22  844
    u[3]      primal_lower23  955
    u[3]      primal_lower24  474
    u[3]      primal_lower25  18
    u[3]      primal_lower26  691
    u[3]      primal_lower27  178
    u[3]      primal_lower28  182
    u[3]      primal_lower29  55
    u[3]      primal_lower30  227
    u[3]      primal_lower31  176
    u[3]      primal_lower32  408
    u[3]      primal_lower33  535
    u[3]      primal_lower34  408
    u[3]      primal_lower35  975
    u[3]      primal_lower36  97
    u[3]      primal_lower37  538
    u[3]      primal_lower38  5
    u[3]      primal_lower39  432
    u[3]      primal_lower40  669
    u[3]      primal_lower41  375
    u[3]      primal_lower42  149
    u[3]      primal_lower43  985
    u[3]      primal_lower44  999
    u[3]      primal_lower45  613
    u[3]      primal_lower46  368
    u[3]      primal_lower47  517
    u[3]      primal_lower48  475
    u[3]      primal_lower49  194
    u[3]      primal_lower50  505
    u[3]      primal_lower51  910
    u[3]      primal_lower52  876
    u[3]      primal_lower53  754
    u[3]      primal_lower54  48
    u[3]      primal_lower55  567
    u[3]      primal_lower56  451
    u[3]      primal_lower57  148
    u[3]      primal_lower58  282
    u[3]      primal_lower59  289
    u[3]      primal_lower60  230
    u[3]      primal_lower61  455
    u[3]      primal_lower62  272
    u[3]      primal_lower63  368
    u[3]      primal_lower64  973
    u[3]      primal_lower65  916
    u[3]      primal_lower66  949
    u[3]      primal_lower67  706
    u[3]      primal_lower68  27
    u[3]      primal_lower69  772
    u[3]      primal_lower70  697
    u[3]      primal_lower71  145
    u[3]      primal_lower72  694
    u[3]      primal_lower73  551
    u[3]      primal_lower74  386
    u[3]      primal_lower75  910
    u[3]      primal_lower76  489
    u[3]      primal_lower77  978
    u[3]      primal_lower78  83
    u[3]      primal_lower79  653
    u[3]      primal_lower80  654
    u[3]      primal_lower81  67
    u[3]      primal_lower82  616
    u[3]      primal_lower83  144
    u[3]      primal_lower84  674
    u[3]      primal_lower85  406
    u[3]      primal_lower86  956
    u[3]      primal_lower87  95
    u[3]      primal_lower88  151
    u[3]      primal_lower89  329
    u[3]      primal_lower90  665
    u[3]      primal_lower91  879
    u[3]      primal_lower92  788
    u[3]      primal_lower93  620
    u[3]      primal_lower94  489
    u[3]      primal_lower95  512
    u[3]      primal_lower96  852
    u[3]      primal_lower97  9
    u[3]      primal_lower98  709
    u[3]      primal_lower99  477
    u[3]      interdiction[3]  1
    u[3]      mccormick1[3]  -1
    u[3]      mccormick3[3]  1
    u[4]      primal_lower0  308
    u[4]      primal_lower1  640
    u[4]      primal_lower2  24
    u[4]      primal_lower3  110
    u[4]      primal_lower4  876
    u[4]      primal_lower5  104
    u[4]      primal_lower6  294
    u[4]      primal_lower7  384
    u[4]      primal_lower8  628
    u[4]      primal_lower9  551
    u[4]      primal_lower10  765
    u[4]      primal_lower11  653
    u[4]      primal_lower12  824
    u[4]      primal_lower13  2
    u[4]      primal_lower14  674
    u[4]      primal_lower15  882
    u[4]      primal_lower16  993
    u[4]      primal_lower17  139
    u[4]      primal_lower18  63
    u[4]      primal_lower19  782
    u[4]      primal_lower20  920
    u[4]      primal_lower21  167
    u[4]      primal_lower22  745
    u[4]      primal_lower23  340
    u[4]      primal_lower24  475
    u[4]      primal_lower25  523
    u[4]      primal_lower26  332
    u[4]      primal_lower27  703
    u[4]      primal_lower28  511
    u[4]      primal_lower29  640
    u[4]      primal_lower30  384
    u[4]      primal_lower31  337
    u[4]      primal_lower32  373
    u[4]      primal_lower33  988
    u[4]      primal_lower34  745
    u[4]      primal_lower35  892
    u[4]      primal_lower36  934
    u[4]      primal_lower37  907
    u[4]      primal_lower38  146
    u[4]      primal_lower39  65
    u[4]      primal_lower40  386
    u[4]      primal_lower41  84
    u[4]      primal_lower42  22
    u[4]      primal_lower43  930
    u[4]      primal_lower44  364
    u[4]      primal_lower45  542
    u[4]      primal_lower46  433
    u[4]      primal_lower47  270
    u[4]      primal_lower48  296
    u[4]      primal_lower49  771
    u[4]      primal_lower50  494
    u[4]      primal_lower51  39
    u[4]      primal_lower52  377
    u[4]      primal_lower53  639
    u[4]      primal_lower54  845
    u[4]      primal_lower55  732
    u[4]      primal_lower56  376
    u[4]      primal_lower57  201
    u[4]      primal_lower58  551
    u[4]      primal_lower59  146
    u[4]      primal_lower60  579
    u[4]      primal_lower61  32
    u[4]      primal_lower62  657
    u[4]      primal_lower63  357
    u[4]      primal_lower64  346
    u[4]      primal_lower65  49
    u[4]      primal_lower66  502
    u[4]      primal_lower67  75
    u[4]      primal_lower68  968
    u[4]      primal_lower69  5
    u[4]      primal_lower70  962
    u[4]      primal_lower71  214
    u[4]      primal_lower72  175
    u[4]      primal_lower73  636
    u[4]      primal_lower74  19
    u[4]      primal_lower75  67
    u[4]      primal_lower76  398
    u[4]      primal_lower77  211
    u[4]      primal_lower78  948
    u[4]      primal_lower79  42
    u[4]      primal_lower80  359
    u[4]      primal_lower81  908
    u[4]      primal_lower82  917
    u[4]      primal_lower83  41
    u[4]      primal_lower84  663
    u[4]      primal_lower85  703
    u[4]      primal_lower86  29
    u[4]      primal_lower87  152
    u[4]      primal_lower88  844
    u[4]      primal_lower89  466
    u[4]      primal_lower90  542
    u[4]      primal_lower91  220
    u[4]      primal_lower92  425
    u[4]      primal_lower93  925
    u[4]      primal_lower94  874
    u[4]      primal_lower95  689
    u[4]      primal_lower96  181
    u[4]      primal_lower97  126
    u[4]      primal_lower98  470
    u[4]      primal_lower99  434
    u[4]      interdiction[4]  1
    u[4]      mccormick1[4]  -1
    u[4]      mccormick3[4]  1
    u[5]      primal_lower0  482
    u[5]      primal_lower1  641
    u[5]      primal_lower2  313
    u[5]      primal_lower3  756
    u[5]      primal_lower4  914
    u[5]      primal_lower5  94
    u[5]      primal_lower6  732
    u[5]      primal_lower7  153
    u[5]      primal_lower8  818
    u[5]      primal_lower9  112
    u[5]      primal_lower10  518
    u[5]      primal_lower11  139
    u[5]      primal_lower12  422
    u[5]      primal_lower13  176
    u[5]      primal_lower14  691
    u[5]      primal_lower15  632
    u[5]      primal_lower16  87
    u[5]      primal_lower17  369
    u[5]      primal_lower18  517
    u[5]      primal_lower19  279
    u[5]      primal_lower20  470
    u[5]      primal_lower21  757
    u[5]      primal_lower22  410
    u[5]      primal_lower23  98
    u[5]      primal_lower24  377
    u[5]      primal_lower25  937
    u[5]      primal_lower26  802
    u[5]      primal_lower27  776
    u[5]      primal_lower28  325
    u[5]      primal_lower29  942
    u[5]      primal_lower30  17
    u[5]      primal_lower31  503
    u[5]      primal_lower32  302
    u[5]      primal_lower33  445
    u[5]      primal_lower34  383
    u[5]      primal_lower35  293
    u[5]      primal_lower36  823
    u[5]      primal_lower37  873
    u[5]      primal_lower38  563
    u[5]      primal_lower39  671
    u[5]      primal_lower40  395
    u[5]      primal_lower41  373
    u[5]      primal_lower42  804
    u[5]      primal_lower43  312
    u[5]      primal_lower44  541
    u[5]      primal_lower45  252
    u[5]      primal_lower46  983
    u[5]      primal_lower47  92
    u[5]      primal_lower48  905
    u[5]      primal_lower49  73
    u[5]      primal_lower50  111
    u[5]      primal_lower51  277
    u[5]      primal_lower52  274
    u[5]      primal_lower53  480
    u[5]      primal_lower54  590
    u[5]      primal_lower55  613
    u[5]      primal_lower56  609
    u[5]      primal_lower57  874
    u[5]      primal_lower58  968
    u[5]      primal_lower59  128
    u[5]      primal_lower60  36
    u[5]      primal_lower61  214
    u[5]      primal_lower62  311
    u[5]      primal_lower63  198
    u[5]      primal_lower64  747
    u[5]      primal_lower65  42
    u[5]      primal_lower66  28
    u[5]      primal_lower67  657
    u[5]      primal_lower68  161
    u[5]      primal_lower69  67
    u[5]      primal_lower70  488
    u[5]      primal_lower71  655
    u[5]      primal_lower72  461
    u[5]      primal_lower73  581
    u[5]      primal_lower74  289
    u[5]      primal_lower75  996
    u[5]      primal_lower76  911
    u[5]      primal_lower77  537
    u[5]      primal_lower78  434
    u[5]      primal_lower79  939
    u[5]      primal_lower80  773
    u[5]      primal_lower81  882
    u[5]      primal_lower82  742
    u[5]      primal_lower83  575
    u[5]      primal_lower84  712
    u[5]      primal_lower85  917
    u[5]      primal_lower86  803
    u[5]      primal_lower87  950
    u[5]      primal_lower88  925
    u[5]      primal_lower89  928
    u[5]      primal_lower90  127
    u[5]      primal_lower91  349
    u[5]      primal_lower92  906
    u[5]      primal_lower93  483
    u[5]      primal_lower94  80
    u[5]      primal_lower95  871
    u[5]      primal_lower96  611
    u[5]      primal_lower97  975
    u[5]      primal_lower98  76
    u[5]      primal_lower99  459
    u[5]      interdiction[5]  1
    u[5]      mccormick1[5]  -1
    u[5]      mccormick3[5]  1
    u[6]      primal_lower0  157
    u[6]      primal_lower1  321
    u[6]      primal_lower2  945
    u[6]      primal_lower3  511
    u[6]      primal_lower4  949
    u[6]      primal_lower5  273
    u[6]      primal_lower6  503
    u[6]      primal_lower7  353
    u[6]      primal_lower8  461
    u[6]      primal_lower9  912
    u[6]      primal_lower10  422
    u[6]      primal_lower11  942
    u[6]      primal_lower12  417
    u[6]      primal_lower13  891
    u[6]      primal_lower14  707
    u[6]      primal_lower15  435
    u[6]      primal_lower16  298
    u[6]      primal_lower17  828
    u[6]      primal_lower18  792
    u[6]      primal_lower19  591
    u[6]      primal_lower20  617
    u[6]      primal_lower21  544
    u[6]      primal_lower22  546
    u[6]      primal_lower23  533
    u[6]      primal_lower24  684
    u[6]      primal_lower25  980
    u[6]      primal_lower26  557
    u[6]      primal_lower27  640
    u[6]      primal_lower28  56
    u[6]      primal_lower29  537
    u[6]      primal_lower30  793
    u[6]      primal_lower31  818
    u[6]      primal_lower32  622
    u[6]      primal_lower33  941
    u[6]      primal_lower34  250
    u[6]      primal_lower35  509
    u[6]      primal_lower36  751
    u[6]      primal_lower37  748
    u[6]      primal_lower38  51
    u[6]      primal_lower39  562
    u[6]      primal_lower40  603
    u[6]      primal_lower41  813
    u[6]      primal_lower42  607
    u[6]      primal_lower43  339
    u[6]      primal_lower44  541
    u[6]      primal_lower45  575
    u[6]      primal_lower46  762
    u[6]      primal_lower47  47
    u[6]      primal_lower48  409
    u[6]      primal_lower49  340
    u[6]      primal_lower50  783
    u[6]      primal_lower51  704
    u[6]      primal_lower52  730
    u[6]      primal_lower53  424
    u[6]      primal_lower54  766
    u[6]      primal_lower55  557
    u[6]      primal_lower56  177
    u[6]      primal_lower57  434
    u[6]      primal_lower58  376
    u[6]      primal_lower59  603
    u[6]      primal_lower60  36
    u[6]      primal_lower61  777
    u[6]      primal_lower62  162
    u[6]      primal_lower63  134
    u[6]      primal_lower64  867
    u[6]      primal_lower65  10
    u[6]      primal_lower66  559
    u[6]      primal_lower67  820
    u[6]      primal_lower68  441
    u[6]      primal_lower69  598
    u[6]      primal_lower70  43
    u[6]      primal_lower71  279
    u[6]      primal_lower72  632
    u[6]      primal_lower73  693
    u[6]      primal_lower74  396
    u[6]      primal_lower75  164
    u[6]      primal_lower76  127
    u[6]      primal_lower77  300
    u[6]      primal_lower78  45
    u[6]      primal_lower79  779
    u[6]      primal_lower80  680
    u[6]      primal_lower81  757
    u[6]      primal_lower82  286
    u[6]      primal_lower83  202
    u[6]      primal_lower84  296
    u[6]      primal_lower85  368
    u[6]      primal_lower86  606
    u[6]      primal_lower87  561
    u[6]      primal_lower88  973
    u[6]      primal_lower89  731
    u[6]      primal_lower90  983
    u[6]      primal_lower91  605
    u[6]      primal_lower92  410
    u[6]      primal_lower93  254
    u[6]      primal_lower94  235
    u[6]      primal_lower95  434
    u[6]      primal_lower96  862
    u[6]      primal_lower97  399
    u[6]      primal_lower98  887
    u[6]      primal_lower99  835
    u[6]      interdiction[6]  1
    u[6]      mccormick1[6]  -1
    u[6]      mccormick3[6]  1
    u[7]      primal_lower0  604
    u[7]      primal_lower1  291
    u[7]      primal_lower2  859
    u[7]      primal_lower3  678
    u[7]      primal_lower4  900
    u[7]      primal_lower5  344
    u[7]      primal_lower6  966
    u[7]      primal_lower7  859
    u[7]      primal_lower8  260
    u[7]      primal_lower9  802
    u[7]      primal_lower10  208
    u[7]      primal_lower11  309
    u[7]      primal_lower12  736
    u[7]      primal_lower13  418
    u[7]      primal_lower14  965
    u[7]      primal_lower15  154
    u[7]      primal_lower16  609
    u[7]      primal_lower17  203
    u[7]      primal_lower18  751
    u[7]      primal_lower19  185
    u[7]      primal_lower20  632
    u[7]      primal_lower21  479
    u[7]      primal_lower22  948
    u[7]      primal_lower23  508
    u[7]      primal_lower24  603
    u[7]      primal_lower25  827
    u[7]      primal_lower26  796
    u[7]      primal_lower27  738
    u[7]      primal_lower28  303
    u[7]      primal_lower29  192
    u[7]      primal_lower30  779
    u[7]      primal_lower31  369
    u[7]      primal_lower32  72
    u[7]      primal_lower33  735
    u[7]      primal_lower34  641
    u[7]      primal_lower35  959
    u[7]      primal_lower36  609
    u[7]      primal_lower37  755
    u[7]      primal_lower38  309
    u[7]      primal_lower39  209
    u[7]      primal_lower40  501
    u[7]      primal_lower41  991
    u[7]      primal_lower42  758
    u[7]      primal_lower43  634
    u[7]      primal_lower44  279
    u[7]      primal_lower45  830
    u[7]      primal_lower46  353
    u[7]      primal_lower47  526
    u[7]      primal_lower48  251
    u[7]      primal_lower49  819
    u[7]      primal_lower50  841
    u[7]      primal_lower51  719
    u[7]      primal_lower52  364
    u[7]      primal_lower53  922
    u[7]      primal_lower54  808
    u[7]      primal_lower55  335
    u[7]      primal_lower56  291
    u[7]      primal_lower57  844
    u[7]      primal_lower58  698
    u[7]      primal_lower59  378
    u[7]      primal_lower60  726
    u[7]      primal_lower61  56
    u[7]      primal_lower62  209
    u[7]      primal_lower63  432
    u[7]      primal_lower64  213
    u[7]      primal_lower65  404
    u[7]      primal_lower66  542
    u[7]      primal_lower67  315
    u[7]      primal_lower68  43
    u[7]      primal_lower69  373
    u[7]      primal_lower70  906
    u[7]      primal_lower71  825
    u[7]      primal_lower72  719
    u[7]      primal_lower73  263
    u[7]      primal_lower74  971
    u[7]      primal_lower75  78
    u[7]      primal_lower76  233
    u[7]      primal_lower77  539
    u[7]      primal_lower78  972
    u[7]      primal_lower79  517
    u[7]      primal_lower80  983
    u[7]      primal_lower81  540
    u[7]      primal_lower82  320
    u[7]      primal_lower83  281
    u[7]      primal_lower84  58
    u[7]      primal_lower85  519
    u[7]      primal_lower86  957
    u[7]      primal_lower87  384
    u[7]      primal_lower88  671
    u[7]      primal_lower89  130
    u[7]      primal_lower90  553
    u[7]      primal_lower91  487
    u[7]      primal_lower92  12
    u[7]      primal_lower93  909
    u[7]      primal_lower94  690
    u[7]      primal_lower95  225
    u[7]      primal_lower96  869
    u[7]      primal_lower97  129
    u[7]      primal_lower98  598
    u[7]      primal_lower99  237
    u[7]      interdiction[7]  1
    u[7]      mccormick1[7]  -1
    u[7]      mccormick3[7]  1
    u[8]      primal_lower0  277
    u[8]      primal_lower1  433
    u[8]      primal_lower2  297
    u[8]      primal_lower3  575
    u[8]      primal_lower4  477
    u[8]      primal_lower5  177
    u[8]      primal_lower6  815
    u[8]      primal_lower7  193
    u[8]      primal_lower8  821
    u[8]      primal_lower9  808
    u[8]      primal_lower10  822
    u[8]      primal_lower11  790
    u[8]      primal_lower12  833
    u[8]      primal_lower13  43
    u[8]      primal_lower14  363
    u[8]      primal_lower15  187
    u[8]      primal_lower16  186
    u[8]      primal_lower17  340
    u[8]      primal_lower18  448
    u[8]      primal_lower19  79
    u[8]      primal_lower20  945
    u[8]      primal_lower21  288
    u[8]      primal_lower22  226
    u[8]      primal_lower23  653
    u[8]      primal_lower24  948
    u[8]      primal_lower25  796
    u[8]      primal_lower26  485
    u[8]      primal_lower27  584
    u[8]      primal_lower28  384
    u[8]      primal_lower29  505
    u[8]      primal_lower30  505
    u[8]      primal_lower31  778
    u[8]      primal_lower32  870
    u[8]      primal_lower33  461
    u[8]      primal_lower34  386
    u[8]      primal_lower35  525
    u[8]      primal_lower36  759
    u[8]      primal_lower37  204
    u[8]      primal_lower38  531
    u[8]      primal_lower39  962
    u[8]      primal_lower40  523
    u[8]      primal_lower41  253
    u[8]      primal_lower42  999
    u[8]      primal_lower43  259
    u[8]      primal_lower44  925
    u[8]      primal_lower45  831
    u[8]      primal_lower46  434
    u[8]      primal_lower47  879
    u[8]      primal_lower48  793
    u[8]      primal_lower49  364
    u[8]      primal_lower50  551
    u[8]      primal_lower51  616
    u[8]      primal_lower52  386
    u[8]      primal_lower53  112
    u[8]      primal_lower54  766
    u[8]      primal_lower55  621
    u[8]      primal_lower56  297
    u[8]      primal_lower57  98
    u[8]      primal_lower58  488
    u[8]      primal_lower59  147
    u[8]      primal_lower60  708
    u[8]      primal_lower61  769
    u[8]      primal_lower62  714
    u[8]      primal_lower63  70
    u[8]      primal_lower64  203
    u[8]      primal_lower65  778
    u[8]      primal_lower66  839
    u[8]      primal_lower67  596
    u[8]      primal_lower68  457
    u[8]      primal_lower69  966
    u[8]      primal_lower70  227
    u[8]      primal_lower71  239
    u[8]      primal_lower72  96
    u[8]      primal_lower73  781
    u[8]      primal_lower74  116
    u[8]      primal_lower75  444
    u[8]      primal_lower76  711
    u[8]      primal_lower77  36
    u[8]      primal_lower78  533
    u[8]      primal_lower79  243
    u[8]      primal_lower80  104
    u[8]      primal_lower81  213
    u[8]      primal_lower82  998
    u[8]      primal_lower83  450
    u[8]      primal_lower84  536
    u[8]      primal_lower85  64
    u[8]      primal_lower86  710
    u[8]      primal_lower87  265
    u[8]      primal_lower88  901
    u[8]      primal_lower89  675
    u[8]      primal_lower90  359
    u[8]      primal_lower91  725
    u[8]      primal_lower92  554
    u[8]      primal_lower93  334
    u[8]      primal_lower94  883
    u[8]      primal_lower95  906
    u[8]      primal_lower96  350
    u[8]      primal_lower97  487
    u[8]      primal_lower98  919
    u[8]      primal_lower99  235
    u[8]      interdiction[8]  1
    u[8]      mccormick1[8]  -1
    u[8]      mccormick3[8]  1
    u[9]      primal_lower0  994
    u[9]      primal_lower1  418
    u[9]      primal_lower2  26
    u[9]      primal_lower3  332
    u[9]      primal_lower4  58
    u[9]      primal_lower5  982
    u[9]      primal_lower6  308
    u[9]      primal_lower7  34
    u[9]      primal_lower8  754
    u[9]      primal_lower9  761
    u[9]      primal_lower10  183
    u[9]      primal_lower11  291
    u[9]      primal_lower12  470
    u[9]      primal_lower13  40
    u[9]      primal_lower14  844
    u[9]      primal_lower15  408
    u[9]      primal_lower16  207
    u[9]      primal_lower17  97
    u[9]      primal_lower18  453
    u[9]      primal_lower19  608
    u[9]      primal_lower20  238
    u[9]      primal_lower21  77
    u[9]      primal_lower22  571
    u[9]      primal_lower23  218
    u[9]      primal_lower24  17
    u[9]      primal_lower25  889
    u[9]      primal_lower26  834
    u[9]      primal_lower27  545
    u[9]      primal_lower28  365
    u[9]      primal_lower29  526
    u[9]      primal_lower30  34
    u[9]      primal_lower31  511
    u[9]      primal_lower32  479
    u[9]      primal_lower33  166
    u[9]      primal_lower34  159
    u[9]      primal_lower35  870
    u[9]      primal_lower36  888
    u[9]      primal_lower37  33
    u[9]      primal_lower38  92
    u[9]      primal_lower39  431
    u[9]      primal_lower40  524
    u[9]      primal_lower41  718
    u[9]      primal_lower42  404
    u[9]      primal_lower43  304
    u[9]      primal_lower44  166
    u[9]      primal_lower45  540
    u[9]      primal_lower46  519
    u[9]      primal_lower47  228
    u[9]      primal_lower48  386
    u[9]      primal_lower49  697
    u[9]      primal_lower50  816
    u[9]      primal_lower51  613
    u[9]      primal_lower52  891
    u[9]      primal_lower53  913
    u[9]      primal_lower54  759
    u[9]      primal_lower55  766
    u[9]      primal_lower56  938
    u[9]      primal_lower57  291
    u[9]      primal_lower58  57
    u[9]      primal_lower59  928
    u[9]      primal_lower60  797
    u[9]      primal_lower61  230
    u[9]      primal_lower62  727
    u[9]      primal_lower63  271
    u[9]      primal_lower64  964
    u[9]      primal_lower65  603
    u[9]      primal_lower66  36
    u[9]      primal_lower67  201
    u[9]      primal_lower68  50
    u[9]      primal_lower69  987
    u[9]      primal_lower70  496
    u[9]      primal_lower71  120
    u[9]      primal_lower72  181
    u[9]      primal_lower73  782
    u[9]      primal_lower74  697
    u[9]      primal_lower75  525
    u[9]      primal_lower76  512
    u[9]      primal_lower77  57
    u[9]      primal_lower78  258
    u[9]      primal_lower79  236
    u[9]      primal_lower80  93
    u[9]      primal_lower81  714
    u[9]      primal_lower82  935
    u[9]      primal_lower83  103
    u[9]      primal_lower84  761
    u[9]      primal_lower85  165
    u[9]      primal_lower86  51
    u[9]      primal_lower87  286
    u[9]      primal_lower88  518
    u[9]      primal_lower89  960
    u[9]      primal_lower90  936
    u[9]      primal_lower91  462
    u[9]      primal_lower92  779
    u[9]      primal_lower93  419
    u[9]      primal_lower94  128
    u[9]      primal_lower95  439
    u[9]      primal_lower96  579
    u[9]      primal_lower97  424
    u[9]      primal_lower98  396
    u[9]      primal_lower99  652
    u[9]      interdiction[9]  1
    u[9]      mccormick1[9]  -1
    u[9]      mccormick3[9]  1
    u[10]     primal_lower0  404
    u[10]     primal_lower1  407
    u[10]     primal_lower2  343
    u[10]     primal_lower3  806
    u[10]     primal_lower4  332
    u[10]     primal_lower5  776
    u[10]     primal_lower6  974
    u[10]     primal_lower7  103
    u[10]     primal_lower8  380
    u[10]     primal_lower9  294
    u[10]     primal_lower10  140
    u[10]     primal_lower11  437
    u[10]     primal_lower12  16
    u[10]     primal_lower13  634
    u[10]     primal_lower14  937
    u[10]     primal_lower15  138
    u[10]     primal_lower16  665
    u[10]     primal_lower17  979
    u[10]     primal_lower18  79
    u[10]     primal_lower19  349
    u[10]     primal_lower20  704
    u[10]     primal_lower21  983
    u[10]     primal_lower22  240
    u[10]     primal_lower23  116
    u[10]     primal_lower24  379
    u[10]     primal_lower25  299
    u[10]     primal_lower26  588
    u[10]     primal_lower27  198
    u[10]     primal_lower28  367
    u[10]     primal_lower29  104
    u[10]     primal_lower30  687
    u[10]     primal_lower31  145
    u[10]     primal_lower32  204
    u[10]     primal_lower33  139
    u[10]     primal_lower34  209
    u[10]     primal_lower35  139
    u[10]     primal_lower36  565
    u[10]     primal_lower37  939
    u[10]     primal_lower38  497
    u[10]     primal_lower39  505
    u[10]     primal_lower40  417
    u[10]     primal_lower41  443
    u[10]     primal_lower42  654
    u[10]     primal_lower43  906
    u[10]     primal_lower44  155
    u[10]     primal_lower45  366
    u[10]     primal_lower46  873
    u[10]     primal_lower47  302
    u[10]     primal_lower48  639
    u[10]     primal_lower49  491
    u[10]     primal_lower50  813
    u[10]     primal_lower51  343
    u[10]     primal_lower52  648
    u[10]     primal_lower53  254
    u[10]     primal_lower54  764
    u[10]     primal_lower55  843
    u[10]     primal_lower56  295
    u[10]     primal_lower57  392
    u[10]     primal_lower58  438
    u[10]     primal_lower59  898
    u[10]     primal_lower60  954
    u[10]     primal_lower61  816
    u[10]     primal_lower62  369
    u[10]     primal_lower63  548
    u[10]     primal_lower64  81
    u[10]     primal_lower65  464
    u[10]     primal_lower66  326
    u[10]     primal_lower67  371
    u[10]     primal_lower68  775
    u[10]     primal_lower69  421
    u[10]     primal_lower70  946
    u[10]     primal_lower71  221
    u[10]     primal_lower72  991
    u[10]     primal_lower73  531
    u[10]     primal_lower74  131
    u[10]     primal_lower75  434
    u[10]     primal_lower76  973
    u[10]     primal_lower77  963
    u[10]     primal_lower78  908
    u[10]     primal_lower79  393
    u[10]     primal_lower80  215
    u[10]     primal_lower81  444
    u[10]     primal_lower82  372
    u[10]     primal_lower83  433
    u[10]     primal_lower84  54
    u[10]     primal_lower85  855
    u[10]     primal_lower86  413
    u[10]     primal_lower87  512
    u[10]     primal_lower88  915
    u[10]     primal_lower89  378
    u[10]     primal_lower90  749
    u[10]     primal_lower91  51
    u[10]     primal_lower92  576
    u[10]     primal_lower93  757
    u[10]     primal_lower94  586
    u[10]     primal_lower95  913
    u[10]     primal_lower96  29
    u[10]     primal_lower97  717
    u[10]     primal_lower98  446
    u[10]     primal_lower99  385
    u[10]     interdiction[10]  1
    u[10]     mccormick1[10]  -1
    u[10]     mccormick3[10]  1
    u[11]     primal_lower0  619
    u[11]     primal_lower1  339
    u[11]     primal_lower2  459
    u[11]     primal_lower3  69
    u[11]     primal_lower4  587
    u[11]     primal_lower5  855
    u[11]     primal_lower6  917
    u[11]     primal_lower7  195
    u[11]     primal_lower8  451
    u[11]     primal_lower9  10
    u[11]     primal_lower10  672
    u[11]     primal_lower11  948
    u[11]     primal_lower12  279
    u[11]     primal_lower13  865
    u[11]     primal_lower14  669
    u[11]     primal_lower15  873
    u[11]     primal_lower16  768
    u[11]     primal_lower17  890
    u[11]     primal_lower18  198
    u[11]     primal_lower19  849
    u[11]     primal_lower20  767
    u[11]     primal_lower21  838
    u[11]     primal_lower22  948
    u[11]     primal_lower23  939
    u[11]     primal_lower24  338
    u[11]     primal_lower25  58
    u[11]     primal_lower26  811
    u[11]     primal_lower27  418
    u[11]     primal_lower28  294
    u[11]     primal_lower29  311
    u[11]     primal_lower30  267
    u[11]     primal_lower31  296
    u[11]     primal_lower32  520
    u[11]     primal_lower33  287
    u[11]     primal_lower34  776
    u[11]     primal_lower35  823
    u[11]     primal_lower36  209
    u[11]     primal_lower37  178
    u[11]     primal_lower38  173
    u[11]     primal_lower39  920
    u[11]     primal_lower40  989
    u[11]     primal_lower41  895
    u[11]     primal_lower42  589
    u[11]     primal_lower43  641
    u[11]     primal_lower44  375
    u[11]     primal_lower45  909
    u[11]     primal_lower46  904
    u[11]     primal_lower47  749
    u[11]     primal_lower48  739
    u[11]     primal_lower49  2
    u[11]     primal_lower50  313
    u[11]     primal_lower51  862
    u[11]     primal_lower52  916
    u[11]     primal_lower53  514
    u[11]     primal_lower54  48
    u[11]     primal_lower55  479
    u[11]     primal_lower56  163
    u[11]     primal_lower57  244
    u[11]     primal_lower58  58
    u[11]     primal_lower59  145
    u[11]     primal_lower60  30
    u[11]     primal_lower61  535
    u[11]     primal_lower62  440
    u[11]     primal_lower63  168
    u[11]     primal_lower64  445
    u[11]     primal_lower65  788
    u[11]     primal_lower66  293
    u[11]     primal_lower67  938
    u[11]     primal_lower68  635
    u[11]     primal_lower69  508
    u[11]     primal_lower70  345
    u[11]     primal_lower71  833
    u[11]     primal_lower72  86
    u[11]     primal_lower73  679
    u[11]     primal_lower74  994
    u[11]     primal_lower75  766
    u[11]     primal_lower76  585
    u[11]     primal_lower77  994
    u[11]     primal_lower78  763
    u[11]     primal_lower79  485
    u[11]     primal_lower80  934
    u[11]     primal_lower81  979
    u[11]     primal_lower82  80
    u[11]     primal_lower83  536
    u[11]     primal_lower84  850
    u[11]     primal_lower85  366
    u[11]     primal_lower86  916
    u[11]     primal_lower87  575
    u[11]     primal_lower88  127
    u[11]     primal_lower89  289
    u[11]     primal_lower90  57
    u[11]     primal_lower91  23
    u[11]     primal_lower92  804
    u[11]     primal_lower93  108
    u[11]     primal_lower94  841
    u[11]     primal_lower95  976
    u[11]     primal_lower96  300
    u[11]     primal_lower97  257
    u[11]     primal_lower98  997
    u[11]     primal_lower99  805
    u[11]     interdiction[11]  1
    u[11]     mccormick1[11]  -1
    u[11]     mccormick3[11]  1
    u[12]     primal_lower0  388
    u[12]     primal_lower1  344
    u[12]     primal_lower2  720
    u[12]     primal_lower3  726
    u[12]     primal_lower4  300
    u[12]     primal_lower5  840
    u[12]     primal_lower6  942
    u[12]     primal_lower7  664
    u[12]     primal_lower8  412
    u[12]     primal_lower9  903
    u[12]     primal_lower10  989
    u[12]     primal_lower11  669
    u[12]     primal_lower12  96
    u[12]     primal_lower13  418
    u[12]     primal_lower14  618
    u[12]     primal_lower15  466
    u[12]     primal_lower16  329
    u[12]     primal_lower17  955
    u[12]     primal_lower18  543
    u[12]     primal_lower19  326
    u[12]     primal_lower20  120
    u[12]     primal_lower21  55
    u[12]     primal_lower22  25
    u[12]     primal_lower23  916
    u[12]     primal_lower24  139
    u[12]     primal_lower25  75
    u[12]     primal_lower26  76
    u[12]     primal_lower27  919
    u[12]     primal_lower28  351
    u[12]     primal_lower29  400
    u[12]     primal_lower30  944
    u[12]     primal_lower31  105
    u[12]     primal_lower32  397
    u[12]     primal_lower33  948
    u[12]     primal_lower34  649
    u[12]     primal_lower35  764
    u[12]     primal_lower36  614
    u[12]     primal_lower37  339
    u[12]     primal_lower38  474
    u[12]     primal_lower39  737
    u[12]     primal_lower40  506
    u[12]     primal_lower41  956
    u[12]     primal_lower42  622
    u[12]     primal_lower43  362
    u[12]     primal_lower44  932
    u[12]     primal_lower45  118
    u[12]     primal_lower46  721
    u[12]     primal_lower47  222
    u[12]     primal_lower48  400
    u[12]     primal_lower49  443
    u[12]     primal_lower50  534
    u[12]     primal_lower51  103
    u[12]     primal_lower52  145
    u[12]     primal_lower53  87
    u[12]     primal_lower54  333
    u[12]     primal_lower55  172
    u[12]     primal_lower56  640
    u[12]     primal_lower57  513
    u[12]     primal_lower58  975
    u[12]     primal_lower59  226
    u[12]     primal_lower60  235
    u[12]     primal_lower61  272
    u[12]     primal_lower62  625
    u[12]     primal_lower63  645
    u[12]     primal_lower64  698
    u[12]     primal_lower65  561
    u[12]     primal_lower66  790
    u[12]     primal_lower67  99
    u[12]     primal_lower68  592
    u[12]     primal_lower69  293
    u[12]     primal_lower70  842
    u[12]     primal_lower71  798
    u[12]     primal_lower72  807
    u[12]     primal_lower73  908
    u[12]     primal_lower74  59
    u[12]     primal_lower75  427
    u[12]     primal_lower76  374
    u[12]     primal_lower77  339
    u[12]     primal_lower78  28
    u[12]     primal_lower79  962
    u[12]     primal_lower80  759
    u[12]     primal_lower81  172
    u[12]     primal_lower82  957
    u[12]     primal_lower83  417
    u[12]     primal_lower84  223
    u[12]     primal_lower85  479
    u[12]     primal_lower86  61
    u[12]     primal_lower87  840
    u[12]     primal_lower88  732
    u[12]     primal_lower89  442
    u[12]     primal_lower90  262
    u[12]     primal_lower91  148
    u[12]     primal_lower92  65
    u[12]     primal_lower93  69
    u[12]     primal_lower94  946
    u[12]     primal_lower95  9
    u[12]     primal_lower96  949
    u[12]     primal_lower97  750
    u[12]     primal_lower98  430
    u[12]     primal_lower99  210
    u[12]     interdiction[12]  1
    u[12]     mccormick1[12]  -1
    u[12]     mccormick3[12]  1
    u[13]     primal_lower0  100
    u[13]     primal_lower1  812
    u[13]     primal_lower2  204
    u[13]     primal_lower3  830
    u[13]     primal_lower4  740
    u[13]     primal_lower5  384
    u[13]     primal_lower6  542
    u[13]     primal_lower7  188
    u[13]     primal_lower8  812
    u[13]     primal_lower9  603
    u[13]     primal_lower10  129
    u[13]     primal_lower11  149
    u[13]     primal_lower12  880
    u[13]     primal_lower13  930
    u[13]     primal_lower14  598
    u[13]     primal_lower15  794
    u[13]     primal_lower16  273
    u[13]     primal_lower17  187
    u[13]     primal_lower18  943
    u[13]     primal_lower19  890
    u[13]     primal_lower20  240
    u[13]     primal_lower21  855
    u[13]     primal_lower22  805
    u[13]     primal_lower23  268
    u[13]     primal_lower24  859
    u[13]     primal_lower25  659
    u[13]     primal_lower26  276
    u[13]     primal_lower27  403
    u[13]     primal_lower28  567
    u[13]     primal_lower29  232
    u[13]     primal_lower30  604
    u[13]     primal_lower31  769
    u[13]     primal_lower32  809
    u[13]     primal_lower33  168
    u[13]     primal_lower34  121
    u[13]     primal_lower35  560
    u[13]     primal_lower36  42
    u[13]     primal_lower37  635
    u[13]     primal_lower38  166
    u[13]     primal_lower39  441
    u[13]     primal_lower40  478
    u[13]     primal_lower41  552
    u[13]     primal_lower42  398
    u[13]     primal_lower43  162
    u[13]     primal_lower44  448
    u[13]     primal_lower45  606
    u[13]     primal_lower46  481
    u[13]     primal_lower47  846
    u[13]     primal_lower48  508
    u[13]     primal_lower49  875
    u[13]     primal_lower50  154
    u[13]     primal_lower51  127
    u[13]     primal_lower52  157
    u[13]     primal_lower53  931
    u[13]     primal_lower54  273
    u[13]     primal_lower55  904
    u[13]     primal_lower56  452
    u[13]     primal_lower57  517
    u[13]     primal_lower58  779
    u[13]     primal_lower59  362
    u[13]     primal_lower60  735
    u[13]     primal_lower61  776
    u[13]     primal_lower62  233
    u[13]     primal_lower63  497
    u[13]     primal_lower64  806
    u[13]     primal_lower65  333
    u[13]     primal_lower66  566
    u[13]     primal_lower67  379
    u[13]     primal_lower68  972
    u[13]     primal_lower69  197
    u[13]     primal_lower70  490
    u[13]     primal_lower71  210
    u[13]     primal_lower72  927
    u[13]     primal_lower73  752
    u[13]     primal_lower74  259
    u[13]     primal_lower75  639
    u[13]     primal_lower76  42
    u[13]     primal_lower77  19
    u[13]     primal_lower78  756
    u[13]     primal_lower79  406
    u[13]     primal_lower80  503
    u[13]     primal_lower81  92
    u[13]     primal_lower82  89
    u[13]     primal_lower83  641
    u[13]     primal_lower84  835
    u[13]     primal_lower85  791
    u[13]     primal_lower86  77
    u[13]     primal_lower87  952
    u[13]     primal_lower88  280
    u[13]     primal_lower89  914
    u[13]     primal_lower90  866
    u[13]     primal_lower91  512
    u[13]     primal_lower92  21
    u[13]     primal_lower93  189
    u[13]     primal_lower94  954
    u[13]     primal_lower95  81
    u[13]     primal_lower96  141
    u[13]     primal_lower97  986
    u[13]     primal_lower98  862
    u[13]     primal_lower99  886
    u[13]     interdiction[13]  1
    u[13]     mccormick1[13]  -1
    u[13]     mccormick3[13]  1
    u[14]     primal_lower0  693
    u[14]     primal_lower1  968
    u[14]     primal_lower2  912
    u[14]     primal_lower3  479
    u[14]     primal_lower4  525
    u[14]     primal_lower5  889
    u[14]     primal_lower6  223
    u[14]     primal_lower7  608
    u[14]     primal_lower8  245
    u[14]     primal_lower9  839
    u[14]     primal_lower10  909
    u[14]     primal_lower11  678
    u[14]     primal_lower12  641
    u[14]     primal_lower13  779
    u[14]     primal_lower14  978
    u[14]     primal_lower15  883
    u[14]     primal_lower16  338
    u[14]     primal_lower17  764
    u[14]     primal_lower18  8
    u[14]     primal_lower19  958
    u[14]     primal_lower20  433
    u[14]     primal_lower21  192
    u[14]     primal_lower22  209
    u[14]     primal_lower23  277
    u[14]     primal_lower24  52
    u[14]     primal_lower25  844
    u[14]     primal_lower26  13
    u[14]     primal_lower27  191
    u[14]     primal_lower28  896
    u[14]     primal_lower29  89
    u[14]     primal_lower30  992
    u[14]     primal_lower31  850
    u[14]     primal_lower32  925
    u[14]     primal_lower33  348
    u[14]     primal_lower34  514
    u[14]     primal_lower35  492
    u[14]     primal_lower36  838
    u[14]     primal_lower37  908
    u[14]     primal_lower38  482
    u[14]     primal_lower39  706
    u[14]     primal_lower40  642
    u[14]     primal_lower41  660
    u[14]     primal_lower42  695
    u[14]     primal_lower43  883
    u[14]     primal_lower44  108
    u[14]     primal_lower45  527
    u[14]     primal_lower46  330
    u[14]     primal_lower47  367
    u[14]     primal_lower48  568
    u[14]     primal_lower49  556
    u[14]     primal_lower50  958
    u[14]     primal_lower51  536
    u[14]     primal_lower52  449
    u[14]     primal_lower53  967
    u[14]     primal_lower54  773
    u[14]     primal_lower55  564
    u[14]     primal_lower56  568
    u[14]     primal_lower57  297
    u[14]     primal_lower58  927
    u[14]     primal_lower59  723
    u[14]     primal_lower60  819
    u[14]     primal_lower61  457
    u[14]     primal_lower62  258
    u[14]     primal_lower63  501
    u[14]     primal_lower64  946
    u[14]     primal_lower65  209
    u[14]     primal_lower66  847
    u[14]     primal_lower67  260
    u[14]     primal_lower68  792
    u[14]     primal_lower69  470
    u[14]     primal_lower70  851
    u[14]     primal_lower71  534
    u[14]     primal_lower72  480
    u[14]     primal_lower73  180
    u[14]     primal_lower74  116
    u[14]     primal_lower75  11
    u[14]     primal_lower76  6
    u[14]     primal_lower77  660
    u[14]     primal_lower78  453
    u[14]     primal_lower79  90
    u[14]     primal_lower80  536
    u[14]     primal_lower81  949
    u[14]     primal_lower82  453
    u[14]     primal_lower83  338
    u[14]     primal_lower84  151
    u[14]     primal_lower85  800
    u[14]     primal_lower86  942
    u[14]     primal_lower87  753
    u[14]     primal_lower88  900
    u[14]     primal_lower89  843
    u[14]     primal_lower90  262
    u[14]     primal_lower91  68
    u[14]     primal_lower92  353
    u[14]     primal_lower93  550
    u[14]     primal_lower94  555
    u[14]     primal_lower95  618
    u[14]     primal_lower96  334
    u[14]     primal_lower97  998
    u[14]     primal_lower98  151
    u[14]     primal_lower99  234
    u[14]     interdiction[14]  1
    u[14]     mccormick1[14]  -1
    u[14]     mccormick3[14]  1
    u[15]     primal_lower0  485
    u[15]     primal_lower1  180
    u[15]     primal_lower2  788
    u[15]     primal_lower3  407
    u[15]     primal_lower4  133
    u[15]     primal_lower5  617
    u[15]     primal_lower6  15
    u[15]     primal_lower7  396
    u[15]     primal_lower8  957
    u[15]     primal_lower9  587
    u[15]     primal_lower10  969
    u[15]     primal_lower11  166
    u[15]     primal_lower12  601
    u[15]     primal_lower13  395
    u[15]     primal_lower14  662
    u[15]     primal_lower15  227
    u[15]     primal_lower16  882
    u[15]     primal_lower17  956
    u[15]     primal_lower18  720
    u[15]     primal_lower19  162
    u[15]     primal_lower20  369
    u[15]     primal_lower21  936
    u[15]     primal_lower22  701
    u[15]     primal_lower23  269
    u[15]     primal_lower24  500
    u[15]     primal_lower25  540
    u[15]     primal_lower26  701
    u[15]     primal_lower27  859
    u[15]     primal_lower28  712
    u[15]     primal_lower29  633
    u[15]     primal_lower30  700
    u[15]     primal_lower31  794
    u[15]     primal_lower32  393
    u[15]     primal_lower33  568
    u[15]     primal_lower34  170
    u[15]     primal_lower35  488
    u[15]     primal_lower36  498
    u[15]     primal_lower37  404
    u[15]     primal_lower38  238
    u[15]     primal_lower39  866
    u[15]     primal_lower40  806
    u[15]     primal_lower41  112
    u[15]     primal_lower42  839
    u[15]     primal_lower43  955
    u[15]     primal_lower44  864
    u[15]     primal_lower45  311
    u[15]     primal_lower46  474
    u[15]     primal_lower47  303
    u[15]     primal_lower48  708
    u[15]     primal_lower49  452
    u[15]     primal_lower50  706
    u[15]     primal_lower51  896
    u[15]     primal_lower52  621
    u[15]     primal_lower53  403
    u[15]     primal_lower54  25
    u[15]     primal_lower55  696
    u[15]     primal_lower56  236
    u[15]     primal_lower57  749
    u[15]     primal_lower58  19
    u[15]     primal_lower59  947
    u[15]     primal_lower60  695
    u[15]     primal_lower61  513
    u[15]     primal_lower62  666
    u[15]     primal_lower63  217
    u[15]     primal_lower64  454
    u[15]     primal_lower65  469
    u[15]     primal_lower66  287
    u[15]     primal_lower67  212
    u[15]     primal_lower68  868
    u[15]     primal_lower69  278
    u[15]     primal_lower70  595
    u[15]     primal_lower71  130
    u[15]     primal_lower72  424
    u[15]     primal_lower73  744
    u[15]     primal_lower74  756
    u[15]     primal_lower75  303
    u[15]     primal_lower76  98
    u[15]     primal_lower77  844
    u[15]     primal_lower78  733
    u[15]     primal_lower79  638
    u[15]     primal_lower80  792
    u[15]     primal_lower81  629
    u[15]     primal_lower82  97
    u[15]     primal_lower83  610
    u[15]     primal_lower84  451
    u[15]     primal_lower85  928
    u[15]     primal_lower86  550
    u[15]     primal_lower87  65
    u[15]     primal_lower88  928
    u[15]     primal_lower89  235
    u[15]     primal_lower90  98
    u[15]     primal_lower91  592
    u[15]     primal_lower92  821
    u[15]     primal_lower93  398
    u[15]     primal_lower94  483
    u[15]     primal_lower95  402
    u[15]     primal_lower96  430
    u[15]     primal_lower97  338
    u[15]     primal_lower98  839
    u[15]     primal_lower99  110
    u[15]     interdiction[15]  1
    u[15]     mccormick1[15]  -1
    u[15]     mccormick3[15]  1
    u[16]     primal_lower0  301
    u[16]     primal_lower1  721
    u[16]     primal_lower2  897
    u[16]     primal_lower3  863
    u[16]     primal_lower4  789
    u[16]     primal_lower5  921
    u[16]     primal_lower6  135
    u[16]     primal_lower7  201
    u[16]     primal_lower8  349
    u[16]     primal_lower9  416
    u[16]     primal_lower10  974
    u[16]     primal_lower11  302
    u[16]     primal_lower12  969
    u[16]     primal_lower13  755
    u[16]     primal_lower14  51
    u[16]     primal_lower15  923
    u[16]     primal_lower16  762
    u[16]     primal_lower17  404
    u[16]     primal_lower18  352
    u[16]     primal_lower19  175
    u[16]     primal_lower20  569
    u[16]     primal_lower21  752
    u[16]     primal_lower22  362
    u[16]     primal_lower23  861
    u[16]     primal_lower24  196
    u[16]     primal_lower25  364
    u[16]     primal_lower26  693
    u[16]     primal_lower27  832
    u[16]     primal_lower28  48
    u[16]     primal_lower29  593
    u[16]     primal_lower30  201
    u[16]     primal_lower31  914
    u[16]     primal_lower32  478
    u[16]     primal_lower33  717
    u[16]     primal_lower34  82
    u[16]     primal_lower35  557
    u[16]     primal_lower36  871
    u[16]     primal_lower37  124
    u[16]     primal_lower38  611
    u[16]     primal_lower39  842
    u[16]     primal_lower40  627
    u[16]     primal_lower41  637
    u[16]     primal_lower42  823
    u[16]     primal_lower43  547
    u[16]     primal_lower44  445
    u[16]     primal_lower45  791
    u[16]     primal_lower46  226
    u[16]     primal_lower47  415
    u[16]     primal_lower48  601
    u[16]     primal_lower49  716
    u[16]     primal_lower50  735
    u[16]     primal_lower51  768
    u[16]     primal_lower52  42
    u[16]     primal_lower53  544
    u[16]     primal_lower54  934
    u[16]     primal_lower55  541
    u[16]     primal_lower56  689
    u[16]     primal_lower57  914
    u[16]     primal_lower58  288
    u[16]     primal_lower59  67
    u[16]     primal_lower60  500
    u[16]     primal_lower61  281
    u[16]     primal_lower62  322
    u[16]     primal_lower63  22
    u[16]     primal_lower64  35
    u[16]     primal_lower65  962
    u[16]     primal_lower66  551
    u[16]     primal_lower67  948
    u[16]     primal_lower68  193
    u[16]     primal_lower69  30
    u[16]     primal_lower70  403
    u[16]     primal_lower71  191
    u[16]     primal_lower72  672
    u[16]     primal_lower73  101
    u[16]     primal_lower74  684
    u[16]     primal_lower75  740
    u[16]     primal_lower76  551
    u[16]     primal_lower77  316
    u[16]     primal_lower78  413
    u[16]     primal_lower79  715
    u[16]     primal_lower80  184
    u[16]     primal_lower81  61
    u[16]     primal_lower82  686
    u[16]     primal_lower83  386
    u[16]     primal_lower84  152
    u[16]     primal_lower85  416
    u[16]     primal_lower86  510
    u[16]     primal_lower87  417
    u[16]     primal_lower88  733
    u[16]     primal_lower89  307
    u[16]     primal_lower90  639
    u[16]     primal_lower91  109
    u[16]     primal_lower92  642
    u[16]     primal_lower93  510
    u[16]     primal_lower94  435
    u[16]     primal_lower95  330
    u[16]     primal_lower96  326
    u[16]     primal_lower97  263
    u[16]     primal_lower98  711
    u[16]     primal_lower99  747
    u[16]     interdiction[16]  1
    u[16]     mccormick1[16]  -1
    u[16]     mccormick3[16]  1
    u[17]     primal_lower0  400
    u[17]     primal_lower1  320
    u[17]     primal_lower2  792
    u[17]     primal_lower3  466
    u[17]     primal_lower4  160
    u[17]     primal_lower5  340
    u[17]     primal_lower6  434
    u[17]     primal_lower7  320
    u[17]     primal_lower8  608
    u[17]     primal_lower9  175
    u[17]     primal_lower10  853
    u[17]     primal_lower11  769
    u[17]     primal_lower12  548
    u[17]     primal_lower13  974
    u[17]     primal_lower14  634
    u[17]     primal_lower15  198
    u[17]     primal_lower16  965
    u[17]     primal_lower17  279
    u[17]     primal_lower18  795
    u[17]     primal_lower19  14
    u[17]     primal_lower20  556
    u[17]     primal_lower21  499
    u[17]     primal_lower22  33
    u[17]     primal_lower23  328
    u[17]     primal_lower24  7
    u[17]     primal_lower25  39
    u[17]     primal_lower26  696
    u[17]     primal_lower27  407
    u[17]     primal_lower28  187
    u[17]     primal_lower29  964
    u[17]     primal_lower30  232
    u[17]     primal_lower31  341
    u[17]     primal_lower32  613
    u[17]     primal_lower33  196
    u[17]     primal_lower34  173
    u[17]     primal_lower35  252
    u[17]     primal_lower36  166
    u[17]     primal_lower37  879
    u[17]     primal_lower38  962
    u[17]     primal_lower39  253
    u[17]     primal_lower40  482
    u[17]     primal_lower41  708
    u[17]     primal_lower42  938
    u[17]     primal_lower43  174
    u[17]     primal_lower44  916
    u[17]     primal_lower45  338
    u[17]     primal_lower46  597
    u[17]     primal_lower47  714
    u[17]     primal_lower48  856
    u[17]     primal_lower49  495
    u[17]     primal_lower50  62
    u[17]     primal_lower51  59
    u[17]     primal_lower52  97
    u[17]     primal_lower53  719
    u[17]     primal_lower54  765
    u[17]     primal_lower55  324
    u[17]     primal_lower56  552
    u[17]     primal_lower57  241
    u[17]     primal_lower58  559
    u[17]     primal_lower59  974
    u[17]     primal_lower60  355
    u[17]     primal_lower61  116
    u[17]     primal_lower62  373
    u[17]     primal_lower63  653
    u[17]     primal_lower64  626
    u[17]     primal_lower65  49
    u[17]     primal_lower66  810
    u[17]     primal_lower67  487
    u[17]     primal_lower68  192
    u[17]     primal_lower69  313
    u[17]     primal_lower70  630
    u[17]     primal_lower71  806
    u[17]     primal_lower72  891
    u[17]     primal_lower73  460
    u[17]     primal_lower74  127
    u[17]     primal_lower75  187
    u[17]     primal_lower76  510
    u[17]     primal_lower77  463
    u[17]     primal_lower78  416
    u[17]     primal_lower79  618
    u[17]     primal_lower80  923
    u[17]     primal_lower81  160
    u[17]     primal_lower82  805
    u[17]     primal_lower83  941
    u[17]     primal_lower84  535
    u[17]     primal_lower85  291
    u[17]     primal_lower86  433
    u[17]     primal_lower87  532
    u[17]     primal_lower88  636
    u[17]     primal_lower89  894
    u[17]     primal_lower90  878
    u[17]     primal_lower91  308
    u[17]     primal_lower92  81
    u[17]     primal_lower93  281
    u[17]     primal_lower94  318
    u[17]     primal_lower95  53
    u[17]     primal_lower96  177
    u[17]     primal_lower97  902
    u[17]     primal_lower98  42
    u[17]     primal_lower99  906
    u[17]     interdiction[17]  1
    u[17]     mccormick1[17]  -1
    u[17]     mccormick3[17]  1
    u[18]     primal_lower0  425
    u[18]     primal_lower1  589
    u[18]     primal_lower2  365
    u[18]     primal_lower3  691
    u[18]     primal_lower4  729
    u[18]     primal_lower5  925
    u[18]     primal_lower6  715
    u[18]     primal_lower7  909
    u[18]     primal_lower8  353
    u[18]     primal_lower9  804
    u[18]     primal_lower10  138
    u[18]     primal_lower11  74
    u[18]     primal_lower12  13
    u[18]     primal_lower13  943
    u[18]     primal_lower14  487
    u[18]     primal_lower15  479
    u[18]     primal_lower16  462
    u[18]     primal_lower17  488
    u[18]     primal_lower18  940
    u[18]     primal_lower19  763
    u[18]     primal_lower20  437
    u[18]     primal_lower21  644
    u[18]     primal_lower22  486
    u[18]     primal_lower23  801
    u[18]     primal_lower24  144
    u[18]     primal_lower25  464
    u[18]     primal_lower26  505
    u[18]     primal_lower27  980
    u[18]     primal_lower28  108
    u[18]     primal_lower29  709
    u[18]     primal_lower30  85
    u[18]     primal_lower31  574
    u[18]     primal_lower32  58
    u[18]     primal_lower33  809
    u[18]     primal_lower34  758
    u[18]     primal_lower35  561
    u[18]     primal_lower36  75
    u[18]     primal_lower37  232
    u[18]     primal_lower38  47
    u[18]     primal_lower39  790
    u[18]     primal_lower40  791
    u[18]     primal_lower41  345
    u[18]     primal_lower42  107
    u[18]     primal_lower43  583
    u[18]     primal_lower44  617
    u[18]     primal_lower45  587
    u[18]     primal_lower46  478
    u[18]     primal_lower47  315
    u[18]     primal_lower48  501
    u[18]     primal_lower49  672
    u[18]     primal_lower50  555
    u[18]     primal_lower51  700
    u[18]     primal_lower52  478
    u[18]     primal_lower53  268
    u[18]     primal_lower54  306
    u[18]     primal_lower55  409
    u[18]     primal_lower56  797
    u[18]     primal_lower57  950
    u[18]     primal_lower58  980
    u[18]     primal_lower59  967
    u[18]     primal_lower60  432
    u[18]     primal_lower61  773
    u[18]     primal_lower62  310
    u[18]     primal_lower63  658
    u[18]     primal_lower64  647
    u[18]     primal_lower65  606
    u[18]     primal_lower66  947
    u[18]     primal_lower67  144
    u[18]     primal_lower68  117
    u[18]     primal_lower69  634
    u[18]     primal_lower70  607
    u[18]     primal_lower71  795
    u[18]     primal_lower72  924
    u[18]     primal_lower73  217
    u[18]     primal_lower74  720
    u[18]     primal_lower75  576
    u[18]     primal_lower76  491
    u[18]     primal_lower77  184
    u[18]     primal_lower78  65
    u[18]     primal_lower79  487
    u[18]     primal_lower80  628
    u[18]     primal_lower81  745
    u[18]     primal_lower82  962
    u[18]     primal_lower83  566
    u[18]     primal_lower84  148
    u[18]     primal_lower85  44
    u[18]     primal_lower86  402
    u[18]     primal_lower87  901
    u[18]     primal_lower88  265
    u[18]     primal_lower89  343
    u[18]     primal_lower90  507
    u[18]     primal_lower91  585
    u[18]     primal_lower92  766
    u[18]     primal_lower93  370
    u[18]     primal_lower94  7
    u[18]     primal_lower95  974
    u[18]     primal_lower96  346
    u[18]     primal_lower97  715
    u[18]     primal_lower98  723
    u[18]     primal_lower99  559
    u[18]     interdiction[18]  1
    u[18]     mccormick1[18]  -1
    u[18]     mccormick3[18]  1
    u[19]     primal_lower0  710
    u[19]     primal_lower1  670
    u[19]     primal_lower2  694
    u[19]     primal_lower3  672
    u[19]     primal_lower4  710
    u[19]     primal_lower5  842
    u[19]     primal_lower6  944
    u[19]     primal_lower7  566
    u[19]     primal_lower8  406
    u[19]     primal_lower9  509
    u[19]     primal_lower10  643
    u[19]     primal_lower11  319
    u[19]     primal_lower12  34
    u[19]     primal_lower13  596
    u[19]     primal_lower14  64
    u[19]     primal_lower15  244
    u[19]     primal_lower16  307
    u[19]     primal_lower17  405
    u[19]     primal_lower18  17
    u[19]     primal_lower19  508
    u[19]     primal_lower20  570
    u[19]     primal_lower21  377
    u[19]     primal_lower22  463
    u[19]     primal_lower23  982
    u[19]     primal_lower24  381
    u[19]     primal_lower25  797
    u[19]     primal_lower26  310
    u[19]     primal_lower27  581
    u[19]     primal_lower28  857
    u[19]     primal_lower29  834
    u[19]     primal_lower30  462
    u[19]     primal_lower31  555
    u[19]     primal_lower32  643
    u[19]     primal_lower33  82
    u[19]     primal_lower34  731
    u[19]     primal_lower35  698
    u[19]     primal_lower36  948
    u[19]     primal_lower37  5
    u[19]     primal_lower38  384
    u[19]     primal_lower39  571
    u[19]     primal_lower40  280
    u[19]     primal_lower41  578
    u[19]     primal_lower42  296
    u[19]     primal_lower43  364
    u[19]     primal_lower44  58
    u[19]     primal_lower45  296
    u[19]     primal_lower46  643
    u[19]     primal_lower47  200
    u[19]     primal_lower48  534
    u[19]     primal_lower49  333
    u[19]     primal_lower50  460
    u[19]     primal_lower51  9
    u[19]     primal_lower52  135
    u[19]     primal_lower53  173
    u[19]     primal_lower54  635
    u[19]     primal_lower55  274
    u[19]     primal_lower56  590
    u[19]     primal_lower57  95
    u[19]     primal_lower58  837
    u[19]     primal_lower59  732
    u[19]     primal_lower60  473
    u[19]     primal_lower61  538
    u[19]     primal_lower62  915
    u[19]     primal_lower63  619
    u[19]     primal_lower64  584
    u[19]     primal_lower65  311
    u[19]     primal_lower66  376
    u[19]     primal_lower67  37
    u[19]     primal_lower68  566
    u[19]     primal_lower69  471
    u[19]     primal_lower70  268
    u[19]     primal_lower71  692
    u[19]     primal_lower72  497
    u[19]     primal_lower73  330
    u[19]     primal_lower74  461
    u[19]     primal_lower75  529
    u[19]     primal_lower76  148
    u[19]     primal_lower77  709
    u[19]     primal_lower78  358
    u[19]     primal_lower79  208
    u[19]     primal_lower80  449
    u[19]     primal_lower81  134
    u[19]     primal_lower82  347
    u[19]     primal_lower83  235
    u[19]     primal_lower84  213
    u[19]     primal_lower85  289
    u[19]     primal_lower86  551
    u[19]     primal_lower87  706
    u[19]     primal_lower88  690
    u[19]     primal_lower89  124
    u[19]     primal_lower90  660
    u[19]     primal_lower91  994
    u[19]     primal_lower92  327
    u[19]     primal_lower93  447
    u[19]     primal_lower94  300
    u[19]     primal_lower95  227
    u[19]     primal_lower96  775
    u[19]     primal_lower97  724
    u[19]     primal_lower98  24
    u[19]     primal_lower99  24
    u[19]     interdiction[19]  1
    u[19]     mccormick1[19]  -1
    u[19]     mccormick3[19]  1
    z[0]      primal_upper  8
    z[0]      mccormick1[0]  1
    z[0]      mccormick2[0]  1
    z[0]      mccormick3[0]  -1
    z[1]      primal_upper  46
    z[1]      mccormick1[1]  1
    z[1]      mccormick2[1]  1
    z[1]      mccormick3[1]  -1
    z[2]      primal_upper  92
    z[2]      mccormick1[2]  1
    z[2]      mccormick2[2]  1
    z[2]      mccormick3[2]  -1
    z[3]      primal_upper  3
    z[3]      mccormick1[3]  1
    z[3]      mccormick2[3]  1
    z[3]      mccormick3[3]  -1
    z[4]      primal_upper  57
    z[4]      mccormick1[4]  1
    z[4]      mccormick2[4]  1
    z[4]      mccormick3[4]  -1
    z[5]      primal_upper  90
    z[5]      mccormick1[5]  1
    z[5]      mccormick2[5]  1
    z[5]      mccormick3[5]  -1
    z[6]      primal_upper  43
    z[6]      mccormick1[6]  1
    z[6]      mccormick2[6]  1
    z[6]      mccormick3[6]  -1
    z[7]      primal_upper  6
    z[7]      mccormick1[7]  1
    z[7]      mccormick2[7]  1
    z[7]      mccormick3[7]  -1
    z[8]      primal_upper  51
    z[8]      mccormick1[8]  1
    z[8]      mccormick2[8]  1
    z[8]      mccormick3[8]  -1
    z[9]      primal_upper  57
    z[9]      mccormick1[9]  1
    z[9]      mccormick2[9]  1
    z[9]      mccormick3[9]  -1
    z[10]     primal_upper  38
    z[10]     mccormick1[10]  1
    z[10]     mccormick2[10]  1
    z[10]     mccormick3[10]  -1
    z[11]     primal_upper  6
    z[11]     mccormick1[11]  1
    z[11]     mccormick2[11]  1
    z[11]     mccormick3[11]  -1
    z[12]     primal_upper  27
    z[12]     mccormick1[12]  1
    z[12]     mccormick2[12]  1
    z[12]     mccormick3[12]  -1
    z[13]     primal_upper  40
    z[13]     mccormick1[13]  1
    z[13]     mccormick2[13]  1
    z[13]     mccormick3[13]  -1
    z[14]     primal_upper  3
    z[14]     mccormick1[14]  1
    z[14]     mccormick2[14]  1
    z[14]     mccormick3[14]  -1
    z[15]     primal_upper  32
    z[15]     mccormick1[15]  1
    z[15]     mccormick2[15]  1
    z[15]     mccormick3[15]  -1
    z[16]     primal_upper  98
    z[16]     mccormick1[16]  1
    z[16]     mccormick2[16]  1
    z[16]     mccormick3[16]  -1
    z[17]     primal_upper  3
    z[17]     mccormick1[17]  1
    z[17]     mccormick2[17]  1
    z[17]     mccormick3[17]  -1
    z[18]     primal_upper  3
    z[18]     mccormick1[18]  1
    z[18]     mccormick2[18]  1
    z[18]     mccormick3[18]  -1
    z[19]     primal_upper  32
    z[19]     mccormick1[19]  1
    z[19]     mccormick2[19]  1
    z[19]     mccormick3[19]  -1
    MARKER    'MARKER'                 'INTEND'
RHS
    RHS1      primal_upper  2450
    RHS1      primal_lower0  994
    RHS1      primal_lower1  968
    RHS1      primal_lower2  945
    RHS1      primal_lower3  3966
    RHS1      primal_lower4  3700
    RHS1      primal_lower5  3860
    RHS1      primal_lower6  3457
    RHS1      primal_lower7  2684
    RHS1      primal_lower8  957
    RHS1      primal_lower9  954
    RHS1      primal_lower10  3848
    RHS1      primal_lower11  948
    RHS1      primal_lower12  969
    RHS1      primal_lower13  974
    RHS1      primal_lower14  978
    RHS1      primal_lower15  3172
    RHS1      primal_lower16  3352
    RHS1      primal_lower17  3034
    RHS1      primal_lower18  943
    RHS1      primal_lower19  958
    RHS1      primal_lower20  3681
    RHS1      primal_lower21  983
    RHS1      primal_lower22  948
    RHS1      primal_lower23  982
    RHS1      primal_lower24  2837
    RHS1      primal_lower25  3445
    RHS1      primal_lower26  3380
    RHS1      primal_lower27  3643
    RHS1      primal_lower28  2514
    RHS1      primal_lower29  964
    RHS1      primal_lower30  3127
    RHS1      primal_lower31  914
    RHS1      primal_lower32  3406
    RHS1      primal_lower33  3706
    RHS1      primal_lower34  2976
    RHS1      primal_lower35  978
    RHS1      primal_lower36  948
    RHS1      primal_lower37  939
    RHS1      primal_lower38  2796
    RHS1      primal_lower39  4024
    RHS1      primal_lower40  3727
    RHS1      primal_lower41  3551
    RHS1      primal_lower42  999
    RHS1      primal_lower43  998
    RHS1      primal_lower44  3402
    RHS1      primal_lower45  3449
    RHS1      primal_lower46  983
    RHS1      primal_lower47  2700
    RHS1      primal_lower48  3647
    RHS1      primal_lower49  3624
    RHS1      primal_lower50  3572
    RHS1      primal_lower51  3205
    RHS1      primal_lower52  916
    RHS1      primal_lower53  967
    RHS1      primal_lower54  934
    RHS1      primal_lower55  3588
    RHS1      primal_lower56  3100
    RHS1      primal_lower57  3099
    RHS1      primal_lower58  3683
    RHS1      primal_lower59  974
    RHS1      primal_lower60  954
    RHS1      primal_lower61  822
    RHS1      primal_lower62  3240
    RHS1      primal_lower63  2648
    RHS1      primal_lower64  3708
    RHS1      primal_lower65  2934
    RHS1      primal_lower66  3852
    RHS1      primal_lower67  948
    RHS1      primal_lower68  2996
    RHS1      primal_lower69  987
    RHS1      primal_lower70  3884
    RHS1      primal_lower71  3255
    RHS1      primal_lower72  991
    RHS1      primal_lower73  908
    RHS1      primal_lower74  2661
    RHS1      primal_lower75  3104
    RHS1      primal_lower76  3098
    RHS1      primal_lower77  994
    RHS1      primal_lower78  972
    RHS1      primal_lower79  3042
    RHS1      primal_lower80  983
    RHS1      primal_lower81  3308
    RHS1      primal_lower82  3686
    RHS1      primal_lower83  2754
    RHS1      primal_lower84  2856
    RHS1      primal_lower85  928
    RHS1      primal_lower86  3552
    RHS1      primal_lower87  952
    RHS1      primal_lower88  4292
    RHS1      primal_lower89  3441
    RHS1      primal_lower90  983
    RHS1      primal_lower91  994
    RHS1      primal_lower92  3342
    RHS1      primal_lower93  925
    RHS1      primal_lower94  3382
    RHS1      primal_lower95  976
    RHS1      primal_lower96  949
    RHS1      primal_lower97  3591
    RHS1      primal_lower98  3833
    RHS1      primal_lower99  3468
    RHS1      interdiction[0]  1
    RHS1      interdiction[1]  1
    RHS1      interdiction[2]  1
    RHS1      interdiction[3]  1
    RHS1      interdiction[4]  1
    RHS1      interdiction[5]  1
    RHS1      interdiction[6]  1
    RHS1      interdiction[7]  1
    RHS1      interdiction[8]  1
    RHS1      interdiction[9]  1
    RHS1      interdiction[10]  1
    RHS1      interdiction[11]  1
    RHS1      interdiction[12]  1
    RHS1      interdiction[13]  1
    RHS1      interdiction[14]  1
    RHS1      interdiction[15]  1
    RHS1      interdiction[16]  1
    RHS1      interdiction[17]  1
    RHS1      interdiction[18]  1
    RHS1      interdiction[19]  1
    RHS1      mccormick3[0]  1
    RHS1      mccormick3[1]  1
    RHS1      mccormick3[2]  1
    RHS1      mccormick3[3]  1
    RHS1      mccormick3[4]  1
    RHS1      mccormick3[5]  1
    RHS1      mccormick3[6]  1
    RHS1      mccormick3[7]  1
    RHS1      mccormick3[8]  1
    RHS1      mccormick3[9]  1
    RHS1      mccormick3[10]  1
    RHS1      mccormick3[11]  1
    RHS1      mccormick3[12]  1
    RHS1      mccormick3[13]  1
    RHS1      mccormick3[14]  1
    RHS1      mccormick3[15]  1
    RHS1      mccormick3[16]  1
    RHS1      mccormick3[17]  1
    RHS1      mccormick3[18]  1
    RHS1      mccormick3[19]  1
BOUNDS
 BV BND1      x[0]    
 BV BND1      x[1]    
 BV BND1      x[2]    
 BV BND1      x[3]    
 BV BND1      x[4]    
 BV BND1      x[5]    
 BV BND1      x[6]    
 BV BND1      x[7]    
 BV BND1      x[8]    
 BV BND1      x[9]    
 BV BND1      x[10]   
 BV BND1      x[11]   
 BV BND1      x[12]   
 BV BND1      x[13]   
 BV BND1      x[14]   
 BV BND1      x[15]   
 BV BND1      x[16]   
 BV BND1      x[17]   
 BV BND1      x[18]   
 BV BND1      x[19]   
 BV BND1      y[0]    
 BV BND1      y[1]    
 BV BND1      y[2]    
 BV BND1      y[3]    
 BV BND1      y[4]    
 BV BND1      y[5]    
 BV BND1      y[6]    
 BV BND1      y[7]    
 BV BND1      y[8]    
 BV BND1      y[9]    
 BV BND1      y[10]   
 BV BND1      y[11]   
 BV BND1      y[12]   
 BV BND1      y[13]   
 BV BND1      y[14]   
 BV BND1      y[15]   
 BV BND1      y[16]   
 BV BND1      y[17]   
 BV BND1      y[18]   
 BV BND1      y[19]   
 BV BND1      u[0]    
 BV BND1      u[1]    
 BV BND1      u[2]    
 BV BND1      u[3]    
 BV BND1      u[4]    
 BV BND1      u[5]    
 BV BND1      u[6]    
 BV BND1      u[7]    
 BV BND1      u[8]    
 BV BND1      u[9]    
 BV BND1      u[10]   
 BV BND1      u[11]   
 BV BND1      u[12]   
 BV BND1      u[13]   
 BV BND1      u[14]   
 BV BND1      u[15]   
 BV BND1      u[16]   
 BV BND1      u[17]   
 BV BND1      u[18]   
 BV BND1      u[19]   
 BV BND1      z[0]    
 BV BND1      z[1]    
 BV BND1      z[2]    
 BV BND1      z[3]    
 BV BND1      z[4]    
 BV BND1      z[5]    
 BV BND1      z[6]    
 BV BND1      z[7]    
 BV BND1      z[8]    
 BV BND1      z[9]    
 BV BND1      z[10]   
 BV BND1      z[11]   
 BV BND1      z[12]   
 BV BND1      z[13]   
 BV BND1      z[14]   
 BV BND1      z[15]   
 BV BND1      z[16]   
 BV BND1      z[17]   
 BV BND1      z[18]   
 BV BND1      z[19]   
ENDATA
