\ Model knapsack_20_10_5
\ LP format - for model browsing. Use MPS format to capture full model detail.
\ Signature: 0xe03e275faf78322c
Minimize
  10 x[0] + 10 x[1] + 10 x[2] + 10 x[3] + 10 x[4] + 10 x[5] + 10 x[6]
   + 10 x[7] + 10 x[8] + 10 x[9] + 10 x[10] + 10 x[11] + 10 x[12]
   + 10 x[13] + 10 x[14] + 10 x[15] + 10 x[16] + 10 x[17] + 10 x[18]
   + 10 x[19] - 623 y[0] - 824 y[1] - 801 y[2] - 525 y[3] - 939 y[4]
   - 370 y[5] - 739 y[6] - 381 y[7] - 728 y[8] - 828 y[9] - 712 y[10]
   - 548 y[11] - 852 y[12] - 379 y[13] - 616 y[14] - 541 y[15] - 871 y[16]
   - 915 y[17] - 836 y[18] - 923 y[19]
Subject To
 primal_upper: 237 y[0] + 721 y[1] + 775 y[2] + 680 y[3] + 825 y[4]
   + 407 y[5] + 458 y[6] + 929 y[7] + 426 y[8] + 759 y[9] + 545 y[10]
   + 176 y[11] + 921 y[12] + 777 y[13] + 858 y[14] + 194 y[15] + 306 y[16]
   + 485 y[17] + 374 y[18] + 123 y[19] + 24 z[0] + 72 z[1] + 78 z[2]
   + 68 z[3] + 82 z[4] + 41 z[5] + 46 z[6] + 93 z[7] + 43 z[8] + 76 z[9]
   + 54 z[10] + 18 z[11] + 92 z[12] + 78 z[13] + 86 z[14] + 19 z[15]
   + 31 z[16] + 48 z[17] + 37 z[18] + 12 z[19] <= 1829
 primal_lower0: 931 u[0] + 831 u[1] + 541 u[2] + 334 u[3] + 799 u[4]
   + 501 u[5] + 784 u[6] + 255 u[7] + 128 u[8] + 181 u[9] + 199 u[10]
   + 926 u[11] + 351 u[12] + 231 u[13] + 952 u[14] + 632 u[15] + 752 u[16]
   + 259 u[17] + 940 u[18] + 9 u[19] <= 952
 primal_lower1: 892 u[0] + 280 u[1] + 942 u[2] + 847 u[3] + 800 u[4]
   + 790 u[5] + 81 u[6] + 32 u[7] + 953 u[8] + 182 u[9] + 784 u[10]
   + 799 u[11] + 832 u[12] + 288 u[13] + 713 u[14] + 121 u[15] + 433 u[16]
   + 52 u[17] + 485 u[18] + 106 u[19] <= 6941
 primal_lower2: 334 u[0] + 546 u[1] + 384 u[2] + 497 u[3] + 186 u[4]
   + 264 u[5] + 91 u[6] + 418 u[7] + 547 u[8] + 440 u[9] + 554 u[10]
   + 713 u[11] + 2 u[12] + 322 u[13] + 75 u[14] + 803 u[15] + 523 u[16]
   + 214 u[17] + 791 u[18] + 284 u[19] <= 1331
 primal_lower3: 287 u[0] + 256 u[1] + 530 u[2] + 975 u[3] + 844 u[4]
   + 269 u[5] + 189 u[6] + 511 u[7] + 853 u[8] + 766 u[9] + 571 u[10]
   + 199 u[11] + 772 u[12] + 552 u[13] + 452 u[14] + 864 u[15] + 469 u[16]
   + 596 u[17] + 929 u[18] + 874 u[19] <= 3919
 primal_lower4: 42 u[0] + 299 u[1] + 277 u[2] + 506 u[3] + 839 u[4]
   + 872 u[5] + 40 u[6] + 490 u[7] + 472 u[8] + 121 u[9] + 462 u[10]
   + 594 u[11] + 71 u[12] + 931 u[13] + 615 u[14] + 219 u[15] + 952 u[16]
   + 143 u[17] + 196 u[18] + 701 u[19] <= 1473
 primal_lower5: 759 u[0] + 691 u[1] + 73 u[2] + 890 u[3] + 155 u[4]
   + 457 u[5] + 988 u[6] + 339 u[7] + 324 u[8] + 289 u[9] + 403 u[10]
   + 146 u[11] + 195 u[12] + 851 u[13] + 652 u[14] + 276 u[15] + 236 u[16]
   + 7 u[17] + 96 u[18] + 357 u[19] <= 4092
 primal_lower6: 104 u[0] + 92 u[1] + 10 u[2] + 323 u[3] + 684 u[4]
   + 506 u[5] + 133 u[6] + 660 u[7] + 837 u[8] + 498 u[9] + 108 u[10]
   + 371 u[11] + 484 u[12] + 836 u[13] + 733 u[14] + 909 u[15] + 749 u[16]
   + 392 u[17] + 97 u[18] + 126 u[19] <= 1442
 primal_lower7: 408 u[0] + 785 u[1] + 619 u[2] + 272 u[3] + 989 u[4]
   + 742 u[5] + 158 u[6] + 312 u[7] + 502 u[8] + 191 u[9] + 20 u[10]
   + 256 u[11] + 445 u[12] + 961 u[13] + 973 u[14] + 329 u[15] + 854 u[16]
   + 109 u[17] + 978 u[18] + 283 u[19] <= 1697
 primal_lower8: 683 u[0] + 207 u[1] + 829 u[2] + 910 u[3] + 335 u[4]
   + 573 u[5] + 896 u[6] + 367 u[7] + 768 u[8] + 45 u[9] + 23 u[10]
   + 382 u[11] + 87 u[12] + 455 u[13] + 296 u[14] + 416 u[15] + 360 u[16]
   + 483 u[17] + 580 u[18] + 73 u[19] <= 910
 primal_lower9: 714 u[0] + 499 u[1] + 381 u[2] + 562 u[3] + 695 u[4]
   + 336 u[5] + 888 u[6] + 50 u[7] + 320 u[8] + 169 u[9] + 510 u[10]
   + 362 u[11] + 55 u[12] + 723 u[13] + 23 u[14] + 11 u[15] + 880 u[16]
   + 575 u[17] + 692 u[18] + 453 u[19] <= 2966
 interdiction[0]: x[0] + u[0] <= 1
 interdiction[1]: x[1] + u[1] <= 1
 interdiction[2]: x[2] + u[2] <= 1
 interdiction[3]: x[3] + u[3] <= 1
 interdiction[4]: x[4] + u[4] <= 1
 interdiction[5]: x[5] + u[5] <= 1
 interdiction[6]: x[6] + u[6] <= 1
 interdiction[7]: x[7] + u[7] <= 1
 interdiction[8]: x[8] + u[8] <= 1
 interdiction[9]: x[9] + u[9] <= 1
 interdiction[10]: x[10] + u[10] <= 1
 interdiction[11]: x[11] + u[11] <= 1
 interdiction[12]: x[12] + u[12] <= 1
 interdiction[13]: x[13] + u[13] <= 1
 interdiction[14]: x[14] + u[14] <= 1
 interdiction[15]: x[15] + u[15] <= 1
 interdiction[16]: x[16] + u[16] <= 1
 interdiction[17]: x[17] + u[17] <= 1
 interdiction[18]: x[18] + u[18] <= 1
 interdiction[19]: x[19] + u[19] <= 1
 mccormick1[0]: - u[0] + z[0] <= 0
 mccormick1[1]: - u[1] + z[1] <= 0
 mccormick1[2]: - u[2] + z[2] <= 0
 mccormick1[3]: - u[3] + z[3] <= 0
 mccormick1[4]: - u[4] + z[4] <= 0
 mccormick1[5]: - u[5] + z[5] <= 0
 mccormick1[6]: - u[6] + z[6] <= 0
 mccormick1[7]: - u[7] + z[7] <= 0
 mccormick1[8]: - u[8] + z[8] <= 0
 mccormick1[9]: - u[9] + z[9] <= 0
 mccormick1[10]: - u[10] + z[10] <= 0
 mccormick1[11]: - u[11] + z[11] <= 0
 mccormick1[12]: - u[12] + z[12] <= 0
 mccormick1[13]: - u[13] + z[13] <= 0
 mccormick1[14]: - u[14] + z[14] <= 0
 mccormick1[15]: - u[15] + z[15] <= 0
 mccormick1[16]: - u[16] + z[16] <= 0
 mccormick1[17]: - u[17] + z[17] <= 0
 mccormick1[18]: - u[18] + z[18] <= 0
 mccormick1[19]: - u[19] + z[19] <= 0
 mccormick2[0]: - y[0] + z[0] <= 0
 mccormick2[1]: - y[1] + z[1] <= 0
 mccormick2[2]: - y[2] + z[2] <= 0
 mccormick2[3]: - y[3] + z[3] <= 0
 mccormick2[4]: - y[4] + z[4] <= 0
 mccormick2[5]: - y[5] + z[5] <= 0
 mccormick2[6]: - y[6] + z[6] <= 0
 mccormick2[7]: - y[7] + z[7] <= 0
 mccormick2[8]: - y[8] + z[8] <= 0
 mccormick2[9]: - y[9] + z[9] <= 0
 mccormick2[10]: - y[10] + z[10] <= 0
 mccormick2[11]: - y[11] + z[11] <= 0
 mccormick2[12]: - y[12] + z[12] <= 0
 mccormick2[13]: - y[13] + z[13] <= 0
 mccormick2[14]: - y[14] + z[14] <= 0
 mccormick2[15]: - y[15] + z[15] <= 0
 mccormick2[16]: - y[16] + z[16] <= 0
 mccormick2[17]: - y[17] + z[17] <= 0
 mccormick2[18]: - y[18] + z[18] <= 0
 mccormick2[19]: - y[19] + z[19] <= 0
 mccormick3[0]: y[0] + u[0] - z[0] <= 1
 mccormick3[1]: y[1] + u[1] - z[1] <= 1
 mccormick3[2]: y[2] + u[2] - z[2] <= 1
 mccormick3[3]: y[3] + u[3] - z[3] <= 1
 mccormick3[4]: y[4] + u[4] - z[4] <= 1
 mccormick3[5]: y[5] + u[5] - z[5] <= 1
 mccormick3[6]: y[6] + u[6] - z[6] <= 1
 mccormick3[7]: y[7] + u[7] - z[7] <= 1
 mccormick3[8]: y[8] + u[8] - z[8] <= 1
 mccormick3[9]: y[9] + u[9] - z[9] <= 1
 mccormick3[10]: y[10] + u[10] - z[10] <= 1
 mccormick3[11]: y[11] + u[11] - z[11] <= 1
 mccormick3[12]: y[12] + u[12] - z[12] <= 1
 mccormick3[13]: y[13] + u[13] - z[13] <= 1
 mccormick3[14]: y[14] + u[14] - z[14] <= 1
 mccormick3[15]: y[15] + u[15] - z[15] <= 1
 mccormick3[16]: y[16] + u[16] - z[16] <= 1
 mccormick3[17]: y[17] + u[17] - z[17] <= 1
 mccormick3[18]: y[18] + u[18] - z[18] <= 1
 mccormick3[19]: y[19] + u[19] - z[19] <= 1
Bounds
Binaries
 x[0] x[1] x[2] x[3] x[4] x[5] x[6] x[7] x[8] x[9] x[10] x[11] x[12] x[13]
 x[14] x[15] x[16] x[17] x[18] x[19] y[0] y[1] y[2] y[3] y[4] y[5] y[6]
 y[7] y[8] y[9] y[10] y[11] y[12] y[13] y[14] y[15] y[16] y[17] y[18] y[19]
 u[0] u[1] u[2] u[3] u[4] u[5] u[6] u[7] u[8] u[9] u[10] u[11] u[12] u[13]
 u[14] u[15] u[16] u[17] u[18] u[19] z[0] z[1] z[2] z[3] z[4] z[5] z[6]
 z[7] z[8] z[9] z[10] z[11] z[12] z[13] z[14] z[15] z[16] z[17] z[18] z[19]
End
