\ Model knapsack_100_100_1
\ LP format - for model browsing. Use MPS format to capture full model detail.
\ Signature: 0xaabe24bfadf940f4
Minimize
  10 x[0] + 10 x[1] + 10 x[2] + 10 x[3] + 10 x[4] + 10 x[5] + 10 x[6]
   + 10 x[7] + 10 x[8] + 10 x[9] + 10 x[10] + 10 x[11] + 10 x[12]
   + 10 x[13] + 10 x[14] + 10 x[15] + 10 x[16] + 10 x[17] + 10 x[18]
   + 10 x[19] + 10 x[20] + 10 x[21] + 10 x[22] + 10 x[23] + 10 x[24]
   + 10 x[25] + 10 x[26] + 10 x[27] + 10 x[28] + 10 x[29] + 10 x[30]
   + 10 x[31] + 10 x[32] + 10 x[33] + 10 x[34] + 10 x[35] + 10 x[36]
   + 10 x[37] + 10 x[38] + 10 x[39] + 10 x[40] + 10 x[41] + 10 x[42]
   + 10 x[43] + 10 x[44] + 10 x[45] + 10 x[46] + 10 x[47] + 10 x[48]
   + 10 x[49] + 10 x[50] + 10 x[51] + 10 x[52] + 10 x[53] + 10 x[54]
   + 10 x[55] + 10 x[56] + 10 x[57] + 10 x[58] + 10 x[59] + 10 x[60]
   + 10 x[61] + 10 x[62] + 10 x[63] + 10 x[64] + 10 x[65] + 10 x[66]
   + 10 x[67] + 10 x[68] + 10 x[69] + 10 x[70] + 10 x[71] + 10 x[72]
   + 10 x[73] + 10 x[74] + 10 x[75] + 10 x[76] + 10 x[77] + 10 x[78]
   + 10 x[79] + 10 x[80] + 10 x[81] + 10 x[82] + 10 x[83] + 10 x[84]
   + 10 x[85] + 10 x[86] + 10 x[87] + 10 x[88] + 10 x[89] + 10 x[90]
   + 10 x[91] + 10 x[92] + 10 x[93] + 10 x[94] + 10 x[95] + 10 x[96]
   + 10 x[97] + 10 x[98] + 10 x[99] - 535 y[0] - 472 y[1] - 809 y[2]
   - 597 y[3] - 875 y[4] - 570 y[5] - 595 y[6] - 5 y[7] - 608 y[8]
   - 516 y[9] - 760 y[10] - 916 y[11] - 316 y[12] - 315 y[13] - 592 y[14]
   - 541 y[15] - 799 y[16] - 579 y[17] - 932 y[18] - 107 y[19] - 955 y[20]
   - 752 y[21] - 269 y[22] - 33 y[23] - 682 y[24] - 416 y[25] - 97 y[26]
   - 153 y[27] - 59 y[28] - 674 y[29] - 278 y[30] - 353 y[31] - 677 y[32]
   - 80 y[33] - 21 y[34] - 286 y[35] - 994 y[36] - 976 y[37] - 376 y[38]
   - 37 y[39] - 933 y[40] - 567 y[41] - 323 y[42] - 788 y[43] - 372 y[44]
   - 292 y[45] - 606 y[46] - 14 y[47] - 750 y[48] - 547 y[49] - 536 y[50]
   - 620 y[51] - 812 y[52] - 30 y[53] - 949 y[54] - 283 y[55] - 524 y[56]
   - 981 y[57] - 945 y[58] - 212 y[59] - 833 y[60] - 359 y[61] - 635 y[62]
   - 607 y[63] - 468 y[64] - 990 y[65] - 882 y[66] - 815 y[67] - 974 y[68]
   - 607 y[69] - 730 y[70] - 816 y[71] - 650 y[72] - 855 y[73] - 352 y[74]
   - 875 y[75] - 199 y[76] - 14 y[77] - 689 y[78] - 753 y[79] - 500 y[80]
   - 743 y[81] - 423 y[82] - 995 y[83] - 434 y[84] - 662 y[85] - 627 y[86]
   - 560 y[87] - 133 y[88] - 272 y[89] - 307 y[90] - 863 y[91] - 755 y[92]
   - 222 y[93] - 229 y[94] - 664 y[95] - 642 y[96] - 841 y[97] - 970 y[98]
   - 710 y[99]
Subject To
 primal_upper: 661 y[0] + 465 y[1] + 407 y[2] + 24 y[3] + 849 y[4]
   + 927 y[5] + 642 y[6] + 145 y[7] + 266 y[8] + 495 y[9] + 169 y[10]
   + 392 y[11] + 817 y[12] + 193 y[13] + 858 y[14] + 282 y[15] + 18 y[16]
   + 925 y[17] + 454 y[18] + 99 y[19] + 642 y[20] + 469 y[21] + 385 y[22]
   + 860 y[23] + 186 y[24] + 21 y[25] + 639 y[26] + 669 y[27] + 939 y[28]
   + 924 y[29] + 679 y[30] + 609 y[31] + 305 y[32] + 610 y[33] + 657 y[34]
   + 862 y[35] + 633 y[36] + 130 y[37] + 849 y[38] + 436 y[39] + 852 y[40]
   + 391 y[41] + 243 y[42] + 107 y[43] + 300 y[44] + 504 y[45] + 383 y[46]
   + 327 y[47] + 300 y[48] + 605 y[49] + 452 y[50] + 549 y[51] + 658 y[52]
   + 705 y[53] + 990 y[54] + 253 y[55] + 150 y[56] + 904 y[57] + 809 y[58]
   + 151 y[59] + 434 y[60] + 584 y[61] + 389 y[62] + 960 y[63] + 473 y[64]
   + 249 y[65] + 610 y[66] + 420 y[67] + 265 y[68] + 559 y[69] + 859 y[70]
   + 939 y[71] + 683 y[72] + 508 y[73] + 741 y[74] + 910 y[75] + 840 y[76]
   + 960 y[77] + 646 y[78] + 776 y[79] + 755 y[80] + 443 y[81] + 40 y[82]
   + 199 y[83] + 235 y[84] + 863 y[85] + 437 y[86] + 593 y[87] + 135 y[88]
   + 552 y[89] + 442 y[90] + 754 y[91] + 506 y[92] + 581 y[93] + 893 y[94]
   + 906 y[95] + 926 y[96] + 646 y[97] + 441 y[98] + 497 y[99] + 66 z[0]
   + 46 z[1] + 41 z[2] + 2 z[3] + 85 z[4] + 93 z[5] + 64 z[6] + 14 z[7]
   + 27 z[8] + 50 z[9] + 17 z[10] + 39 z[11] + 82 z[12] + 19 z[13]
   + 86 z[14] + 28 z[15] + 2 z[16] + 92 z[17] + 45 z[18] + 10 z[19]
   + 64 z[20] + 47 z[21] + 38 z[22] + 86 z[23] + 19 z[24] + 2 z[25]
   + 64 z[26] + 67 z[27] + 94 z[28] + 92 z[29] + 68 z[30] + 61 z[31]
   + 30 z[32] + 61 z[33] + 66 z[34] + 86 z[35] + 63 z[36] + 13 z[37]
   + 85 z[38] + 44 z[39] + 85 z[40] + 39 z[41] + 24 z[42] + 11 z[43]
   + 30 z[44] + 50 z[45] + 38 z[46] + 33 z[47] + 30 z[48] + 60 z[49]
   + 45 z[50] + 55 z[51] + 66 z[52] + 70 z[53] + 99 z[54] + 25 z[55]
   + 15 z[56] + 90 z[57] + 81 z[58] + 15 z[59] + 43 z[60] + 58 z[61]
   + 39 z[62] + 96 z[63] + 47 z[64] + 25 z[65] + 61 z[66] + 42 z[67]
   + 26 z[68] + 56 z[69] + 86 z[70] + 94 z[71] + 68 z[72] + 51 z[73]
   + 74 z[74] + 91 z[75] + 84 z[76] + 96 z[77] + 65 z[78] + 78 z[79]
   + 76 z[80] + 44 z[81] + 4 z[82] + 20 z[83] + 24 z[84] + 86 z[85]
   + 44 z[86] + 59 z[87] + 14 z[88] + 55 z[89] + 44 z[90] + 75 z[91]
   + 51 z[92] + 58 z[93] + 89 z[94] + 91 z[95] + 93 z[96] + 65 z[97]
   + 44 z[98] + 50 z[99] <= 26937
 primal_lower0: 374 u[0] + 890 u[1] + 688 u[2] + 737 u[3] + 226 u[4]
   + 32 u[5] + 11 u[6] + 410 u[7] + 963 u[8] + 504 u[9] + 386 u[10]
   + 305 u[11] + 730 u[12] + 450 u[13] + 51 u[14] + 91 u[15] + 835 u[16]
   + 150 u[17] + 799 u[18] + 612 u[19] + 715 u[20] + 390 u[21] + 338 u[22]
   + 997 u[23] + 323 u[24] + 374 u[25] + 464 u[26] + 942 u[27] + 28 u[28]
   + 453 u[29] + 520 u[30] + 802 u[31] + 594 u[32] + 859 u[33] + 618 u[34]
   + 223 u[35] + 226 u[36] + 843 u[37] + 738 u[38] + 21 u[39] + 173 u[40]
   + 720 u[41] + 20 u[42] + 732 u[43] + 765 u[44] + 377 u[45] + 712 u[46]
   + 552 u[47] + 229 u[48] + 374 u[49] + 677 u[50] + 310 u[51] + 827 u[52]
   + 242 u[53] + 959 u[54] + 910 u[55] + 271 u[56] + 977 u[57] + 986 u[58]
   + 296 u[59] + 259 u[60] + 601 u[61] + 558 u[62] + 833 u[63] + 986 u[64]
   + 466 u[65] + 675 u[66] + 581 u[67] + 202 u[68] + 472 u[69] + 588 u[70]
   + 460 u[71] + 188 u[72] + 781 u[73] + 686 u[74] + 167 u[75] + 513 u[76]
   + 865 u[77] + 15 u[78] + 105 u[79] + 220 u[80] + 244 u[81] + u[82]
   + 840 u[83] + 172 u[84] + 128 u[85] + 110 u[86] + 714 u[87] + 640 u[88]
   + 401 u[89] + 3 u[90] + 323 u[91] + 907 u[92] + 766 u[93] + 822 u[94]
   + 371 u[95] + 391 u[96] + 551 u[97] + 162 u[98] + 210 u[99] <= 997
 primal_lower1: 171 u[0] + 391 u[1] + 341 u[2] + 166 u[3] + 623 u[4]
   + 317 u[5] + 880 u[6] + 231 u[7] + 160 u[8] + 621 u[9] + 815 u[10]
   + 86 u[11] + 495 u[12] + 575 u[13] + 664 u[14] + 232 u[15] + 544 u[16]
   + 307 u[17] + 740 u[18] + 673 u[19] + 720 u[20] + 371 u[21] + 223 u[22]
   + 818 u[23] + 504 u[24] + 299 u[25] + 725 u[26] + 323 u[27] + 537 u[28]
   + 554 u[29] + 973 u[30] + 239 u[31] + 759 u[32] + 608 u[33] + 423 u[34]
   + 636 u[35] + 543 u[36] + 408 u[37] + 783 u[38] + 970 u[39] + 546 u[40]
   + 213 u[41] + 377 u[42] + 465 u[43] + 962 u[44] + 950 u[45] + 501 u[46]
   + 333 u[47] + 946 u[48] + 43 u[49] + 490 u[50] + 603 u[51] + 336 u[52]
   + 655 u[53] + 52 u[54] + 203 u[55] + 756 u[56] + 534 u[57] + 935 u[58]
   + 77 u[59] + 224 u[60] + 758 u[61] + 67 u[62] + 510 u[63] + 719 u[64]
   + 647 u[65] + 112 u[66] + 26 u[67] + 743 u[68] + 349 u[69] + 209 u[70]
   + 553 u[71] + 945 u[72] + 450 u[73] + 331 u[74] + 300 u[75] + 726 u[76]
   + 86 u[77] + 612 u[78] + 246 u[79] + 937 u[80] + 481 u[81] + 310 u[82]
   + 117 u[83] + 905 u[84] + 133 u[85] + 811 u[86] + 703 u[87] + 789 u[88]
   + 310 u[89] + 488 u[90] + 224 u[91] + 912 u[92] + 867 u[93] + 139 u[94]
   + 368 u[95] + 740 u[96] + 292 u[97] + 423 u[98] + 231 u[99] <= 973
 primal_lower2: 291 u[0] + 271 u[1] + 597 u[2] + 582 u[3] + 351 u[4]
   + 645 u[5] + 104 u[6] + 679 u[7] + 288 u[8] + 261 u[9] + 71 u[10]
   + 950 u[11] + 567 u[12] + 103 u[13] + 968 u[14] + 920 u[15] + 32 u[16]
   + 67 u[17] + 956 u[18] + 433 u[19] + 600 u[20] + 627 u[21] + 615 u[22]
   + 498 u[23] + 696 u[24] + 595 u[25] + 901 u[26] + 243 u[27] + 305 u[28]
   + 986 u[29] + 525 u[30] + 463 u[31] + 607 u[32] + 712 u[33] + 679 u[34]
   + 76 u[35] + 471 u[36] + 280 u[37] + 975 u[38] + 922 u[39] + 274 u[40]
   + 797 u[41] + 81 u[42] + 969 u[43] + 210 u[44] + 574 u[45] + 429 u[46]
   + 493 u[47] + 138 u[48] + 947 u[49] + 498 u[50] + 299 u[51] + 808 u[52]
   + 743 u[53] + 596 u[54] + 403 u[55] + 748 u[56] + 398 u[57] + 103 u[58]
   + 485 u[59] + 152 u[60] + 806 u[61] + 931 u[62] + 998 u[63] + 751 u[64]
   + 191 u[65] + 448 u[66] + 770 u[67] + 247 u[68] + 701 u[69] + 377 u[70]
   + 505 u[71] + 681 u[72] + 10 u[73] + 555 u[74] + 180 u[75] + 846 u[76]
   + 478 u[77] + 564 u[78] + 222 u[79] + 137 u[80] + 257 u[81] + 246 u[82]
   + 501 u[83] + 793 u[84] + 765 u[85] + 155 u[86] + 791 u[87] + 101 u[88]
   + 278 u[89] + 856 u[90] + 24 u[91] + 552 u[92] + 379 u[93] + 435 u[94]
   + 472 u[95] + 572 u[96] + 612 u[97] + 543 u[98] + 567 u[99] <= 998
 primal_lower3: 296 u[0] + 657 u[1] + 699 u[2] + 216 u[3] + 573 u[4]
   + 118 u[5] + 870 u[6] + 928 u[7] + 366 u[8] + 95 u[9] + 156 u[10]
   + 624 u[11] + 765 u[12] + 425 u[13] + 205 u[14] + 41 u[15] + 758 u[16]
   + 973 u[17] + 34 u[18] + 619 u[19] + 294 u[20] + 460 u[21] + 981 u[22]
   + 19 u[23] + 421 u[24] + 381 u[25] + 963 u[26] + 964 u[27] + 814 u[28]
   + 140 u[29] + 474 u[30] + 864 u[31] + 588 u[32] + 954 u[33] + 445 u[34]
   + 694 u[35] + 93 u[36] + 593 u[37] + 149 u[38] + 739 u[39] + 16 u[40]
   + 518 u[41] + 727 u[42] + 922 u[43] + 128 u[44] + 935 u[45] + 106 u[46]
   + 622 u[47] + 624 u[48] + 725 u[49] + 135 u[50] + 989 u[51] + 286 u[52]
   + 681 u[53] + 345 u[54] + 604 u[55] + 698 u[56] + 159 u[57] + 293 u[58]
   + 719 u[59] + 957 u[60] + 799 u[61] + 176 u[62] + 199 u[63] + 308 u[64]
   + 553 u[65] + 933 u[66] + 427 u[67] + 757 u[68] + 702 u[69] + 790 u[70]
   + 506 u[71] + 503 u[72] + 348 u[73] + 520 u[74] + 189 u[75] + 139 u[76]
   + 352 u[77] + 977 u[78] + 943 u[79] + 486 u[80] + 682 u[81] + 915 u[82]
   + 862 u[83] + 686 u[84] + 238 u[85] + 64 u[86] + 601 u[87] + 659 u[88]
   + 744 u[89] + 837 u[90] + 89 u[91] + 405 u[92] + 636 u[93] + 457 u[94]
   + 770 u[95] + 554 u[96] + 469 u[97] + 805 u[98] + 153 u[99] <= 989
 primal_lower4: 95 u[0] + 763 u[1] + 873 u[2] + 18 u[3] + 267 u[4]
   + 305 u[5] + 572 u[6] + 451 u[7] + 780 u[8] + u[9] + 635 u[10]
   + 82 u[11] + 507 u[12] + 827 u[13] + 740 u[14] + 540 u[15] + 316 u[16]
   + 503 u[17] + 256 u[18] + 365 u[19] + 156 u[20] + 223 u[21] + 659 u[22]
   + 358 u[23] + 748 u[24] + 15 u[25] + 449 u[26] + 159 u[27] + 629 u[28]
   + 734 u[29] + 737 u[30] + 323 u[31] + 883 u[32] + 76 u[33] + 867 u[34]
   + 376 u[35] + 67 u[36] + 564 u[37] + 235 u[38] + 430 u[39] + 238 u[40]
   + 9 u[41] + 645 u[42] + 925 u[43] + 646 u[44] + 530 u[45] + 817 u[46]
   + 497 u[47] + 230 u[48] + 327 u[49] + 126 u[50] + 359 u[51] + 972 u[52]
   + 979 u[53] + 408 u[54] + 71 u[55] + 88 u[56] + 546 u[57] + 75 u[58]
   + 129 u[59] + 308 u[60] + 346 u[61] + 167 u[62] + 26 u[63] + 387 u[64]
   + 83 u[65] + 444 u[66] + 790 u[67] + 275 u[68] + 817 u[69] + 717 u[70]
   + 405 u[71] + 637 u[72] + 470 u[73] + 951 u[74] + 648 u[75] + 210 u[76]
   + 970 u[77] + 424 u[78] + 562 u[79] + 173 u[80] + 245 u[81] + 130 u[82]
   + 137 u[83] + 757 u[84] + 417 u[85] + 503 u[86] + 179 u[87] + 297 u[88]
   + 370 u[89] + 172 u[90] + 828 u[91] + 660 u[92] + 959 u[93] + 407 u[94]
   + 180 u[95] + 592 u[96] + 600 u[97] + 35 u[98] + 723 u[99] <= 979
 primal_lower5: 568 u[0] + 700 u[1] + 658 u[2] + 483 u[3] + 588 u[4]
   + 754 u[5] + 357 u[6] + 644 u[7] + 549 u[8] + 258 u[9] + 732 u[10]
   + 859 u[11] + 812 u[12] + 916 u[13] + 5 u[14] + 261 u[15] + 517 u[16]
   + 512 u[17] + 689 u[18] + 630 u[19] + 605 u[20] + 200 u[21] + 348 u[22]
   + 87 u[23] + 789 u[24] + 544 u[25] + 314 u[26] + 488 u[27] + 998 u[28]
   + 871 u[29] + 186 u[30] + 884 u[31] + 660 u[32] + 485 u[33] + 172 u[34]
   + 465 u[35] + 196 u[36] + 677 u[37] + 788 u[38] + 575 u[39] + 463 u[40]
   + 34 u[41] + 414 u[42] + 174 u[43] + 327 u[44] + 651 u[45] + 18 u[46]
   + 650 u[47] + 335 u[48] + 64 u[49] + 887 u[50] + 48 u[51] + 885 u[52]
   + 308 u[53] + 577 u[54] + 848 u[55] + 177 u[56] + 323 u[57] + 300 u[58]
   + 66 u[59] + 557 u[60] + 107 u[61] + 216 u[62] + 323 u[63] + 468 u[64]
   + 68 u[65] + 405 u[66] + 351 u[67] + 892 u[68] + 866 u[69] + 902 u[70]
   + 910 u[71] + 622 u[72] + 511 u[73] + 304 u[74] + 537 u[75] + 307 u[76]
   + 259 u[77] + 993 u[78] + 259 u[79] + 790 u[80] + 246 u[81] + 299 u[82]
   + 226 u[83] + 14 u[84] + 42 u[85] + 936 u[86] + 588 u[87] + 442 u[88]
   + 163 u[89] + 813 u[90] + 989 u[91] + 981 u[92] + 864 u[93] + 16 u[94]
   + 69 u[95] + 321 u[96] + 225 u[97] + 4 u[98] + 828 u[99] <= 998
 primal_lower6: 257 u[0] + 946 u[1] + 428 u[2] + 265 u[3] + 6 u[4]
   + 103 u[5] + 671 u[6] + 721 u[7] + 495 u[8] + 560 u[9] + 797 u[10]
   + 481 u[11] + 462 u[12] + 226 u[13] + 86 u[14] + 90 u[15] + 319 u[16]
   + 398 u[17] + 763 u[18] + 260 u[19] + 407 u[20] + 685 u[21] + 734 u[22]
   + 220 u[23] + 30 u[24] + 342 u[25] + 564 u[26] + 381 u[27] + 87 u[28]
   + 93 u[29] + 91 u[30] + 161 u[31] + 925 u[32] + 627 u[33] + 318 u[34]
   + 367 u[35] + 230 u[36] + 98 u[37] + 310 u[38] + 268 u[39] + 769 u[40]
   + 23 u[41] + 408 u[42] + 795 u[43] + 609 u[44] + 224 u[45] + 99 u[46]
   + 575 u[47] + 721 u[48] + 950 u[49] + 856 u[50] + 174 u[51] + 959 u[52]
   + 762 u[53] + 178 u[54] + 261 u[55] + 531 u[56] + 344 u[57] + 726 u[58]
   + 360 u[59] + 102 u[60] + 32 u[61] + 89 u[62] + 144 u[63] + 13 u[64]
   + 842 u[65] + 838 u[66] + 268 u[67] + 662 u[68] + 71 u[69] + 479 u[70]
   + 267 u[71] + 456 u[72] + 349 u[73] + 529 u[74] + 662 u[75] + 932 u[76]
   + 81 u[77] + 330 u[78] + 184 u[79] + 303 u[80] + 291 u[81] + 876 u[82]
   + 919 u[83] + 567 u[84] + 631 u[85] + 257 u[86] + 18 u[87] + 316 u[88]
   + 137 u[89] + 814 u[90] + 346 u[91] + 926 u[92] + 805 u[93] + 914 u[94]
   + 331 u[95] + 323 u[96] + 982 u[97] + 254 u[98] + 90 u[99] <= 982
 primal_lower7: 806 u[0] + 407 u[1] + 353 u[2] + 302 u[3] + 27 u[4]
   + 4 u[5] + 972 u[6] + 78 u[7] + 588 u[8] + 429 u[9] + 138 u[10]
   + 174 u[11] + 483 u[12] + 23 u[13] + 155 u[14] + 111 u[15] + 756 u[16]
   + 595 u[17] + 600 u[18] + 57 u[19] + 916 u[20] + 730 u[21] + 59 u[22]
   + 121 u[23] + 435 u[24] + 995 u[25] + 113 u[26] + 434 u[27] + 420 u[28]
   + 514 u[29] + 152 u[30] + 998 u[31] + 626 u[32] + 440 u[33] + 99 u[34]
   + 132 u[35] + 843 u[36] + 519 u[37] + 115 u[38] + 409 u[39] + 822 u[40]
   + 564 u[41] + 541 u[42] + 976 u[43] + 134 u[44] + 637 u[45] + 312 u[46]
   + 820 u[47] + 262 u[48] + 779 u[49] + 637 u[50] + 131 u[51] + 612 u[52]
   + 39 u[53] + 247 u[54] + 154 u[55] + 88 u[56] + 877 u[57] + 163 u[58]
   + 709 u[59] + 587 u[60] + 109 u[61] + 278 u[62] + 917 u[63] + 578 u[64]
   + 399 u[65] + 395 u[66] + 721 u[67] + 939 u[68] + 908 u[69] + 740 u[70]
   + 616 u[71] + 781 u[72] + 962 u[73] + 406 u[74] + 467 u[75] + 865 u[76]
   + 574 u[77] + 199 u[78] + 677 u[79] + 588 u[80] + 208 u[81] + 465 u[82]
   + 460 u[83] + 108 u[84] + 652 u[85] + 366 u[86] + 391 u[87] + 617 u[88]
   + 534 u[89] + 531 u[90] + 15 u[91] + 595 u[92] + 506 u[93] + 431 u[94]
   + 288 u[95] + 200 u[96] + 947 u[97] + 747 u[98] + 943 u[99] <= 998
 primal_lower8: 271 u[0] + 944 u[1] + 810 u[2] + 199 u[3] + 980 u[4]
   + 213 u[5] + 133 u[6] + 551 u[7] + 13 u[8] + 806 u[9] + 683 u[10]
   + 327 u[11] + 596 u[12] + 328 u[13] + 716 u[14] + 384 u[15] + 5 u[16]
   + 404 u[17] + 313 u[18] + 218 u[19] + 693 u[20] + 603 u[21] + 452 u[22]
   + 66 u[23] + 100 u[24] + 4 u[25] + 314 u[26] + 707 u[27] + 941 u[28]
   + 867 u[29] + 913 u[30] + 591 u[31] + 707 u[32] + 665 u[33] + 660 u[34]
   + 525 u[35] + 44 u[36] + 520 u[37] + 220 u[38] + 234 u[39] + 751 u[40]
   + 77 u[41] + 142 u[42] + 345 u[43] + 191 u[44] + 614 u[45] + 985 u[46]
   + 293 u[47] + 727 u[48] + 668 u[49] + 510 u[50] + 20 u[51] + 741 u[52]
   + 960 u[53] + 232 u[54] + 379 u[55] + 41 u[56] + 766 u[57] + 316 u[58]
   + 446 u[59] + 580 u[60] + 702 u[61] + 23 u[62] + 630 u[63] + 739 u[64]
   + 704 u[65] + 196 u[66] + 426 u[67] + 100 u[68] + 981 u[69] + 125 u[70]
   + 121 u[71] + 470 u[72] + 379 u[73] + 863 u[74] + 300 u[75] + 906 u[76]
   + 863 u[77] + 336 u[78] + 102 u[79] + 741 u[80] + 985 u[81] + 394 u[82]
   + 901 u[83] + 349 u[84] + 349 u[85] + 799 u[86] + 504 u[87] + 898 u[88]
   + 975 u[89] + 348 u[90] + 696 u[91] + 204 u[92] + 667 u[93] + 240 u[94]
   + 785 u[95] + 377 u[96] + 748 u[97] + 116 u[98] + 336 u[99] <= 985
 primal_lower9: 940 u[0] + 944 u[1] + 614 u[2] + 535 u[3] + 560 u[4]
   + 118 u[5] + 201 u[6] + 448 u[7] + 97 u[8] + 470 u[9] + 952 u[10]
   + 31 u[11] + 240 u[12] + 832 u[13] + u[14] + 977 u[15] + 977 u[16]
   + 188 u[17] + 549 u[18] + 954 u[19] + 617 u[20] + 132 u[21] + 744 u[22]
   + 195 u[23] + 265 u[24] + 52 u[25] + 982 u[26] + 940 u[27] + 386 u[28]
   + 459 u[29] + 470 u[30] + 368 u[31] + 856 u[32] + 257 u[33] + 704 u[34]
   + 445 u[35] + 552 u[36] + 641 u[37] + 360 u[38] + 299 u[39] + 403 u[40]
   + 662 u[41] + 754 u[42] + 170 u[43] + 171 u[44] + 71 u[45] + 958 u[46]
   + 526 u[47] + 891 u[48] + 804 u[49] + 947 u[50] + 308 u[51] + 49 u[52]
   + 656 u[53] + 333 u[54] + 828 u[55] + 781 u[56] + 47 u[57] + 736 u[58]
   + 174 u[59] + 9 u[60] + 135 u[61] + 652 u[62] + 335 u[63] + 776 u[64]
   + 824 u[65] + 801 u[66] + 347 u[67] + 280 u[68] + 54 u[69] + 330 u[70]
   + 554 u[71] + 938 u[72] + 467 u[73] + 924 u[74] + 517 u[75] + 959 u[76]
   + 135 u[77] + 997 u[78] + 407 u[79] + 994 u[80] + 306 u[81] + 703 u[82]
   + 822 u[83] + 322 u[84] + 222 u[85] + 532 u[86] + 384 u[87] + 62 u[88]
   + 311 u[89] + 881 u[90] + 265 u[91] + 577 u[92] + 892 u[93] + 276 u[94]
   + 793 u[95] + 973 u[96] + 629 u[97] + 896 u[98] + 464 u[99] <= 997
 primal_lower10: 446 u[0] + 599 u[1] + 217 u[2] + 22 u[3] + 939 u[4]
   + 492 u[5] + 924 u[6] + 854 u[7] + 964 u[8] + 573 u[9] + 322 u[10]
   + 718 u[11] + 371 u[12] + 871 u[13] + 923 u[14] + 919 u[15] + 500 u[16]
   + 435 u[17] + 312 u[18] + 529 u[19] + 36 u[20] + 130 u[21] + 419 u[22]
   + 385 u[23] + 523 u[24] + 379 u[25] + 505 u[26] + 34 u[27] + 756 u[28]
   + 274 u[29] + 768 u[30] + 302 u[31] + 250 u[32] + 800 u[33] + 83 u[34]
   + 956 u[35] + 731 u[36] + 543 u[37] + 123 u[38] + 913 u[39] + 438 u[40]
   + 844 u[41] + 813 u[42] + 120 u[43] + 838 u[44] + 285 u[45] + 184 u[46]
   + 892 u[47] + 174 u[48] + 259 u[49] + 917 u[50] + 283 u[51] + 564 u[52]
   + 159 u[53] + 399 u[54] + 922 u[55] + 392 u[56] + 245 u[57] + 739 u[58]
   + 573 u[59] + 427 u[60] + 741 u[61] + 278 u[62] + 253 u[63] + 202 u[64]
   + 695 u[65] + 883 u[66] + 201 u[67] + 539 u[68] + 716 u[69] + 612 u[70]
   + 280 u[71] + 677 u[72] + 978 u[73] + 774 u[74] + 899 u[75] + 705 u[76]
   + 662 u[77] + 439 u[78] + 741 u[79] + 556 u[80] + 320 u[81] + 273 u[82]
   + 756 u[83] + 564 u[84] + 556 u[85] + 782 u[86] + 839 u[87] + 329 u[88]
   + 94 u[89] + 659 u[90] + 551 u[91] + 123 u[92] + 106 u[93] + 135 u[94]
   + 40 u[95] + 408 u[96] + 987 u[97] + 451 u[98] + 7 u[99] <= 987
 primal_lower11: 90 u[0] + 235 u[1] + 629 u[2] + 642 u[3] + 431 u[4]
   + 232 u[5] + 592 u[6] + 178 u[7] + 992 u[8] + 193 u[9] + 742 u[10]
   + 210 u[11] + 407 u[12] + 603 u[13] + 439 u[14] + 659 u[15] + 152 u[16]
   + 335 u[17] + 852 u[18] + 669 u[19] + 816 u[20] + 686 u[21] + 647 u[22]
   + 893 u[23] + 471 u[24] + 655 u[25] + 309 u[26] + 374 u[27] + 936 u[28]
   + 118 u[29] + 292 u[30] + 690 u[31] + 478 u[32] + 684 u[33] + 455 u[34]
   + 504 u[35] + 911 u[36] + 227 u[37] + 359 u[38] + 285 u[39] + 898 u[40]
   + 520 u[41] + 209 u[42] + 36 u[43] + 170 u[44] + 657 u[45] + 76 u[46]
   + 768 u[47] + 850 u[48] + 623 u[49] + 433 u[50] + 735 u[51] + 760 u[52]
   + 171 u[53] + 851 u[54] + 518 u[55] + 668 u[56] + u[57] + 519 u[58]
   + 41 u[59] + 207 u[60] + 961 u[61] + 506 u[62] + 337 u[63] + 726 u[64]
   + 155 u[65] + 471 u[66] + 485 u[67] + 399 u[68] + 920 u[69] + 584 u[70]
   + 244 u[71] + 873 u[72] + 510 u[73] + 210 u[74] + 911 u[75] + 885 u[76]
   + 90 u[77] + 203 u[78] + 33 u[79] + 664 u[80] + 188 u[81] + 493 u[82]
   + 264 u[83] + 832 u[84] + 384 u[85] + 154 u[86] + 547 u[87] + 829 u[88]
   + 114 u[89] + 287 u[90] + 875 u[91] + 991 u[92] + 110 u[93] + 411 u[94]
   + 652 u[95] + 596 u[96] + 375 u[97] + 135 u[98] + 83 u[99] <= 992
 primal_lower12: 377 u[0] + 309 u[1] + 27 u[2] + 700 u[3] + 53 u[4]
   + 795 u[5] + 494 u[6] + 133 u[7] + 6 u[8] + 371 u[9] + 869 u[10]
   + 156 u[11] + 125 u[12] + 957 u[13] + 638 u[14] + 782 u[15] + 942 u[16]
   + 33 u[17] + 634 u[18] + 255 u[19] + 366 u[20] + 729 u[21] + 941 u[22]
   + 208 u[23] + 294 u[24] + 73 u[25] + 747 u[26] + 377 u[27] + 207 u[28]
   + 392 u[29] + 779 u[30] + 413 u[31] + 957 u[32] + 86 u[33] + 469 u[34]
   + 994 u[35] + 965 u[36] + 446 u[37] + 677 u[38] + 328 u[39] + 96 u[40]
   + 99 u[41] + 183 u[42] + 327 u[43] + 408 u[44] + 140 u[45] + 755 u[46]
   + 755 u[47] + 336 u[48] + 873 u[49] + 168 u[50] + 593 u[51] + 262 u[52]
   + 397 u[53] + 242 u[54] + 225 u[55] + 498 u[56] + 372 u[57] + 261 u[58]
   + 611 u[59] + 78 u[60] + 716 u[61] + 761 u[62] + 436 u[63] + 317 u[64]
   + 469 u[65] + 654 u[66] + 424 u[67] + 269 u[68] + 723 u[69] + 215 u[70]
   + 463 u[71] + 615 u[72] + 112 u[73] + 201 u[74] + 770 u[75] + 84 u[76]
   + 956 u[77] + 378 u[78] + 260 u[79] + 999 u[80] + 183 u[81] + 684 u[82]
   + 979 u[83] + 559 u[84] + 627 u[85] + 617 u[86] + 205 u[87] + 483 u[88]
   + 724 u[89] + 278 u[90] + 702 u[91] + 798 u[92] + 913 u[93] + 969 u[94]
   + 822 u[95] + 874 u[96] + 538 u[97] + 501 u[98] + 421 u[99] <= 999
 primal_lower13: 454 u[0] + 895 u[1] + 297 u[2] + 662 u[3] + 107 u[4]
   + 876 u[5] + 532 u[6] + 654 u[7] + 900 u[8] + 493 u[9] + 322 u[10]
   + 334 u[11] + 619 u[12] + 927 u[13] + 339 u[14] + 295 u[15] + 588 u[16]
   + 171 u[17] + 576 u[18] + 673 u[19] + 676 u[20] + 698 u[21] + 691 u[22]
   + 393 u[23] + 875 u[24] + 235 u[25] + 713 u[26] + 618 u[27] + 236 u[28]
   + 354 u[29] + 192 u[30] + 622 u[31] + 978 u[32] + 1000 u[33] + 459 u[34]
   + 396 u[35] + 347 u[36] + 927 u[37] + 963 u[38] + 177 u[39] + 966 u[40]
   + 52 u[41] + 973 u[42] + 272 u[43] + 438 u[44] + 349 u[45] + 8 u[46]
   + 604 u[47] + 878 u[48] + 939 u[49] + 613 u[50] + 131 u[51] + 836 u[52]
   + 351 u[53] + 703 u[54] + 970 u[55] + 424 u[56] + 245 u[57] + 907 u[58]
   + 989 u[59] + 75 u[60] + 125 u[61] + 86 u[62] + 493 u[63] + 250 u[64]
   + 7 u[65] + 555 u[66] + 713 u[67] + 819 u[68] + 908 u[69] + 612 u[70]
   + 360 u[71] + 437 u[72] + 682 u[73] + 62 u[74] + 923 u[75] + 961 u[76]
   + 278 u[77] + 959 u[78] + 445 u[79] + 444 u[80] + 752 u[81] + 217 u[82]
   + 316 u[83] + 508 u[84] + 740 u[85] + 734 u[86] + 887 u[87] + 545 u[88]
   + 126 u[89] + 403 u[90] + 31 u[91] + 379 u[92] + 850 u[93] + 735 u[94]
   + 608 u[95] + 656 u[96] + 427 u[97] + 283 u[98] + 431 u[99] <= 1000
 primal_lower14: 80 u[0] + 529 u[1] + 811 u[2] + 768 u[3] + 245 u[4]
   + 374 u[5] + 902 u[6] + 720 u[7] + 838 u[8] + 759 u[9] + 292 u[10]
   + 520 u[11] + 149 u[12] + 81 u[13] + 429 u[14] + 393 u[15] + 350 u[16]
   + 309 u[17] + 650 u[18] + 651 u[19] + 942 u[20] + 684 u[21] + 509 u[22]
   + 51 u[23] + 165 u[24] + 653 u[25] + 363 u[26] + 876 u[27] + 550 u[28]
   + 476 u[29] + 898 u[30] + 544 u[31] + 676 u[32] + 538 u[33] + 165 u[34]
   + 678 u[35] + 165 u[36] + 33 u[37] + 341 u[38] + 843 u[39] + 352 u[40]
   + 534 u[41] + 807 u[42] + 82 u[43] + 928 u[44] + 487 u[45] + 938 u[46]
   + 102 u[47] + 976 u[48] + 949 u[49] + 567 u[50] + 701 u[51] + 526 u[52]
   + 641 u[53] + 577 u[54] + 364 u[55] + 82 u[56] + 167 u[57] + 325 u[58]
   + 591 u[59] + 141 u[60] + 911 u[61] + 216 u[62] + 615 u[63] + 340 u[64]
   + 313 u[65] + 973 u[66] + 211 u[67] + 909 u[68] + 246 u[69] + 638 u[70]
   + 578 u[71] + 111 u[72] + 692 u[73] + 800 u[74] + 53 u[75] + 915 u[76]
   + 624 u[77] + 633 u[78] + 47 u[79] + 918 u[80] + 194 u[81] + 659 u[82]
   + 710 u[83] + 574 u[84] + 214 u[85] + 632 u[86] + 977 u[87] + 299 u[88]
   + 848 u[89] + 69 u[90] + 505 u[91] + 253 u[92] + 588 u[93] + 929 u[94]
   + 74 u[95] + 642 u[96] + 125 u[97] + 357 u[98] + 105 u[99] <= 977
 primal_lower15: 36 u[0] + 464 u[1] + 654 u[2] + 367 u[3] + 536 u[4]
   + 670 u[5] + 409 u[6] + 784 u[7] + 225 u[8] + 902 u[9] + 288 u[10]
   + 575 u[11] + 384 u[12] + 848 u[13] + 793 u[14] + 201 u[15] + 617 u[16]
   + 804 u[17] + 493 u[18] + 466 u[19] + 393 u[20] + 900 u[21] + 376 u[22]
   + 235 u[23] + 985 u[24] + 108 u[25] + 878 u[26] + 948 u[27] + 290 u[28]
   + 3 u[29] + 286 u[30] + 816 u[31] + 744 u[32] + 809 u[33] + 280 u[34]
   + 909 u[35] + 336 u[36] + 137 u[37] + 576 u[38] + 187 u[39] + 435 u[40]
   + 342 u[41] + 538 u[42] + 538 u[43] + 883 u[44] + 447 u[45] + 942 u[46]
   + 54 u[47] + 451 u[48] + 348 u[49] + 883 u[50] + 804 u[51] + 9 u[52]
   + 240 u[53] + 453 u[54] + 236 u[55] + 533 u[56] + 839 u[57] + 736 u[58]
   + 822 u[59] + 113 u[60] + 431 u[61] + 492 u[62] + 215 u[63] + 64 u[64]
   + 616 u[65] + 713 u[66] + 579 u[67] + 168 u[68] + 982 u[69] + 306 u[70]
   + 906 u[71] + 138 u[72] + 483 u[73] + 740 u[74] + 509 u[75] + 663 u[76]
   + 111 u[77] + 461 u[78] + 967 u[79] + 458 u[80] + 642 u[81] + 823 u[82]
   + 646 u[83] + 74 u[84] + 150 u[85] + 556 u[86] + 760 u[87] + 998 u[88]
   + 295 u[89] + 681 u[90] + 961 u[91] + 193 u[92] + 276 u[93] + 492 u[94]
   + 425 u[95] + 677 u[96] + 573 u[97] + 272 u[98] + 512 u[99] <= 998
 primal_lower16: 870 u[0] + 743 u[1] + 65 u[2] + 742 u[3] + 739 u[4]
   + 76 u[5] + 340 u[6] + 694 u[7] + 380 u[8] + 165 u[9] + 138 u[10]
   + 542 u[11] + 571 u[12] + 311 u[13] + 451 u[14] + 471 u[15] + 684 u[16]
   + 667 u[17] + 232 u[18] + 153 u[19] + 580 u[20] + 546 u[21] + 955 u[22]
   + 945 u[23] + 187 u[24] + 771 u[25] + 97 u[26] + 970 u[27] + 428 u[28]
   + 706 u[29] + 384 u[30] + 630 u[31] + 770 u[32] + 704 u[33] + 51 u[34]
   + 556 u[35] + 771 u[36] + 815 u[37] + 611 u[38] + 953 u[39] + 198 u[40]
   + 804 u[41] + 285 u[42] + 528 u[43] + 166 u[44] + 893 u[45] + 792 u[46]
   + 388 u[47] + 462 u[48] + 515 u[49] + 965 u[50] + 267 u[51] + 924 u[52]
   + 383 u[53] + 351 u[54] + 522 u[55] + 496 u[56] + 629 u[57] + 483 u[58]
   + 181 u[59] + 739 u[60] + 445 u[61] + 326 u[62] + 837 u[63] + 570 u[64]
   + 279 u[65] + 91 u[66] + 225 u[67] + 851 u[68] + 660 u[69] + 132 u[70]
   + 584 u[71] + 965 u[72] + 362 u[73] + 798 u[74] + 635 u[75] + 417 u[76]
   + 382 u[77] + 807 u[78] + 293 u[79] + 572 u[80] + 328 u[81] + 473 u[82]
   + 204 u[83] + 36 u[84] + 124 u[85] + 902 u[86] + 815 u[87] + 873 u[88]
   + 830 u[89] + 579 u[90] + 687 u[91] + 667 u[92] + 2 u[93] + 343 u[94]
   + 48 u[95] + 24 u[96] + 763 u[97] + 659 u[98] + 447 u[99] <= 970
 primal_lower17: 364 u[0] + 53 u[1] + 271 u[2] + 124 u[3] + 385 u[4]
   + 682 u[5] + 586 u[6] + 724 u[7] + 562 u[8] + 275 u[9] + 536 u[10]
   + 188 u[11] + 737 u[12] + 789 u[13] + 865 u[14] + 989 u[15] + 402 u[16]
   + 553 u[17] + 934 u[18] + 407 u[19] + 314 u[20] + 376 u[21] + 873 u[22]
   + 567 u[23] + 417 u[24] + 409 u[25] + 111 u[26] + 216 u[27] + 682 u[28]
   + 424 u[29] + 526 u[30] + 508 u[31] + 800 u[32] + 894 u[33] + 769 u[34]
   + 602 u[35] + 409 u[36] + 405 u[37] + 737 u[38] + 335 u[39] + 260 u[40]
   + 186 u[41] + 19 u[42] + 766 u[43] + 812 u[44] + 731 u[45] + 462 u[46]
   + 754 u[47] + 404 u[48] + 169 u[49] + 563 u[50] + 985 u[51] + 906 u[52]
   + 69 u[53] + 685 u[54] + 944 u[55] + 966 u[56] + 187 u[57] + 505 u[58]
   + 363 u[59] + 913 u[60] + 835 u[61] + 900 u[62] + 395 u[63] + 752 u[64]
   + 597 u[65] + 249 u[66] + 223 u[67] + 153 u[68] + 874 u[69] + 482 u[70]
   + 878 u[71] + 955 u[72] + 192 u[73] + 580 u[74] + 769 u[75] + 87 u[76]
   + 60 u[77] + 677 u[78] + 979 u[79] + 18 u[80] + 286 u[81] + 207 u[82]
   + 410 u[83] + 874 u[84] + 586 u[85] + 844 u[86] + 733 u[87] + 831 u[88]
   + 660 u[89] + 809 u[90] + 381 u[91] + 273 u[92] + 952 u[93] + 413 u[94]
   + 694 u[95] + 166 u[96] + 841 u[97] + 161 u[98] + 661 u[99] <= 989
 primal_lower18: 383 u[0] + 339 u[1] + 513 u[2] + 434 u[3] + 707 u[4]
   + 129 u[5] + 652 u[6] + 771 u[7] + 900 u[8] + 105 u[9] + 835 u[10]
   + 50 u[11] + 107 u[12] + 971 u[13] + 812 u[14] + 972 u[15] + 348 u[16]
   + 799 u[17] + 304 u[18] + 925 u[19] + 860 u[20] + 215 u[21] + 339 u[22]
   + 630 u[23] + 236 u[24] + 471 u[25] + 313 u[26] + 439 u[27] + 373 u[28]
   + 462 u[29] + 297 u[30] + 19 u[31] + 875 u[32] + 540 u[33] + 171 u[34]
   + 728 u[35] + 251 u[36] + 268 u[37] + 363 u[38] + 750 u[39] + 134 u[40]
   + 665 u[41] + 701 u[42] + 325 u[43] + 886 u[44] + 858 u[45] + 841 u[46]
   + 161 u[47] + 550 u[48] + 63 u[49] + 766 u[50] + 967 u[51] + 324 u[52]
   + 91 u[53] + 1000 u[54] + 855 u[55] + 144 u[56] + 354 u[57] + 811 u[58]
   + 433 u[59] + 716 u[60] + 330 u[61] + 359 u[62] + 642 u[63] + 363 u[64]
   + 667 u[65] + 420 u[66] + 302 u[67] + 595 u[68] + 225 u[69] + 661 u[70]
   + 469 u[71] + 277 u[72] + 774 u[73] + 39 u[74] + 784 u[75] + 226 u[76]
   + 522 u[77] + 104 u[78] + 570 u[79] + 749 u[80] + 61 u[81] + 242 u[82]
   + 257 u[83] + 333 u[84] + 433 u[85] + 823 u[86] + 995 u[87] + 785 u[88]
   + 986 u[89] + 636 u[90] + 844 u[91] + 388 u[92] + 207 u[93] + 263 u[94]
   + 532 u[95] + 32 u[96] + 704 u[97] + 179 u[98] + 651 u[99] <= 1000
 primal_lower19: 758 u[0] + 434 u[1] + 160 u[2] + 361 u[3] + 906 u[4]
   + 400 u[5] + 715 u[6] + 938 u[7] + 563 u[8] + 504 u[9] + 786 u[10]
   + 281 u[11] + 450 u[12] + 970 u[13] + 427 u[14] + 403 u[15] + 75 u[16]
   + 974 u[17] + 23 u[18] + 468 u[19] + 123 u[20] + 998 u[21] + 410 u[22]
   + 413 u[23] + 563 u[24] + 630 u[25] + 416 u[26] + 150 u[27] + 524 u[28]
   + 621 u[29] + 864 u[30] + 458 u[31] + 90 u[32] + 611 u[33] + 946 u[34]
   + 231 u[35] + 258 u[36] + 347 u[37] + 218 u[38] + 261 u[39] + 445 u[40]
   + 312 u[41] + 412 u[42] + 556 u[43] + 637 u[44] + 465 u[45] + 392 u[46]
   + 24 u[47] + 525 u[48] + 166 u[49] + 381 u[50] + 430 u[51] + 491 u[52]
   + 794 u[53] + 63 u[54] + 318 u[55] + 535 u[56] + 769 u[57] + 234 u[58]
   + 656 u[59] + 523 u[60] + 465 u[61] + 702 u[62] + 705 u[63] + 498 u[64]
   + 10 u[65] + 355 u[66] + 717 u[67] + 570 u[68] + 656 u[69] + 316 u[70]
   + 884 u[71] + 532 u[72] + 637 u[73] + 902 u[74] + 711 u[75] + 177 u[76]
   + 745 u[77] + 839 u[78] + 793 u[79] + 988 u[80] + 132 u[81] + 761 u[82]
   + 688 u[83] + 52 u[84] + 168 u[85] + 6 u[86] + 570 u[87] + 336 u[88]
   + 641 u[89] + 83 u[90] + 499 u[91] + 219 u[92] + 446 u[93] + 6 u[94]
   + 251 u[95] + 935 u[96] + 351 u[97] + 730 u[98] + 530 u[99] <= 998
 primal_lower20: 460 u[0] + 904 u[1] + 278 u[2] + 535 u[3] + 912 u[4]
   + 462 u[5] + 657 u[6] + 712 u[7] + u[8] + 390 u[9] + 744 u[10]
   + 807 u[11] + 944 u[12] + 584 u[13] + 753 u[14] + 145 u[15] + 793 u[16]
   + 556 u[17] + 797 u[18] + 778 u[19] + 945 u[20] + 12 u[21] + 384 u[22]
   + 875 u[23] + 745 u[24] + 620 u[25] + 518 u[26] + 444 u[27] + 778 u[28]
   + 659 u[29] + 110 u[30] + 648 u[31] + 800 u[32] + 489 u[33] + 592 u[34]
   + 157 u[35] + 1000 u[36] + 89 u[37] + 432 u[38] + 507 u[39] + 323 u[40]
   + 806 u[41] + 490 u[42] + 202 u[43] + 123 u[44] + 223 u[45] + 78 u[46]
   + 822 u[47] + 595 u[48] + 804 u[49] + 531 u[50] + 748 u[51] + 17 u[52]
   + 312 u[53] + 813 u[54] + 788 u[55] + 853 u[56] + 727 u[57] + 248 u[58]
   + 758 u[59] + 601 u[60] + 375 u[61] + 828 u[62] + 711 u[63] + 224 u[64]
   + 88 u[65] + 681 u[66] + 459 u[67] + 784 u[68] + 342 u[69] + 426 u[70]
   + 874 u[71] + 938 u[72] + 75 u[73] + 852 u[74] + 653 u[75] + 551 u[76]
   + 407 u[77] + 989 u[78] + 23 u[79] + 602 u[80] + 618 u[81] + 943 u[82]
   + 902 u[83] + 394 u[84] + 974 u[85] + 460 u[86] + 296 u[87] + 70 u[88]
   + 583 u[89] + 553 u[90] + 105 u[91] + 225 u[92] + 764 u[93] + 140 u[94]
   + 745 u[95] + 205 u[96] + 205 u[97] + 208 u[98] + 304 u[99] <= 1000
 primal_lower21: 661 u[0] + 577 u[1] + 143 u[2] + 360 u[3] + 657 u[4]
   + 951 u[5] + 802 u[6] + 545 u[7] + 490 u[8] + 503 u[9] + 337 u[10]
   + 488 u[11] + 825 u[12] + 753 u[13] + 682 u[14] + 914 u[15] + 426 u[16]
   + 269 u[17] + 606 u[18] + 139 u[19] + 506 u[20] + 997 u[21] + 897 u[22]
   + 412 u[23] + 602 u[24] + 429 u[25] + 951 u[26] + 301 u[27] + 555 u[28]
   + 132 u[29] + 831 u[30] + 537 u[31] + 665 u[32] + 354 u[33] + 889 u[34]
   + 982 u[35] + 777 u[36] + 658 u[37] + 9 u[38] + 716 u[39] + 116 u[40]
   + 311 u[41] + 339 u[42] + 603 u[43] + 620 u[44] + 40 u[45] + 655 u[46]
   + 655 u[47] + 924 u[48] + 965 u[49] + 292 u[50] + 653 u[51] + 122 u[52]
   + 89 u[53] + 622 u[54] + 333 u[55] + 134 u[56] + 664 u[57] + 857 u[58]
   + 767 u[59] + 402 u[60] + 200 u[61] + 245 u[62] + 936 u[63] + 849 u[64]
   + 289 u[65] + 210 u[66] + 364 u[67] + 849 u[68] + 175 u[69] + 859 u[70]
   + 499 u[71] + 307 u[72] + 68 u[73] + 709 u[74] + 742 u[75] + 1000 u[76]
   + 512 u[77] + 14 u[78] + 72 u[79] + 211 u[80] + 187 u[81] + 56 u[82]
   + 863 u[83] + 675 u[84] + 647 u[85] + 621 u[86] + 681 u[87] + 127 u[88]
   + 112 u[89] + 914 u[90] + 42 u[91] + 434 u[92] + 517 u[93] + 765 u[94]
   + 354 u[95] + 102 u[96] + 390 u[97] + 929 u[98] + 417 u[99] <= 1000
 primal_lower22: 826 u[0] + 827 u[1] + 677 u[2] + 482 u[3] + 367 u[4]
   + 832 u[5] + 904 u[6] + 802 u[7] + 112 u[8] + 361 u[9] + 374 u[10]
   + 162 u[11] + 319 u[12] + 403 u[13] + 735 u[14] + 179 u[15] + 648 u[16]
   + 935 u[17] + 956 u[18] + 821 u[19] + 856 u[20] + 214 u[21] + 279 u[22]
   + 765 u[23] + 191 u[24] + 791 u[25] + 749 u[26] + 726 u[27] + 416 u[28]
   + 950 u[29] + 716 u[30] + 106 u[31] + 70 u[32] + 980 u[33] + 855 u[34]
   + 544 u[35] + 751 u[36] + 563 u[37] + 447 u[38] + 997 u[39] + 146 u[40]
   + 568 u[41] + 409 u[42] + 52 u[43] + 578 u[44] + 489 u[45] + 172 u[46]
   + 240 u[47] + 50 u[48] + 407 u[49] + 457 u[50] + 319 u[51] + 400 u[52]
   + 123 u[53] + 347 u[54] + 886 u[55] + 740 u[56] + 649 u[57] + 703 u[58]
   + 953 u[59] + 439 u[60] + 465 u[61] + 738 u[62] + 569 u[63] + 574 u[64]
   + 995 u[65] + 31 u[66] + 357 u[67] + 567 u[68] + 496 u[69] + 32 u[70]
   + 652 u[71] + 793 u[72] + 462 u[73] + 50 u[74] + 95 u[75] + 909 u[76]
   + 762 u[77] + 955 u[78] + 505 u[79] + 80 u[80] + 828 u[81] + 573 u[82]
   + 984 u[83] + 616 u[84] + 560 u[85] + 226 u[86] + 131 u[87] + 29 u[88]
   + 866 u[89] + 519 u[90] + 763 u[91] + 255 u[92] + 206 u[93] + 587 u[94]
   + 668 u[95] + 676 u[96] + 175 u[97] + 583 u[98] + 379 u[99] <= 997
 primal_lower23: 706 u[0] + 243 u[1] + 197 u[2] + 514 u[3] + 407 u[4]
   + 712 u[5] + 512 u[6] + 442 u[7] + 344 u[8] + 617 u[9] + 566 u[10]
   + 706 u[11] + 607 u[12] + 171 u[13] + 863 u[14] + 75 u[15] + 152 u[16]
   + 695 u[17] + 316 u[18] + 557 u[19] + 984 u[20] + 462 u[21] + 167 u[22]
   + 165 u[23] + 287 u[24] + 807 u[25] + 621 u[26] + 558 u[27] + 464 u[28]
   + 742 u[29] + 372 u[30] + 194 u[31] + 374 u[32] + 652 u[33] + 135 u[34]
   + 752 u[35] + 255 u[36] + 755 u[37] + 623 u[38] + 133 u[39] + 738 u[40]
   + 680 u[41] + 377 u[42] + 996 u[43] + 242 u[44] + 33 u[45] + 772 u[46]
   + 352 u[47] + 906 u[48] + 703 u[49] + 49 u[50] + 391 u[51] + 576 u[52]
   + 883 u[53] + 19 u[54] + 638 u[55] + 156 u[56] + 289 u[57] + 687 u[58]
   + 65 u[59] + 687 u[60] + 465 u[61] + 162 u[62] + 185 u[63] + 334 u[64]
   + 339 u[65] + 263 u[66] + 277 u[67] + 367 u[68] + 368 u[69] + 464 u[70]
   + 364 u[71] + 569 u[72] + 110 u[73] + 106 u[74] + 623 u[75] + 965 u[76]
   + 138 u[77] + 163 u[78] + 225 u[79] + 200 u[80] + 212 u[81] + 557 u[82]
   + 600 u[83] + 576 u[84] + 184 u[85] + 858 u[86] + 411 u[87] + 245 u[88]
   + 450 u[89] + 295 u[90] + 971 u[91] + 295 u[92] + 478 u[93] + 539 u[94]
   + 684 u[95] + 756 u[96] + 711 u[97] + 383 u[98] + 395 u[99] <= 996
 primal_lower24: 296 u[0] + 564 u[1] + 354 u[2] + 419 u[3] + 412 u[4]
   + 722 u[5] + 101 u[6] + 332 u[7] + 117 u[8] + 426 u[9] + 308 u[10]
   + 67 u[11] + 92 u[12] + 12 u[13] + 877 u[14] + 701 u[15] + 701 u[16]
   + 296 u[17] + 129 u[18] + 70 u[19] + 261 u[20] + 192 u[21] + 732 u[22]
   + 807 u[23] + 261 u[24] + 368 u[25] + 722 u[26] + 208 u[27] + 182 u[28]
   + 823 u[29] + 522 u[30] + 628 u[31] + 44 u[32] + 461 u[33] + 516 u[34]
   + 833 u[35] + 804 u[36] + 117 u[37] + 380 u[38] + 839 u[39] + 23 u[40]
   + 426 u[41] + 606 u[42] + 470 u[43] + 895 u[44] + 235 u[45] + 690 u[46]
   + 402 u[47] + 55 u[48] + 376 u[49] + 303 u[50] + 888 u[51] + 181 u[52]
   + 380 u[53] + 609 u[54] + 704 u[55] + 753 u[56] + 19 u[57] + 348 u[58]
   + 514 u[59] + 869 u[60] + 547 u[61] + 624 u[62] + 723 u[63] + 132 u[64]
   + 636 u[65] + 933 u[66] + 327 u[67] + 84 u[68] + 26 u[69] + 558 u[70]
   + 854 u[71] + 894 u[72] + 479 u[73] + 568 u[74] + 249 u[75] + 227 u[76]
   + 779 u[77] + 641 u[78] + 235 u[79] + 390 u[80] + 526 u[81] + 659 u[82]
   + 938 u[83] + 622 u[84] + 554 u[85] + 560 u[86] + 956 u[87] + 642 u[88]
   + 715 u[89] + 357 u[90] + 477 u[91] + 93 u[92] + 648 u[93] + 688 u[94]
   + 77 u[95] + 81 u[96] + 297 u[97] + 396 u[98] + 948 u[99] <= 956
 primal_lower25: 538 u[0] + 51 u[1] + 549 u[2] + 658 u[3] + 127 u[4]
   + 840 u[5] + 872 u[6] + 810 u[7] + 176 u[8] + 209 u[9] + 558 u[10]
   + 298 u[11] + 655 u[12] + 427 u[13] + 127 u[14] + 995 u[15] + 72 u[16]
   + 567 u[17] + 212 u[18] + 373 u[19] + 128 u[20] + 230 u[21] + 303 u[22]
   + 525 u[23] + 311 u[24] + 591 u[25] + 837 u[26] + 286 u[27] + 232 u[28]
   + 102 u[29] + 460 u[30] + 130 u[31] + 686 u[32] + 756 u[33] + 879 u[34]
   + 328 u[35] + 927 u[36] + 867 u[37] + 959 u[38] + 453 u[39] + 562 u[40]
   + 296 u[41] + 457 u[42] + 76 u[43] + 42 u[44] + 705 u[45] + 580 u[46]
   + 832 u[47] + 42 u[48] + 479 u[49] + 361 u[50] + 175 u[51] + 712 u[52]
   + 843 u[53] + 3 u[54] + 526 u[55] + 996 u[56] + 161 u[57] + 631 u[58]
   + 817 u[59] + 55 u[60] + 841 u[61] + 378 u[62] + 513 u[63] + 902 u[64]
   + 931 u[65] + 135 u[66] + 245 u[67] + 839 u[68] + 448 u[69] + 696 u[70]
   + 564 u[71] + 873 u[72] + 518 u[73] + 794 u[74] + 967 u[75] + 533 u[76]
   + 234 u[77] + 819 u[78] + 961 u[79] + 432 u[80] + 444 u[81] + 741 u[82]
   + 480 u[83] + 672 u[84] + 504 u[85] + 770 u[86] + 475 u[87] + 197 u[88]
   + 626 u[89] + 663 u[90] + 459 u[91] + 247 u[92] + 22 u[93] + 251 u[94]
   + 692 u[95] + 364 u[96] + 711 u[97] + 527 u[98] + 627 u[99] <= 996
 primal_lower26: 369 u[0] + 962 u[1] + 340 u[2] + 337 u[3] + 966 u[4]
   + 191 u[5] + 215 u[6] + 625 u[7] + 951 u[8] + 600 u[9] + 301 u[10]
   + 937 u[11] + 998 u[12] + 82 u[13] + 198 u[14] + 234 u[15] + 879 u[16]
   + 846 u[17] + 739 u[18] + 452 u[19] + 863 u[20] + 77 u[21] + 926 u[22]
   + 356 u[23] + 750 u[24] + 542 u[25] + 684 u[26] + 349 u[27] + 575 u[28]
   + 77 u[29] + 243 u[30] + 217 u[31] + 701 u[32] + 179 u[33] + 782 u[34]
   + 119 u[35] + 646 u[36] + 98 u[37] + 198 u[38] + 436 u[39] + 225 u[40]
   + 39 u[41] + 352 u[42] + 787 u[43] + 521 u[44] + 208 u[45] + 771 u[46]
   + 615 u[47] + 521 u[48] + 38 u[49] + 232 u[50] + 942 u[51] + 535 u[52]
   + 858 u[53] + 442 u[54] + 389 u[55] + 51 u[56] + 696 u[57] + 630 u[58]
   + 344 u[59] + 302 u[60] + 880 u[61] + 41 u[62] + 32 u[63] + 493 u[64]
   + 658 u[65] + 62 u[66] + 76 u[67] + 214 u[68] + 415 u[69] + 55 u[70]
   + 331 u[71] + 752 u[72] + 589 u[73] + u[74] + 670 u[75] + 332 u[76]
   + 113 u[77] + 130 u[78] + 376 u[79] + 487 u[80] + 899 u[81] + 492 u[82]
   + 439 u[83] + 535 u[84] + 519 u[85] + 537 u[86] + 538 u[87] + 500 u[88]
   + 257 u[89] + 734 u[90] + 474 u[91] + 654 u[92] + 637 u[93] + 946 u[94]
   + 411 u[95] + 483 u[96] + 118 u[97] + 478 u[98] + 842 u[99] <= 998
 primal_lower27: 348 u[0] + 901 u[1] + 223 u[2] + 812 u[3] + 897 u[4]
   + 738 u[5] + 642 u[6] + 940 u[7] + 226 u[8] + 43 u[9] + 784 u[10]
   + 332 u[11] + 345 u[12] + 13 u[13] + 625 u[14] + 949 u[15] + 442 u[16]
   + 729 u[17] + 134 u[18] + 15 u[19] + 746 u[20] + 96 u[21] + 601 u[22]
   + 495 u[23] + 353 u[24] + 697 u[25] + 839 u[26] + 808 u[27] + 130 u[28]
   + 656 u[29] + 950 u[30] + 100 u[31] + 376 u[32] + 854 u[33] + 793 u[34]
   + 666 u[35] + 409 u[36] + 141 u[37] + 25 u[38] + 807 u[39] + 244 u[40]
   + 410 u[41] + 739 u[42] + 750 u[43] + 812 u[44] + 531 u[45] + 918 u[46]
   + 58 u[47] + 532 u[48] + 129 u[49] + 459 u[50] + 769 u[51] + 378 u[52]
   + 565 u[53] + 525 u[54] + 296 u[55] + 54 u[56] + 507 u[57] + 345 u[58]
   + 299 u[59] + 393 u[60] + 819 u[61] + 420 u[62] + 851 u[63] + 208 u[64]
   + 661 u[65] + 585 u[66] + 183 u[67] + 345 u[68] + 82 u[69] + 282 u[70]
   + 510 u[71] + 467 u[72] + 488 u[73] + 956 u[74] + 145 u[75] + 967 u[76]
   + 780 u[77] + 53 u[78] + 963 u[79] + 706 u[80] + 782 u[81] + 127 u[82]
   + 810 u[83] + 362 u[84] + 274 u[85] + 548 u[86] + 77 u[87] + 519 u[88]
   + 612 u[89] + 553 u[90] + 597 u[91] + 641 u[92] + 768 u[93] + 461 u[94]
   + 22 u[95] + 6 u[96] + 353 u[97] + 441 u[98] + 949 u[99] <= 967
 primal_lower28: 575 u[0] + 96 u[1] + 202 u[2] + 327 u[3] + 596 u[4]
   + 741 u[5] + 197 u[6] + 847 u[7] + 237 u[8] + 702 u[9] + 883 u[10]
   + 111 u[11] + 388 u[12] + 560 u[13] + 92 u[14] + 296 u[15] + 357 u[16]
   + 380 u[17] + 49 u[18] + 226 u[19] + 213 u[20] + 499 u[21] + 372 u[22]
   + 882 u[23] + 980 u[24] + 196 u[25] + 282 u[26] + 315 u[27] + 845 u[28]
   + 827 u[29] + 657 u[30] + 159 u[31] + 35 u[32] + 193 u[33] + 620 u[34]
   + 45 u[35] + 524 u[36] + 392 u[37] + 860 u[38] + 938 u[39] + 807 u[40]
   + 149 u[41] + 454 u[42] + 873 u[43] + 503 u[44] + 14 u[45] + 617 u[46]
   + 333 u[47] + 471 u[48] + 396 u[49] + 942 u[50] + 796 u[51] + 53 u[52]
   + 200 u[53] + 144 u[54] + 995 u[55] + 265 u[56] + 182 u[57] + 716 u[58]
   + 278 u[59] + 924 u[60] + 430 u[61] + 279 u[62] + 86 u[63] + 531 u[64]
   + 272 u[65] + 76 u[66] + 570 u[67] + 500 u[68] + 189 u[69] + 861 u[70]
   + 529 u[71] + 774 u[72] + 539 u[73] + 639 u[74] + 620 u[75] + 650 u[76]
   + 111 u[77] + 984 u[78] + 254 u[79] + 581 u[80] + 329 u[81] + 986 u[82]
   + 861 u[83] + 701 u[84] + 541 u[85] + 191 u[86] + 184 u[87] + 642 u[88]
   + 167 u[89] + 76 u[90] + 856 u[91] + 924 u[92] + 619 u[93] + 848 u[94]
   + 137 u[95] + 289 u[96] + 492 u[97] + 620 u[98] + 48 u[99] <= 995
 primal_lower29: 533 u[0] + 174 u[1] + 808 u[2] + 981 u[3] + 978 u[4]
   + 219 u[5] + 747 u[6] + 541 u[7] + 91 u[8] + 348 u[9] + 41 u[10]
   + 533 u[11] + 802 u[12] + 686 u[13] + 106 u[14] + 118 u[15] + 283 u[16]
   + 714 u[17] + 783 u[18] + 64 u[19] + 139 u[20] + 809 u[21] + 826 u[22]
   + 536 u[23] + 930 u[24] + 434 u[25] + 104 u[26] + 137 u[27] + 739 u[28]
   + 961 u[29] + 295 u[30] + 613 u[31] + 321 u[32] + 975 u[33] + 546 u[34]
   + 659 u[35] + 858 u[36] + 86 u[37] + 58 u[38] + 496 u[39] + 149 u[40]
   + 275 u[41] + 652 u[42] + 519 u[43] + 277 u[44] + 404 u[45] + 799 u[46]
   + 323 u[47] + 445 u[48] + 298 u[49] + 964 u[50] + 610 u[51] + 67 u[52]
   + 998 u[53] + 982 u[54] + 601 u[55] + 383 u[56] + 556 u[57] + 738 u[58]
   + 716 u[59] + 418 u[60] + 572 u[61] + 965 u[62] + 876 u[63] + 185 u[64]
   + 814 u[65] + 250 u[66] + 768 u[67] + 626 u[68] + 507 u[69] + 323 u[70]
   + 487 u[71] + 348 u[72] + 953 u[73] + 21 u[74] + 354 u[75] + 656 u[76]
   + 93 u[77] + 854 u[78] + 412 u[79] + 323 u[80] + 951 u[81] + 480 u[82]
   + 59 u[83] + 115 u[84] + 819 u[85] + 517 u[86] + 726 u[87] + 824 u[88]
   + 725 u[89] + 2 u[90] + 550 u[91] + 882 u[92] + 617 u[93] + 606 u[94]
   + 575 u[95] + 599 u[96] + 258 u[97] + 34 u[98] + 222 u[99] <= 998
 primal_lower30: 202 u[0] + 502 u[1] + 716 u[2] + 301 u[3] + 758 u[4]
   + 220 u[5] + 535 u[6] + 350 u[7] + 31 u[8] + 180 u[9] + 814 u[10]
   + 437 u[11] + 214 u[12] + 230 u[13] + 327 u[14] + 855 u[15] + 551 u[16]
   + 650 u[17] + 779 u[18] + 32 u[19] + 439 u[20] + 314 u[21] + 782 u[22]
   + 353 u[23] + 951 u[24] + 770 u[25] + 468 u[26] + 914 u[27] + 592 u[28]
   + 481 u[29] + 804 u[30] + 894 u[31] + 158 u[32] + 847 u[33] + 422 u[34]
   + 75 u[35] + 158 u[36] + 991 u[37] + 126 u[38] + 601 u[39] + 289 u[40]
   + 388 u[41] + 464 u[42] + 64 u[43] + 113 u[44] + 205 u[45] + 444 u[46]
   + 372 u[47] + 985 u[48] + 322 u[49] + 273 u[50] + 58 u[51] + 431 u[52]
   + 678 u[53] + 227 u[54] + 906 u[55] + 195 u[56] + 53 u[57] + 158 u[58]
   + 652 u[59] + 583 u[60] + 21 u[61] + 802 u[62] + 685 u[63] + 38 u[64]
   + 766 u[65] + 927 u[66] + 729 u[67] + 150 u[68] + 596 u[69] + 328 u[70]
   + 576 u[71] + 984 u[72] + 889 u[73] + 10 u[74] + 75 u[75] + 637 u[76]
   + 853 u[77] + 779 u[78] + 69 u[79] + 64 u[80] + 744 u[81] + 925 u[82]
   + 396 u[83] + 40 u[84] + 4 u[85] + 282 u[86] + 646 u[87] + 620 u[88]
   + 309 u[89] + 751 u[90] + 119 u[91] + 951 u[92] + 714 u[93] + 778 u[94]
   + 303 u[95] + 659 u[96] + 819 u[97] + 558 u[98] + 286 u[99] <= 991
 primal_lower31: 373 u[0] + 406 u[1] + 696 u[2] + 237 u[3] + 546 u[4]
   + 443 u[5] + 739 u[6] + 557 u[7] + 603 u[8] + 76 u[9] + 345 u[10]
   + 501 u[11] + 146 u[12] + 966 u[13] + 754 u[14] + 358 u[15] + 787 u[16]
   + 906 u[17] + 759 u[18] + 736 u[19] + 331 u[20] + 233 u[21] + 794 u[22]
   + 600 u[23] + 610 u[24] + 626 u[25] + 904 u[26] + 281 u[27] + 419 u[28]
   + 353 u[29] + 151 u[30] + 685 u[31] + 305 u[32] + 319 u[33] + 978 u[34]
   + 651 u[35] + 130 u[36] + 758 u[37] + 234 u[38] + 304 u[39] + 877 u[40]
   + 435 u[41] + 284 u[42] + 751 u[43] + 957 u[44] + 740 u[45] + 791 u[46]
   + 227 u[47] + 93 u[48] + 114 u[49] + 468 u[50] + 434 u[51] + 779 u[52]
   + 558 u[53] + 742 u[54] + 217 u[55] + 23 u[56] + 276 u[57] + 642 u[58]
   + 756 u[59] + 50 u[60] + 276 u[61] + 269 u[62] + 396 u[63] + 393 u[64]
   + 822 u[65] + 354 u[66] + 688 u[67] + 666 u[68] + 619 u[69] + 155 u[70]
   + 823 u[71] + 52 u[72] + 297 u[73] + 261 u[74] + 250 u[75] + 672 u[76]
   + 453 u[77] + 654 u[78] + 604 u[79] + 11 u[80] + 847 u[81] + 712 u[82]
   + 651 u[83] + 155 u[84] + 251 u[85] + 493 u[86] + 990 u[87] + 480 u[88]
   + 333 u[89] + 234 u[90] + 262 u[91] + 802 u[92] + 41 u[93] + 518 u[94]
   + 655 u[95] + 463 u[96] + 274 u[97] + 458 u[98] + 238 u[99] <= 990
 primal_lower32: 170 u[0] + 478 u[1] + 60 u[2] + 373 u[3] + 62 u[4]
   + 852 u[5] + 999 u[6] + 614 u[7] + 583 u[8] + 212 u[9] + 230 u[10]
   + 277 u[11] + 750 u[12] + 758 u[13] + 327 u[14] + 431 u[15] + 151 u[16]
   + 666 u[17] + 899 u[18] + 880 u[19] + 767 u[20] + 82 u[21] + 470 u[22]
   + 337 u[23] + 31 u[24] + 322 u[25] + 908 u[26] + 458 u[27] + 296 u[28]
   + 425 u[29] + 668 u[30] + 502 u[31] + 878 u[32] + 247 u[33] + 118 u[34]
   + 995 u[35] + 750 u[36] + 71 u[37] + 846 u[38] + 305 u[39] + 465 u[40]
   + 116 u[41] + 704 u[42] + 592 u[43] + 681 u[44] + 717 u[45] + 796 u[46]
   + 252 u[47] + 105 u[48] + 826 u[49] + 201 u[50] + 498 u[51] + 183 u[52]
   + 494 u[53] + 475 u[54] + 962 u[55] + 187 u[56] + 917 u[57] + 246 u[58]
   + 788 u[59] + 71 u[60] + 93 u[61] + 898 u[62] + 533 u[63] + 718 u[64]
   + 718 u[65] + 399 u[66] + 201 u[67] + 326 u[68] + 820 u[69] + 928 u[70]
   + 816 u[71] + 696 u[72] + 633 u[73] + 746 u[74] + 155 u[75] + 117 u[76]
   + 773 u[77] + 627 u[78] + 277 u[79] + 32 u[80] + 216 u[81] + 789 u[82]
   + 708 u[83] + 920 u[84] + 492 u[85] + 546 u[86] + 638 u[87] + 644 u[88]
   + 925 u[89] + 735 u[90] + 103 u[91] + 583 u[92] + 738 u[93] + 394 u[94]
   + 215 u[95] + 419 u[96] + 867 u[97] + 462 u[98] + 966 u[99] <= 999
 primal_lower33: 186 u[0] + 467 u[1] + 381 u[2] + 434 u[3] + 631 u[4]
   + 552 u[5] + 728 u[6] + 482 u[7] + 576 u[8] + 585 u[9] + 246 u[10]
   + 242 u[11] + 255 u[12] + 155 u[13] + 527 u[14] + 859 u[15] + 728 u[16]
   + 311 u[17] + 300 u[18] + 381 u[19] + 608 u[20] + 750 u[21] + 487 u[22]
   + 821 u[23] + 487 u[24] + 143 u[25] + 13 u[26] + 982 u[27] + 272 u[28]
   + 750 u[29] + 788 u[30] + 106 u[31] + 414 u[32] + 836 u[33] + 359 u[34]
   + 376 u[35] + 95 u[36] + 651 u[37] + 759 u[38] + 117 u[39] + 490 u[40]
   + 120 u[41] + 217 u[42] + 724 u[43] + 882 u[44] + 513 u[45] + 908 u[46]
   + 192 u[47] + 242 u[48] + 351 u[49] + 225 u[50] + 807 u[51] + 600 u[52]
   + 75 u[53] + 315 u[54] + 550 u[55] + 508 u[56] + 161 u[57] + 895 u[58]
   + 193 u[59] + 303 u[60] + 849 u[61] + 418 u[62] + 745 u[63] + 918 u[64]
   + 731 u[65] + 543 u[66] + 269 u[67] + 583 u[68] + 72 u[69] + 968 u[70]
   + 956 u[71] + 457 u[72] + 150 u[73] + 298 u[74] + 871 u[75] + 581 u[76]
   + 82 u[77] + 963 u[78] + 817 u[79] + 72 u[80] + 124 u[81] + 221 u[82]
   + 664 u[83] + 104 u[84] + 904 u[85] + 530 u[86] + 779 u[87] + 581 u[88]
   + 978 u[89] + 719 u[90] + 43 u[91] + 207 u[92] + 454 u[93] + 51 u[94]
   + 596 u[95] + 260 u[96] + 439 u[97] + 503 u[98] + 795 u[99] <= 982
 primal_lower34: 182 u[0] + 826 u[1] + 320 u[2] + 73 u[3] + 338 u[4]
   + 752 u[5] + 3 u[6] + 922 u[7] + 107 u[8] + 528 u[9] + 186 u[10]
   + 193 u[11] + 818 u[12] + 250 u[13] + 379 u[14] + 835 u[15] + 27 u[16]
   + 646 u[17] + 927 u[18] + 20 u[19] + 739 u[20] + 950 u[21] + 58 u[22]
   + 293 u[23] + 427 u[24] + 878 u[25] + 232 u[26] + 790 u[27] + 388 u[28]
   + 477 u[29] + 832 u[30] + 938 u[31] + 474 u[32] + 363 u[33] + 194 u[34]
   + 55 u[35] + 306 u[36] + 787 u[37] + 34 u[38] + 589 u[39] + 789 u[40]
   + 328 u[41] + 516 u[42] + 652 u[43] + 445 u[44] + 865 u[45] + 120 u[46]
   + 168 u[47] + 701 u[48] + 22 u[49] + 733 u[50] + 862 u[51] + 427 u[52]
   + 370 u[53] + 263 u[54] + 214 u[55] + 391 u[56] + 705 u[57] + 970 u[58]
   + 544 u[59] + 355 u[60] + 537 u[61] + 22 u[62] + 417 u[63] + 522 u[64]
   + 330 u[65] + 771 u[66] + 213 u[67] + 490 u[68] + 792 u[69] + 28 u[70]
   + 660 u[71] + 444 u[72] + 141 u[73] + 342 u[74] + 407 u[75] + 217 u[76]
   + 313 u[77] + 591 u[78] + 865 u[79] + 588 u[80] + 180 u[81] + 105 u[82]
   + 688 u[83] + 948 u[84] + 512 u[85] + 606 u[86] + 746 u[87] + 624 u[88]
   + 761 u[89] + 11 u[90] + 915 u[91] + 355 u[92] + 558 u[93] + 558 u[94]
   + 323 u[95] + 391 u[96] + 695 u[97] + 634 u[98] + 762 u[99] <= 970
 primal_lower35: 860 u[0] + 373 u[1] + 999 u[2] + 172 u[3] + 273 u[4]
   + 698 u[5] + 682 u[6] + 404 u[7] + 194 u[8] + 43 u[9] + 576 u[10]
   + 492 u[11] + 801 u[12] + 709 u[13] + 153 u[14] + 741 u[15] + 362 u[16]
   + 553 u[17] + 926 u[18] + 695 u[19] + 434 u[20] + 408 u[21] + 969 u[22]
   + 167 u[23] + 481 u[24] + 601 u[25] + 359 u[26] + 728 u[27] + 42 u[28]
   + 584 u[29] + 166 u[30] + 60 u[31] + 592 u[32] + 78 u[33] + 497 u[34]
   + 938 u[35] + 433 u[36] + 205 u[37] + 257 u[38] + 751 u[39] + 636 u[40]
   + 346 u[41] + 507 u[42] + 822 u[43] + 164 u[44] + 619 u[45] + 214 u[46]
   + 450 u[47] + 724 u[48] + 449 u[49] + 347 u[50] + 169 u[51] + 74 u[52]
   + 29 u[53] + 701 u[54] + 16 u[55] + 286 u[56] + 379 u[57] + 689 u[58]
   + 467 u[59] + 529 u[60] + 675 u[61] + 172 u[62] + 179 u[63] + 608 u[64]
   + 997 u[65] + 793 u[66] + 591 u[67] + 569 u[68] + 178 u[69] + 378 u[70]
   + 558 u[71] + 515 u[72] + 200 u[73] + 596 u[74] + 65 u[75] + 111 u[76]
   + 436 u[77] + 525 u[78] + 67 u[79] + 426 u[80] + 662 u[81] + 615 u[82]
   + 330 u[83] + 490 u[84] + 842 u[85] + 524 u[86] + 749 u[87] + 119 u[88]
   + 852 u[89] + 673 u[90] + 957 u[91] + 225 u[92] + 896 u[93] + 533 u[94]
   + 406 u[95] + 990 u[96] + 489 u[97] + 921 u[98] + 173 u[99] <= 999
 primal_lower36: 647 u[0] + 275 u[1] + 945 u[2] + 442 u[3] + 227 u[4]
   + 305 u[5] + 404 u[6] + 427 u[7] + 100 u[8] + 9 u[9] + 899 u[10]
   + 274 u[11] + 355 u[12] + 971 u[13] + 204 u[14] + 668 u[15] + 12 u[16]
   + 575 u[17] + 280 u[18] + 517 u[19] + 884 u[20] + 7 u[21] + 763 u[22]
   + 310 u[23] + 940 u[24] + 55 u[25] + 753 u[26] + 567 u[27] + 317 u[28]
   + 702 u[29] + 689 u[30] + 187 u[31] + 347 u[32] + 428 u[33] + 795 u[34]
   + 376 u[35] + 331 u[36] + 708 u[37] + 251 u[38] + 174 u[39] + 774 u[40]
   + 953 u[41] + 957 u[42] + 677 u[43] + 270 u[44] + 874 u[45] + 337 u[46]
   + 641 u[47] + 758 u[48] + 623 u[49] + 838 u[50] + 295 u[51] + 572 u[52]
   + 803 u[53] + 264 u[54] + 431 u[55] + 736 u[56] + 138 u[57] + 91 u[58]
   + 313 u[59] + 76 u[60] + 794 u[61] + 575 u[62] + 810 u[63] + 195 u[64]
   + 763 u[65] + 860 u[66] + 262 u[67] + 3 u[68] + 73 u[69] + 213 u[70]
   + 317 u[71] + 45 u[72] + 798 u[73] + 351 u[74] + 184 u[75] + 178 u[76]
   + 650 u[77] + 856 u[78] + 922 u[79] + 605 u[80] + 605 u[81] + 866 u[82]
   + 777 u[83] + 469 u[84] + 377 u[85] + 503 u[86] + 795 u[87] + 57 u[88]
   + 314 u[89] + 556 u[90] + 324 u[91] + 164 u[92] + 415 u[93] + 135 u[94]
   + 348 u[95] + 176 u[96] + 912 u[97] + 483 u[98] + 779 u[99] <= 971
 primal_lower37: 548 u[0] + 461 u[1] + 319 u[2] + 628 u[3] + 281 u[4]
   + 786 u[5] + 954 u[6] + 484 u[7] + 322 u[8] + 699 u[9] + 176 u[10]
   + 500 u[11] + 225 u[12] + 533 u[13] + 681 u[14] + 165 u[15] + 946 u[16]
   + 729 u[17] + 406 u[18] + 79 u[19] + 522 u[20] + 992 u[21] + 65 u[22]
   + 583 u[23] + 345 u[24] + 785 u[25] + 599 u[26] + 448 u[27] + 226 u[28]
   + 688 u[29] + 478 u[30] + 164 u[31] + 968 u[32] + 598 u[33] + 305 u[34]
   + 986 u[35] + 753 u[36] + 189 u[37] + 113 u[38] + 319 u[39] + 268 u[40]
   + 394 u[41] + 827 u[42] + 702 u[43] + 732 u[44] + 659 u[45] + 30 u[46]
   + 258 u[47] + 524 u[48] + 73 u[49] + 667 u[50] + 225 u[51] + 994 u[52]
   + 13 u[53] + 197 u[54] + 24 u[55] + 78 u[56] + 147 u[57] + 929 u[58]
   + 995 u[59] + 65 u[60] + 339 u[61] + 500 u[62] + 467 u[63] + 136 u[64]
   + 453 u[65] + 481 u[66] + 663 u[67] + 393 u[68] + 746 u[69] + 42 u[70]
   + 182 u[71] + 499 u[72] + 640 u[73] + 60 u[74] + 713 u[75] + 447 u[76]
   + 404 u[77] + 637 u[78] + 507 u[79] + 338 u[80] + 326 u[81] + 807 u[82]
   + 594 u[83] + 290 u[84] + 650 u[85] + 116 u[86] + 557 u[87] + 895 u[88]
   + 132 u[89] + 769 u[90] + 933 u[91] + 241 u[92] + 456 u[93] + 861 u[94]
   + 854 u[95] + 710 u[96] + 945 u[97] + 97 u[98] + 973 u[99] <= 995
 primal_lower38: 867 u[0] + 759 u[1] + 133 u[2] + 478 u[3] + 663 u[4]
   + 589 u[5] + 120 u[6] + 543 u[7] + 248 u[8] + 133 u[9] + 695 u[10]
   + 774 u[11] + 799 u[12] + 311 u[13] + 440 u[14] + 784 u[15] + 808 u[16]
   + 827 u[17] + 388 u[18] + 329 u[19] + 432 u[20] + 611 u[21] + 255 u[22]
   + 586 u[23] + 656 u[24] + 699 u[25] + 781 u[26] + 35 u[27] + 617 u[28]
   + 162 u[29] + 349 u[30] + 167 u[31] + 295 u[32] + 504 u[33] + 7 u[34]
   + 940 u[35] + 151 u[36] + 320 u[37] + 759 u[38] + 986 u[39] + 74 u[40]
   + 861 u[41] + 817 u[42] + 729 u[43] + 338 u[44] + 134 u[45] + 85 u[46]
   + 693 u[47] + 922 u[48] + 275 u[49] + 890 u[50] + 203 u[51] + 576 u[52]
   + 103 u[53] + 956 u[54] + 955 u[55] + 700 u[56] + 678 u[57] + 855 u[58]
   + 397 u[59] + 496 u[60] + 358 u[61] + 707 u[62] + 14 u[63] + 295 u[64]
   + 535 u[65] + 312 u[66] + 922 u[67] + 511 u[68] + 733 u[69] + 465 u[70]
   + 761 u[71] + 241 u[72] + 818 u[73] + 539 u[74] + 572 u[75] + 598 u[76]
   + 46 u[77] + 204 u[78] + 190 u[79] + 297 u[80] + 561 u[81] + 510 u[82]
   + 13 u[83] + 297 u[84] + 21 u[85] + 35 u[86] + 375 u[87] + 173 u[88]
   + 766 u[89] + 328 u[90] + 144 u[91] + 952 u[92] + 283 u[93] + 99 u[94]
   + 32 u[95] + 988 u[96] + 388 u[97] + 759 u[98] + 927 u[99] <= 988
 primal_lower39: 920 u[0] + 140 u[1] + 682 u[2] + 379 u[3] + 196 u[4]
   + 426 u[5] + 869 u[6] + 860 u[7] + 781 u[8] + 554 u[9] + 436 u[10]
   + 755 u[11] + 468 u[12] + 956 u[13] + 61 u[14] + 77 u[15] + 637 u[16]
   + 448 u[17] + 449 u[18] + 222 u[19] + 37 u[20] + 328 u[21] + 364 u[22]
   + 543 u[23] + 261 u[24] + 112 u[25] + 234 u[26] + 592 u[27] + 982 u[28]
   + 671 u[29] + 794 u[30] + 796 u[31] + 52 u[32] + 397 u[33] + 452 u[34]
   + 121 u[35] + 228 u[36] + 453 u[37] + 580 u[38] + 191 u[39] + 7 u[40]
   + 266 u[41] + 862 u[42] + 494 u[43] + 391 u[44] + 83 u[45] + 114 u[46]
   + 834 u[47] + 455 u[48] + 880 u[49] + 143 u[50] + 704 u[51] + 437 u[52]
   + 236 u[53] + 841 u[54] + 944 u[55] + 305 u[56] + 315 u[57] + 820 u[58]
   + 634 u[59] + 901 u[60] + 395 u[61] + 712 u[62] + 259 u[63] + 500 u[64]
   + 468 u[65] + 77 u[66] + 199 u[67] + 700 u[68] + 450 u[69] + 430 u[70]
   + 198 u[71] + 326 u[72] + 191 u[73] + 936 u[74] + 425 u[75] + 851 u[76]
   + 419 u[77] + 593 u[78] + 707 u[79] + 430 u[80] + 366 u[81] + 123 u[82]
   + 330 u[83] + 438 u[84] + 842 u[85] + 352 u[86] + 212 u[87] + 466 u[88]
   + 347 u[89] + 477 u[90] + 237 u[91] + 821 u[92] + 912 u[93] + 24 u[94]
   + 13 u[95] + 809 u[96] + 961 u[97] + 620 u[98] + 492 u[99] <= 982
 primal_lower40: 530 u[0] + 574 u[1] + 484 u[2] + 885 u[3] + 926 u[4]
   + 596 u[5] + 927 u[6] + 254 u[7] + 751 u[8] + 916 u[9] + 878 u[10]
   + 53 u[11] + 158 u[12] + 374 u[13] + 263 u[14] + 647 u[15] + 663 u[16]
   + 274 u[17] + 875 u[18] + 208 u[19] + 631 u[20] + 386 u[21] + 94 u[22]
   + 185 u[23] + 839 u[24] + 698 u[25] + 708 u[26] + 258 u[27] + 528 u[28]
   + 577 u[29] + 180 u[30] + 614 u[31] + 206 u[32] + 95 u[33] + 806 u[34]
   + 763 u[35] + 846 u[36] + 735 u[37] + 462 u[38] + 49 u[39] + 97 u[40]
   + 916 u[41] + 208 u[42] + 320 u[43] + 785 u[44] + 781 u[45] + 884 u[46]
   + 92 u[47] + 361 u[48] + 354 u[49] + 65 u[50] + 770 u[51] + 351 u[52]
   + 54 u[53] + 979 u[54] + 378 u[55] + 603 u[56] + 565 u[57] + 294 u[58]
   + 228 u[59] + 239 u[60] + 869 u[61] + 18 u[62] + 477 u[63] + 190 u[64]
   + 830 u[65] + 751 u[66] + 785 u[67] + 238 u[68] + 788 u[69] + 456 u[70]
   + 984 u[71] + 224 u[72] + 993 u[73] + 298 u[74] + 755 u[75] + 93 u[76]
   + 477 u[77] + 91 u[78] + 181 u[79] + 312 u[80] + 504 u[81] + 181 u[82]
   + 836 u[83] + 944 u[84] + 804 u[85] + 778 u[86] + 718 u[87] + 116 u[88]
   + 293 u[89] + 167 u[90] + 287 u[91] + 263 u[92] + 986 u[93] + 458 u[94]
   + 151 u[95] + 59 u[96] + 515 u[97] + 574 u[98] + 430 u[99] <= 993
 primal_lower41: 397 u[0] + 574 u[1] + 384 u[2] + 685 u[3] + 730 u[4]
   + 59 u[5] + 131 u[6] + 309 u[7] + 843 u[8] + 540 u[9] + 177 u[10]
   + 613 u[11] + 466 u[12] + 718 u[13] + 122 u[14] + 118 u[15] + 315 u[16]
   + 994 u[17] + 911 u[18] + 640 u[19] + 267 u[20] + 753 u[21] + 298 u[22]
   + 936 u[23] + 818 u[24] + 26 u[25] + 400 u[26] + 721 u[27] + 643 u[28]
   + 721 u[29] + 135 u[30] + 797 u[31] + 81 u[32] + 79 u[33] + 874 u[34]
   + 235 u[35] + 154 u[36] + 798 u[37] + 450 u[38] + 336 u[39] + 21 u[40]
   + 947 u[41] + 540 u[42] + 167 u[43] + 797 u[44] + 92 u[45] + 719 u[46]
   + 555 u[47] + 613 u[48] + 634 u[49] + 324 u[50] + 626 u[51] + 771 u[52]
   + 430 u[53] + 830 u[54] + 561 u[55] + 151 u[56] + 732 u[57] + 562 u[58]
   + 780 u[59] + 690 u[60] + 764 u[61] + 309 u[62] + 244 u[63] + 217 u[64]
   + 246 u[65] + 890 u[66] + 880 u[67] + 962 u[68] + 795 u[69] + 547 u[70]
   + 487 u[71] + 804 u[72] + 553 u[73] + 189 u[74] + 570 u[75] + 712 u[76]
   + 677 u[77] + 894 u[78] + 276 u[79] + 811 u[80] + 111 u[81] + 712 u[82]
   + 491 u[83] + 515 u[84] + 443 u[85] + 885 u[86] + 390 u[87] + 976 u[88]
   + 701 u[89] + 738 u[90] + 166 u[91] + 986 u[92] + 577 u[93] + 742 u[94]
   + 831 u[95] + 983 u[96] + 178 u[97] + 858 u[98] + 270 u[99] <= 994
 primal_lower42: 588 u[0] + 864 u[1] + 910 u[2] + 807 u[3] + 40 u[4]
   + 942 u[5] + 497 u[6] + 664 u[7] + 673 u[8] + 854 u[9] + 192 u[10]
   + 783 u[11] + 896 u[12] + 312 u[13] + 409 u[14] + 185 u[15] + 969 u[16]
   + 188 u[17] + 549 u[18] + 954 u[19] + 593 u[20] + 612 u[21] + 256 u[22]
   + 931 u[23] + 585 u[24] + 52 u[25] + 734 u[26] + 948 u[27] + 594 u[28]
   + 931 u[29] + 534 u[30] + 952 u[31] + 864 u[32] + 81 u[33] + 456 u[34]
   + 461 u[35] + 968 u[36] + 753 u[37] + 744 u[38] + 355 u[39] + 803 u[40]
   + 982 u[41] + 394 u[42] + 914 u[43] + 547 u[44] + 207 u[45] + 222 u[46]
   + 94 u[47] + 11 u[48] + 828 u[49] + 987 u[50] + 420 u[51] + 649 u[52]
   + 168 u[53] + 621 u[54] + 812 u[55] + 485 u[56] + 519 u[57] + 384 u[58]
   + 254 u[59] + 33 u[60] + 143 u[61] + 164 u[62] + 359 u[63] + 136 u[64]
   + 824 u[65] + 329 u[66] + 915 u[67] + 680 u[68] + 854 u[69] + 802 u[70]
   + 874 u[71] + 298 u[72] + 763 u[73] + 116 u[74] + 317 u[75] + 783 u[76]
   + 903 u[77] + 933 u[78] + 903 u[79] + 914 u[80] + 114 u[81] + 887 u[82]
   + 182 u[83] + 746 u[84] + 558 u[85] + 788 u[86] + 168 u[87] + 270 u[88]
   + 471 u[89] + 49 u[90] + 281 u[91] + 513 u[92] + 300 u[93] + 916 u[94]
   + 657 u[95] + 197 u[96] + 173 u[97] + 752 u[98] + 984 u[99] <= 987
 primal_lower43: 973 u[0] + 574 u[1] + 872 u[2] + 485 u[3] + 10 u[4]
   + 91 u[5] + 347 u[6] + 389 u[7] + 603 u[8] + 276 u[9] + 777 u[10]
   + 949 u[11] + 10 u[12] + 510 u[13] + 946 u[14] + 78 u[15] + 163 u[16]
   + 890 u[17] + 335 u[18] + 416 u[19] + 619 u[20] + 689 u[21] + 754 u[22]
   + 240 u[23] + 506 u[24] + 514 u[25] + 904 u[26] + 985 u[27] + 563 u[28]
   + 841 u[29] + 583 u[30] + 389 u[31] + 249 u[32] + 375 u[33] + 146 u[34]
   + 123 u[35] + 914 u[36] + 158 u[37] + 370 u[38] + 824 u[39] + 981 u[40]
   + 123 u[41] + 244 u[42] + 599 u[43] + 373 u[44] + 244 u[45] + 687 u[46]
   + 707 u[47] + 5 u[48] + 690 u[49] + 348 u[50] + 354 u[51] + 971 u[52]
   + 46 u[53] + 110 u[54] + 649 u[55] + 599 u[56] + 356 u[57] + 226 u[58]
   + 420 u[59] + 978 u[60] + 956 u[61] + 917 u[62] + 492 u[63] + 801 u[64]
   + 270 u[65] + 602 u[66] + 984 u[67] + 98 u[68] + 643 u[69] + 35 u[70]
   + 503 u[71] + 36 u[72] + 665 u[73] + 221 u[74] + 850 u[75] + 408 u[76]
   + 949 u[77] + 782 u[78] + 612 u[79] + 515 u[80] + 303 u[81] + 400 u[82]
   + 755 u[83] + 379 u[84] + 675 u[85] + 397 u[86] + 486 u[87] + 24 u[88]
   + 429 u[89] + 98 u[90] + 198 u[91] + 450 u[92] + 201 u[93] + 726 u[94]
   + 975 u[95] + 791 u[96] + 746 u[97] + 58 u[98] + 998 u[99] <= 998
 primal_lower44: 163 u[0] + 500 u[1] + 182 u[2] + 363 u[3] + 328 u[4]
   + 737 u[5] + 705 u[6] + 683 u[7] + 809 u[8] + 330 u[9] + 831 u[10]
   + 371 u[11] + 648 u[12] + 564 u[13] + 368 u[14] + 220 u[15] + 913 u[16]
   + 352 u[17] + 669 u[18] + 254 u[19] + 137 u[20] + 487 u[21] + 816 u[22]
   + 758 u[23] + 472 u[24] + 600 u[25] + 198 u[26] + 839 u[27] + 89 u[28]
   + 591 u[29] + 261 u[30] + 963 u[31] + 487 u[32] + 693 u[33] + 920 u[34]
   + 697 u[35] + 976 u[36] + 20 u[37] + 800 u[38] + 510 u[39] + 963 u[40]
   + 401 u[41] + 50 u[42] + 981 u[43] + 683 u[44] + 58 u[45] + 869 u[46]
   + 81 u[47] + 195 u[48] + 792 u[49] + 650 u[50] + 736 u[51] + 577 u[52]
   + 532 u[53] + 596 u[54] + 119 u[55] + 957 u[56] + 610 u[57] + 160 u[58]
   + 202 u[59] + 752 u[60] + 122 u[61] + 595 u[62] + 682 u[63] + 639 u[64]
   + 212 u[65] + 360 u[66] + 158 u[67] + 776 u[68] + 433 u[69] + 449 u[70]
   + 477 u[71] + 946 u[72] + 791 u[73] + 627 u[74] + 24 u[75] + 278 u[76]
   + 627 u[77] + 820 u[78] + 146 u[79] + 713 u[80] + 189 u[81] + 670 u[82]
   + 409 u[83] + 417 u[84] + 801 u[85] + 659 u[86] + 468 u[87] + 918 u[88]
   + 907 u[89] + 176 u[90] + 900 u[91] + 688 u[92] + 783 u[93] + 716 u[94]
   + 965 u[95] + 405 u[96] + 872 u[97] + 784 u[98] + 700 u[99] <= 981
 primal_lower45: 58 u[0] + 478 u[1] + 676 u[2] + 245 u[3] + 590 u[4]
   + 452 u[5] + 319 u[6] + 774 u[7] + 455 u[8] + 188 u[9] + 254 u[10]
   + 677 u[11] + 254 u[12] + 118 u[13] + 551 u[14] + 407 u[15] + 871 u[16]
   + 266 u[17] + 395 u[18] + 936 u[19] + 855 u[20] + 250 u[21] + 518 u[22]
   + 345 u[23] + 7 u[24] + 458 u[25] + 44 u[26] + 498 u[27] + 816 u[28]
   + 377 u[29] + 516 u[30] + 142 u[31] + 878 u[32] + 375 u[33] + 734 u[34]
   + 907 u[35] + 174 u[36] + 527 u[37] + 990 u[38] + 465 u[39] + 737 u[40]
   + 324 u[41] + 248 u[42] + 488 u[43] + 113 u[44] + 989 u[45] + 212 u[46]
   + 404 u[47] + 297 u[48] + 354 u[49] + 481 u[50] + 818 u[51] + 255 u[52]
   + 806 u[53] + 243 u[54] + 242 u[55] + 451 u[56] + 37 u[57] + 86 u[58]
   + 868 u[59] + 711 u[60] + 765 u[61] + 370 u[62] + 5 u[63] + 262 u[64]
   + 158 u[65] + 943 u[66] + 889 u[67] + 286 u[68] + 84 u[69] + 952 u[70]
   + 864 u[71] + 224 u[72] + 873 u[73] + 570 u[74] + 843 u[75] + 557 u[76]
   + 837 u[77] + 275 u[78] + 349 u[79] + 768 u[80] + 96 u[81] + 453 u[82]
   + 868 u[83] + 704 u[84] + 940 u[85] + 194 u[86] + 182 u[87] + 764 u[88]
   + 645 u[89] + 463 u[90] + 431 u[91] + 831 u[92] + 298 u[93] + 90 u[94]
   + 191 u[95] + 899 u[96] + 755 u[97] + 6 u[98] + 270 u[99] <= 990
 primal_lower46: 256 u[0] + 628 u[1] + 226 u[2] + 827 u[3] + 572 u[4]
   + 26 u[5] + 357 u[6] + 660 u[7] + 333 u[8] + 522 u[9] + 4 u[10]
   + 771 u[11] + 124 u[12] + 172 u[13] + 821 u[14] + 925 u[15] + 661 u[16]
   + 976 u[17] + 729 u[18] + 934 u[19] + 397 u[20] + 712 u[21] + 116 u[22]
   + 599 u[23] + 237 u[24] + 208 u[25] + 66 u[26] + 224 u[27] + 814 u[28]
   + 847 u[29] + 74 u[30] + 380 u[31] + 588 u[32] + 173 u[33] + 140 u[34]
   + 33 u[35] + 388 u[36] + 765 u[37] + 708 u[38] + 799 u[39] + 743 u[40]
   + 338 u[41] + 902 u[42] + 446 u[43] + 199 u[44] + 819 u[45] + 202 u[46]
   + 842 u[47] + 119 u[48] + 304 u[49] + 519 u[50] + 896 u[51] + 293 u[52]
   + 724 u[53] + 945 u[54] + 864 u[55] + 729 u[56] + 651 u[57] + 644 u[58]
   + 530 u[59] + 773 u[60] + 619 u[61] + 776 u[62] + 947 u[63] + 44 u[64]
   + 228 u[65] + 13 u[66] + 607 u[67] + 932 u[68] + 266 u[69] + 766 u[70]
   + 334 u[71] + 446 u[72] + 295 u[73] + 360 u[74] + 577 u[75] + 323 u[76]
   + 803 u[77] + 809 u[78] + 611 u[79] + 542 u[80] + 886 u[81] + 51 u[82]
   + 658 u[83] + 318 u[84] + 138 u[85] + 192 u[86] + 140 u[87] + 826 u[88]
   + 931 u[89] + 821 u[90] + 69 u[91] + 565 u[92] + 16 u[93] + 992 u[94]
   + 821 u[95] + 897 u[96] + 537 u[97] + 908 u[98] + 740 u[99] <= 992
 primal_lower47: 609 u[0] + 565 u[1] + 515 u[2] + 164 u[3] + 21 u[4]
   + 899 u[5] + 70 u[6] + 917 u[7] + 398 u[8] + 923 u[9] + 573 u[10]
   + 740 u[11] + 45 u[12] + 669 u[13] + 326 u[14] + 446 u[15] + 102 u[16]
   + 369 u[17] + 586 u[18] + 799 u[19] + 110 u[20] + 793 u[21] + 53 u[22]
   + 408 u[23] + 998 u[24] + 137 u[25] + 715 u[26] + 377 u[27] + 655 u[28]
   + 80 u[29] + 155 u[30] + 573 u[31] + 789 u[32] + 670 u[33] + 221 u[34]
   + 242 u[35] + 757 u[36] + 14 u[37] + 741 u[38] + 120 u[39] + 32 u[40]
   + 59 u[41] + 111 u[42] + 695 u[43] + 816 u[44] + 124 u[45] + 523 u[46]
   + 899 u[47] + 568 u[48] + 897 u[49] + 464 u[50] + 825 u[51] + 462 u[52]
   + 21 u[53] + 794 u[54] + 825 u[55] + 842 u[56] + 52 u[57] + 501 u[58]
   + 651 u[59] + 574 u[60] + 908 u[61] + 777 u[62] + 580 u[63] + 221 u[64]
   + 421 u[65] + 798 u[66] + 392 u[67] + 533 u[68] + 803 u[69] + 767 u[70]
   + 279 u[71] + 711 u[72] + 888 u[73] + 337 u[74] + 154 u[75] + 972 u[76]
   + 500 u[77] + 474 u[78] + 372 u[79] + 943 u[80] + 495 u[81] + 244 u[82]
   + 347 u[83] + 263 u[84] + 475 u[85] + 913 u[86] + 221 u[87] + 211 u[88]
   + 772 u[89] + 206 u[90] + 894 u[91] + 558 u[92] + 713 u[93] + 753 u[94]
   + 430 u[95] + 962 u[96] + 466 u[97] + 317 u[98] + 693 u[99] <= 998
 primal_lower48: 923 u[0] + 407 u[1] + 117 u[2] + 766 u[3] + 879 u[4]
   + 893 u[5] + 184 u[6] + 911 u[7] + 992 u[8] + 997 u[9] + 503 u[10]
   + 278 u[11] + 727 u[12] + 279 u[13] + 544 u[14] + 184 u[15] + 848 u[16]
   + 787 u[17] + 428 u[18] + 145 u[19] + 296 u[20] + 971 u[21] + 775 u[22]
   + 218 u[23] + 312 u[24] + 883 u[25] + 237 u[26] + 699 u[27] + 361 u[28]
   + 106 u[29] + 933 u[30] + 599 u[31] + 967 u[32] + 520 u[33] + 871 u[34]
   + 212 u[35] + 655 u[36] + 624 u[37] + 871 u[38] + 450 u[39] + 810 u[40]
   + 701 u[41] + 785 u[42] + 601 u[43] + 578 u[44] + 582 u[45] + 45 u[46]
   + 445 u[47] + 850 u[48] + 611 u[49] + 954 u[50] + 523 u[51] + 672 u[52]
   + 871 u[53] + 276 u[54] + 291 u[55] + 772 u[56] + 870 u[57] + 415 u[58]
   + 925 u[59] + 264 u[60] + 46 u[61] + 211 u[62] + 734 u[63] + 823 u[64]
   + 951 u[65] + 824 u[66] + 314 u[67] + 87 u[68] + 501 u[69] + 657 u[70]
   + 473 u[71] + 329 u[72] + 706 u[73] + 171 u[74] + 932 u[75] + 774 u[76]
   + 398 u[77] + 460 u[78] + 310 u[79] + 89 u[80] + 201 u[81] + 734 u[82]
   + 933 u[83] + 329 u[84] + 925 u[85] + 507 u[86] + 287 u[87] + 877 u[88]
   + 182 u[89] + 536 u[90] + 80 u[91] + 168 u[92] + 491 u[93] + 683 u[94]
   + 200 u[95] + 300 u[96] + 468 u[97] + 351 u[98] + 47 u[99] <= 997
 primal_lower49: 664 u[0] + 809 u[1] + 579 u[2] + 616 u[3] + 557 u[4]
   + 398 u[5] + 894 u[6] + 32 u[7] + 558 u[8] + 159 u[9] + 364 u[10]
   + 344 u[11] + 573 u[12] + 593 u[13] + 309 u[14] + 481 u[15] + 70 u[16]
   + 549 u[17] + 242 u[18] + 891 u[19] + 918 u[20] + 276 u[21] + 901 u[22]
   + 899 u[23] + 333 u[24] + 165 u[25] + 491 u[26] + 940 u[27] + 366 u[28]
   + 100 u[29] + 218 u[30] + 960 u[31] + 4 u[32] + 402 u[33] + 405 u[34]
   + 14 u[35] + 21 u[36] + 321 u[37] + 381 u[38] + 971 u[39] + 16 u[40]
   + 502 u[41] + 439 u[42] + 90 u[43] + 120 u[44] + 591 u[45] + 482 u[46]
   + 806 u[47] + 544 u[48] + 613 u[49] + 671 u[50] + 973 u[51] + 46 u[52]
   + 913 u[53] + 265 u[54] + 196 u[55] + 682 u[56] + 975 u[57] + 669 u[58]
   + 831 u[59] + 165 u[60] + 847 u[61] + 136 u[62] + 79 u[63] + 780 u[64]
   + 961 u[65] + 389 u[66] + 139 u[67] + 989 u[68] + 294 u[69] + 718 u[70]
   + 794 u[71] + 847 u[72] + 732 u[73] + 576 u[74] + 765 u[75] + 339 u[76]
   + 696 u[77] + u[78] + 887 u[79] + 70 u[80] + 802 u[81] + 163 u[82]
   + 414 u[83] + 838 u[84] + 718 u[85] + 776 u[86] + 129 u[87] + 571 u[88]
   + 752 u[89] + 173 u[90] + 673 u[91] + 933 u[92] + 260 u[93] + 353 u[94]
   + 242 u[95] + 978 u[96] + 525 u[97] + 717 u[98] + 729 u[99] <= 989
 primal_lower50: 882 u[0] + 782 u[1] + 532 u[2] + 541 u[3] + 390 u[4]
   + 996 u[5] + 431 u[6] + 390 u[7] + 375 u[8] + 796 u[9] + 334 u[10]
   + 525 u[11] + 686 u[12] + 790 u[13] + 39 u[14] + 511 u[15] + 295 u[16]
   + 10 u[17] + 931 u[18] + 928 u[19] + 343 u[20] + 346 u[21] + 46 u[22]
   + 849 u[23] + 807 u[24] + 554 u[25] + 660 u[26] + 666 u[27] + 328 u[28]
   + 889 u[29] + 820 u[30] + 262 u[31] + 510 u[32] + 455 u[33] + 886 u[34]
   + 859 u[35] + 902 u[36] + 799 u[37] + 766 u[38] + 897 u[39] + 785 u[40]
   + 124 u[41] + 320 u[42] + 648 u[43] + 521 u[44] + 293 u[45] + 948 u[46]
   + 12 u[47] + 393 u[48] + 570 u[49] + 481 u[50] + 258 u[51] + 167 u[52]
   + 846 u[53] + 27 u[54] + 778 u[55] + 571 u[56] + 93 u[57] + 374 u[58]
   + 580 u[59] + 903 u[60] + 117 u[61] + 666 u[62] + 261 u[63] + 590 u[64]
   + 750 u[65] + 983 u[66] + 849 u[67] + 142 u[68] + 788 u[69] + 584 u[70]
   + 104 u[71] + 128 u[72] + 417 u[73] + 618 u[74] + 571 u[75] + 149 u[76]
   + 885 u[77] + 563 u[78] + 181 u[79] + 480 u[80] + 264 u[81] + 757 u[82]
   + 68 u[83] + 504 u[84] + 164 u[85] + 26 u[86] + 14 u[87] + 892 u[88]
   + 741 u[89] + 279 u[90] + 903 u[91] + 487 u[92] + 210 u[93] + 42 u[94]
   + 87 u[95] + 539 u[96] + 323 u[97] + 262 u[98] + 550 u[99] <= 996
 primal_lower51: 447 u[0] + 56 u[1] + 970 u[2] + 63 u[3] + 900 u[4]
   + 933 u[5] + 893 u[6] + 511 u[7] + 837 u[8] + 502 u[9] + 323 u[10]
   + 23 u[11] + 644 u[12] + 824 u[13] + 116 u[14] + 184 u[15] + 461 u[16]
   + 36 u[17] + 521 u[18] + 554 u[19] + 69 u[20] + 459 u[21] + 564 u[22]
   + 74 u[23] + 484 u[24] + 524 u[25] + 594 u[26] + 163 u[27] + 813 u[28]
   + 51 u[29] + 633 u[30] + 119 u[31] + 147 u[32] + 169 u[33] + 12 u[34]
   + 469 u[35] + 580 u[36] + 112 u[37] + 756 u[38] + 954 u[39] + 423 u[40]
   + 885 u[41] + 982 u[42] + 129 u[43] + 703 u[44] + 478 u[45] + 729 u[46]
   + 85 u[47] + 951 u[48] + 700 u[49] + 918 u[50] + 412 u[51] + 557 u[52]
   + 904 u[53] + 440 u[54] + 603 u[55] + 505 u[56] + 726 u[57] + 572 u[58]
   + 662 u[59] + 276 u[60] + 14 u[61] + 199 u[62] + 654 u[63] + 267 u[64]
   + 440 u[65] + 756 u[66] + 354 u[67] + 60 u[68] + 661 u[69] + 685 u[70]
   + 153 u[71] + 62 u[72] + 931 u[73] + 55 u[74] + 220 u[75] + 10 u[76]
   + 975 u[77] + 968 u[78] + 734 u[79] + 173 u[80] + 593 u[81] + 242 u[82]
   + 717 u[83] + 13 u[84] + 229 u[85] + 119 u[86] + 88 u[87] + 746 u[88]
   + 415 u[89] + 372 u[90] + 768 u[91] + 724 u[92] + 235 u[93] + 88 u[94]
   + 377 u[95] + 673 u[96] + 412 u[97] + 220 u[98] + 32 u[99] <= 982
 primal_lower52: 269 u[0] + 478 u[1] + 648 u[2] + 429 u[3] + 402 u[4]
   + 483 u[5] + 763 u[6] + 637 u[7] + 315 u[8] + 716 u[9] + 841 u[10]
   + 245 u[11] + 746 u[12] + 142 u[13] + 722 u[14] + 126 u[15] + 651 u[16]
   + 210 u[17] + 207 u[18] + 232 u[19] + 51 u[20] + 177 u[21] + 378 u[22]
   + 1000 u[23] + 930 u[24] + 306 u[25] + 680 u[26] + 865 u[27] + 611 u[28]
   + 521 u[29] + 951 u[30] + 797 u[31] + 329 u[32] + 15 u[33] + 794 u[34]
   + 435 u[35] + 394 u[36] + 350 u[37] + 18 u[38] + 256 u[39] + 53 u[40]
   + 435 u[41] + 436 u[42] + 735 u[43] + 517 u[44] + 764 u[45] + 711 u[46]
   + 659 u[47] + 13 u[48] + 530 u[49] + 996 u[50] + 794 u[51] + 891 u[52]
   + 590 u[53] + 878 u[54] + 681 u[55] + 447 u[56] + 724 u[57] + 234 u[58]
   + 76 u[59] + 522 u[60] + 980 u[61] + 765 u[62] + 492 u[63] + 489 u[64]
   + 678 u[65] + 170 u[66] + 192 u[67] + 914 u[68] + 75 u[69] + 371 u[70]
   + 639 u[71] + 468 u[72] + 17 u[73] + 189 u[74] + 402 u[75] + 552 u[76]
   + 501 u[77] + 494 u[78] + 44 u[79] + 11 u[80] + 527 u[81] + 824 u[82]
   + 795 u[83] + 211 u[84] + 355 u[85] + 525 u[86] + 286 u[87] + 336 u[88]
   + 757 u[89] + 26 u[90] + 798 u[91] + 194 u[92] + 977 u[93] + 830 u[94]
   + 7 u[95] + 335 u[96] + 146 u[97] + 570 u[98] + 654 u[99] <= 1000
 primal_lower53: 743 u[0] + 72 u[1] + 562 u[2] + 183 u[3] + 940 u[4]
   + 245 u[5] + 245 u[6] + 47 u[7] + 421 u[8] + 806 u[9] + 555 u[10]
   + 687 u[11] + 716 u[12] + 136 u[13] + 932 u[14] + 184 u[15] + 485 u[16]
   + 44 u[17] + 169 u[18] + 34 u[19] + 837 u[20] + 19 u[21] + 604 u[22]
   + 898 u[23] + 500 u[24] + 28 u[25] + 626 u[26] + 451 u[27] + 53 u[28]
   + 579 u[29] + 321 u[30] + 255 u[31] + 763 u[32] + 697 u[33] + 412 u[34]
   + 421 u[35] + 884 u[36] + 832 u[37] + 444 u[38] + 770 u[39] + 663 u[40]
   + 501 u[41] + 630 u[42] + 449 u[43] + 807 u[44] + 582 u[45] + 185 u[46]
   + 333 u[47] + 119 u[48] + 356 u[49] + 366 u[50] + 364 u[51] + 437 u[52]
   + 152 u[53] + 704 u[54] + 419 u[55] + 49 u[56] + 198 u[57] + 756 u[58]
   + 686 u[59] + 668 u[60] + 774 u[61] + 591 u[62] + 294 u[63] + 883 u[64]
   + 320 u[65] + 124 u[66] + 506 u[67] + 92 u[68] + 477 u[69] + 829 u[70]
   + 425 u[71] + 742 u[72] + 331 u[73] + 239 u[74] + 500 u[75] + 2 u[76]
   + 415 u[77] + 640 u[78] + 590 u[79] + 837 u[80] + 705 u[81] + 338 u[82]
   + 669 u[83] + 885 u[84] + 461 u[85] + 631 u[86] + 96 u[87] + 546 u[88]
   + 511 u[89] + 316 u[90] + 544 u[91] + 652 u[92] + 443 u[93] + 496 u[94]
   + 153 u[95] + 89 u[96] + 332 u[97] + 508 u[98] + 272 u[99] <= 940
 primal_lower54: 190 u[0] + 826 u[1] + 352 u[2] + 617 u[3] + 282 u[4]
   + 224 u[5] + 811 u[6] + 130 u[7] + 843 u[8] + 504 u[9] + 162 u[10]
   + 321 u[11] + 378 u[12] + 890 u[13] + 339 u[14] + 307 u[15] + 187 u[16]
   + 518 u[17] + 183 u[18] + 852 u[19] + 91 u[20] + 470 u[21] + 146 u[22]
   + 709 u[23] + 507 u[24] + 926 u[25] + 256 u[26] + 38 u[27] + 284 u[28]
   + 501 u[29] + 880 u[30] + 954 u[31] + 874 u[32] + 259 u[33] + 514 u[34]
   + 519 u[35] + 2 u[36] + 299 u[37] + 818 u[38] + 85 u[39] + 477 u[40]
   + 648 u[41] + 452 u[42] + 284 u[43] + 493 u[44] + 713 u[45] + 256 u[46]
   + 640 u[47] + 13 u[48] + 430 u[49] + 61 u[50] + 534 u[51] + 939 u[52]
   + 10 u[53] + 487 u[54] + 798 u[55] + 919 u[56] + 857 u[57] + 242 u[58]
   + 688 u[59] + 755 u[60] + 561 u[61] + 470 u[62] + 697 u[63] + 610 u[64]
   + 322 u[65] + 483 u[66] + 677 u[67] + 642 u[68] + 800 u[69] + 428 u[70]
   + 884 u[71] + 260 u[72] + 341 u[73] + 486 u[74] + 319 u[75] + 609 u[76]
   + 633 u[77] + 359 u[78] + 129 u[79] + 828 u[80] + 308 u[81] + 281 u[82]
   + 1000 u[83] + 252 u[84] + 672 u[85] + 190 u[86] + 306 u[87] + 8 u[88]
   + 225 u[89] + 451 u[90] + 307 u[91] + 675 u[92] + 22 u[93] + 670 u[94]
   + 475 u[95] + 31 u[96] + 119 u[97] + 642 u[98] + 554 u[99] <= 1000
 primal_lower55: 530 u[0] + 779 u[1] + 757 u[2] + 18 u[3] + 895 u[4]
   + 824 u[5] + 856 u[6] + 442 u[7] + 32 u[8] + 593 u[9] + 894 u[10]
   + 706 u[11] + 839 u[12] + 539 u[13] + 415 u[14] + 619 u[15] + 128 u[16]
   + 295 u[17] + 932 u[18] + 605 u[19] + 528 u[20] + 374 u[21] + 663 u[22]
   + 141 u[23] + 415 u[24] + 119 u[25] + 69 u[26] + 646 u[27] + 776 u[28]
   + 910 u[29] + 476 u[30] + 586 u[31] + 110 u[32] + 140 u[33] + 967 u[34]
   + 936 u[35] + 279 u[36] + 931 u[37] + 391 u[38] + 37 u[39] + 546 u[40]
   + 120 u[41] + 233 u[42] + 268 u[43] + 530 u[44] + 209 u[45] + 380 u[46]
   + 640 u[47] + 554 u[48] + 63 u[49] + 737 u[50] + 975 u[51] + 920 u[52]
   + 739 u[53] + 347 u[54] + 358 u[55] + 340 u[56] + 273 u[57] + 287 u[58]
   + 241 u[59] + 295 u[60] + 737 u[61] + 234 u[62] + 737 u[63] + 742 u[64]
   + 979 u[65] + 543 u[66] + 21 u[67] + 495 u[68] + 80 u[69] + 496 u[70]
   + 196 u[71] + 649 u[72] + 422 u[73] + 218 u[74] + 527 u[75] + 165 u[76]
   + 410 u[77] + 987 u[78] + 185 u[79] + 864 u[80] + 596 u[81] + 453 u[82]
   + 424 u[83] + 640 u[84] + 272 u[85] + 466 u[86] + 259 u[87] + 125 u[88]
   + 74 u[89] + 311 u[90] + 995 u[91] + 503 u[92] + 910 u[93] + 291 u[94]
   + 100 u[95] + 708 u[96] + 431 u[97] + 471 u[98] + 555 u[99] <= 995
 primal_lower56: 643 u[0] + 959 u[1] + 125 u[2] + 470 u[3] + 783 u[4]
   + 277 u[5] + 680 u[6] + 39 u[7] + 648 u[8] + 989 u[9] + 551 u[10]
   + 742 u[11] + 583 u[12] + 983 u[13] + 640 u[14] + 616 u[15] + 920 u[16]
   + 443 u[17] + 700 u[18] + 761 u[19] + 296 u[20] + 291 u[21] + 551 u[22]
   + 274 u[23] + 368 u[24] + 19 u[25] + 45 u[26] + 51 u[27] + 481 u[28]
   + 210 u[29] + 293 u[30] + 335 u[31] + 671 u[32] + 664 u[33] + 239 u[34]
   + 956 u[35] + 319 u[36] + 224 u[37] + 95 u[38] + 826 u[39] + 210 u[40]
   + 85 u[41] + 969 u[42] + 977 u[43] + 946 u[44] + 990 u[45] + 645 u[46]
   + 517 u[47] + 338 u[48] + 979 u[49] + 866 u[50] + 211 u[51] + 744 u[52]
   + 215 u[53] + 300 u[54] + 987 u[55] + 628 u[56] + 750 u[57] + 615 u[58]
   + 141 u[59] + 16 u[60] + 462 u[61] + 699 u[62] + 254 u[63] + 55 u[64]
   + 519 u[65] + 520 u[66] + 90 u[67] + 855 u[68] + 477 u[69] + 713 u[70]
   + 457 u[71] + 9 u[72] + 618 u[73] + 603 u[74] + 28 u[75] + 718 u[76]
   + 678 u[77] + 548 u[78] + 190 u[79] + 361 u[80] + 225 u[81] + 214 u[82]
   + 157 u[83] + 641 u[84] + 341 u[85] + 859 u[86] + 423 u[87] + 61 u[88]
   + 654 u[89] + 528 u[90] + 360 u[91] + 984 u[92] + 643 u[93] + 403 u[94]
   + 96 u[95] + 92 u[96] + 300 u[97] + 47 u[98] + 23 u[99] <= 990
 primal_lower57: 447 u[0] + 624 u[1] + 426 u[2] + 151 u[3] + 500 u[4]
   + 981 u[5] + 157 u[6] + 871 u[7] + 765 u[8] + 990 u[9] + 75 u[10]
   + 623 u[11] + 124 u[12] + 248 u[13] + 84 u[14] + 160 u[15] + 301 u[16]
   + 612 u[17] + 305 u[18] + 170 u[19] + 853 u[20] + 947 u[21] + 492 u[22]
   + 610 u[23] + 412 u[24] + 572 u[25] + 442 u[26] + 339 u[27] + 421 u[28]
   + 419 u[29] + 417 u[30] + 775 u[31] + 491 u[32] + 905 u[33] + 620 u[34]
   + 717 u[35] + 476 u[36] + 600 u[37] + 412 u[38] + 666 u[39] + 167 u[40]
   + 53 u[41] + 582 u[42] + 489 u[43] + 631 u[44] + 54 u[45] + 161 u[46]
   + 301 u[47] + 639 u[48] + 644 u[49] + 854 u[50] + 492 u[51] + 181 u[52]
   + 704 u[53] + 416 u[54] + 435 u[55] + 945 u[56] + 430 u[57] + 668 u[58]
   + 862 u[59] + 548 u[60] + 22 u[61] + 303 u[62] + 206 u[63] + 579 u[64]
   + 856 u[65] + 196 u[66] + 970 u[67] + 732 u[68] + 861 u[69] + 85 u[70]
   + 577 u[71] + 550 u[72] + 355 u[73] + 519 u[74] + 68 u[75] + 474 u[76]
   + 719 u[77] + 792 u[78] + 6 u[79] + 109 u[80] + 329 u[81] + 810 u[82]
   + 829 u[83] + 989 u[84] + 981 u[85] + 231 u[86] + 800 u[87] + 466 u[88]
   + 39 u[89] + 76 u[90] + 768 u[91] + 572 u[92] + 363 u[93] + 752 u[94]
   + 641 u[95] + 905 u[96] + 156 u[97] + 92 u[98] + 192 u[99] <= 990
 primal_lower58: 753 u[0] + 973 u[1] + 163 u[2] + 196 u[3] + 213 u[4]
   + 531 u[5] + 686 u[6] + 549 u[7] + 766 u[8] + 707 u[9] + 605 u[10]
   + 788 u[11] + 941 u[12] + 469 u[13] + 270 u[14] + 110 u[15] + 230 u[16]
   + 153 u[17] + 714 u[18] + 863 u[19] + 334 u[20] + 561 u[21] + 669 u[22]
   + 424 u[23] + 190 u[24] + 593 u[25] + 251 u[26] + 41 u[27] + 839 u[28]
   + 344 u[29] + 363 u[30] + 597 u[31] + 429 u[32] + 270 u[33] + 405 u[34]
   + 130 u[35] + 157 u[36] + 814 u[37] + 325 u[38] + 968 u[39] + 656 u[40]
   + 707 u[41] + 159 u[42] + 871 u[43] + 344 u[44] + 476 u[45] + 931 u[46]
   + 139 u[47] + 712 u[48] + 161 u[49] + 432 u[50] + 481 u[51] + 78 u[52]
   + 229 u[53] + 170 u[54] + 449 u[55] + 602 u[56] + 28 u[57] + 757 u[58]
   + 731 u[59] + 510 u[60] + 740 u[61] + 881 u[62] + 684 u[63] + 277 u[64]
   + 597 u[65] + 870 u[66] + 936 u[67] + 349 u[68] + 715 u[69] + 135 u[70]
   + 311 u[71] + 71 u[72] + 488 u[73] + 313 u[74] + 850 u[75] + 308 u[76]
   + 44 u[77] + 10 u[78] + 772 u[79] + 695 u[80] + 271 u[81] + 188 u[82]
   + 35 u[83] + 167 u[84] + 819 u[85] + 321 u[86] + 117 u[87] + 251 u[88]
   + 260 u[89] + 910 u[90] + 862 u[91] + 966 u[92] + 217 u[93] + 729 u[94]
   + 326 u[95] + 218 u[96] + 162 u[97] + 309 u[98] + 437 u[99] <= 973
 primal_lower59: 933 u[0] + 566 u[1] + 520 u[2] + 957 u[3] + 858 u[4]
   + 939 u[5] + 867 u[6] + 701 u[7] + 555 u[8] + 540 u[9] + 553 u[10]
   + 517 u[11] + 26 u[12] + 614 u[13] + 322 u[14] + 302 u[15] + 883 u[16]
   + 82 u[17] + 671 u[18] + 488 u[19] + 139 u[20] + 305 u[21] + 594 u[22]
   + 952 u[23] + 394 u[24] + 354 u[25] + 768 u[26] + 481 u[27] + 187 u[28]
   + 697 u[29] + 783 u[30] + 677 u[31] + 345 u[32] + 559 u[33] + 602 u[34]
   + 243 u[35] + 842 u[36] + 182 u[37] + 338 u[38] + 168 u[39] + 389 u[40]
   + 947 u[41] + 228 u[42] + 191 u[43] + 45 u[44] + 164 u[45] + 799 u[46]
   + 115 u[47] + 997 u[48] + 402 u[49] + 604 u[50] + 18 u[51] + 859 u[52]
   + 630 u[53] + 166 u[54] + 721 u[55] + 847 u[56] + 156 u[57] + 786 u[58]
   + 476 u[59] + 906 u[60] + 140 u[61] + 181 u[62] + 36 u[63] + 225 u[64]
   + 678 u[65] + 322 u[66] + 296 u[67] + 442 u[68] + 275 u[69] + 643 u[70]
   + 823 u[71] + 140 u[72] + 689 u[73] + 109 u[74] + 522 u[75] + 336 u[76]
   + 837 u[77] + 310 u[78] + 12 u[79] + 971 u[80] + 327 u[81] + 176 u[82]
   + 435 u[83] + 899 u[84] + 339 u[85] + 5 u[86] + 598 u[87] + 160 u[88]
   + 613 u[89] + 98 u[90] + 246 u[91] + 546 u[92] + 153 u[93] + 958 u[94]
   + 791 u[95] + 743 u[96] + 202 u[97] + 914 u[98] + 942 u[99] <= 997
 primal_lower60: 483 u[0] + 44 u[1] + 86 u[2] + 67 u[3] + 184 u[4]
   + 457 u[5] + 481 u[6] + 707 u[7] + 793 u[8] + 922 u[9] + 839 u[10]
   + 139 u[11] + 216 u[12] + 28 u[13] + 608 u[14] + 684 u[15] + 449 u[16]
   + 40 u[17] + 797 u[18] + 414 u[19] + 777 u[20] + 823 u[21] + 792 u[22]
   + 598 u[23] + 312 u[24] + 960 u[25] + 262 u[26] + 903 u[27] + 169 u[28]
   + 119 u[29] + 437 u[30] + 99 u[31] + 719 u[32] + 381 u[33] + 728 u[34]
   + 577 u[35] + 264 u[36] + 668 u[37] + 1000 u[38] + 734 u[39] + 387 u[40]
   + 889 u[41] + 682 u[42] + 93 u[43] + 427 u[44] + 842 u[45] + 453 u[46]
   + 633 u[47] + 587 u[48] + 352 u[49] + 98 u[50] + 432 u[51] + 489 u[52]
   + 580 u[53] + 636 u[54] + 847 u[55] + 557 u[56] + 850 u[57] + 688 u[58]
   + 146 u[59] + 272 u[60] + 546 u[61] + 347 u[62] + 274 u[63] + 111 u[64]
   + 484 u[65] + 264 u[66] + 918 u[67] + 680 u[68] + 849 u[69] + 177 u[70]
   + 445 u[71] + 626 u[72] + 743 u[73] + 315 u[74] + 416 u[75] + 798 u[76]
   + 883 u[77] + 292 u[78] + 106 u[79] + 409 u[80] + 349 u[81] + 926 u[82]
   + 225 u[83] + 705 u[84] + 977 u[85] + 843 u[86] + 972 u[87] + 950 u[88]
   + 315 u[89] + 104 u[90] + 764 u[91] + 128 u[92] + 487 u[93] + 372 u[94]
   + 429 u[95] + 357 u[96] + 200 u[97] + 848 u[98] + 684 u[99] <= 1000
 primal_lower61: 228 u[0] + 536 u[1] + 782 u[2] + 895 u[3] + 488 u[4]
   + 630 u[5] + 145 u[6] + 640 u[7] + 545 u[8] + 782 u[9] + 488 u[10]
   + 855 u[11] + 688 u[12] + 192 u[13] + 217 u[14] + 529 u[15] + 97 u[16]
   + 724 u[17] + 877 u[18] + 570 u[19] + 865 u[20] + 684 u[21] + 856 u[22]
   + 611 u[23] + 449 u[24] + 652 u[25] + 102 u[26] + 228 u[27] + 946 u[28]
   + 123 u[29] + 222 u[30] + 760 u[31] + 432 u[32] + 17 u[33] + 88 u[34]
   + 461 u[35] + 576 u[36] + 993 u[37] + 328 u[38] + 139 u[39] + 219 u[40]
   + 542 u[41] + 298 u[42] + 266 u[43] + 755 u[44] + 463 u[45] + 70 u[46]
   + 574 u[47] + 203 u[48] + 156 u[49] + 435 u[50] + 4 u[51] + 49 u[52]
   + 792 u[53] + 765 u[54] + 404 u[55] + 813 u[56] + 135 u[57] + 24 u[58]
   + 350 u[59] + 257 u[60] + 447 u[61] + 268 u[62] + 927 u[63] + 584 u[64]
   + 664 u[65] + 737 u[66] + 547 u[67] + 304 u[68] + 878 u[69] + 66 u[70]
   + 114 u[71] + 594 u[72] + 443 u[73] + 500 u[74] + 349 u[75] + 7 u[76]
   + 975 u[77] + 933 u[78] + 679 u[79] + 490 u[80] + 610 u[81] + 903 u[82]
   + 430 u[83] + 458 u[84] + 574 u[85] + 780 u[86] + 72 u[87] + 854 u[88]
   + 575 u[89] + 609 u[90] + 737 u[91] + 281 u[92] + 724 u[93] + 860 u[94]
   + 201 u[95] + 245 u[96] + 565 u[97] + 808 u[98] + 448 u[99] <= 993
 primal_lower62: 412 u[0] + 933 u[1] + 927 u[2] + 268 u[3] + 345 u[4]
   + 82 u[5] + 74 u[6] + 268 u[7] + 338 u[8] + 723 u[9] + 232 u[10]
   + 524 u[11] + 905 u[12] + 621 u[13] + 265 u[14] + 357 u[15] + 834 u[16]
   + 305 u[17] + 606 u[18] + 447 u[19] + 74 u[20] + 840 u[21] + 273 u[22]
   + 63 u[23] + 321 u[24] + 569 u[25] + 375 u[26] + 744 u[27] + 946 u[28]
   + 1000 u[29] + 862 u[30] + 812 u[31] + 984 u[32] + 230 u[33] + 993 u[34]
   + 642 u[35] + 705 u[36] + 909 u[37] + 865 u[38] + 775 u[39] + 452 u[40]
   + 346 u[41] + 27 u[42] + 734 u[43] + 884 u[44] + 203 u[45] + 350 u[46]
   + 330 u[47] + 764 u[48] + 241 u[49] + 987 u[50] + 585 u[51] + 922 u[52]
   + 13 u[53] + 133 u[54] + 880 u[55] + 574 u[56] + 155 u[57] + 297 u[58]
   + 403 u[59] + 697 u[60] + 419 u[61] + 732 u[62] + 131 u[63] + 464 u[64]
   + 69 u[65] + 481 u[66] + 935 u[67] + 849 u[68] + 642 u[69] + 866 u[70]
   + 150 u[71] + 403 u[72] + 840 u[73] + 132 u[74] + 585 u[75] + 671 u[76]
   + 316 u[77] + 509 u[78] + 347 u[79] + 522 u[80] + 822 u[81] + 655 u[82]
   + 450 u[83] + 58 u[84] + 386 u[85] + 700 u[86] + 101 u[87] + 287 u[88]
   + 140 u[89] + 777 u[90] + 93 u[91] + 529 u[92] + 24 u[93] + 69 u[94]
   + 230 u[95] + 958 u[96] + 457 u[97] + 769 u[98] + 61 u[99] <= 1000
 primal_lower63: 290 u[0] + 179 u[1] + 253 u[2] + 786 u[3] + 383 u[4]
   + 440 u[5] + 336 u[6] + 82 u[7] + 232 u[8] + 785 u[9] + 222 u[10]
   + 394 u[11] + 895 u[12] + 691 u[13] + 639 u[14] + 387 u[15] + 976 u[16]
   + 391 u[17] + 52 u[18] + 885 u[19] + 376 u[20] + 358 u[21] + 367 u[22]
   + 285 u[23] + 535 u[24] + 391 u[25] + 661 u[26] + 294 u[27] + 672 u[28]
   + 670 u[29] + 572 u[30] + 418 u[31] + 254 u[32] + 412 u[33] + 751 u[34]
   + 216 u[35] + 183 u[36] + 611 u[37] + 207 u[38] + 21 u[39] + 90 u[40]
   + 512 u[41] + 961 u[42] + 516 u[43] + 978 u[44] + 873 u[45] + 204 u[46]
   + 464 u[47] + 570 u[48] + 407 u[49] + 665 u[50] + 391 u[51] + 704 u[52]
   + 443 u[53] + 859 u[54] + 694 u[55] + 804 u[56] + 257 u[57] + 159 u[58]
   + 281 u[59] + 63 u[60] + 745 u[61] + 378 u[62] + 521 u[63] + 574 u[64]
   + 275 u[65] + 447 u[66] + 477 u[67] + 767 u[68] + 24 u[69] + 144 u[70]
   + 44 u[71] + 881 u[72] + 142 u[73] + 410 u[74] + 239 u[75] + 741 u[76]
   + 906 u[77] + 35 u[78] + 321 u[79] + 40 u[80] + 908 u[81] + 181 u[82]
   + 768 u[83] + 536 u[84] + 272 u[85] + 650 u[86] + 147 u[87] + 277 u[88]
   + 58 u[89] + 375 u[90] + 411 u[91] + 239 u[92] + 390 u[93] + 667 u[94]
   + 780 u[95] + 100 u[96] + 439 u[97] + 135 u[98] + 363 u[99] <= 978
 primal_lower64: 930 u[0] + 454 u[1] + 52 u[2] + 765 u[3] + 838 u[4]
   + 36 u[5] + 655 u[6] + 6 u[7] + 31 u[8] + 244 u[9] + 222 u[10]
   + 717 u[11] + 70 u[12] + 718 u[13] + 935 u[14] + 735 u[15] + 383 u[16]
   + 314 u[17] + 579 u[18] + 944 u[19] + 919 u[20] + 122 u[21] + 46 u[22]
   + 193 u[23] + 575 u[24] + 426 u[25] + 748 u[26] + 130 u[27] + 368 u[28]
   + 369 u[29] + 852 u[30] + 598 u[31] + 558 u[32] + 983 u[33] + 726 u[34]
   + 323 u[35] + 750 u[36] + 703 u[37] + 606 u[38] + 297 u[39] + 985 u[40]
   + 476 u[41] + 816 u[42] + 512 u[43] + 105 u[44] + 565 u[45] + 572 u[46]
   + 124 u[47] + 305 u[48] + 730 u[49] + 265 u[50] + 546 u[51] + 903 u[52]
   + 238 u[53] + 435 u[54] + 962 u[55] + 379 u[56] + 13 u[57] + 430 u[58]
   + 68 u[59] + 783 u[60] + 797 u[61] + 402 u[62] + 597 u[63] + 190 u[64]
   + 206 u[65] + 783 u[66] + 361 u[67] + 182 u[68] + 740 u[69] + 184 u[70]
   + 560 u[71] + 152 u[72] + 425 u[73] + 530 u[74] + 35 u[75] + 637 u[76]
   + 325 u[77] + 299 u[78] + 221 u[79] + 800 u[80] + 992 u[81] + 453 u[82]
   + 460 u[83] + 368 u[84] + 348 u[85] + 442 u[86] + 78 u[87] + 476 u[88]
   + 941 u[89] + 375 u[90] + 879 u[91] + 671 u[92] + 802 u[93] + 490 u[94]
   + 783 u[95] + 3 u[96] + 475 u[97] + 662 u[98] + 974 u[99] <= 992
 primal_lower65: 510 u[0] + 754 u[1] + 752 u[2] + 945 u[3] + 618 u[4]
   + 512 u[5] + 955 u[6] + 906 u[7] + 267 u[8] + 936 u[9] + 834 u[10]
   + 649 u[11] + 18 u[12] + 162 u[13] + 155 u[14] + 115 u[15] + 107 u[16]
   + 950 u[17] + 679 u[18] + 796 u[19] + 35 u[20] + 862 u[21] + 378 u[22]
   + 69 u[23] + 963 u[24] + 926 u[25] + 376 u[26] + 126 u[27] + 540 u[28]
   + 21 u[29] + 144 u[30] + 546 u[31] + 642 u[32] + 603 u[33] + 146 u[34]
   + 447 u[35] + 194 u[36] + 91 u[37] + 154 u[38] + 317 u[39] + 877 u[40]
   + 912 u[41] + 276 u[42] + 876 u[43] + 213 u[44] + 681 u[45] + 984 u[46]
   + 432 u[47] + 589 u[48] + 358 u[49] + 645 u[50] + 862 u[51] + 787 u[52]
   + 906 u[53] + 783 u[54] + 190 u[55] + 247 u[56] + 209 u[57] + 890 u[58]
   + 872 u[59] + 411 u[60] + 681 u[61] + 582 u[62] + 569 u[63] + 530 u[64]
   + 786 u[65] + 867 u[66] + 949 u[67] + 130 u[68] + 1000 u[69] + 764 u[70]
   + 748 u[71] + 164 u[72] + 749 u[73] + 766 u[74] + 71 u[75] + 265 u[76]
   + 945 u[77] + 647 u[78] + 89 u[79] + 308 u[80] + 932 u[81] + 665 u[82]
   + 416 u[83] + 708 u[84] + 704 u[85] + 278 u[86] + 554 u[87] + 720 u[88]
   + 281 u[89] + 955 u[90] + 531 u[91] + 467 u[92] + 310 u[93] + 46 u[94]
   + 827 u[95] + 367 u[96] + 47 u[97] + 242 u[98] + 738 u[99] <= 1000
 primal_lower66: 900 u[0] + 269 u[1] + 343 u[2] + 716 u[3] + 969 u[4]
   + 314 u[5] + 226 u[6] + 804 u[7] + 370 u[8] + 531 u[9] + 440 u[10]
   + 556 u[11] + 449 u[12] + 925 u[13] + 737 u[14] + 565 u[15] + 106 u[16]
   + 673 u[17] + 814 u[18] + 959 u[19] + 578 u[20] + 720 u[21] + 905 u[22]
   + 391 u[23] + 193 u[24] + 857 u[25] + 47 u[26] + 824 u[27] + 226 u[28]
   + 72 u[29] + 646 u[30] + 44 u[31] + 960 u[32] + 6 u[33] + 481 u[34]
   + 370 u[35] + 873 u[36] + 845 u[37] + 633 u[38] + 831 u[39] + 60 u[40]
   + 410 u[41] + 259 u[42] + 854 u[43] + 532 u[44] + 115 u[45] + 862 u[46]
   + 746 u[47] + 572 u[48] + 921 u[49] + 291 u[50] + 993 u[51] + 226 u[52]
   + 549 u[53] + 149 u[54] + 968 u[55] + 342 u[56] + 475 u[57] + 953 u[58]
   + 43 u[59] + 753 u[60] + 563 u[61] + 172 u[62] + 803 u[63] + 64 u[64]
   + 925 u[65] + 273 u[66] + 527 u[67] + 817 u[68] + 354 u[69] + 770 u[70]
   + 102 u[71] + 355 u[72] + 128 u[73] + 492 u[74] + 473 u[75] + 527 u[76]
   + 660 u[77] + 229 u[78] + 435 u[79] + 802 u[80] + 942 u[81] + 167 u[82]
   + 738 u[83] + 930 u[84] + 626 u[85] + 532 u[86] + 429 u[87] + 495 u[88]
   + 900 u[89] + 657 u[90] + 733 u[91] + 137 u[92] + 704 u[93] + 805 u[94]
   + 846 u[95] + 974 u[96] + 321 u[97] + 289 u[98] + 837 u[99] <= 993
 primal_lower67: 128 u[0] + 577 u[1] + 979 u[2] + 888 u[3] + 293 u[4]
   + 270 u[5] + 390 u[6] + 888 u[7] + 422 u[8] + 695 u[9] + 124 u[10]
   + 120 u[11] + 821 u[12] + 241 u[13] + 101 u[14] + 785 u[15] + 86 u[16]
   + 189 u[17] + 274 u[18] + 283 u[19] + 302 u[20] + 756 u[21] + 629 u[22]
   + 931 u[23] + 861 u[24] + 573 u[25] + 299 u[26] + 324 u[27] + 6 u[28]
   + 324 u[29] + 906 u[30] + 728 u[31] + 260 u[32] + 802 u[33] + 613 u[34]
   + 582 u[35] + 909 u[36] + 425 u[37] + 453 u[38] + 147 u[39] + 488 u[40]
   + 54 u[41] + 711 u[42] + 306 u[43] + 248 u[44] + 335 u[45] + 994 u[46]
   + 430 u[47] + 576 u[48] + 53 u[49] + 287 u[50] + 877 u[51] + 886 u[52]
   + 25 u[53] + 769 u[54] + 380 u[55] + 522 u[56] + 599 u[57] + 477 u[58]
   + 279 u[59] + 485 u[60] + 599 u[61] + 248 u[62] + 311 u[63] + 444 u[64]
   + 185 u[65] + 405 u[66] + 339 u[67] + 621 u[68] + 398 u[69] + 830 u[70]
   + 458 u[71] + 623 u[72] + 316 u[73] + 176 u[74] + 365 u[75] + 867 u[76]
   + 1000 u[77] + 193 u[78] + 167 u[79] + 174 u[80] + 658 u[81] + 923 u[82]
   + 406 u[83] + 222 u[84] + 342 u[85] + 160 u[86] + 753 u[87] + 795 u[88]
   + 672 u[89] + 869 u[90] + 673 u[91] + 285 u[92] + 116 u[93] + 41 u[94]
   + 34 u[95] + 338 u[96] + 213 u[97] + 629 u[98] + 497 u[99] <= 1000
 primal_lower68: 576 u[0] + 465 u[1] + 123 u[2] + 32 u[3] + 301 u[4]
   + 526 u[5] + 598 u[6] + 536 u[7] + 678 u[8] + 543 u[9] + 860 u[10]
   + 344 u[11] + 277 u[12] + 313 u[13] + 357 u[14] + 121 u[15] + 54 u[16]
   + 101 u[17] + 898 u[18] + 779 u[19] + 422 u[20] + 204 u[21] + 637 u[22]
   + 643 u[23] + 981 u[24] + 509 u[25] + 499 u[26] + 948 u[27] + 310 u[28]
   + 476 u[29] + 618 u[30] + 824 u[31] + 916 u[32] + 402 u[33] + 589 u[34]
   + 486 u[35] + 581 u[36] + 881 u[37] + 413 u[38] + 739 u[39] + 656 u[40]
   + 302 u[41] + 271 u[42] + 730 u[43] + 752 u[44] + 47 u[45] + 706 u[46]
   + 526 u[47] + 840 u[48] + 933 u[49] + 175 u[50] + 661 u[51] + 62 u[52]
   + 265 u[53] + 201 u[54] + 476 u[55] + 578 u[56] + 399 u[57] + 325 u[58]
   + 399 u[59] + 501 u[60] + 367 u[61] + 816 u[62] + 975 u[63] + 916 u[64]
   + 953 u[65] + 429 u[66] + 67 u[67] + 373 u[68] + 534 u[69] + 734 u[70]
   + 746 u[71] + 263 u[72] + 924 u[73] + 664 u[74] + 885 u[75] + 875 u[76]
   + 472 u[77] + 641 u[78] + 71 u[79] + 254 u[80] + 442 u[81] + 595 u[82]
   + 662 u[83] + 430 u[84] + 382 u[85] + 992 u[86] + 561 u[87] + 211 u[88]
   + 408 u[89] + 517 u[90] + 993 u[91] + 109 u[92] + 444 u[93] + 761 u[94]
   + 2 u[95] + 778 u[96] + 141 u[97] + 677 u[98] + 889 u[99] <= 993
 primal_lower69: 387 u[0] + 503 u[1] + 621 u[2] + 22 u[3] + 7 u[4]
   + 861 u[5] + 208 u[6] + 487 u[7] + 520 u[8] + 701 u[9] + 959 u[10]
   + 254 u[11] + 743 u[12] + 775 u[13] + 272 u[14] + 440 u[15] + 544 u[16]
   + 387 u[17] + 28 u[18] + 769 u[19] + 56 u[20] + 235 u[21] + 359 u[22]
   + 130 u[23] + 696 u[24] + 387 u[25] + 741 u[26] + 627 u[27] + 409 u[28]
   + 450 u[29] + 189 u[30] + 871 u[31] + 911 u[32] + 200 u[33] + 103 u[34]
   + 468 u[35] + 143 u[36] + 512 u[37] + 63 u[38] + 50 u[39] + 578 u[40]
   + 589 u[41] + 449 u[42] + 729 u[43] + 754 u[44] + 478 u[45] + 421 u[46]
   + 693 u[47] + 66 u[48] + 747 u[49] + 442 u[50] + 587 u[51] + 952 u[52]
   + 967 u[53] + 924 u[54] + 331 u[55] + 492 u[56] + 902 u[57] + 415 u[58]
   + 389 u[59] + 320 u[60] + 6 u[61] + 531 u[62] + 262 u[63] + 303 u[64]
   + 199 u[65] + 912 u[66] + 554 u[67] + 255 u[68] + 621 u[69] + 761 u[70]
   + 793 u[71] + 889 u[72] + 138 u[73] + 699 u[74] + 36 u[75] + 230 u[76]
   + 190 u[77] + 916 u[78] + 750 u[79] + 873 u[80] + 337 u[81] + 822 u[82]
   + 341 u[83] + 665 u[84] + 53 u[85] + 923 u[86] + 143 u[87] + 541 u[88]
   + 542 u[89] + 640 u[90] + 80 u[91] + 24 u[92] + 219 u[93] + 507 u[94]
   + 712 u[95] + 932 u[96] + 836 u[97] + 7 u[98] + 751 u[99] <= 967
 primal_lower70: 330 u[0] + 158 u[1] + 532 u[2] + 589 u[3] + 430 u[4]
   + 972 u[5] + 247 u[6] + 822 u[7] + 831 u[8] + 588 u[9] + 94 u[10]
   + 237 u[11] + 830 u[12] + 278 u[13] + 751 u[14] + 943 u[15] + 191 u[16]
   + 594 u[17] + 755 u[18] + 544 u[19] + 943 u[20] + 34 u[21] + 430 u[22]
   + 345 u[23] + 199 u[24] + 298 u[25] + 44 u[26] + 818 u[27] + 216 u[28]
   + 905 u[29] + 908 u[30] + 470 u[31] + 686 u[32] + 551 u[33] + 726 u[34]
   + 739 u[35] + 494 u[36] + 127 u[37] + 782 u[38] + 65 u[39] + 793 u[40]
   + 260 u[41] + 912 u[42] + 208 u[43] + 577 u[44] + 413 u[45] + 348 u[46]
   + 348 u[47] + 49 u[48] + 914 u[49] + 121 u[50] + 218 u[51] + 295 u[52]
   + 446 u[53] + 731 u[54] + 338 u[55] + 131 u[56] + 741 u[57] + 118 u[58]
   + 780 u[59] + 167 u[60] + 53 u[61] + 402 u[62] + 693 u[63] + 22 u[64]
   + 838 u[65] + 775 u[66] + 433 u[67] + 638 u[68] + 916 u[69] + 896 u[70]
   + 440 u[71] + 904 u[72] + 529 u[73] + 58 u[74] + 11 u[75] + 21 u[76]
   + 461 u[77] + 955 u[78] + 717 u[79] + 208 u[80] + 160 u[81] + 197 u[82]
   + 764 u[83] + 160 u[84] + 228 u[85] + 34 u[86] + 310 u[87] + 140 u[88]
   + 237 u[89] + 231 u[90] + 119 u[91] + 55 u[92] + 818 u[93] + 442 u[94]
   + 663 u[95] + 779 u[96] + 267 u[97] + 326 u[98] + 574 u[99] <= 972
 primal_lower71: 320 u[0] + 97 u[1] + 179 u[2] + 464 u[3] + 325 u[4]
   + 870 u[5] + 726 u[6] + 448 u[7] + 334 u[8] + 103 u[9] + 908 u[10]
   + 656 u[11] + 685 u[12] + 377 u[13] + 701 u[14] + 65 u[15] + 6 u[16]
   + 773 u[17] + 962 u[18] + 827 u[19] + 534 u[20] + 420 u[21] + 229 u[22]
   + 915 u[23] + 285 u[24] + 213 u[25] + 931 u[26] + 244 u[27] + 62 u[28]
   + 12 u[29] + 58 u[30] + 520 u[31] + 996 u[32] + 954 u[33] + 893 u[34]
   + 550 u[35] + 901 u[36] + 441 u[37] + 773 u[38] + 715 u[39] + 256 u[40]
   + 310 u[41] + 551 u[42] + 370 u[43] + 536 u[44] + 647 u[45] + 970 u[46]
   + 926 u[47] + 440 u[48] + 725 u[49] + 367 u[50] + 85 u[51] + 950 u[52]
   + 993 u[53] + 137 u[54] + 124 u[55] + 146 u[56] + 471 u[57] + 221 u[58]
   + 671 u[59] + 5 u[60] + 935 u[61] + 152 u[62] + 639 u[63] + 484 u[64]
   + 73 u[65] + 949 u[66] + 379 u[67] + 789 u[68] + 702 u[69] + 790 u[70]
   + 354 u[71] + 607 u[72] + 332 u[73] + 768 u[74] + 53 u[75] + 779 u[76]
   + 216 u[77] + 289 u[78] + 63 u[79] + 382 u[80] + 570 u[81] + 715 u[82]
   + 566 u[83] + 382 u[84] + 158 u[85] + 200 u[86] + 33 u[87] + 43 u[88]
   + 976 u[89] + 549 u[90] + 905 u[91] + 309 u[92] + 20 u[93] + 665 u[94]
   + 794 u[95] + 506 u[96] + 293 u[97] + 61 u[98] + 521 u[99] <= 996
 primal_lower72: 235 u[0] + 460 u[1] + 78 u[2] + 235 u[3] + 408 u[4]
   + 97 u[5] + 17 u[6] + 11 u[7] + 393 u[8] + 346 u[9] + 527 u[10]
   + 555 u[11] + 752 u[12] + 756 u[13] + 16 u[14] + 908 u[15] + 417 u[16]
   + 312 u[17] + 325 u[18] + 726 u[19] + 9 u[20] + 847 u[21] + 840 u[22]
   + 470 u[23] + 432 u[24] + 520 u[25] + 278 u[26] + 311 u[27] + 985 u[28]
   + 599 u[29] + 677 u[30] + 419 u[31] + 239 u[32] + 437 u[33] + 80 u[34]
   + 249 u[35] + 312 u[36] + 484 u[37] + 64 u[38] + 550 u[39] + 355 u[40]
   + 185 u[41] + 154 u[42] + 405 u[43] + 171 u[44] + 530 u[45] + 229 u[46]
   + 177 u[47] + 475 u[48] + 96 u[49] + 354 u[50] + 72 u[51] + 601 u[52]
   + 860 u[53] + 148 u[54] + 199 u[55] + 277 u[56] + 770 u[57] + 840 u[58]
   + 106 u[59] + 288 u[60] + 858 u[61] + 467 u[62] + 946 u[63] + 687 u[64]
   + 236 u[65] + 608 u[66] + 406 u[67] + 312 u[68] + 393 u[69] + 833 u[70]
   + 373 u[71] + 58 u[72] + 743 u[73] + 43 u[74] + 912 u[75] + 14 u[76]
   + 347 u[77] + 212 u[78] + 434 u[79] + 265 u[80] + 21 u[81] + 758 u[82]
   + 129 u[83] + 49 u[84] + 961 u[85] + 179 u[86] + 172 u[87] + 22 u[88]
   + 867 u[89] + 376 u[90] + 244 u[91] + 520 u[92] + 895 u[93] + 364 u[94]
   + 205 u[95] + 133 u[96] + 808 u[97] + 272 u[98] + 756 u[99] <= 985
 primal_lower73: 797 u[0] + 49 u[1] + 223 u[2] + 728 u[3] + 153 u[4]
   + 887 u[5] + 618 u[6] + 617 u[7] + 538 u[8] + 47 u[9] + 313 u[10]
   + 376 u[11] + 785 u[12] + 17 u[13] + 674 u[14] + 842 u[15] + 578 u[16]
   + 253 u[17] + 422 u[18] + 651 u[19] + 498 u[20] + 613 u[21] + 577 u[22]
   + 804 u[23] + 426 u[24] + 597 u[25] + 759 u[26] + 301 u[27] + 451 u[28]
   + 396 u[29] + 287 u[30] + 929 u[31] + 785 u[32] + 682 u[33] + 921 u[34]
   + 294 u[35] + 9 u[36] + 770 u[37] + 929 u[38] + 972 u[39] + 348 u[40]
   + 111 u[41] + 315 u[42] + 691 u[43] + 988 u[44] + 704 u[45] + 215 u[46]
   + 935 u[47] + 604 u[48] + 389 u[49] + 476 u[50] + 37 u[51] + 810 u[52]
   + 545 u[53] + 438 u[54] + 181 u[55] + 694 u[56] + 104 u[57] + 305 u[58]
   + 271 u[59] + 250 u[60] + 944 u[61] + 549 u[62] + 760 u[63] + 249 u[64]
   + 937 u[65] + 810 u[66] + 620 u[67] + 593 u[68] + 279 u[69] + 35 u[70]
   + 867 u[71] + 779 u[72] + 748 u[73] + 29 u[74] + 102 u[75] + 256 u[76]
   + 752 u[77] + 566 u[78] + 712 u[79] + 635 u[80] + 651 u[81] + 872 u[82]
   + 455 u[83] + 291 u[84] + 327 u[85] + 749 u[86] + 937 u[87] + 991 u[88]
   + 720 u[89] + 898 u[90] + 602 u[91] + 554 u[92] + 733 u[93] + 597 u[94]
   + 298 u[95] + 822 u[96] + 926 u[97] + 561 u[98] + 729 u[99] <= 991
 primal_lower74: 17 u[0] + 701 u[1] + 459 u[2] + 284 u[3] + 221 u[4]
   + 963 u[5] + 174 u[6] + 277 u[7] + 846 u[8] + 611 u[9] + 53 u[10]
   + 60 u[11] + 405 u[12] + 565 u[13] + 158 u[14] + 470 u[15] + 550 u[16]
   + 289 u[17] + 666 u[18] + 431 u[19] + 174 u[20] + 473 u[21] + 501 u[22]
   + 952 u[23] + 950 u[24] + 697 u[25] + 323 u[26] + 913 u[27] + 559 u[28]
   + 296 u[29] + 451 u[30] + 605 u[31] + 957 u[32] + 542 u[33] + 645 u[34]
   + 202 u[35] + 789 u[36] + 462 u[37] + 925 u[38] + 160 u[39] + 304 u[40]
   + 187 u[41] + 903 u[42] + 927 u[43] + 48 u[44] + 292 u[45] + 163 u[46]
   + 155 u[47] + 664 u[48] + 809 u[49] + 672 u[50] + 305 u[51] + 854 u[52]
   + 581 u[53] + 10 u[54] + 465 u[55] + 394 u[56] + 764 u[57] + 301 u[58]
   + 251 u[59] + 966 u[60] + 300 u[61] + u[62] + 260 u[63] + 189 u[64]
   + 677 u[65] + 262 u[66] + 696 u[67] + 293 u[68] + 747 u[69] + 287 u[70]
   + 343 u[71] + 223 u[72] + 256 u[73] + 793 u[74] + 282 u[75] + 972 u[76]
   + 548 u[77] + 666 u[78] + 796 u[79] + 367 u[80] + 199 u[81] + 60 u[82]
   + 907 u[83] + 175 u[84] + 339 u[85] + 753 u[86] + 613 u[87] + 843 u[88]
   + 116 u[89] + 150 u[90] + 798 u[91] + 670 u[92] + 753 u[93] + 585 u[94]
   + 302 u[95] + 842 u[96] + 906 u[97] + 213 u[98] + 781 u[99] <= 972
 primal_lower75: 520 u[0] + 892 u[1] + 842 u[2] + 275 u[3] + 748 u[4]
   + 618 u[5] + 605 u[6] + 116 u[7] + 37 u[8] + 642 u[9] + 148 u[10]
   + 659 u[11] + 660 u[12] + 140 u[13] + 173 u[14] + 893 u[15] + 941 u[16]
   + 56 u[17] + 281 u[18] + 382 u[19] + 461 u[20] + 832 u[21] + 492 u[22]
   + 671 u[23] + 973 u[24] + 576 u[25] + 338 u[26] + 672 u[27] + 742 u[28]
   + 655 u[29] + 394 u[30] + 44 u[31] + 924 u[32] + 677 u[33] + 308 u[34]
   + 505 u[35] + 556 u[36] + 989 u[37] + 212 u[38] + 751 u[39] + 775 u[40]
   + 346 u[41] + 910 u[42] + 590 u[43] + 887 u[44] + 227 u[45] + 530 u[46]
   + 914 u[47] + 239 u[48] + 16 u[49] + 423 u[50] + 600 u[51] + 901 u[52]
   + 932 u[53] + 217 u[54] + 808 u[55] + 297 u[56] + 187 u[57] + 52 u[58]
   + 370 u[59] + 941 u[60] + 411 u[61] + 80 u[62] + 75 u[63] + 52 u[64]
   + 780 u[65] + 725 u[66] + 799 u[67] + 316 u[68] + 898 u[69] + 310 u[70]
   + 414 u[71] + 814 u[72] + 655 u[73] + 656 u[74] + 377 u[75] + 891 u[76]
   + 139 u[77] + 801 u[78] + 59 u[79] + 598 u[80] + 46 u[81] + 467 u[82]
   + 226 u[83] + 198 u[84] + 354 u[85] + 296 u[86] + 292 u[87] + 226 u[88]
   + 715 u[89] + 309 u[90] + 821 u[91] + 101 u[92] + 400 u[93] + 432 u[94]
   + 653 u[95] + 393 u[96] + 393 u[97] + 52 u[98] + 276 u[99] <= 989
 primal_lower76: 381 u[0] + 982 u[1] + 416 u[2] + 405 u[3] + 778 u[4]
   + 483 u[5] + 915 u[6] + 517 u[7] + 779 u[8] + 700 u[9] + 177 u[10]
   + 189 u[11] + 970 u[12] + 414 u[13] + 98 u[14] + 174 u[15] + 139 u[16]
   + 522 u[17] + 383 u[18] + 352 u[19] + 795 u[20] + 617 u[21] + 946 u[22]
   + 728 u[23] + 114 u[24] + 314 u[25] + 984 u[26] + 361 u[27] + 491 u[28]
   + 561 u[29] + 479 u[30] + 157 u[31] + 433 u[32] + 679 u[33] + 314 u[34]
   + 355 u[35] + 922 u[36] + 222 u[37] + 962 u[38] + 1000 u[39] + 349 u[40]
   + 531 u[41] + 604 u[42] + 863 u[43] + 789 u[44] + 772 u[45] + 71 u[46]
   + 939 u[47] + 205 u[48] + 82 u[49] + 932 u[50] + 738 u[51] + 227 u[52]
   + 46 u[53] + 222 u[54] + 465 u[55] + 471 u[56] + 732 u[57] + 34 u[58]
   + 140 u[59] + 778 u[60] + 996 u[61] + 77 u[62] + 956 u[63] + 121 u[64]
   + 6 u[65] + 546 u[66] + 856 u[67] + 402 u[68] + 603 u[69] + 547 u[70]
   + 943 u[71] + 92 u[72] + 761 u[73] + 805 u[74] + 522 u[75] + 8 u[76]
   + 637 u[77] + 46 u[78] + 676 u[79] + 35 u[80] + 439 u[81] + 16 u[82]
   + 563 u[83] + 819 u[84] + 267 u[85] + 981 u[86] + 102 u[87] + 544 u[88]
   + 637 u[89] + 250 u[90] + 14 u[91] + 666 u[92] + 89 u[93] + 350 u[94]
   + 695 u[95] + 295 u[96] + 298 u[97] + 2 u[98] + 230 u[99] <= 1000
 primal_lower77: 22 u[0] + 383 u[1] + 529 u[2] + 174 u[3] + 19 u[4]
   + 452 u[5] + 772 u[6] + 614 u[7] + 92 u[8] + 341 u[9] + 586 u[10]
   + 950 u[11] + 963 u[12] + 375 u[13] + 827 u[14] + 367 u[15] + 268 u[16]
   + 523 u[17] + 128 u[18] + 113 u[19] + 876 u[20] + 810 u[21] + 339 u[22]
   + 553 u[23] + 771 u[24] + 795 u[25] + 433 u[26] + 386 u[27] + 884 u[28]
   + 482 u[29] + 608 u[30] + 126 u[31] + 90 u[32] + 560 u[33] + 755 u[34]
   + 468 u[35] + 843 u[36] + 647 u[37] + 275 u[38] + 257 u[39] + 366 u[40]
   + 604 u[41] + 221 u[42] + 328 u[43] + 878 u[44] + 821 u[45] + 368 u[46]
   + 556 u[47] + 6 u[48] + 787 u[49] + 717 u[50] + 955 u[51] + 788 u[52]
   + 559 u[53] + 167 u[54] + 426 u[55] + 752 u[56] + 29 u[57] + 451 u[58]
   + 813 u[59] + 947 u[60] + 341 u[61] + 534 u[62] + 373 u[63] + 346 u[64]
   + 119 u[65] + 315 u[66] + 209 u[67] + 915 u[68] + 164 u[69] + 300 u[70]
   + 8 u[71] + 749 u[72] + 802 u[73] + 846 u[74] + 507 u[75] + 633 u[76]
   + 998 u[77] + 239 u[78] + 213 u[79] + 36 u[80] + 784 u[81] + 649 u[82]
   + 76 u[83] + 108 u[84] + 68 u[85] + 446 u[86] + 791 u[87] + 737 u[88]
   + 134 u[89] + 275 u[90] + 679 u[91] + 203 u[92] + 794 u[93] + 855 u[94]
   + 720 u[95] + 928 u[96] + 811 u[97] + 587 u[98] + 527 u[99] <= 998
 primal_lower78: 49 u[0] + 109 u[1] + 723 u[2] + 188 u[3] + 941 u[4]
   + 195 u[5] + 110 u[6] + 877 u[7] + 86 u[8] + 371 u[9] + 917 u[10]
   + 508 u[11] + 805 u[12] + 725 u[13] + 326 u[14] + 918 u[15] + 206 u[16]
   + 673 u[17] + 290 u[18] + 551 u[19] + 486 u[20] + 25 u[21] + 165 u[22]
   + 168 u[23] + 118 u[24] + 97 u[25] + 803 u[26] + 617 u[27] + 71 u[28]
   + 512 u[29] + 699 u[30] + 269 u[31] + 597 u[32] + 270 u[33] + 253 u[34]
   + 2 u[35] + 613 u[36] + 526 u[37] + 461 u[38] + 168 u[39] + 392 u[40]
   + 43 u[41] + 495 u[42] + 807 u[43] + 816 u[44] + 724 u[45] + 987 u[46]
   + 547 u[47] + 808 u[48] + 601 u[49] + 920 u[50] + 281 u[51] + 926 u[52]
   + 909 u[53] + 154 u[54] + 369 u[55] + 418 u[56] + 668 u[57] + 205 u[58]
   + 603 u[59] + 734 u[60] + 804 u[61] + 385 u[62] + 836 u[63] + 597 u[64]
   + 485 u[65] + 878 u[66] + 928 u[67] + 261 u[68] + 731 u[69] + 679 u[70]
   + 615 u[71] + 111 u[72] + 288 u[73] + 401 u[74] + 666 u[75] + 940 u[76]
   + 348 u[77] + 850 u[78] + 460 u[79] + 663 u[80] + 855 u[81] + 668 u[82]
   + 755 u[83] + 671 u[84] + 131 u[85] + 617 u[86] + 53 u[87] + 3 u[88]
   + 132 u[89] + 582 u[90] + 94 u[91] + 326 u[92] + 817 u[93] + 257 u[94]
   + 174 u[95] + 770 u[96] + 490 u[97] + 941 u[98] + 637 u[99] <= 987
 primal_lower79: 438 u[0] + 762 u[1] + 720 u[2] + 537 u[3] + 106 u[4]
   + 264 u[5] + 947 u[6] + 562 u[7] + 379 u[8] + 648 u[9] + 82 u[10]
   + 481 u[11] + 698 u[12] + 418 u[13] + 3 u[14] + 867 u[15] + 915 u[16]
   + 358 u[17] + 647 u[18] + 588 u[19] + 603 u[20] + 222 u[21] + 586 u[22]
   + 365 u[23] + 243 u[24] + 222 u[25] + 648 u[26] + 670 u[27] + 244 u[28]
   + 309 u[29] + 984 u[30] + 898 u[31] + 546 u[32] + 547 u[33] + 306 u[34]
   + 47 u[35] + 690 u[36] + 715 u[37] + 138 u[38] + 133 u[39] + 933 u[40]
   + 488 u[41] + 836 u[42] + 180 u[43] + 781 u[44] + 33 u[45] + 288 u[46]
   + 176 u[47] + 789 u[48] + 174 u[49] + 477 u[50] + 326 u[51] + 163 u[52]
   + 634 u[53] + 495 u[54] + 398 u[55] + 455 u[56] + 337 u[57] + 170 u[58]
   + 88 u[59] + 315 u[60] + 977 u[61] + 790 u[62] + 305 u[63] + 458 u[64]
   + 626 u[65] + 691 u[66] + 517 u[67] + 746 u[68] + 440 u[69] + 180 u[70]
   + 476 u[71] + 588 u[72] + 965 u[73] + 702 u[74] + 895 u[75] + 777 u[76]
   + 313 u[77] + 959 u[78] + 953 u[79] + 396 u[80] + 788 u[81] + 553 u[82]
   + 88 u[83] + 972 u[84] + 296 u[85] + 510 u[86] + 794 u[87] + 704 u[88]
   + 817 u[89] + 491 u[90] + 3 u[91] + 619 u[92] + 918 u[93] + 318 u[94]
   + 987 u[95] + 87 u[96] + 479 u[97] + 122 u[98] + 906 u[99] <= 987
 primal_lower80: 521 u[0] + 226 u[1] + 764 u[2] + 849 u[3] + 670 u[4]
   + 575 u[5] + 975 u[6] + 49 u[7] + 527 u[8] + 888 u[9] + 85 u[10]
   + 33 u[11] + 38 u[12] + 410 u[13] + 774 u[14] + 178 u[15] + 879 u[16]
   + 718 u[17] + 595 u[18] + 764 u[19] + 823 u[20] + 173 u[21] + 350 u[22]
   + 436 u[23] + 654 u[24] + 854 u[25] + 92 u[26] + 645 u[27] + 831 u[28]
   + 837 u[29] + 603 u[30] + 329 u[31] + 37 u[32] + 811 u[33] + 374 u[34]
   + 503 u[35] + 430 u[36] + 778 u[37] + 654 u[38] + 548 u[39] + 529 u[40]
   + 63 u[41] + 904 u[42] + 635 u[43] + 641 u[44] + 504 u[45] + 707 u[46]
   + 839 u[47] + 833 u[48] + 470 u[49] + 224 u[50] + 966 u[51] + 407 u[52]
   + 378 u[53] + 482 u[54] + 613 u[55] + 883 u[56] + 160 u[57] + 686 u[58]
   + 264 u[59] + 110 u[60] + 152 u[61] + 817 u[62] + 440 u[63] + 45 u[64]
   + 650 u[65] + 318 u[66] + 956 u[67] + 750 u[68] + 119 u[69] + 623 u[70]
   + 843 u[71] + 648 u[72] + 189 u[73] + 121 u[74] + 158 u[75] + 532 u[76]
   + 705 u[77] + 578 u[78] + 896 u[79] + 279 u[80] + 939 u[81] + 380 u[82]
   + 167 u[83] + 199 u[84] + 991 u[85] + 289 u[86] + 42 u[87] + 828 u[88]
   + 569 u[89] + 950 u[90] + 554 u[91] + 438 u[92] + 581 u[93] + 82 u[94]
   + 411 u[95] + 651 u[96] + 862 u[97] + 166 u[98] + 682 u[99] <= 991
 primal_lower81: 768 u[0] + 92 u[1] + 434 u[2] + 323 u[3] + 884 u[4]
   + 114 u[5] + 669 u[6] + 756 u[7] + 645 u[8] + 426 u[9] + 988 u[10]
   + 571 u[11] + 188 u[12] + 916 u[13] + 405 u[14] + 453 u[15] + 717 u[16]
   + 384 u[17] + 201 u[18] + 102 u[19] + 589 u[20] + 488 u[21] + 476 u[22]
   + 791 u[23] + 797 u[24] + 872 u[25] + 210 u[26] + 16 u[27] + 518 u[28]
   + 823 u[29] + 42 u[30] + 452 u[31] + 44 u[32] + 493 u[33] + 652 u[34]
   + 113 u[35] + 92 u[36] + 29 u[37] + 700 u[38] + 223 u[39] + 735 u[40]
   + 466 u[41] + 606 u[42] + 870 u[43] + 999 u[44] + 403 u[45] + 962 u[46]
   + 98 u[47] + 895 u[48] + 976 u[49] + 991 u[50] + 736 u[51] + 157 u[52]
   + 316 u[53] + 313 u[54] + 304 u[55] + 561 u[56] + 499 u[57] + 524 u[58]
   + 114 u[59] + 861 u[60] + 523 u[61] + 288 u[62] + 979 u[63] + 196 u[64]
   + 268 u[65] + 101 u[66] + 607 u[67] + 732 u[68] + 146 u[69] + 662 u[70]
   + 974 u[71] + 782 u[72] + 879 u[73] + 584 u[74] + 609 u[75] + 419 u[76]
   + 955 u[77] + 41 u[78] + 859 u[79] + 670 u[80] + 54 u[81] + 163 u[82]
   + 546 u[83] + 286 u[84] + 90 u[85] + 640 u[86] + 852 u[87] + 778 u[88]
   + 531 u[89] + 5 u[90] + 61 u[91] + 613 u[92] + 96 u[93] + 960 u[94]
   + 285 u[95] + 121 u[96] + 345 u[97] + 188 u[98] + 668 u[99] <= 999
 primal_lower82: 120 u[0] + 172 u[1] + 946 u[2] + 859 u[3] + 404 u[4]
   + 482 u[5] + 373 u[6] + 540 u[7] + 261 u[8] + 42 u[9] + 556 u[10]
   + 11 u[11] + 532 u[12] + 436 u[13] + 189 u[14] + 437 u[15] + 725 u[16]
   + 384 u[17] + 9 u[18] + 102 u[19] + 421 u[20] + 8 u[21] + 772 u[22]
   + 55 u[23] + 477 u[24] + 680 u[25] + 458 u[26] + 8 u[27] + 310 u[28]
   + 351 u[29] + 978 u[30] + 676 u[31] + 36 u[32] + 477 u[33] + 900 u[34]
   + 905 u[35] + 484 u[36] + 109 u[37] + 316 u[38] + 359 u[39] + 335 u[40]
   + 146 u[41] + 774 u[42] + 934 u[43] + 623 u[44] + 267 u[45] + 698 u[46]
   + 530 u[47] + 775 u[48] + 760 u[49] + 951 u[50] + 816 u[51] + 557 u[52]
   + 804 u[53] + 25 u[54] + 320 u[55] + 857 u[56] + 835 u[57] + 876 u[58]
   + 842 u[59] + 837 u[60] + 515 u[61] + 776 u[62] + 955 u[63] + 28 u[64]
   + 268 u[65] + 573 u[66] + 39 u[67] + 524 u[68] + 346 u[69] + 190 u[70]
   + 654 u[71] + 422 u[72] + 391 u[73] + 584 u[74] + 809 u[75] + 787 u[76]
   + 187 u[77] + 105 u[78] + 363 u[79] + 750 u[80] + 246 u[81] + 979 u[82]
   + 994 u[83] + 862 u[84] + 562 u[85] + 384 u[86] + 876 u[87] + 762 u[88]
   + 371 u[89] + 645 u[90] + 853 u[91] + 869 u[92] + 496 u[93] + 320 u[94]
   + 421 u[95] + 897 u[96] + 609 u[97] + 332 u[98] + 148 u[99] <= 994
 primal_lower83: 772 u[0] + 229 u[1] + 919 u[2] + 644 u[3] + 465 u[4]
   + 506 u[5] + 922 u[6] + 468 u[7] + 970 u[8] + 331 u[9] + 880 u[10]
   + 468 u[11] + 897 u[12] + 189 u[13] + 953 u[14] + 453 u[15] + 18 u[16]
   + 329 u[17] + 94 u[18] + 287 u[19] + 434 u[20] + 680 u[21] + 97 u[22]
   + 583 u[23] + 697 u[24] + 993 u[25] + 359 u[26] + 672 u[27] + 194 u[28]
   + 296 u[29] + 622 u[30] + 812 u[31] + 72 u[32] + 982 u[33] + 873 u[34]
   + 794 u[35] + 929 u[36] + 565 u[37] + 529 u[38] + 847 u[39] + 676 u[40]
   + 954 u[41] + 787 u[42] + 110 u[43] + 732 u[44] + 579 u[45] + 974 u[46]
   + 498 u[47] + 52 u[48] + 225 u[49] + 267 u[50] + 609 u[51] + 922 u[52]
   + 253 u[53] + 253 u[54] + 576 u[55] + 582 u[56] + 827 u[57] + 809 u[58]
   + 619 u[59] + 913 u[60] + 147 u[61] + 900 u[62] + 371 u[63] + 800 u[64]
   + 93 u[65] + 953 u[66] + 119 u[67] + 377 u[68] + 826 u[69] + 594 u[70]
   + 726 u[71] + 643 u[72] + 520 u[73] + 100 u[74] + 265 u[75] + 887 u[76]
   + 524 u[77] + 213 u[78] + 915 u[79] + 394 u[80] + 206 u[81] + 423 u[82]
   + 402 u[83] + 50 u[84] + 314 u[85] + 460 u[86] + 333 u[87] + 599 u[88]
   + 340 u[89] + 953 u[90] + 645 u[91] + 937 u[92] + 512 u[93] + 45 u[94]
   + 86 u[95] + 358 u[96] + 241 u[97] + 81 u[98] + 821 u[99] <= 993
 primal_lower84: 597 u[0] + 694 u[1] + 480 u[2] + 885 u[3] + 2 u[4]
   + 771 u[5] + 11 u[6] + 957 u[7] + 563 u[8] + 924 u[9] + 129 u[10]
   + 941 u[11] + 914 u[12] + 590 u[13] + 986 u[14] + 918 u[15] + 667 u[16]
   + 810 u[17] + 831 u[18] + 992 u[19] + 475 u[20] + 57 u[21] + 586 u[22]
   + 184 u[23] + 994 u[24] + 618 u[25] + 688 u[26] + 825 u[27] + 371 u[28]
   + 337 u[29] + 223 u[30] + 637 u[31] + 273 u[32] + 319 u[33] + 90 u[34]
   + 283 u[35] + 586 u[36] + 726 u[37] + 266 u[38] + 744 u[39] + 485 u[40]
   + 907 u[41] + 804 u[42] + 759 u[43] + 453 u[44] + 52 u[45] + 759 u[46]
   + 59 u[47] + 533 u[48] + 610 u[49] + 900 u[50] + 194 u[51] + 67 u[52]
   + 294 u[53] + 998 u[54] + 137 u[55] + 311 u[56] + 708 u[57] + 842 u[58]
   + 148 u[59] + 706 u[60] + 220 u[61] + 757 u[62] + 260 u[63] + 233 u[64]
   + 918 u[65] + 906 u[66] + 376 u[67] + 626 u[68] + 483 u[69] + 507 u[70]
   + 791 u[71] + 988 u[72] + 513 u[73] + 93 u[74] + 202 u[75] + 728 u[76]
   + 397 u[77] + 470 u[78] + 300 u[79] + 267 u[80] + 151 u[81] + 120 u[82]
   + 507 u[83] + 659 u[84] + 995 u[85] + 261 u[86] + 118 u[87] + 928 u[88]
   + 997 u[89] + 178 u[90] + 54 u[91] + 450 u[92] + 465 u[93] + 270 u[94]
   + 711 u[95] + 463 u[96] + 410 u[97] + 90 u[98] + 494 u[99] <= 998
 primal_lower85: 496 u[0] + 980 u[1] + 226 u[2] + 67 u[3] + 452 u[4]
   + 642 u[5] + 5 u[6] + 68 u[7] + 197 u[8] + 706 u[9] + 900 u[10]
   + 803 u[11] + 92 u[12] + 180 u[13] + 173 u[14] + 85 u[15] + 45 u[16]
   + 632 u[17] + 433 u[18] + 918 u[19] + 285 u[20] + 192 u[21] + 300 u[22]
   + 327 u[23] + 725 u[24] + 80 u[25] + 58 u[26] + 872 u[27] + 726 u[28]
   + 663 u[29] + 818 u[30] + 780 u[31] + 580 u[32] + 861 u[33] + 76 u[34]
   + 529 u[35] + 668 u[36] + 917 u[37] + 564 u[38] + 527 u[39] + 423 u[40]
   + 698 u[41] + 542 u[42] + 510 u[43] + 463 u[44] + 363 u[45] + 258 u[46]
   + 370 u[47] + 831 u[48] + 552 u[49] + 287 u[50] + 416 u[51] + 933 u[52]
   + 476 u[53] + 993 u[54] + 232 u[55] + 513 u[56] + 307 u[57] + 588 u[58]
   + 210 u[59] + 869 u[60] + 243 u[61] + 360 u[62] + 843 u[63] + 748 u[64]
   + 196 u[65] + 709 u[66] + 487 u[67] + 52 u[68] + 322 u[69] + 118 u[70]
   + 822 u[71] + 590 u[72] + 647 u[73] + 560 u[74] + 97 u[75] + 419 u[76]
   + 267 u[77] + 185 u[78] + 763 u[79] + 782 u[80] + 534 u[81] + 987 u[82]
   + 762 u[83] + 614 u[84] + 554 u[85] + 720 u[86] + 52 u[87] + 122 u[88]
   + 563 u[89] + 749 u[90] + 373 u[91] + 237 u[92] + 320 u[93] + 464 u[94]
   + 269 u[95] + 473 u[96] + 577 u[97] + 548 u[98] + 332 u[99] <= 993
 primal_lower86: 140 u[0] + 976 u[1] + 958 u[2] + 855 u[3] + 224 u[4]
   + 686 u[5] + 481 u[6] + 824 u[7] + 225 u[8] + 6 u[9] + 456 u[10]
   + 559 u[11] + 440 u[12] + 432 u[13] + 153 u[14] + 657 u[15] + u[16]
   + 468 u[17] + 925 u[18] + 458 u[19] + 665 u[20] + 164 u[21] + 56 u[22]
   + 27 u[23] + 465 u[24] + 116 u[25] + 534 u[26] + 324 u[27] + 290 u[28]
   + 779 u[29] + 822 u[30] + 48 u[31] + 16 u[32] + 481 u[33] + 480 u[34]
   + 557 u[35] + 296 u[36] + 297 u[37] + 784 u[38] + 571 u[39] + 635 u[40]
   + 926 u[41] + 26 u[42] + 682 u[43] + 43 u[44] + 303 u[45] + 510 u[46]
   + 998 u[47] + 747 u[48] + 948 u[49] + 907 u[50] + 636 u[51] + 473 u[52]
   + 928 u[53] + 381 u[54] + 908 u[55] + 429 u[56] + 719 u[57] + 728 u[58]
   + 326 u[59] + 17 u[60] + 567 u[61] + 596 u[62] + 695 u[63] + 664 u[64]
   + 56 u[65] + 497 u[66] + 187 u[67] + 928 u[68] + 718 u[69] + 90 u[70]
   + 586 u[71] + 658 u[72] + 155 u[73] + 628 u[74] + 797 u[75] + 775 u[76]
   + 431 u[77] + 293 u[78] + 999 u[79] + 834 u[80] + 330 u[81] + 215 u[82]
   + 926 u[83] + 538 u[84] + 518 u[85] + 956 u[86] + 168 u[87] + 854 u[88]
   + 735 u[89] + 401 u[90] + 153 u[91] + 689 u[92] + 972 u[93] + 196 u[94]
   + 689 u[95] + 757 u[96] + 245 u[97] + 704 u[98] + 592 u[99] <= 999
 primal_lower87: 766 u[0] + 655 u[1] + 153 u[2] + 278 u[3] + 219 u[4]
   + 196 u[5] + 868 u[6] + 790 u[7] + 588 u[8] + 269 u[9] + 690 u[10]
   + 270 u[11] + 387 u[12] + 39 u[13] + 923 u[14] + 799 u[15] + 44 u[16]
   + 603 u[17] + 56 u[18] + 193 u[19] + 860 u[20] + 770 u[21] + 307 u[22]
   + 953 u[23] + 267 u[24] + 427 u[25] + 329 u[26] + 346 u[27] + 20 u[28]
   + 578 u[29] + 736 u[30] + 126 u[31] + 138 u[32] + 520 u[33] + 547 u[34]
   + 188 u[35] + 395 u[36] + 319 u[37] + 147 u[38] + 857 u[39] + 926 u[40]
   + 636 u[41] + 773 u[42] + 784 u[43] + 670 u[44] + 901 u[45] + 240 u[46]
   + 980 u[47] + 902 u[48] + 619 u[49] + 765 u[50] + 19 u[51] + 828 u[52]
   + 359 u[53] + 31 u[54] + 698 u[55] + 584 u[56] + 789 u[57] + 115 u[58]
   + 381 u[59] + 963 u[60] + 925 u[61] + 742 u[62] + 933 u[63] + 882 u[64]
   + 271 u[65] + 27 u[66] + 105 u[67] + 139 u[68] + 716 u[69] + 548 u[70]
   + 584 u[71] + 845 u[72] + 914 u[73] + 374 u[74] + 883 u[75] + 49 u[76]
   + 342 u[77] + 943 u[78] + 389 u[79] + 932 u[80] + 320 u[81] + 609 u[82]
   + 764 u[83] + 4 u[84] + 476 u[85] + 182 u[86] + 975 u[87] + 25 u[88]
   + 950 u[89] + 635 u[90] + 407 u[91] + 75 u[92] + 218 u[93] + 543 u[94]
   + 192 u[95] + 448 u[96] + 459 u[97] + 595 u[98] + 639 u[99] <= 980
 primal_lower88: 377 u[0] + 821 u[1] + 979 u[2] + 604 u[3] + 829 u[4]
   + 883 u[5] + 886 u[6] + 349 u[7] + 806 u[8] + 427 u[9] + 37 u[10]
   + 668 u[11] + 437 u[12] + 541 u[13] + 990 u[14] + 878 u[15] + 14 u[16]
   + 361 u[17] + 434 u[18] + 135 u[19] + 886 u[20] + 489 u[21] + 757 u[22]
   + 616 u[23] + 22 u[24] + 265 u[25] + 371 u[26] + 849 u[27] + 623 u[28]
   + 528 u[29] + 403 u[30] + 301 u[31] + 629 u[32] + 782 u[33] + 605 u[34]
   + 18 u[35] + 853 u[36] + 574 u[37] + 621 u[38] + 752 u[39] + 256 u[40]
   + 19 u[41] + 151 u[42] + 999 u[43] + 856 u[44] + 924 u[45] + 67 u[46]
   + 515 u[47] + 944 u[48] + 601 u[49] + 608 u[50] + 417 u[51] + 502 u[52]
   + 37 u[53] + 162 u[54] + 761 u[55] + 186 u[56] + 524 u[57] + 173 u[58]
   + 531 u[59] + 22 u[60] + 548 u[61] + 593 u[62] + 668 u[63] + 357 u[64]
   + 149 u[65] + 694 u[66] + 568 u[67] + 333 u[68] + 539 u[69] + 615 u[70]
   + 415 u[71] + 479 u[72] + 608 u[73] + 57 u[74] + 658 u[75] + 220 u[76]
   + 852 u[77] + 626 u[78] + 628 u[79] + 351 u[80] + 879 u[81] + 108 u[82]
   + 539 u[83] + 919 u[84] + 603 u[85] + 441 u[86] + 717 u[87] + 459 u[88]
   + 964 u[89] + 782 u[90] + 806 u[91] + 862 u[92] + 633 u[93] + 481 u[94]
   + 214 u[95] + 266 u[96] + 714 u[97] + 485 u[98] + 597 u[99] <= 999
 primal_lower89: 676 u[0] + 501 u[1] + 743 u[2] + 892 u[3] + 977 u[4]
   + 594 u[5] + 258 u[6] + 12 u[7] + 722 u[8] + 91 u[9] + 736 u[10]
   + 588 u[11] + 777 u[12] + 269 u[13] + 465 u[14] + 277 u[15] + 842 u[16]
   + 73 u[17] + 126 u[18] + 751 u[19] + 474 u[20] + 32 u[21] + 873 u[22]
   + 391 u[23] + 841 u[24] + 649 u[25] + 287 u[26] + 600 u[27] + 66 u[28]
   + 656 u[29] + 694 u[30] + 204 u[31] + 48 u[32] + 622 u[33] + 913 u[34]
   + 562 u[35] + 697 u[36] + 469 u[37] + 25 u[38] + 111 u[39] + 652 u[40]
   + 658 u[41] + 299 u[42] + 446 u[43] + 532 u[44] + 195 u[45] + 918 u[46]
   + 506 u[47] + 44 u[48] + 769 u[49] + 499 u[50] + 801 u[51] + 490 u[52]
   + 309 u[53] + 901 u[54] + 416 u[55] + 838 u[56] + 795 u[57] + 73 u[58]
   + 611 u[59] + 905 u[60] + 947 u[61] + 772 u[62] + 899 u[63] + 400 u[64]
   + 93 u[65] + 801 u[66] + 879 u[67] + 833 u[68] + 274 u[69] + 218 u[70]
   + 558 u[71] + 19 u[72] + 248 u[73] + 452 u[74] + 113 u[75] + 87 u[76]
   + 732 u[77] + 653 u[78] + 27 u[79] + 746 u[80] + 62 u[81] + 551 u[82]
   + 930 u[83] + 170 u[84] + 962 u[85] + 188 u[86] + 653 u[87] + 983 u[88]
   + 692 u[89] + 473 u[90] + 21 u[91] + 249 u[92] + 648 u[93] + 813 u[94]
   + 806 u[95] + 326 u[96] + 25 u[97] + 497 u[98] + 989 u[99] <= 989
 primal_lower90: 429 u[0] + 25 u[1] + 799 u[2] + 800 u[3] + 657 u[4]
   + 127 u[5] + 426 u[6] + 977 u[7] + 898 u[8] + 199 u[9] + 609 u[10]
   + 416 u[11] + 25 u[12] + 625 u[13] + 538 u[14] + 154 u[15] + 146 u[16]
   + 261 u[17] + 646 u[18] + 475 u[19] + 282 u[20] + 693 u[21] + 409 u[22]
   + 620 u[23] + 626 u[24] + 557 u[25] + 607 u[26] + 773 u[27] + 331 u[28]
   + 388 u[29] + 79 u[30] + 265 u[31] + 505 u[32] + 466 u[33] + 273 u[34]
   + 950 u[35] + 873 u[36] + 218 u[37] + 889 u[38] + 156 u[39] + 532 u[40]
   + 463 u[41] + 379 u[42] + 715 u[43] + 852 u[44] + 840 u[45] + 7 u[46]
   + 463 u[47] + 300 u[48] + 669 u[49] + 436 u[50] + 245 u[51] + 354 u[52]
   + 105 u[53] + 990 u[54] + 269 u[55] + 478 u[56] + 136 u[57] + 721 u[58]
   + 647 u[59] + 850 u[60] + 840 u[61] + 61 u[62] + 24 u[63] + 177 u[64]
   + 209 u[65] + 106 u[66] + 348 u[67] + 649 u[68] + 911 u[69] + 707 u[70]
   + 635 u[71] + 75 u[72] + 596 u[73] + 429 u[74] + 246 u[75] + 248 u[76]
   + 864 u[77] + 166 u[78] + 520 u[79] + 619 u[80] + 571 u[81] + 920 u[82]
   + 247 u[83] + 331 u[84] + 775 u[85] + 957 u[86] + 177 u[87] + 375 u[88]
   + 112 u[89] + 490 u[90] + 762 u[91] + 738 u[92] + 437 u[93] + 301 u[94]
   + 138 u[95] + 406 u[96] + 638 u[97] + 97 u[98] + 321 u[99] <= 990
 primal_lower91: 659 u[0] + 172 u[1] + 382 u[2] + 851 u[3] + 616 u[4]
   + 729 u[5] + 697 u[6] + 403 u[7] + 737 u[8] + 618 u[9] + 95 u[10]
   + 979 u[11] + 432 u[12] + 620 u[13] + 512 u[14] + 628 u[15] + 441 u[16]
   + 120 u[17] + 29 u[18] + 966 u[19] + 337 u[20] + 559 u[21] + 496 u[22]
   + 566 u[23] + 24 u[24] + 960 u[25] + 718 u[26] + 615 u[27] + 265 u[28]
   + 399 u[29] + 269 u[30] + 595 u[31] + 295 u[32] + 693 u[33] + 464 u[34]
   + 97 u[35] + 248 u[36] + 52 u[37] + 16 u[38] + 302 u[39] + 859 u[40]
   + 313 u[41] + 34 u[42] + 981 u[43] + 427 u[44] + 714 u[45] + 269 u[46]
   + 889 u[47] + 259 u[48] + 488 u[49] + 338 u[50] + 136 u[51] + 585 u[52]
   + 76 u[53] + 76 u[54] + 631 u[55] + 629 u[56] + 858 u[57] + 488 u[58]
   + 722 u[59] + 64 u[60] + 570 u[61] + 619 u[62] + 890 u[63] + 751 u[64]
   + 236 u[65] + 64 u[66] + 46 u[67] + 104 u[68] + 345 u[69] + 945 u[70]
   + 293 u[71] + 834 u[72] + 743 u[73] + 339 u[74] + 496 u[75] + 190 u[76]
   + 619 u[77] + 212 u[78] + 66 u[79] + 25 u[80] + 765 u[81] + 526 u[82]
   + 881 u[83] + 305 u[84] + 89 u[85] + 411 u[86] + 860 u[87] + 286 u[88]
   + 227 u[89] + 1000 u[90] + 572 u[91] + 720 u[92] + 727 u[93] + 236 u[94]
   + 861 u[95] + 981 u[96] + 328 u[97] + 160 u[98] + 164 u[99] <= 1000
 primal_lower92: 73 u[0] + 621 u[1] + 315 u[2] + 20 u[3] + 269 u[4]
   + 107 u[5] + 670 u[6] + 301 u[7] + 158 u[8] + 259 u[9] + 973 u[10]
   + 756 u[11] + 261 u[12] + 661 u[13] + 798 u[14] + 262 u[15] + 438 u[16]
   + 305 u[17] + 298 u[18] + 175 u[19] + 814 u[20] + 433 u[21] + 861 u[22]
   + 848 u[23] + 246 u[24] + 617 u[25] + 579 u[26] + 385 u[27] + 95 u[28]
   + 576 u[29] + 803 u[30] + 573 u[31] + 821 u[32] + 134 u[33] + 581 u[34]
   + 266 u[35] + 757 u[36] + 190 u[37] + 133 u[38] + 56 u[39] + 848 u[40]
   + 499 u[41] + 991 u[42] + 903 u[43] + 304 u[44] + 340 u[45] + 27 u[46]
   + 659 u[47] + 232 u[48] + 889 u[49] + 264 u[50] + 937 u[51] + 118 u[52]
   + 301 u[53] + 90 u[54] + 681 u[55] + 498 u[56] + 156 u[57] + 997 u[58]
   + 651 u[59] + 22 u[60] + 948 u[61] + 321 u[62] + 620 u[63] + 429 u[64]
   + 621 u[65] + 454 u[66] + 848 u[67] + 237 u[68] + 107 u[69] + 279 u[70]
   + 7 u[71] + 287 u[72] + 360 u[73] + 801 u[74] + 82 u[75] + 628 u[76]
   + 876 u[77] + 394 u[78] + 492 u[79] + 775 u[80] + 415 u[81] + 740 u[82]
   + 131 u[83] + 335 u[84] + 739 u[85] + 553 u[86] + 869 u[87] + 931 u[88]
   + 604 u[89] + 110 u[90] + 534 u[91] + 54 u[92] + 113 u[93] + 777 u[94]
   + 614 u[95] + 474 u[96] + 874 u[97] + 949 u[98] + 517 u[99] <= 997
 primal_lower93: 308 u[0] + 400 u[1] + 390 u[2] + 567 u[3] + 456 u[4]
   + 830 u[5] + 129 u[6] + 536 u[7] + u[8] + 638 u[9] + 712 u[10]
   + 391 u[11] + 520 u[12] + 800 u[13] + 361 u[14] + 689 u[15] + 569 u[16]
   + 604 u[17] + 541 u[18] + 514 u[19] + 241 u[20] + 756 u[21] + 792 u[22]
   + 843 u[23] + 945 u[24] + 44 u[25] + 286 u[26] + 100 u[27] + 898 u[28]
   + 99 u[29] + 894 u[30] + 184 u[31] + 984 u[32] + 737 u[33] + 744 u[34]
   + 349 u[35] + 600 u[36] + 897 u[37] + 936 u[38] + 403 u[39] + 475 u[40]
   + 334 u[41] + 90 u[42] + 786 u[43] + 571 u[44] + 359 u[45] + 542 u[46]
   + 782 u[47] + 699 u[48] + 580 u[49] + 243 u[50] + 212 u[51] + 881 u[52]
   + 296 u[53] + 613 u[54] + 908 u[55] + 557 u[56] + 311 u[57] + 224 u[58]
   + 598 u[59] + 137 u[60] + 231 u[61] + 36 u[62] + 519 u[63] + 536 u[64]
   + 136 u[65] + 65 u[66] + 3 u[67] + 552 u[68] + 414 u[69] + 258 u[70]
   + 362 u[71] + 154 u[72] + 195 u[73] + 252 u[74] + 717 u[75] + 695 u[76]
   + 87 u[77] + 765 u[78] + 519 u[79] + 266 u[80] + 458 u[81] + 87 u[82]
   + 918 u[83] + 306 u[84] + 830 u[85] + 212 u[86] + 432 u[87] + 150 u[88]
   + 103 u[89] + 393 u[90] + 105 u[91] + 545 u[92] + 252 u[93] + 908 u[94]
   + 497 u[95] + 157 u[96] + 173 u[97] + 680 u[98] + 904 u[99] <= 984
 primal_lower94: 562 u[0] + 438 u[1] + 196 u[2] + 701 u[3] + 598 u[4]
   + 956 u[5] + 383 u[6] + 926 u[7] + 855 u[8] + 300 u[9] + 326 u[10]
   + 925 u[11] + 702 u[12] + 278 u[13] + 551 u[14] + 119 u[15] + 623 u[16]
   + 546 u[17] + 315 u[18] + 280 u[19] + 199 u[20] + 546 u[21] + 78 u[22]
   + 681 u[23] + 343 u[24] + 434 u[25] + 588 u[26] + 730 u[27] + 456 u[28]
   + 505 u[29] + 892 u[30] + 206 u[31] + 846 u[32] + 671 u[33] + 270 u[34]
   + 363 u[35] + 934 u[36] + 951 u[37] + 806 u[38] + 193 u[39] + 761 u[40]
   + 636 u[41] + 944 u[42] + 992 u[43] + 521 u[44] + 205 u[45] + 900 u[46]
   + 788 u[47] + 33 u[48] + 466 u[49] + 449 u[50] + 314 u[51] + 87 u[52]
   + 478 u[53] + 603 u[54] + 330 u[55] + 563 u[56] + 69 u[57] + 310 u[58]
   + 220 u[59] + 431 u[60] + 645 u[61] + 962 u[62] + 965 u[63] + 174 u[64]
   + 390 u[65] + 199 u[66] + 689 u[67] + 470 u[68] + 588 u[69] + 248 u[70]
   + 544 u[71] + 160 u[72] + 593 u[73] + 154 u[74] + 259 u[75] + 677 u[76]
   + 941 u[77] + 139 u[78] + 693 u[79] + 376 u[80] + 8 u[81] + 877 u[82]
   + 76 u[83] + 376 u[84] + 796 u[85] + 370 u[86] + 470 u[87] + 700 u[88]
   + 165 u[89] + 95 u[90] + 407 u[91] + 583 u[92] + 746 u[93] + 298 u[94]
   + 543 u[95] + 155 u[96] + 323 u[97] + 206 u[98] + 54 u[99] <= 992
 primal_lower95: 443 u[0] + 7 u[1] + 461 u[2] + 598 u[3] + 143 u[4]
   + 549 u[5] + 832 u[6] + 935 u[7] + 88 u[8] + 237 u[9] + 159 u[10]
   + 598 u[11] + 119 u[12] + 511 u[13] + 832 u[14] + 328 u[15] + 552 u[16]
   + 219 u[17] + 724 u[18] + 377 u[19] + 24 u[20] + 51 u[21] + 887 u[22]
   + 514 u[23] + 1000 u[24] + 883 u[25] + 293 u[26] + 283 u[27] + 369 u[28]
   + 34 u[29] + 709 u[30] + 191 u[31] + 703 u[32] + 16 u[33] + 535 u[34]
   + 444 u[35] + 847 u[36] + 184 u[37] + 767 u[38] + 986 u[39] + 786 u[40]
   + 293 u[41] + 625 u[42] + 569 u[43] + 90 u[44] + 166 u[45] + 997 u[46]
   + 989 u[47] + 314 u[48] + 579 u[49] + 434 u[50] + 195 u[51] + 488 u[52]
   + 87 u[53] + 12 u[54] + 979 u[55] + 12 u[56] + 86 u[57] + 759 u[58]
   + 861 u[59] + 296 u[60] + 990 u[61] + 571 u[62] + 342 u[63] + 71 u[64]
   + 815 u[65] + 504 u[66] + 10 u[67] + 575 u[68] + 405 u[69] + 753 u[70]
   + 185 u[71] + 265 u[72] + 146 u[73] + 275 u[74] + 188 u[75] + 190 u[76]
   + 550 u[77] + 916 u[78] + 982 u[79] + 137 u[80] + 777 u[81] + 350 u[82]
   + 357 u[83] + 553 u[84] + 349 u[85] + 763 u[86] + 791 u[87] + 653 u[88]
   + 494 u[89] + 568 u[90] + 656 u[91] + 40 u[92] + 907 u[93] + 899 u[94]
   + 344 u[95] + 628 u[96] + 572 u[97] + 191 u[98] + 511 u[99] <= 1000
 primal_lower96: 179 u[0] + 836 u[1] + 270 u[2] + 595 u[3] + 392 u[4]
   + 865 u[5] + 129 u[6] + 963 u[7] + 89 u[8] + 642 u[9] + 247 u[10]
   + 347 u[11] + 584 u[12] + 76 u[13] + 24 u[14] + 212 u[15] + 457 u[16]
   + 160 u[17] + 893 u[18] + 102 u[19] + 657 u[20] + 743 u[21] + 856 u[22]
   + 166 u[23] + 216 u[24] + 216 u[25] + 206 u[26] + 367 u[27] + 841 u[28]
   + 375 u[29] + 701 u[30] + 755 u[31] + 895 u[32] + 957 u[33] + 816 u[34]
   + 161 u[35] + 264 u[36] + 436 u[37] + 720 u[38] + 230 u[39] + 651 u[40]
   + 953 u[41] + 98 u[42] + 949 u[43] + 275 u[44] + 698 u[45] + 861 u[46]
   + 913 u[47] + 299 u[48] + 480 u[49] + 514 u[50] + 616 u[51] + 97 u[52]
   + 500 u[53] + 340 u[54] + 447 u[55] + 293 u[56] + 226 u[57] + 232 u[58]
   + 978 u[59] + 480 u[60] + 570 u[61] + 507 u[62] + 354 u[63] + 407 u[64]
   + 804 u[65] + 184 u[66] + 110 u[67] + 304 u[68] + 217 u[69] + 441 u[70]
   + 949 u[71] + 322 u[72] + 143 u[73] + 179 u[74] + 224 u[75] + 414 u[76]
   + 123 u[77] + 44 u[78] + 370 u[79] + 505 u[80] + 109 u[81] + 654 u[82]
   + 153 u[83] + 529 u[84] + 585 u[85] + 747 u[86] + 404 u[87] + 766 u[88]
   + 947 u[89] + 720 u[90] + 404 u[91] + 880 u[92] + 815 u[93] + 852 u[94]
   + 501 u[95] + 301 u[96] + 664 u[97] + 744 u[98] + 652 u[99] <= 978
 primal_lower97: 256 u[0] + 996 u[1] + 114 u[2] + 859 u[3] + 108 u[4]
   + 202 u[5] + 85 u[6] + 652 u[7] + 797 u[8] + 106 u[9] + 948 u[10]
   + 203 u[11] + 20 u[12] + 644 u[13] + 37 u[14] + 829 u[15] + 637 u[16]
   + 136 u[17] + 193 u[18] + 38 u[19] + 685 u[20] + 664 u[21] + 844 u[22]
   + 463 u[23] + 597 u[24] + 208 u[25] + 730 u[26] + 272 u[27] + 214 u[28]
   + 263 u[29] + 802 u[30] + 148 u[31] + 364 u[32] + 813 u[33] + 556 u[34]
   + 89 u[35] + 964 u[36] + 453 u[37] + 932 u[38] + 991 u[39] + 87 u[40]
   + 698 u[41] + 246 u[42] + 158 u[43] + 383 u[44] + 891 u[45] + 98 u[46]
   + 922 u[47] + 583 u[48] + 600 u[49] + 39 u[50] + 416 u[51] + 85 u[52]
   + 844 u[53] + 305 u[54] + 416 u[55] + 961 u[56] + 331 u[57] + 276 u[58]
   + 954 u[59] + 189 u[60] + 867 u[61] + 832 u[62] + 203 u[63] + 300 u[64]
   + 540 u[65] + 333 u[66] + 623 u[67] + 180 u[68] + 58 u[69] + 966 u[70]
   + 350 u[71] + 30 u[72] + 399 u[73] + 408 u[74] + 345 u[75] + 739 u[76]
   + 43 u[77] + 393 u[78] + 27 u[79] + 694 u[80] + 718 u[81] + 243 u[82]
   + 138 u[83] + 134 u[84] + 274 u[85] + 584 u[86] + 700 u[87] + 898 u[88]
   + 915 u[89] + 589 u[90] + 701 u[91] + 877 u[92] + 712 u[93] + 552 u[94]
   + 357 u[95] + 561 u[96] + 145 u[97] + 580 u[98] + 412 u[99] <= 996
 primal_lower98: 246 u[0] + 186 u[1] + 128 u[2] + 321 u[3] + 986 u[4]
   + 192 u[5] + 771 u[6] + 162 u[7] + 883 u[8] + 568 u[9] + 330 u[10]
   + 585 u[11] + 338 u[12] + 514 u[13] + 763 u[14] + 195 u[15] + 99 u[16]
   + 182 u[17] + 351 u[18] + 684 u[19] + 635 u[20] + 670 u[21] + 778 u[22]
   + 741 u[23] + 443 u[24] + 38 u[25] + 656 u[26] + 270 u[27] + 420 u[28]
   + 557 u[29] + 312 u[30] + 154 u[31] + 770 u[32] + 19 u[33] + 226 u[34]
   + 527 u[35] + 202 u[36] + 531 u[37] + 802 u[38] + 981 u[39] + 677 u[40]
   + 600 u[41] + 4 u[42] + 356 u[43] + 565 u[44] + 689 u[45] + 224 u[46]
   + 256 u[47] + 117 u[48] + 22 u[49] + 941 u[50] + 646 u[51] + 219 u[52]
   + 610 u[53] + 15 u[54] + 462 u[55] + 983 u[56] + 761 u[57] + 306 u[58]
   + 664 u[59] + 203 u[60] + 153 u[61] + 734 u[62] + 801 u[63] + 594 u[64]
   + 570 u[65] + 547 u[66] + 5 u[67] + 338 u[68] + 368 u[69] + 412 u[70]
   + 340 u[71] + 356 u[72] + 341 u[73] + 254 u[74] + 351 u[75] + 849 u[76]
   + 529 u[77] + 695 u[78] + 409 u[79] + 84 u[80] + 692 u[81] + 769 u[82]
   + 744 u[83] + 404 u[84] + 936 u[85] + 598 u[86] + 194 u[87] + 24 u[88]
   + 729 u[89] + 451 u[90] + 603 u[91] + 747 u[92] + 494 u[93] + 110 u[94]
   + 251 u[95] + 999 u[96] + 479 u[97] + 514 u[98] + 810 u[99] <= 999
 primal_lower99: 983 u[0] + 144 u[1] + 314 u[2] + 919 u[3] + 540 u[4]
   + 149 u[5] + 733 u[6] + 239 u[7] + 445 u[8] + 494 u[9] + 339 u[10]
   + 167 u[11] + 172 u[12] + 64 u[13] + 996 u[14] + 880 u[15] + 349 u[16]
   + 420 u[17] + 961 u[18] + 386 u[19] + 261 u[20] + 363 u[21] + 940 u[22]
   + 690 u[23] + 780 u[24] + 924 u[25] + 826 u[26] + 355 u[27] + 157 u[28]
   + 915 u[29] + 49 u[30] + 39 u[31] + 187 u[32] + 905 u[33] + 892 u[34]
   + 933 u[35] + 572 u[36] + 568 u[37] + 964 u[38] + 546 u[39] + 135 u[40]
   + 389 u[41] + 86 u[42] + 953 u[43] + 119 u[44] + 214 u[45] + 801 u[46]
   + 781 u[47] + 967 u[48] + 212 u[49] + 382 u[50] + 12 u[51] + 461 u[52]
   + 272 u[53] + 376 u[54] + 435 u[55] + 209 u[56] + 438 u[57] + 292 u[58]
   + 910 u[59] + 236 u[60] + 678 u[61] + 311 u[62] + 254 u[63] + 819 u[64]
   + 848 u[65] + 20 u[66] + 218 u[67] + 612 u[68] + 341 u[69] + 181 u[70]
   + 745 u[71] + 390 u[72] + 147 u[73] + 647 u[74] + 500 u[75] + 762 u[76]
   + 399 u[77] + 304 u[78] + 502 u[79] + 61 u[80] + 873 u[81] + 442 u[82]
   + 453 u[83] + 85 u[84] + 573 u[85] + 495 u[86] + 704 u[87] + 618 u[88]
   + 239 u[89] + 748 u[90] + 488 u[91] + 428 u[92] + 355 u[93] + 448 u[94]
   + 537 u[95] + 585 u[96] + 348 u[97] + 996 u[98] + 568 u[99] <= 996
 interdiction[0]: x[0] + u[0] <= 1
 interdiction[1]: x[1] + u[1] <= 1
 interdiction[2]: x[2] + u[2] <= 1
 interdiction[3]: x[3] + u[3] <= 1
 interdiction[4]: x[4] + u[4] <= 1
 interdiction[5]: x[5] + u[5] <= 1
 interdiction[6]: x[6] + u[6] <= 1
 interdiction[7]: x[7] + u[7] <= 1
 interdiction[8]: x[8] + u[8] <= 1
 interdiction[9]: x[9] + u[9] <= 1
 interdiction[10]: x[10] + u[10] <= 1
 interdiction[11]: x[11] + u[11] <= 1
 interdiction[12]: x[12] + u[12] <= 1
 interdiction[13]: x[13] + u[13] <= 1
 interdiction[14]: x[14] + u[14] <= 1
 interdiction[15]: x[15] + u[15] <= 1
 interdiction[16]: x[16] + u[16] <= 1
 interdiction[17]: x[17] + u[17] <= 1
 interdiction[18]: x[18] + u[18] <= 1
 interdiction[19]: x[19] + u[19] <= 1
 interdiction[20]: x[20] + u[20] <= 1
 interdiction[21]: x[21] + u[21] <= 1
 interdiction[22]: x[22] + u[22] <= 1
 interdiction[23]: x[23] + u[23] <= 1
 interdiction[24]: x[24] + u[24] <= 1
 interdiction[25]: x[25] + u[25] <= 1
 interdiction[26]: x[26] + u[26] <= 1
 interdiction[27]: x[27] + u[27] <= 1
 interdiction[28]: x[28] + u[28] <= 1
 interdiction[29]: x[29] + u[29] <= 1
 interdiction[30]: x[30] + u[30] <= 1
 interdiction[31]: x[31] + u[31] <= 1
 interdiction[32]: x[32] + u[32] <= 1
 interdiction[33]: x[33] + u[33] <= 1
 interdiction[34]: x[34] + u[34] <= 1
 interdiction[35]: x[35] + u[35] <= 1
 interdiction[36]: x[36] + u[36] <= 1
 interdiction[37]: x[37] + u[37] <= 1
 interdiction[38]: x[38] + u[38] <= 1
 interdiction[39]: x[39] + u[39] <= 1
 interdiction[40]: x[40] + u[40] <= 1
 interdiction[41]: x[41] + u[41] <= 1
 interdiction[42]: x[42] + u[42] <= 1
 interdiction[43]: x[43] + u[43] <= 1
 interdiction[44]: x[44] + u[44] <= 1
 interdiction[45]: x[45] + u[45] <= 1
 interdiction[46]: x[46] + u[46] <= 1
 interdiction[47]: x[47] + u[47] <= 1
 interdiction[48]: x[48] + u[48] <= 1
 interdiction[49]: x[49] + u[49] <= 1
 interdiction[50]: x[50] + u[50] <= 1
 interdiction[51]: x[51] + u[51] <= 1
 interdiction[52]: x[52] + u[52] <= 1
 interdiction[53]: x[53] + u[53] <= 1
 interdiction[54]: x[54] + u[54] <= 1
 interdiction[55]: x[55] + u[55] <= 1
 interdiction[56]: x[56] + u[56] <= 1
 interdiction[57]: x[57] + u[57] <= 1
 interdiction[58]: x[58] + u[58] <= 1
 interdiction[59]: x[59] + u[59] <= 1
 interdiction[60]: x[60] + u[60] <= 1
 interdiction[61]: x[61] + u[61] <= 1
 interdiction[62]: x[62] + u[62] <= 1
 interdiction[63]: x[63] + u[63] <= 1
 interdiction[64]: x[64] + u[64] <= 1
 interdiction[65]: x[65] + u[65] <= 1
 interdiction[66]: x[66] + u[66] <= 1
 interdiction[67]: x[67] + u[67] <= 1
 interdiction[68]: x[68] + u[68] <= 1
 interdiction[69]: x[69] + u[69] <= 1
 interdiction[70]: x[70] + u[70] <= 1
 interdiction[71]: x[71] + u[71] <= 1
 interdiction[72]: x[72] + u[72] <= 1
 interdiction[73]: x[73] + u[73] <= 1
 interdiction[74]: x[74] + u[74] <= 1
 interdiction[75]: x[75] + u[75] <= 1
 interdiction[76]: x[76] + u[76] <= 1
 interdiction[77]: x[77] + u[77] <= 1
 interdiction[78]: x[78] + u[78] <= 1
 interdiction[79]: x[79] + u[79] <= 1
 interdiction[80]: x[80] + u[80] <= 1
 interdiction[81]: x[81] + u[81] <= 1
 interdiction[82]: x[82] + u[82] <= 1
 interdiction[83]: x[83] + u[83] <= 1
 interdiction[84]: x[84] + u[84] <= 1
 interdiction[85]: x[85] + u[85] <= 1
 interdiction[86]: x[86] + u[86] <= 1
 interdiction[87]: x[87] + u[87] <= 1
 interdiction[88]: x[88] + u[88] <= 1
 interdiction[89]: x[89] + u[89] <= 1
 interdiction[90]: x[90] + u[90] <= 1
 interdiction[91]: x[91] + u[91] <= 1
 interdiction[92]: x[92] + u[92] <= 1
 interdiction[93]: x[93] + u[93] <= 1
 interdiction[94]: x[94] + u[94] <= 1
 interdiction[95]: x[95] + u[95] <= 1
 interdiction[96]: x[96] + u[96] <= 1
 interdiction[97]: x[97] + u[97] <= 1
 interdiction[98]: x[98] + u[98] <= 1
 interdiction[99]: x[99] + u[99] <= 1
 mccormick1[0]: - u[0] + z[0] <= 0
 mccormick1[1]: - u[1] + z[1] <= 0
 mccormick1[2]: - u[2] + z[2] <= 0
 mccormick1[3]: - u[3] + z[3] <= 0
 mccormick1[4]: - u[4] + z[4] <= 0
 mccormick1[5]: - u[5] + z[5] <= 0
 mccormick1[6]: - u[6] + z[6] <= 0
 mccormick1[7]: - u[7] + z[7] <= 0
 mccormick1[8]: - u[8] + z[8] <= 0
 mccormick1[9]: - u[9] + z[9] <= 0
 mccormick1[10]: - u[10] + z[10] <= 0
 mccormick1[11]: - u[11] + z[11] <= 0
 mccormick1[12]: - u[12] + z[12] <= 0
 mccormick1[13]: - u[13] + z[13] <= 0
 mccormick1[14]: - u[14] + z[14] <= 0
 mccormick1[15]: - u[15] + z[15] <= 0
 mccormick1[16]: - u[16] + z[16] <= 0
 mccormick1[17]: - u[17] + z[17] <= 0
 mccormick1[18]: - u[18] + z[18] <= 0
 mccormick1[19]: - u[19] + z[19] <= 0
 mccormick1[20]: - u[20] + z[20] <= 0
 mccormick1[21]: - u[21] + z[21] <= 0
 mccormick1[22]: - u[22] + z[22] <= 0
 mccormick1[23]: - u[23] + z[23] <= 0
 mccormick1[24]: - u[24] + z[24] <= 0
 mccormick1[25]: - u[25] + z[25] <= 0
 mccormick1[26]: - u[26] + z[26] <= 0
 mccormick1[27]: - u[27] + z[27] <= 0
 mccormick1[28]: - u[28] + z[28] <= 0
 mccormick1[29]: - u[29] + z[29] <= 0
 mccormick1[30]: - u[30] + z[30] <= 0
 mccormick1[31]: - u[31] + z[31] <= 0
 mccormick1[32]: - u[32] + z[32] <= 0
 mccormick1[33]: - u[33] + z[33] <= 0
 mccormick1[34]: - u[34] + z[34] <= 0
 mccormick1[35]: - u[35] + z[35] <= 0
 mccormick1[36]: - u[36] + z[36] <= 0
 mccormick1[37]: - u[37] + z[37] <= 0
 mccormick1[38]: - u[38] + z[38] <= 0
 mccormick1[39]: - u[39] + z[39] <= 0
 mccormick1[40]: - u[40] + z[40] <= 0
 mccormick1[41]: - u[41] + z[41] <= 0
 mccormick1[42]: - u[42] + z[42] <= 0
 mccormick1[43]: - u[43] + z[43] <= 0
 mccormick1[44]: - u[44] + z[44] <= 0
 mccormick1[45]: - u[45] + z[45] <= 0
 mccormick1[46]: - u[46] + z[46] <= 0
 mccormick1[47]: - u[47] + z[47] <= 0
 mccormick1[48]: - u[48] + z[48] <= 0
 mccormick1[49]: - u[49] + z[49] <= 0
 mccormick1[50]: - u[50] + z[50] <= 0
 mccormick1[51]: - u[51] + z[51] <= 0
 mccormick1[52]: - u[52] + z[52] <= 0
 mccormick1[53]: - u[53] + z[53] <= 0
 mccormick1[54]: - u[54] + z[54] <= 0
 mccormick1[55]: - u[55] + z[55] <= 0
 mccormick1[56]: - u[56] + z[56] <= 0
 mccormick1[57]: - u[57] + z[57] <= 0
 mccormick1[58]: - u[58] + z[58] <= 0
 mccormick1[59]: - u[59] + z[59] <= 0
 mccormick1[60]: - u[60] + z[60] <= 0
 mccormick1[61]: - u[61] + z[61] <= 0
 mccormick1[62]: - u[62] + z[62] <= 0
 mccormick1[63]: - u[63] + z[63] <= 0
 mccormick1[64]: - u[64] + z[64] <= 0
 mccormick1[65]: - u[65] + z[65] <= 0
 mccormick1[66]: - u[66] + z[66] <= 0
 mccormick1[67]: - u[67] + z[67] <= 0
 mccormick1[68]: - u[68] + z[68] <= 0
 mccormick1[69]: - u[69] + z[69] <= 0
 mccormick1[70]: - u[70] + z[70] <= 0
 mccormick1[71]: - u[71] + z[71] <= 0
 mccormick1[72]: - u[72] + z[72] <= 0
 mccormick1[73]: - u[73] + z[73] <= 0
 mccormick1[74]: - u[74] + z[74] <= 0
 mccormick1[75]: - u[75] + z[75] <= 0
 mccormick1[76]: - u[76] + z[76] <= 0
 mccormick1[77]: - u[77] + z[77] <= 0
 mccormick1[78]: - u[78] + z[78] <= 0
 mccormick1[79]: - u[79] + z[79] <= 0
 mccormick1[80]: - u[80] + z[80] <= 0
 mccormick1[81]: - u[81] + z[81] <= 0
 mccormick1[82]: - u[82] + z[82] <= 0
 mccormick1[83]: - u[83] + z[83] <= 0
 mccormick1[84]: - u[84] + z[84] <= 0
 mccormick1[85]: - u[85] + z[85] <= 0
 mccormick1[86]: - u[86] + z[86] <= 0
 mccormick1[87]: - u[87] + z[87] <= 0
 mccormick1[88]: - u[88] + z[88] <= 0
 mccormick1[89]: - u[89] + z[89] <= 0
 mccormick1[90]: - u[90] + z[90] <= 0
 mccormick1[91]: - u[91] + z[91] <= 0
 mccormick1[92]: - u[92] + z[92] <= 0
 mccormick1[93]: - u[93] + z[93] <= 0
 mccormick1[94]: - u[94] + z[94] <= 0
 mccormick1[95]: - u[95] + z[95] <= 0
 mccormick1[96]: - u[96] + z[96] <= 0
 mccormick1[97]: - u[97] + z[97] <= 0
 mccormick1[98]: - u[98] + z[98] <= 0
 mccormick1[99]: - u[99] + z[99] <= 0
 mccormick2[0]: - y[0] + z[0] <= 0
 mccormick2[1]: - y[1] + z[1] <= 0
 mccormick2[2]: - y[2] + z[2] <= 0
 mccormick2[3]: - y[3] + z[3] <= 0
 mccormick2[4]: - y[4] + z[4] <= 0
 mccormick2[5]: - y[5] + z[5] <= 0
 mccormick2[6]: - y[6] + z[6] <= 0
 mccormick2[7]: - y[7] + z[7] <= 0
 mccormick2[8]: - y[8] + z[8] <= 0
 mccormick2[9]: - y[9] + z[9] <= 0
 mccormick2[10]: - y[10] + z[10] <= 0
 mccormick2[11]: - y[11] + z[11] <= 0
 mccormick2[12]: - y[12] + z[12] <= 0
 mccormick2[13]: - y[13] + z[13] <= 0
 mccormick2[14]: - y[14] + z[14] <= 0
 mccormick2[15]: - y[15] + z[15] <= 0
 mccormick2[16]: - y[16] + z[16] <= 0
 mccormick2[17]: - y[17] + z[17] <= 0
 mccormick2[18]: - y[18] + z[18] <= 0
 mccormick2[19]: - y[19] + z[19] <= 0
 mccormick2[20]: - y[20] + z[20] <= 0
 mccormick2[21]: - y[21] + z[21] <= 0
 mccormick2[22]: - y[22] + z[22] <= 0
 mccormick2[23]: - y[23] + z[23] <= 0
 mccormick2[24]: - y[24] + z[24] <= 0
 mccormick2[25]: - y[25] + z[25] <= 0
 mccormick2[26]: - y[26] + z[26] <= 0
 mccormick2[27]: - y[27] + z[27] <= 0
 mccormick2[28]: - y[28] + z[28] <= 0
 mccormick2[29]: - y[29] + z[29] <= 0
 mccormick2[30]: - y[30] + z[30] <= 0
 mccormick2[31]: - y[31] + z[31] <= 0
 mccormick2[32]: - y[32] + z[32] <= 0
 mccormick2[33]: - y[33] + z[33] <= 0
 mccormick2[34]: - y[34] + z[34] <= 0
 mccormick2[35]: - y[35] + z[35] <= 0
 mccormick2[36]: - y[36] + z[36] <= 0
 mccormick2[37]: - y[37] + z[37] <= 0
 mccormick2[38]: - y[38] + z[38] <= 0
 mccormick2[39]: - y[39] + z[39] <= 0
 mccormick2[40]: - y[40] + z[40] <= 0
 mccormick2[41]: - y[41] + z[41] <= 0
 mccormick2[42]: - y[42] + z[42] <= 0
 mccormick2[43]: - y[43] + z[43] <= 0
 mccormick2[44]: - y[44] + z[44] <= 0
 mccormick2[45]: - y[45] + z[45] <= 0
 mccormick2[46]: - y[46] + z[46] <= 0
 mccormick2[47]: - y[47] + z[47] <= 0
 mccormick2[48]: - y[48] + z[48] <= 0
 mccormick2[49]: - y[49] + z[49] <= 0
 mccormick2[50]: - y[50] + z[50] <= 0
 mccormick2[51]: - y[51] + z[51] <= 0
 mccormick2[52]: - y[52] + z[52] <= 0
 mccormick2[53]: - y[53] + z[53] <= 0
 mccormick2[54]: - y[54] + z[54] <= 0
 mccormick2[55]: - y[55] + z[55] <= 0
 mccormick2[56]: - y[56] + z[56] <= 0
 mccormick2[57]: - y[57] + z[57] <= 0
 mccormick2[58]: - y[58] + z[58] <= 0
 mccormick2[59]: - y[59] + z[59] <= 0
 mccormick2[60]: - y[60] + z[60] <= 0
 mccormick2[61]: - y[61] + z[61] <= 0
 mccormick2[62]: - y[62] + z[62] <= 0
 mccormick2[63]: - y[63] + z[63] <= 0
 mccormick2[64]: - y[64] + z[64] <= 0
 mccormick2[65]: - y[65] + z[65] <= 0
 mccormick2[66]: - y[66] + z[66] <= 0
 mccormick2[67]: - y[67] + z[67] <= 0
 mccormick2[68]: - y[68] + z[68] <= 0
 mccormick2[69]: - y[69] + z[69] <= 0
 mccormick2[70]: - y[70] + z[70] <= 0
 mccormick2[71]: - y[71] + z[71] <= 0
 mccormick2[72]: - y[72] + z[72] <= 0
 mccormick2[73]: - y[73] + z[73] <= 0
 mccormick2[74]: - y[74] + z[74] <= 0
 mccormick2[75]: - y[75] + z[75] <= 0
 mccormick2[76]: - y[76] + z[76] <= 0
 mccormick2[77]: - y[77] + z[77] <= 0
 mccormick2[78]: - y[78] + z[78] <= 0
 mccormick2[79]: - y[79] + z[79] <= 0
 mccormick2[80]: - y[80] + z[80] <= 0
 mccormick2[81]: - y[81] + z[81] <= 0
 mccormick2[82]: - y[82] + z[82] <= 0
 mccormick2[83]: - y[83] + z[83] <= 0
 mccormick2[84]: - y[84] + z[84] <= 0
 mccormick2[85]: - y[85] + z[85] <= 0
 mccormick2[86]: - y[86] + z[86] <= 0
 mccormick2[87]: - y[87] + z[87] <= 0
 mccormick2[88]: - y[88] + z[88] <= 0
 mccormick2[89]: - y[89] + z[89] <= 0
 mccormick2[90]: - y[90] + z[90] <= 0
 mccormick2[91]: - y[91] + z[91] <= 0
 mccormick2[92]: - y[92] + z[92] <= 0
 mccormick2[93]: - y[93] + z[93] <= 0
 mccormick2[94]: - y[94] + z[94] <= 0
 mccormick2[95]: - y[95] + z[95] <= 0
 mccormick2[96]: - y[96] + z[96] <= 0
 mccormick2[97]: - y[97] + z[97] <= 0
 mccormick2[98]: - y[98] + z[98] <= 0
 mccormick2[99]: - y[99] + z[99] <= 0
 mccormick3[0]: y[0] + u[0] - z[0] <= 1
 mccormick3[1]: y[1] + u[1] - z[1] <= 1
 mccormick3[2]: y[2] + u[2] - z[2] <= 1
 mccormick3[3]: y[3] + u[3] - z[3] <= 1
 mccormick3[4]: y[4] + u[4] - z[4] <= 1
 mccormick3[5]: y[5] + u[5] - z[5] <= 1
 mccormick3[6]: y[6] + u[6] - z[6] <= 1
 mccormick3[7]: y[7] + u[7] - z[7] <= 1
 mccormick3[8]: y[8] + u[8] - z[8] <= 1
 mccormick3[9]: y[9] + u[9] - z[9] <= 1
 mccormick3[10]: y[10] + u[10] - z[10] <= 1
 mccormick3[11]: y[11] + u[11] - z[11] <= 1
 mccormick3[12]: y[12] + u[12] - z[12] <= 1
 mccormick3[13]: y[13] + u[13] - z[13] <= 1
 mccormick3[14]: y[14] + u[14] - z[14] <= 1
 mccormick3[15]: y[15] + u[15] - z[15] <= 1
 mccormick3[16]: y[16] + u[16] - z[16] <= 1
 mccormick3[17]: y[17] + u[17] - z[17] <= 1
 mccormick3[18]: y[18] + u[18] - z[18] <= 1
 mccormick3[19]: y[19] + u[19] - z[19] <= 1
 mccormick3[20]: y[20] + u[20] - z[20] <= 1
 mccormick3[21]: y[21] + u[21] - z[21] <= 1
 mccormick3[22]: y[22] + u[22] - z[22] <= 1
 mccormick3[23]: y[23] + u[23] - z[23] <= 1
 mccormick3[24]: y[24] + u[24] - z[24] <= 1
 mccormick3[25]: y[25] + u[25] - z[25] <= 1
 mccormick3[26]: y[26] + u[26] - z[26] <= 1
 mccormick3[27]: y[27] + u[27] - z[27] <= 1
 mccormick3[28]: y[28] + u[28] - z[28] <= 1
 mccormick3[29]: y[29] + u[29] - z[29] <= 1
 mccormick3[30]: y[30] + u[30] - z[30] <= 1
 mccormick3[31]: y[31] + u[31] - z[31] <= 1
 mccormick3[32]: y[32] + u[32] - z[32] <= 1
 mccormick3[33]: y[33] + u[33] - z[33] <= 1
 mccormick3[34]: y[34] + u[34] - z[34] <= 1
 mccormick3[35]: y[35] + u[35] - z[35] <= 1
 mccormick3[36]: y[36] + u[36] - z[36] <= 1
 mccormick3[37]: y[37] + u[37] - z[37] <= 1
 mccormick3[38]: y[38] + u[38] - z[38] <= 1
 mccormick3[39]: y[39] + u[39] - z[39] <= 1
 mccormick3[40]: y[40] + u[40] - z[40] <= 1
 mccormick3[41]: y[41] + u[41] - z[41] <= 1
 mccormick3[42]: y[42] + u[42] - z[42] <= 1
 mccormick3[43]: y[43] + u[43] - z[43] <= 1
 mccormick3[44]: y[44] + u[44] - z[44] <= 1
 mccormick3[45]: y[45] + u[45] - z[45] <= 1
 mccormick3[46]: y[46] + u[46] - z[46] <= 1
 mccormick3[47]: y[47] + u[47] - z[47] <= 1
 mccormick3[48]: y[48] + u[48] - z[48] <= 1
 mccormick3[49]: y[49] + u[49] - z[49] <= 1
 mccormick3[50]: y[50] + u[50] - z[50] <= 1
 mccormick3[51]: y[51] + u[51] - z[51] <= 1
 mccormick3[52]: y[52] + u[52] - z[52] <= 1
 mccormick3[53]: y[53] + u[53] - z[53] <= 1
 mccormick3[54]: y[54] + u[54] - z[54] <= 1
 mccormick3[55]: y[55] + u[55] - z[55] <= 1
 mccormick3[56]: y[56] + u[56] - z[56] <= 1
 mccormick3[57]: y[57] + u[57] - z[57] <= 1
 mccormick3[58]: y[58] + u[58] - z[58] <= 1
 mccormick3[59]: y[59] + u[59] - z[59] <= 1
 mccormick3[60]: y[60] + u[60] - z[60] <= 1
 mccormick3[61]: y[61] + u[61] - z[61] <= 1
 mccormick3[62]: y[62] + u[62] - z[62] <= 1
 mccormick3[63]: y[63] + u[63] - z[63] <= 1
 mccormick3[64]: y[64] + u[64] - z[64] <= 1
 mccormick3[65]: y[65] + u[65] - z[65] <= 1
 mccormick3[66]: y[66] + u[66] - z[66] <= 1
 mccormick3[67]: y[67] + u[67] - z[67] <= 1
 mccormick3[68]: y[68] + u[68] - z[68] <= 1
 mccormick3[69]: y[69] + u[69] - z[69] <= 1
 mccormick3[70]: y[70] + u[70] - z[70] <= 1
 mccormick3[71]: y[71] + u[71] - z[71] <= 1
 mccormick3[72]: y[72] + u[72] - z[72] <= 1
 mccormick3[73]: y[73] + u[73] - z[73] <= 1
 mccormick3[74]: y[74] + u[74] - z[74] <= 1
 mccormick3[75]: y[75] + u[75] - z[75] <= 1
 mccormick3[76]: y[76] + u[76] - z[76] <= 1
 mccormick3[77]: y[77] + u[77] - z[77] <= 1
 mccormick3[78]: y[78] + u[78] - z[78] <= 1
 mccormick3[79]: y[79] + u[79] - z[79] <= 1
 mccormick3[80]: y[80] + u[80] - z[80] <= 1
 mccormick3[81]: y[81] + u[81] - z[81] <= 1
 mccormick3[82]: y[82] + u[82] - z[82] <= 1
 mccormick3[83]: y[83] + u[83] - z[83] <= 1
 mccormick3[84]: y[84] + u[84] - z[84] <= 1
 mccormick3[85]: y[85] + u[85] - z[85] <= 1
 mccormick3[86]: y[86] + u[86] - z[86] <= 1
 mccormick3[87]: y[87] + u[87] - z[87] <= 1
 mccormick3[88]: y[88] + u[88] - z[88] <= 1
 mccormick3[89]: y[89] + u[89] - z[89] <= 1
 mccormick3[90]: y[90] + u[90] - z[90] <= 1
 mccormick3[91]: y[91] + u[91] - z[91] <= 1
 mccormick3[92]: y[92] + u[92] - z[92] <= 1
 mccormick3[93]: y[93] + u[93] - z[93] <= 1
 mccormick3[94]: y[94] + u[94] - z[94] <= 1
 mccormick3[95]: y[95] + u[95] - z[95] <= 1
 mccormick3[96]: y[96] + u[96] - z[96] <= 1
 mccormick3[97]: y[97] + u[97] - z[97] <= 1
 mccormick3[98]: y[98] + u[98] - z[98] <= 1
 mccormick3[99]: y[99] + u[99] - z[99] <= 1
Bounds
Binaries
 x[0] x[1] x[2] x[3] x[4] x[5] x[6] x[7] x[8] x[9] x[10] x[11] x[12] x[13]
 x[14] x[15] x[16] x[17] x[18] x[19] x[20] x[21] x[22] x[23] x[24] x[25]
 x[26] x[27] x[28] x[29] x[30] x[31] x[32] x[33] x[34] x[35] x[36] x[37]
 x[38] x[39] x[40] x[41] x[42] x[43] x[44] x[45] x[46] x[47] x[48] x[49]
 x[50] x[51] x[52] x[53] x[54] x[55] x[56] x[57] x[58] x[59] x[60] x[61]
 x[62] x[63] x[64] x[65] x[66] x[67] x[68] x[69] x[70] x[71] x[72] x[73]
 x[74] x[75] x[76] x[77] x[78] x[79] x[80] x[81] x[82] x[83] x[84] x[85]
 x[86] x[87] x[88] x[89] x[90] x[91] x[92] x[93] x[94] x[95] x[96] x[97]
 x[98] x[99] y[0] y[1] y[2] y[3] y[4] y[5] y[6] y[7] y[8] y[9] y[10] y[11]
 y[12] y[13] y[14] y[15] y[16] y[17] y[18] y[19] y[20] y[21] y[22] y[23]
 y[24] y[25] y[26] y[27] y[28] y[29] y[30] y[31] y[32] y[33] y[34] y[35]
 y[36] y[37] y[38] y[39] y[40] y[41] y[42] y[43] y[44] y[45] y[46] y[47]
 y[48] y[49] y[50] y[51] y[52] y[53] y[54] y[55] y[56] y[57] y[58] y[59]
 y[60] y[61] y[62] y[63] y[64] y[65] y[66] y[67] y[68] y[69] y[70] y[71]
 y[72] y[73] y[74] y[75] y[76] y[77] y[78] y[79] y[80] y[81] y[82] y[83]
 y[84] y[85] y[86] y[87] y[88] y[89] y[90] y[91] y[92] y[93] y[94] y[95]
 y[96] y[97] y[98] y[99] u[0] u[1] u[2] u[3] u[4] u[5] u[6] u[7] u[8] u[9]
 u[10] u[11] u[12] u[13] u[14] u[15] u[16] u[17] u[18] u[19] u[20] u[21]
 u[22] u[23] u[24] u[25] u[26] u[27] u[28] u[29] u[30] u[31] u[32] u[33]
 u[34] u[35] u[36] u[37] u[38] u[39] u[40] u[41] u[42] u[43] u[44] u[45]
 u[46] u[47] u[48] u[49] u[50] u[51] u[52] u[53] u[54] u[55] u[56] u[57]
 u[58] u[59] u[60] u[61] u[62] u[63] u[64] u[65] u[66] u[67] u[68] u[69]
 u[70] u[71] u[72] u[73] u[74] u[75] u[76] u[77] u[78] u[79] u[80] u[81]
 u[82] u[83] u[84] u[85] u[86] u[87] u[88] u[89] u[90] u[91] u[92] u[93]
 u[94] u[95] u[96] u[97] u[98] u[99] z[0] z[1] z[2] z[3] z[4] z[5] z[6]
 z[7] z[8] z[9] z[10] z[11] z[12] z[13] z[14] z[15] z[16] z[17] z[18] z[19]
 z[20] z[21] z[22] z[23] z[24] z[25] z[26] z[27] z[28] z[29] z[30] z[31]
 z[32] z[33] z[34] z[35] z[36] z[37] z[38] z[39] z[40] z[41] z[42] z[43]
 z[44] z[45] z[46] z[47] z[48] z[49] z[50] z[51] z[52] z[53] z[54] z[55]
 z[56] z[57] z[58] z[59] z[60] z[61] z[62] z[63] z[64] z[65] z[66] z[67]
 z[68] z[69] z[70] z[71] z[72] z[73] z[74] z[75] z[76] z[77] z[78] z[79]
 z[80] z[81] z[82] z[83] z[84] z[85] z[86] z[87] z[88] z[89] z[90] z[91]
 z[92] z[93] z[94] z[95] z[96] z[97] z[98] z[99]
End
