\ Model knapsack_20_10_1
\ LP format - for model browsing. Use MPS format to capture full model detail.
\ Signature: 0xe03e275faf78322c
Minimize
  10 x[0] + 10 x[1] + 10 x[2] + 10 x[3] + 10 x[4] + 10 x[5] + 10 x[6]
   + 10 x[7] + 10 x[8] + 10 x[9] + 10 x[10] + 10 x[11] + 10 x[12]
   + 10 x[13] + 10 x[14] + 10 x[15] + 10 x[16] + 10 x[17] + 10 x[18]
   + 10 x[19] - 550 y[0] - 431 y[1] - 680 y[2] - 700 y[3] - 962 y[4]
   - 697 y[5] - 994 y[6] - 732 y[7] - 335 y[8] - 891 y[9] - 855 y[10]
   - 779 y[11] - 195 y[12] - 274 y[13] - 223 y[14] - 292 y[15] - 758 y[16]
   - 882 y[17] - 147 y[18] - 778 y[19]
Subject To
 primal_upper: 664 y[0] + 644 y[1] + 202 y[2] + 883 y[3] + 276 y[4]
   + 546 y[5] + 389 y[6] + 228 y[7] + 45 y[8] + 850 y[9] + 404 y[10]
   + 35 y[11] + 692 y[12] + 124 y[13] + 413 y[14] + 949 y[15] + 965 y[16]
   + 384 y[17] + 265 y[18] + 550 y[19] + 66 z[0] + 64 z[1] + 20 z[2]
   + 88 z[3] + 28 z[4] + 55 z[5] + 39 z[6] + 23 z[7] + 4 z[8] + 85 z[9]
   + 40 z[10] + 4 z[11] + 69 z[12] + 12 z[13] + 41 z[14] + 95 z[15]
   + 96 z[16] + 38 z[17] + 26 z[18] + 55 z[19] <= 4754
 primal_lower0: 493 u[0] + 822 u[1] + 936 u[2] + 69 u[3] + 874 u[4]
   + 771 u[5] + 99 u[6] + 181 u[7] + 211 u[8] + 188 u[9] + 401 u[10]
   + 773 u[11] + 682 u[12] + 606 u[13] + 378 u[14] + 758 u[15] + 107 u[16]
   + 554 u[17] + 263 u[18] + 224 u[19] <= 936
 primal_lower1: 148 u[0] + 992 u[1] + 790 u[2] + 991 u[3] + 920 u[4]
   + 550 u[5] + 929 u[6] + 984 u[7] + 129 u[8] + 46 u[9] + 152 u[10]
   + 815 u[11] + 368 u[12] + 408 u[13] + 281 u[14] + 761 u[15] + 377 u[16]
   + 732 u[17] + 85 u[18] + 970 u[19] <= 992
 primal_lower2: 302 u[0] + 154 u[1] + 728 u[2] + 185 u[3] + 602 u[4]
   + 424 u[5] + 603 u[6] + 770 u[7] + 475 u[8] + 744 u[9] + 218 u[10]
   + 393 u[11] + 778 u[12] + 498 u[13] + 75 u[14] + 987 u[15] + 83 u[16]
   + 222 u[17] + 263 u[18] + 844 u[19] <= 987
 primal_lower3: 208 u[0] + 457 u[1] + 307 u[2] + 504 u[3] + 749 u[4]
   + 966 u[5] + 46 u[6] + 848 u[7] + 14 u[8] + 759 u[9] + 876 u[10]
   + 512 u[11] + 693 u[12] + 257 u[13] + 389 u[14] + 873 u[15] + 838 u[16]
   + 309 u[17] + 218 u[18] + 283 u[19] <= 966
 primal_lower4: 71 u[0] + 112 u[1] + 922 u[2] + 391 u[3] + 28 u[4]
   + 29 u[5] + 357 u[6] + 239 u[7] + 997 u[8] + 222 u[9] + 371 u[10]
   + 47 u[11] + 116 u[12] + 800 u[13] + 532 u[14] + 96 u[15] + 781 u[16]
   + 884 u[17] + 265 u[18] + 850 u[19] <= 997
 primal_lower5: 703 u[0] + 864 u[1] + 754 u[2] + 951 u[3] + 268 u[4]
   + 517 u[5] + 261 u[6] + 911 u[7] + 261 u[8] + 118 u[9] + 139 u[10]
   + 7 u[11] + 12 u[12] + 168 u[13] + 532 u[14] + 824 u[15] + 405 u[16]
   + 668 u[17] + 369 u[18] + 970 u[19] <= 970
 primal_lower6: 523 u[0] + 775 u[1] + 861 u[2] + 878 u[3] + 599 u[4]
   + 221 u[5] + 520 u[6] + 303 u[7] + 456 u[8] + 293 u[9] + 743 u[10]
   + 702 u[11] + 175 u[12] + 775 u[13] + 296 u[14] + 976 u[15] + 88 u[16]
   + 995 u[17] + 516 u[18] + 337 u[19] <= 995
 primal_lower7: 182 u[0] + 170 u[1] + 32 u[2] + 649 u[3] + 674 u[4]
   + 48 u[5] + 171 u[6] + 594 u[7] + 747 u[8] + 144 u[9] + 410 u[10]
   + 521 u[11] + 954 u[12] + 434 u[13] + 675 u[14] + 419 u[15] + 923 u[16]
   + 190 u[17] + 783 u[18] + 740 u[19] <= 954
 primal_lower8: 998 u[0] + 839 u[1] + 801 u[2] + 998 u[3] + 67 u[4]
   + 652 u[5] + 708 u[6] + 366 u[7] + 716 u[8] + 989 u[9] + 474 u[10]
   + 718 u[11] + 291 u[12] + 887 u[13] + 851 u[14] + 463 u[15] + 348 u[16]
   + 451 u[17] + 744 u[18] + 753 u[19] <= 998
 primal_lower9: 449 u[0] + 541 u[1] + 411 u[2] + 20 u[3] + 965 u[4]
   + 995 u[5] + 238 u[6] + 925 u[7] + 966 u[8] + 171 u[9] + 677 u[10]
   + 724 u[11] + 157 u[12] + 277 u[13] + 822 u[14] + 54 u[15] + 294 u[16]
   + 49 u[17] + 690 u[18] + 847 u[19] <= 995
 interdiction[0]: x[0] + u[0] <= 1
 interdiction[1]: x[1] + u[1] <= 1
 interdiction[2]: x[2] + u[2] <= 1
 interdiction[3]: x[3] + u[3] <= 1
 interdiction[4]: x[4] + u[4] <= 1
 interdiction[5]: x[5] + u[5] <= 1
 interdiction[6]: x[6] + u[6] <= 1
 interdiction[7]: x[7] + u[7] <= 1
 interdiction[8]: x[8] + u[8] <= 1
 interdiction[9]: x[9] + u[9] <= 1
 interdiction[10]: x[10] + u[10] <= 1
 interdiction[11]: x[11] + u[11] <= 1
 interdiction[12]: x[12] + u[12] <= 1
 interdiction[13]: x[13] + u[13] <= 1
 interdiction[14]: x[14] + u[14] <= 1
 interdiction[15]: x[15] + u[15] <= 1
 interdiction[16]: x[16] + u[16] <= 1
 interdiction[17]: x[17] + u[17] <= 1
 interdiction[18]: x[18] + u[18] <= 1
 interdiction[19]: x[19] + u[19] <= 1
 mccormick1[0]: - u[0] + z[0] <= 0
 mccormick1[1]: - u[1] + z[1] <= 0
 mccormick1[2]: - u[2] + z[2] <= 0
 mccormick1[3]: - u[3] + z[3] <= 0
 mccormick1[4]: - u[4] + z[4] <= 0
 mccormick1[5]: - u[5] + z[5] <= 0
 mccormick1[6]: - u[6] + z[6] <= 0
 mccormick1[7]: - u[7] + z[7] <= 0
 mccormick1[8]: - u[8] + z[8] <= 0
 mccormick1[9]: - u[9] + z[9] <= 0
 mccormick1[10]: - u[10] + z[10] <= 0
 mccormick1[11]: - u[11] + z[11] <= 0
 mccormick1[12]: - u[12] + z[12] <= 0
 mccormick1[13]: - u[13] + z[13] <= 0
 mccormick1[14]: - u[14] + z[14] <= 0
 mccormick1[15]: - u[15] + z[15] <= 0
 mccormick1[16]: - u[16] + z[16] <= 0
 mccormick1[17]: - u[17] + z[17] <= 0
 mccormick1[18]: - u[18] + z[18] <= 0
 mccormick1[19]: - u[19] + z[19] <= 0
 mccormick2[0]: - y[0] + z[0] <= 0
 mccormick2[1]: - y[1] + z[1] <= 0
 mccormick2[2]: - y[2] + z[2] <= 0
 mccormick2[3]: - y[3] + z[3] <= 0
 mccormick2[4]: - y[4] + z[4] <= 0
 mccormick2[5]: - y[5] + z[5] <= 0
 mccormick2[6]: - y[6] + z[6] <= 0
 mccormick2[7]: - y[7] + z[7] <= 0
 mccormick2[8]: - y[8] + z[8] <= 0
 mccormick2[9]: - y[9] + z[9] <= 0
 mccormick2[10]: - y[10] + z[10] <= 0
 mccormick2[11]: - y[11] + z[11] <= 0
 mccormick2[12]: - y[12] + z[12] <= 0
 mccormick2[13]: - y[13] + z[13] <= 0
 mccormick2[14]: - y[14] + z[14] <= 0
 mccormick2[15]: - y[15] + z[15] <= 0
 mccormick2[16]: - y[16] + z[16] <= 0
 mccormick2[17]: - y[17] + z[17] <= 0
 mccormick2[18]: - y[18] + z[18] <= 0
 mccormick2[19]: - y[19] + z[19] <= 0
 mccormick3[0]: y[0] + u[0] - z[0] <= 1
 mccormick3[1]: y[1] + u[1] - z[1] <= 1
 mccormick3[2]: y[2] + u[2] - z[2] <= 1
 mccormick3[3]: y[3] + u[3] - z[3] <= 1
 mccormick3[4]: y[4] + u[4] - z[4] <= 1
 mccormick3[5]: y[5] + u[5] - z[5] <= 1
 mccormick3[6]: y[6] + u[6] - z[6] <= 1
 mccormick3[7]: y[7] + u[7] - z[7] <= 1
 mccormick3[8]: y[8] + u[8] - z[8] <= 1
 mccormick3[9]: y[9] + u[9] - z[9] <= 1
 mccormick3[10]: y[10] + u[10] - z[10] <= 1
 mccormick3[11]: y[11] + u[11] - z[11] <= 1
 mccormick3[12]: y[12] + u[12] - z[12] <= 1
 mccormick3[13]: y[13] + u[13] - z[13] <= 1
 mccormick3[14]: y[14] + u[14] - z[14] <= 1
 mccormick3[15]: y[15] + u[15] - z[15] <= 1
 mccormick3[16]: y[16] + u[16] - z[16] <= 1
 mccormick3[17]: y[17] + u[17] - z[17] <= 1
 mccormick3[18]: y[18] + u[18] - z[18] <= 1
 mccormick3[19]: y[19] + u[19] - z[19] <= 1
Bounds
Binaries
 x[0] x[1] x[2] x[3] x[4] x[5] x[6] x[7] x[8] x[9] x[10] x[11] x[12] x[13]
 x[14] x[15] x[16] x[17] x[18] x[19] y[0] y[1] y[2] y[3] y[4] y[5] y[6]
 y[7] y[8] y[9] y[10] y[11] y[12] y[13] y[14] y[15] y[16] y[17] y[18] y[19]
 u[0] u[1] u[2] u[3] u[4] u[5] u[6] u[7] u[8] u[9] u[10] u[11] u[12] u[13]
 u[14] u[15] u[16] u[17] u[18] u[19] z[0] z[1] z[2] z[3] z[4] z[5] z[6]
 z[7] z[8] z[9] z[10] z[11] z[12] z[13] z[14] z[15] z[16] z[17] z[18] z[19]
End
