\ Model knapsack_60_100_2
\ LP format - for model browsing. Use MPS format to capture full model detail.
\ Signature: 0x261ea9d2ec6a482f
Minimize
  10 x[0] + 10 x[1] + 10 x[2] + 10 x[3] + 10 x[4] + 10 x[5] + 10 x[6]
   + 10 x[7] + 10 x[8] + 10 x[9] + 10 x[10] + 10 x[11] + 10 x[12]
   + 10 x[13] + 10 x[14] + 10 x[15] + 10 x[16] + 10 x[17] + 10 x[18]
   + 10 x[19] + 10 x[20] + 10 x[21] + 10 x[22] + 10 x[23] + 10 x[24]
   + 10 x[25] + 10 x[26] + 10 x[27] + 10 x[28] + 10 x[29] + 10 x[30]
   + 10 x[31] + 10 x[32] + 10 x[33] + 10 x[34] + 10 x[35] + 10 x[36]
   + 10 x[37] + 10 x[38] + 10 x[39] + 10 x[40] + 10 x[41] + 10 x[42]
   + 10 x[43] + 10 x[44] + 10 x[45] + 10 x[46] + 10 x[47] + 10 x[48]
   + 10 x[49] + 10 x[50] + 10 x[51] + 10 x[52] + 10 x[53] + 10 x[54]
   + 10 x[55] + 10 x[56] + 10 x[57] + 10 x[58] + 10 x[59] - 926 y[0]
   - 706 y[1] - 616 y[2] - 712 y[3] - 873 y[4] - 933 y[5] - 881 y[6]
   - 191 y[7] - 94 y[8] - 182 y[9] - 151 y[10] - 583 y[11] - 755 y[12]
   - 454 y[13] - 807 y[14] - 728 y[15] - 334 y[16] - 190 y[17] - 146 y[18]
   - 405 y[19] - 361 y[20] - 691 y[21] - 252 y[22] - 940 y[23] - 41 y[24]
   - 906 y[25] - 200 y[26] - 699 y[27] - 482 y[28] - 764 y[29] - 909 y[30]
   - 428 y[31] - 204 y[32] - 427 y[33] - 771 y[34] - 761 y[35] - 137 y[36]
   - 739 y[37] - 110 y[38] - 631 y[39] - 980 y[40] - 713 y[41] - 809 y[42]
   - 183 y[43] - 930 y[44] - 479 y[45] - 580 y[46] - 128 y[47] - 668 y[48]
   - 397 y[49] - 423 y[50] - 110 y[51] - 259 y[52] - 17 y[53] - 68 y[54]
   - 534 y[55] - 554 y[56] - 496 y[57] - 576 y[58] - 839 y[59]
Subject To
 primal_upper: 141 y[0] + 686 y[1] + 728 y[2] + 349 y[3] + 530 y[4]
   + 635 y[5] + 331 y[6] + 253 y[7] + 851 y[8] + 948 y[9] + 57 y[10]
   + 245 y[11] + 362 y[12] + 246 y[13] + 362 y[14] + 86 y[15] + 523 y[16]
   + 114 y[17] + 471 y[18] + 296 y[19] + 171 y[20] + 673 y[21] + 874 y[22]
   + 128 y[23] + 826 y[24] + 490 y[25] + 216 y[26] + 417 y[27] + 771 y[28]
   + 169 y[29] + 87 y[30] + 717 y[31] + 113 y[32] + 839 y[33] + 658 y[34]
   + 83 y[35] + 458 y[36] + 430 y[37] + 434 y[38] + 560 y[39] + 61 y[40]
   + 419 y[41] + 596 y[42] + 679 y[43] + 197 y[44] + 212 y[45] + 943 y[46]
   + 59 y[47] + 573 y[48] + 50 y[49] + 468 y[50] + 666 y[51] + 971 y[52]
   + 838 y[53] + 230 y[54] + 585 y[55] + 631 y[56] + 628 y[57] + 274 y[58]
   + 740 y[59] + 14 z[0] + 69 z[1] + 73 z[2] + 35 z[3] + 53 z[4] + 64 z[5]
   + 33 z[6] + 25 z[7] + 85 z[8] + 95 z[9] + 6 z[10] + 24 z[11] + 36 z[12]
   + 25 z[13] + 36 z[14] + 9 z[15] + 52 z[16] + 11 z[17] + 47 z[18]
   + 30 z[19] + 17 z[20] + 67 z[21] + 87 z[22] + 13 z[23] + 83 z[24]
   + 49 z[25] + 22 z[26] + 42 z[27] + 77 z[28] + 17 z[29] + 9 z[30]
   + 72 z[31] + 11 z[32] + 84 z[33] + 66 z[34] + 8 z[35] + 46 z[36]
   + 43 z[37] + 43 z[38] + 56 z[39] + 6 z[40] + 42 z[41] + 60 z[42]
   + 68 z[43] + 20 z[44] + 21 z[45] + 94 z[46] + 6 z[47] + 57 z[48]
   + 5 z[49] + 47 z[50] + 67 z[51] + 97 z[52] + 84 z[53] + 23 z[54]
   + 58 z[55] + 63 z[56] + 63 z[57] + 27 z[58] + 74 z[59] <= 9049
 primal_lower0: 923 u[0] + 980 u[1] + 278 u[2] + 931 u[3] + 192 u[4]
   + 489 u[5] + 649 u[6] + 899 u[7] + 737 u[8] + 258 u[9] + 271 u[10]
   + 363 u[11] + 496 u[12] + 724 u[13] + 912 u[14] + 60 u[15] + 481 u[16]
   + 160 u[17] + 757 u[18] + 838 u[19] + 289 u[20] + 911 u[21] + 72 u[22]
   + 846 u[23] + 248 u[24] + 304 u[25] + 454 u[26] + 327 u[27] + 201 u[28]
   + 855 u[29] + 957 u[30] + 339 u[31] + 647 u[32] + 397 u[33] + 256 u[34]
   + 441 u[35] + 856 u[36] + 316 u[37] + 24 u[38] + 630 u[39] + 603 u[40]
   + 73 u[41] + 346 u[42] + 261 u[43] + 507 u[44] + 82 u[45] + 437 u[46]
   + 73 u[47] + 507 u[48] + 808 u[49] + 954 u[50] + 56 u[51] + 225 u[52]
   + 676 u[53] + 4 u[54] + 823 u[55] + 549 u[56] + 258 u[57] + 40 u[58]
   + 170 u[59] <= 9406
 primal_lower1: 343 u[0] + 112 u[1] + 122 u[2] + 663 u[3] + 4 u[4]
   + 965 u[5] + 277 u[6] + 831 u[7] + 573 u[8] + 886 u[9] + 99 u[10]
   + 639 u[11] + 876 u[12] + 856 u[13] + 724 u[14] + 704 u[15] + 917 u[16]
   + 948 u[17] + 873 u[18] + 370 u[19] + 581 u[20] + 683 u[21] + 4 u[22]
   + 626 u[23] + 932 u[24] + 564 u[25] + 786 u[26] + 155 u[27] + 421 u[28]
   + 643 u[29] + 689 u[30] + 735 u[31] + 219 u[32] + 233 u[33] + 420 u[34]
   + 69 u[35] + 516 u[36] + 440 u[37] + 204 u[38] + 90 u[39] + 967 u[40]
   + 469 u[41] + 94 u[42] + 345 u[43] + 471 u[44] + 390 u[45] + 593 u[46]
   + 357 u[47] + 535 u[48] + 44 u[49] + 830 u[50] + 660 u[51] + 717 u[52]
   + 208 u[53] + 488 u[54] + 763 u[55] + 49 u[56] + 358 u[57] + 676 u[58]
   + 166 u[59] <= 9990
 primal_lower2: 641 u[0] + 378 u[1] + 892 u[2] + 905 u[3] + 230 u[4]
   + 743 u[5] + 439 u[6] + 961 u[7] + 223 u[8] + 312 u[9] + 645 u[10]
   + 89 u[11] + 38 u[12] + 874 u[13] + 614 u[14] + 450 u[15] + 215 u[16]
   + 534 u[17] + 211 u[18] + 644 u[19] + 479 u[20] + 413 u[21] + 582 u[22]
   + 380 u[23] + 486 u[24] + 886 u[25] + 68 u[26] + 181 u[27] + 199 u[28]
   + 605 u[29] + 923 u[30] + 89 u[31] + 885 u[32] + 683 u[33] + 894 u[34]
   + 735 u[35] + 630 u[36] + 74 u[37] + 134 u[38] + 932 u[39] + 873 u[40]
   + 119 u[41] + 344 u[42] + 243 u[43] + 713 u[44] + 728 u[45] + 539 u[46]
   + 943 u[47] + 665 u[48] + 118 u[49] + 568 u[50] + 782 u[51] + 855 u[52]
   + 418 u[53] + 786 u[54] + 693 u[55] + 99 u[56] + 224 u[57] + 990 u[58]
   + 160 u[59] <= 990
 primal_lower3: 15 u[0] + 859 u[1] + 449 u[2] + 402 u[3] + 67 u[4]
   + 241 u[5] + 132 u[6] + 59 u[7] + 204 u[8] + 633 u[9] + 547 u[10]
   + 666 u[11] + 203 u[12] + 835 u[13] + 556 u[14] + 260 u[15] + 612 u[16]
   + 919 u[17] + 520 u[18] + 797 u[19] + 388 u[20] + 71 u[21] + 659 u[22]
   + 358 u[23] + 100 u[24] + 95 u[25] + 761 u[26] + 143 u[27] + 837 u[28]
   + 934 u[29] + 625 u[30] + 619 u[31] + 595 u[32] + 476 u[33] + 667 u[34]
   + 584 u[35] + 43 u[36] + 756 u[37] + 515 u[38] + 990 u[39] + 934 u[40]
   + 961 u[41] + 429 u[42] + 557 u[43] + 590 u[44] + 2 u[45] + 441 u[46]
   + 385 u[47] + 718 u[48] + 831 u[49] + 590 u[50] + 607 u[51] + 12 u[52]
   + 555 u[53] + 72 u[54] + 895 u[55] + 184 u[56] + 786 u[57] + 307 u[58]
   + 169 u[59] <= 990
 primal_lower4: 312 u[0] + 532 u[1] + 362 u[2] + 619 u[3] + 132 u[4]
   + 482 u[5] + 989 u[6] + 620 u[7] + 125 u[8] + 962 u[9] + 780 u[10]
   + 611 u[11] + 132 u[12] + 52 u[13] + 317 u[14] + 597 u[15] + 269 u[16]
   + 752 u[17] + 889 u[18] + 814 u[19] + 685 u[20] + 304 u[21] + 44 u[22]
   + 351 u[23] + 645 u[24] + 984 u[25] + 66 u[26] + 688 u[27] + 534 u[28]
   + 191 u[29] + 234 u[30] + 652 u[31] + 676 u[32] + 277 u[33] + 188 u[34]
   + 241 u[35] + 324 u[36] + 37 u[37] + 884 u[38] + 367 u[39] + 559 u[40]
   + 426 u[41] + 310 u[42] + 534 u[43] + 303 u[44] + 803 u[45] + 978 u[46]
   + 154 u[47] + 695 u[48] + 576 u[49] + 455 u[50] + 440 u[51] + 717 u[52]
   + 228 u[53] + 993 u[54] + 672 u[55] + 49 u[56] + 763 u[57] + 788 u[58]
   + 866 u[59] <= 10009
 primal_lower5: 880 u[0] + 244 u[1] + 338 u[2] + 835 u[3] + 692 u[4]
   + 2 u[5] + 325 u[6] + 268 u[7] + 605 u[8] + 874 u[9] + 380 u[10]
   + 499 u[11] + 820 u[12] + 740 u[13] + 477 u[14] + 61 u[15] + 893 u[16]
   + 328 u[17] + 561 u[18] + 958 u[19] + 893 u[20] + 16 u[21] + 428 u[22]
   + 319 u[23] + 741 u[24] + 856 u[25] + 354 u[26] + 304 u[27] + 990 u[28]
   + 375 u[29] + 314 u[30] + 4 u[31] + 684 u[32] + 469 u[33] + 468 u[34]
   + 881 u[35] + 596 u[36] + 813 u[37] + 204 u[38] + 111 u[39] + 391 u[40]
   + 202 u[41] + 302 u[42] + 462 u[43] + 215 u[44] + 587 u[45] + 466 u[46]
   + 538 u[47] + 607 u[48] + 408 u[49] + 199 u[50] + 880 u[51] + 285 u[52]
   + 716 u[53] + 585 u[54] + 992 u[55] + 249 u[56] + 411 u[57] + 556 u[58]
   + 866 u[59] <= 10172
 primal_lower6: 278 u[0] + 191 u[1] + 313 u[2] + 62 u[3] + 195 u[4]
   + 36 u[5] + 140 u[6] + 206 u[7] + 516 u[8] + 957 u[9] + 402 u[10]
   + 934 u[11] + 331 u[12] + 719 u[13] + 51 u[14] + 7 u[15] + 212 u[16]
   + 347 u[17] + 976 u[18] + 529 u[19] + 4 u[20] + 98 u[21] + 115 u[22]
   + 713 u[23] + 931 u[24] + 595 u[25] + 9 u[26] + 74 u[27] + 964 u[28]
   + 82 u[29] + 80 u[30] + 862 u[31] + 866 u[32] + 32 u[33] + 899 u[34]
   + 20 u[35] + 267 u[36] + 591 u[37] + 195 u[38] + 601 u[39] + 518 u[40]
   + 660 u[41] + 429 u[42] + 712 u[43] + 462 u[44] + 293 u[45] + 240 u[46]
   + 300 u[47] + 214 u[48] + 243 u[49] + 237 u[50] + 795 u[51] + 612 u[52]
   + 7 u[53] + 815 u[54] + 522 u[55] + 240 u[56] + 933 u[57] + 795 u[58]
   + 173 u[59] <= 976
 primal_lower7: 911 u[0] + 115 u[1] + 361 u[2] + 58 u[3] + 235 u[4]
   + 761 u[5] + 244 u[6] + 747 u[7] + 404 u[8] + 113 u[9] + 323 u[10]
   + 450 u[11] + 827 u[12] + 627 u[13] + 916 u[14] + 660 u[15] + 740 u[16]
   + 55 u[17] + 384 u[18] + 125 u[19] + 396 u[20] + 639 u[21] + 107 u[22]
   + 390 u[23] + 116 u[24] + 375 u[25] + 945 u[26] + 71 u[27] + 653 u[28]
   + 670 u[29] + 929 u[30] + 123 u[31] + 235 u[32] + 252 u[33] + 267 u[34]
   + 568 u[35] + 107 u[36] + 884 u[37] + 11 u[38] + 454 u[39] + 878 u[40]
   + 545 u[41] + 797 u[42] + 421 u[43] + 294 u[44] + 418 u[45] + 841 u[46]
   + 985 u[47] + 334 u[48] + 631 u[49] + 726 u[50] + 415 u[51] + 812 u[52]
   + 539 u[53] + 736 u[54] + 335 u[55] + 320 u[56] + 634 u[57] + 683 u[58]
   + 449 u[59] <= 985
 primal_lower8: 377 u[0] + 874 u[1] + 620 u[2] + u[3] + 110 u[4] + 711 u[5]
   + 231 u[6] + 753 u[7] + 95 u[8] + 728 u[9] + 829 u[10] + 73 u[11]
   + 310 u[12] + 450 u[13] + 254 u[14] + 778 u[15] + 711 u[16] + 182 u[17]
   + 451 u[18] + 436 u[19] + 863 u[20] + 133 u[21] + 230 u[22] + 356 u[23]
   + 854 u[24] + 254 u[25] + 780 u[26] + 877 u[27] + 647 u[28] + 997 u[29]
   + 747 u[30] + 265 u[31] + 69 u[32] + 59 u[33] + 662 u[34] + 839 u[35]
   + 846 u[36] + 338 u[37] + 590 u[38] + 988 u[39] + 489 u[40] + 663 u[41]
   + 488 u[42] + 339 u[43] + 593 u[44] + 136 u[45] + 611 u[46] + 55 u[47]
   + 769 u[48] + 614 u[49] + 752 u[50] + 374 u[51] + 175 u[52] + 522 u[53]
   + 354 u[54] + 477 u[55] + 67 u[56] + 736 u[57] + 614 u[58] + 272 u[59]
   <= 997
 primal_lower9: 121 u[0] + 285 u[1] + 795 u[2] + 708 u[3] + 29 u[4]
   + 627 u[5] + 982 u[6] + 525 u[7] + 302 u[8] + 547 u[9] + 141 u[10]
   + 988 u[11] + 669 u[12] + 205 u[13] + 86 u[14] + 118 u[15] + 790 u[16]
   + 441 u[17] + 362 u[18] + 215 u[19] + 870 u[20] + 641 u[21] + 725 u[22]
   + 16 u[23] + 518 u[24] + 897 u[25] + 459 u[26] + u[27] + 567 u[28]
   + 432 u[29] + 531 u[30] + 301 u[31] + 677 u[32] + 742 u[33] + 205 u[34]
   + 930 u[35] + 405 u[36] + 438 u[37] + 493 u[38] + 352 u[39] + 8 u[40]
   + 243 u[41] + 703 u[42] + 455 u[43] + 840 u[44] + 4 u[45] + 131 u[46]
   + 939 u[47] + 840 u[48] + 433 u[49] + 656 u[50] + 481 u[51] + 542 u[52]
   + 837 u[53] + 218 u[54] + 33 u[55] + 18 u[56] + 476 u[57] + 837 u[58]
   + 99 u[59] <= 9309
 primal_lower10: 325 u[0] + 505 u[1] + 535 u[2] + 424 u[3] + 737 u[4]
   + 103 u[5] + 218 u[6] + 433 u[7] + 34 u[8] + 791 u[9] + 105 u[10]
   + 744 u[11] + 321 u[12] + 777 u[13] + 786 u[14] + 458 u[15] + 346 u[16]
   + 773 u[17] + 446 u[18] + 131 u[19] + 154 u[20] + 405 u[21] + 689 u[22]
   + 164 u[23] + 826 u[24] + 261 u[25] + 879 u[26] + 517 u[27] + 531 u[28]
   + 628 u[29] + 407 u[30] + 609 u[31] + 25 u[32] + 210 u[33] + 185 u[34]
   + 830 u[35] + 201 u[36] + 402 u[37] + 697 u[38] + 772 u[39] + 4 u[40]
   + 463 u[41] + 467 u[42] + 523 u[43] + 284 u[44] + 424 u[45] + 887 u[46]
   + 463 u[47] + 428 u[48] + 717 u[49] + 172 u[50] + 77 u[51] + 882 u[52]
   + 73 u[53] + 838 u[54] + 469 u[55] + 198 u[56] + 1000 u[57] + 449 u[58]
   + 855 u[59] <= 9352
 primal_lower11: 574 u[0] + 602 u[1] + 608 u[2] + 289 u[3] + 298 u[4]
   + 864 u[5] + 523 u[6] + 738 u[7] + 243 u[8] + 728 u[9] + 810 u[10]
   + 529 u[11] + 418 u[12] + 34 u[13] + 995 u[14] + 571 u[15] + 107 u[16]
   + 350 u[17] + 111 u[18] + 580 u[19] + 219 u[20] + 438 u[21] + 90 u[22]
   + 109 u[23] + 251 u[24] + 894 u[25] + 176 u[26] + 942 u[27] + 156 u[28]
   + 157 u[29] + 1000 u[30] + 66 u[31] + 458 u[32] + 563 u[33] + 42 u[34]
   + 895 u[35] + 10 u[36] + 515 u[37] + 786 u[38] + 285 u[39] + 413 u[40]
   + 264 u[41] + 988 u[42] + 100 u[43] + 693 u[44] + 721 u[45] + 776 u[46]
   + 760 u[47] + 397 u[48] + 822 u[49] + 221 u[50] + 14 u[51] + 339 u[52]
   + 698 u[53] + 615 u[54] + 94 u[55] + 343 u[56] + 113 u[57] + 122 u[58]
   + 264 u[59] <= 1000
 primal_lower12: 94 u[0] + 162 u[1] + 56 u[2] + 913 u[3] + 874 u[4]
   + 952 u[5] + 939 u[6] + 378 u[7] + 379 u[8] + 600 u[9] + 602 u[10]
   + 697 u[11] + 818 u[12] + 762 u[13] + 219 u[14] + 275 u[15] + 259 u[16]
   + 926 u[17] + 519 u[18] + 564 u[19] + 891 u[20] + 894 u[21] + 234 u[22]
   + 125 u[23] + 419 u[24] + 678 u[25] + 400 u[26] + 606 u[27] + 556 u[28]
   + 429 u[29] + 168 u[30] + 386 u[31] + 90 u[32] + 843 u[33] + 26 u[34]
   + 895 u[35] + 714 u[36] + 363 u[37] + 882 u[38] + 157 u[39] + 629 u[40]
   + 408 u[41] + 44 u[42] + 956 u[43] + 517 u[44] + 625 u[45] + 856 u[46]
   + 624 u[47] + 309 u[48] + 646 u[49] + 13 u[50] + 734 u[51] + 723 u[52]
   + 98 u[53] + 999 u[54] + 406 u[55] + 519 u[56] + 401 u[57] + 962 u[58]
   + 736 u[59] <= 999
 primal_lower13: 478 u[0] + 567 u[1] + 561 u[2] + 958 u[3] + 3 u[4]
   + 900 u[5] + 588 u[6] + 254 u[7] + 476 u[8] + 917 u[9] + 322 u[10]
   + 790 u[11] + 667 u[12] + 503 u[13] + 307 u[14] + 271 u[15] + 132 u[16]
   + 171 u[17] + 208 u[18] + 753 u[19] + 636 u[20] + 826 u[21] + 811 u[22]
   + 273 u[23] + 243 u[24] + 779 u[25] + 841 u[26] + 786 u[27] + 668 u[28]
   + 906 u[29] + 744 u[30] + 542 u[31] + 666 u[32] + 552 u[33] + 107 u[34]
   + 812 u[35] + 131 u[36] + 487 u[37] + 75 u[38] + 113 u[39] + 870 u[40]
   + 868 u[41] + 749 u[42] + 712 u[43] + 790 u[44] + 789 u[45] + 904 u[46]
   + 364 u[47] + 974 u[48] + 347 u[49] + 493 u[50] + 395 u[51] + 428 u[52]
   + 799 u[53] + 711 u[54] + 378 u[55] + 648 u[56] + 829 u[57] + 467 u[58]
   + 349 u[59] <= 974
 primal_lower14: 49 u[0] + 669 u[1] + 803 u[2] + 220 u[3] + 285 u[4]
   + 371 u[5] + 838 u[6] + 677 u[7] + 550 u[8] + 955 u[9] + 861 u[10]
   + 940 u[11] + 893 u[12] + 197 u[13] + 542 u[14] + 14 u[15] + 182 u[16]
   + 833 u[17] + 562 u[18] + 655 u[19] + 582 u[20] + 169 u[21] + 893 u[22]
   + 32 u[23] + 478 u[24] + 97 u[25] + 659 u[26] + 665 u[27] + 663 u[28]
   + 928 u[29] + 427 u[30] + 37 u[31] + 373 u[32] + 102 u[33] + 669 u[34]
   + 58 u[35] + 381 u[36] + 214 u[37] + 685 u[38] + 360 u[39] + 736 u[40]
   + 211 u[41] + 839 u[42] + 711 u[43] + 1000 u[44] + 796 u[45] + 883 u[46]
   + 627 u[47] + 272 u[48] + 89 u[49] + 440 u[50] + 609 u[51] + 718 u[52]
   + 29 u[53] + 514 u[54] + 921 u[55] + 650 u[56] + 348 u[57] + 29 u[58]
   + 27 u[59] <= 1000
 primal_lower15: 501 u[0] + 238 u[1] + 792 u[2] + 581 u[3] + 538 u[4]
   + 699 u[5] + 779 u[6] + 965 u[7] + 883 u[8] + 276 u[9] + 97 u[10]
   + 445 u[11] + 722 u[12] + 798 u[13] + 226 u[14] + 326 u[15] + 147 u[16]
   + 610 u[17] + 263 u[18] + 384 u[19] + 291 u[20] + 393 u[21] + 202 u[22]
   + 448 u[23] + 970 u[24] + 10 u[25] + 416 u[26] + 177 u[27] + 227 u[28]
   + 841 u[29] + 63 u[30] + 565 u[31] + 249 u[32] + 535 u[33] + 202 u[34]
   + 843 u[35] + 626 u[36] + 246 u[37] + 858 u[38] + 440 u[39] + 269 u[40]
   + 83 u[41] + 244 u[42] + 199 u[43] + 269 u[44] + 76 u[45] + 415 u[46]
   + 11 u[47] + 165 u[48] + 898 u[49] + 660 u[50] + 506 u[51] + 803 u[52]
   + 302 u[53] + 214 u[54] + 49 u[55] + 791 u[56] + 876 u[57] + 50 u[58]
   + 820 u[59] <= 8857
 primal_lower16: 975 u[0] + 19 u[1] + 529 u[2] + 394 u[3] + 739 u[4]
   + 881 u[5] + 684 u[6] + 915 u[7] + 316 u[8] + 529 u[9] + 75 u[10]
   + 610 u[11] + 203 u[12] + 339 u[13] + 180 u[14] + 996 u[15] + 508 u[16]
   + 895 u[17] + 800 u[18] + 837 u[19] + 844 u[20] + 751 u[21] + 123 u[22]
   + 558 u[23] + 604 u[24] + 199 u[25] + 969 u[26] + 783 u[27] + 269 u[28]
   + 230 u[29] + 137 u[30] + 603 u[31] + 723 u[32] + 252 u[33] + 635 u[34]
   + 240 u[35] + 739 u[36] + 668 u[37] + 163 u[38] + 710 u[39] + 190 u[40]
   + 761 u[41] + 141 u[42] + 333 u[43] + 254 u[44] + 250 u[45] + 753 u[46]
   + 961 u[47] + 222 u[48] + 503 u[49] + 990 u[50] + 631 u[51] + 940 u[52]
   + 875 u[53] + 8 u[54] + 535 u[55] + 168 u[56] + 898 u[57] + 99 u[58]
   + 929 u[59] <= 996
 primal_lower17: 814 u[0] + 290 u[1] + 752 u[2] + 49 u[3] + 66 u[4]
   + 904 u[5] + 611 u[6] + 66 u[7] + 283 u[8] + 624 u[9] + 122 u[10]
   + 913 u[11] + 746 u[12] + 274 u[13] + 699 u[14] + 51 u[15] + 715 u[16]
   + 326 u[17] + 159 u[18] + 964 u[19] + 3 u[20] + 270 u[21] + 266 u[22]
   + 701 u[23] + 91 u[24] + 454 u[25] + 456 u[26] + 790 u[27] + 660 u[28]
   + 333 u[29] + 808 u[30] + 386 u[31] + 522 u[32] + 451 u[33] + 410 u[34]
   + 687 u[35] + 282 u[36] + 107 u[37] + 50 u[38] + 349 u[39] + 5 u[40]
   + 568 u[41] + 420 u[42] + 4 u[43] + 669 u[44] + 25 u[45] + 600 u[46]
   + 744 u[47] + 789 u[48] + 574 u[49] + 61 u[50] + 54 u[51] + 731 u[52]
   + 290 u[53] + 87 u[54] + 958 u[55] + 487 u[56] + 585 u[57] + 474 u[58]
   + 1000 u[59] <= 8876
 primal_lower18: 984 u[0] + 516 u[1] + 98 u[2] + 219 u[3] + 788 u[4]
   + 66 u[5] + 469 u[6] + 860 u[7] + 533 u[8] + 658 u[9] + 300 u[10]
   + 83 u[11] + 356 u[12] + 556 u[13] + 613 u[14] + 877 u[15] + 925 u[16]
   + 376 u[17] + 777 u[18] + 566 u[19] + 757 u[20] + 768 u[21] + 36 u[22]
   + 647 u[23] + 149 u[24] + 104 u[25] + 50 u[26] + 856 u[27] + 790 u[28]
   + 519 u[29] + 826 u[30] + 892 u[31] + 108 u[32] + 877 u[33] + 276 u[34]
   + 777 u[35] + 452 u[36] + 461 u[37] + 876 u[38] + 399 u[39] + 335 u[40]
   + 954 u[41] + 198 u[42] + 966 u[43] + 303 u[44] + 19 u[45] + 466 u[46]
   + 82 u[47] + 399 u[48] + 952 u[49] + 967 u[50] + 792 u[51] + 181 u[52]
   + 396 u[53] + 489 u[54] + 496 u[55] + 585 u[56] + 995 u[57] + 644 u[58]
   + 570 u[59] <= 10676
 primal_lower19: 48 u[0] + 708 u[1] + 666 u[2] + 947 u[3] + 612 u[4]
   + 522 u[5] + 397 u[6] + 364 u[7] + 149 u[8] + 66 u[9] + 692 u[10]
   + 291 u[11] + 700 u[12] + 612 u[13] + 749 u[14] + 533 u[15] + 821 u[16]
   + 320 u[17] + 65 u[18] + 262 u[19] + 717 u[20] + 232 u[21] + 132 u[22]
   + 415 u[23] + 357 u[24] + 1000 u[25] + 938 u[26] + 1000 u[27] + 14 u[28]
   + 159 u[29] + 994 u[30] + 412 u[31] + 372 u[32] + 941 u[33] + 796 u[34]
   + 713 u[35] + 388 u[36] + 317 u[37] + 156 u[38] + 223 u[39] + 183 u[40]
   + 250 u[41] + 150 u[42] + 678 u[43] + 431 u[44] + 515 u[45] + 562 u[46]
   + 2 u[47] + 111 u[48] + 184 u[49] + 223 u[50] + 408 u[51] + 125 u[52]
   + 900 u[53] + 361 u[54] + 176 u[55] + 441 u[56] + 739 u[57] + 556 u[58]
   + 794 u[59] <= 9196
 primal_lower20: 910 u[0] + 514 u[1] + 544 u[2] + 953 u[3] + 842 u[4]
   + 408 u[5] + 611 u[6] + 866 u[7] + 3 u[8] + 904 u[9] + 98 u[10]
   + 257 u[11] + 138 u[12] + 562 u[13] + 395 u[14] + 395 u[15] + 683 u[16]
   + 478 u[17] + 839 u[18] + 324 u[19] + 131 u[20] + 310 u[21] + 874 u[22]
   + 157 u[23] + 787 u[24] + 846 u[25] + 896 u[26] + 518 u[27] + 388 u[28]
   + 173 u[29] + 360 u[30] + 186 u[31] + 442 u[32] + 19 u[33] + 426 u[34]
   + 87 u[35] + 754 u[36] + 683 u[37] + 658 u[38] + 181 u[39] + 269 u[40]
   + 752 u[41] + 196 u[42] + 452 u[43] + 165 u[44] + 321 u[45] + 880 u[46]
   + 304 u[47] + 413 u[48] + 950 u[49] + 613 u[50] + 790 u[51] + 371 u[52]
   + 658 u[53] + 327 u[54] + 862 u[55] + 751 u[56] + 489 u[57] + 762 u[58]
   + 864 u[59] <= 10263
 primal_lower21: 193 u[0] + 277 u[1] + 827 u[2] + 116 u[3] + 733 u[4]
   + 875 u[5] + 990 u[6] + 869 u[7] + 190 u[8] + 835 u[9] + 893 u[10]
   + 156 u[11] + 181 u[12] + 949 u[13] + 430 u[14] + 558 u[15] + 982 u[16]
   + 33 u[17] + 394 u[18] + 231 u[19] + 302 u[20] + 89 u[21] + 517 u[22]
   + 720 u[23] + 238 u[24] + 601 u[25] + 187 u[26] + 265 u[27] + 863 u[28]
   + 144 u[29] + 691 u[30] + 141 u[31] + 773 u[32] + 798 u[33] + 45 u[34]
   + 138 u[35] + 909 u[36] + 814 u[37] + 317 u[38] + 536 u[39] + 952 u[40]
   + 667 u[41] + 143 u[42] + 343 u[43] + 272 u[44] + 844 u[45] + 635 u[46]
   + 195 u[47] + 640 u[48] + 617 u[49] + 632 u[50] + 17 u[51] + 166 u[52]
   + 109 u[53] + 506 u[54] + 825 u[55] + 810 u[56] + 348 u[57] + 749 u[58]
   + 883 u[59] <= 10051
 primal_lower22: 492 u[0] + 509 u[1] + 327 u[2] + 356 u[3] + 801 u[4]
   + 754 u[5] + 762 u[6] + 828 u[7] + 706 u[8] + 779 u[9] + 8 u[10]
   + 820 u[11] + 961 u[12] + 885 u[13] + 537 u[14] + 5 u[15] + 178 u[16]
   + 81 u[17] + 398 u[18] + 407 u[19] + 130 u[20] + 752 u[21] + 321 u[22]
   + 887 u[23] + 97 u[24] + 889 u[25] + 503 u[26] + 184 u[27] + 98 u[28]
   + 896 u[29] + 574 u[30] + 4 u[31] + 760 u[32] + 694 u[33] + 689 u[34]
   + 74 u[35] + 617 u[36] + 549 u[37] + 153 u[38] + 279 u[39] + 172 u[40]
   + 250 u[41] + 403 u[42] + 454 u[43] + 532 u[44] + 435 u[45] + 830 u[46]
   + 402 u[47] + 436 u[48] + 113 u[49] + 803 u[50] + 393 u[51] + 130 u[52]
   + 157 u[53] + 381 u[54] + 904 u[55] + 310 u[56] + 851 u[57] + u[58]
   + 907 u[59] <= 961
 primal_lower23: 531 u[0] + 332 u[1] + 526 u[2] + 643 u[3] + 368 u[4]
   + 793 u[5] + 929 u[6] + 435 u[7] + 801 u[8] + 322 u[9] + 343 u[10]
   + 59 u[11] + 272 u[12] + 836 u[13] + 288 u[14] + 588 u[15] + 217 u[16]
   + 192 u[17] + 821 u[18] + 806 u[19] + 881 u[20] + 55 u[21] + 888 u[22]
   + 238 u[23] + 904 u[24] + 336 u[25] + 214 u[26] + 399 u[27] + 441 u[28]
   + 767 u[29] + 301 u[30] + 635 u[31] + 783 u[32] + 573 u[33] + 48 u[34]
   + 713 u[35] + 624 u[36] + 572 u[37] + 152 u[38] + 838 u[39] + 875 u[40]
   + 857 u[41] + 818 u[42] + 885 u[43] + 371 u[44] + 874 u[45] + 917 u[46]
   + 969 u[47] + 963 u[48] + 248 u[49] + 922 u[50] + 312 u[51] + 729 u[52]
   + 460 u[53] + 988 u[54] + 519 u[55] + 269 u[56] + 234 u[57] + 808 u[58]
   + 882 u[59] <= 988
 primal_lower24: 682 u[0] + 478 u[1] + 396 u[2] + 229 u[3] + 350 u[4]
   + 292 u[5] + 687 u[6] + 246 u[7] + 519 u[8] + 524 u[9] + 910 u[10]
   + 885 u[11] + 886 u[12] + 374 u[13] + 567 u[14] + 567 u[15] + 551 u[16]
   + 18 u[17] + 779 u[18] + 928 u[19] + 991 u[20] + 66 u[21] + 798 u[22]
   + 73 u[23] + 759 u[24] + 58 u[25] + 444 u[26] + 634 u[27] + 208 u[28]
   + 65 u[29] + 868 u[30] + 38 u[31] + 334 u[32] + 799 u[33] + 366 u[34]
   + 475 u[35] + 182 u[36] + 719 u[37] + 742 u[38] + 297 u[39] + 649 u[40]
   + 580 u[41] + 480 u[42] + 104 u[43] + 465 u[44] + 701 u[45] + 652 u[46]
   + 564 u[47] + 241 u[48] + 754 u[49] + 145 u[50] + 26 u[51] + 71 u[52]
   + 134 u[53] + 275 u[54] + 330 u[55] + 795 u[56] + 565 u[57] + 182 u[58]
   + 500 u[59] <= 991
 primal_lower25: 764 u[0] + 893 u[1] + 135 u[2] + 604 u[3] + 609 u[4]
   + 554 u[5] + 890 u[6] + 92 u[7] + 74 u[8] + 235 u[9] + 16 u[10]
   + 700 u[11] + 849 u[12] + 629 u[13] + 281 u[14] + 445 u[15] + 762 u[16]
   + 737 u[17] + 942 u[18] + 895 u[19] + 738 u[20] + 296 u[21] + 49 u[22]
   + 103 u[23] + 17 u[24] + 113 u[25] + 319 u[26] + 168 u[27] + 106 u[28]
   + 368 u[29] + 398 u[30] + 220 u[31] + 240 u[32] + 566 u[33] + 817 u[34]
   + 122 u[35] + 825 u[36] + 469 u[37] + 81 u[38] + 111 u[39] + 196 u[40]
   + 106 u[41] + 843 u[42] + 846 u[43] + 444 u[44] + 835 u[45] + 278 u[46]
   + 106 u[47] + 796 u[48] + 209 u[49] + 883 u[50] + 617 u[51] + 218 u[52]
   + 437 u[53] + 597 u[54] + 344 u[55] + 678 u[56] + 899 u[57] + 137 u[58]
   + 739 u[59] <= 942
 primal_lower26: 850 u[0] + 483 u[1] + 413 u[2] + 26 u[3] + 775 u[4]
   + 360 u[5] + 904 u[6] + 338 u[7] + 360 u[8] + 769 u[9] + 846 u[10]
   + 570 u[11] + 327 u[12] + 571 u[13] + 559 u[14] + 843 u[15] + 104 u[16]
   + 695 u[17] + 308 u[18] + 845 u[19] + 80 u[20] + 974 u[21] + 159 u[22]
   + 501 u[23] + 671 u[24] + 999 u[25] + 621 u[26] + 886 u[27] + 32 u[28]
   + 566 u[29] + 76 u[30] + 330 u[31] + 982 u[32] + 852 u[33] + 615 u[34]
   + 104 u[35] + 695 u[36] + 667 u[37] + 527 u[38] + 413 u[39] + 322 u[40]
   + 160 u[41] + 697 u[42] + 988 u[43] + 778 u[44] + 865 u[45] + 788 u[46]
   + 616 u[47] + 154 u[48] + 199 u[49] + 873 u[50] + 687 u[51] + 344 u[52]
   + 355 u[53] + 515 u[54] + 886 u[55] + 180 u[56] + 953 u[57] + 711 u[58]
   + 249 u[59] <= 11005
 primal_lower27: 779 u[0] + 316 u[1] + 750 u[2] + 43 u[3] + 112 u[4]
   + 217 u[5] + 625 u[6] + 755 u[7] + 969 u[8] + 946 u[9] + 655 u[10]
   + 867 u[11] + 848 u[12] + 132 u[13] + 600 u[14] + 636 u[15] + 913 u[16]
   + 712 u[17] + 133 u[18] + 142 u[19] + 305 u[20] + 263 u[21] + 336 u[22]
   + 30 u[23] + 288 u[24] + 752 u[25] + 702 u[26] + 23 u[27] + 617 u[28]
   + 23 u[29] + 341 u[30] + 275 u[31] + 575 u[32] + 661 u[33] + 600 u[34]
   + 945 u[35] + 320 u[36] + 548 u[37] + 64 u[38] + 358 u[39] + 803 u[40]
   + 561 u[41] + 410 u[42] + 941 u[43] + 947 u[44] + 434 u[45] + 565 u[46]
   + 857 u[47] + 59 u[48] + 680 u[49] + 266 u[50] + 392 u[51] + 393 u[52]
   + 244 u[53] + 764 u[54] + 431 u[55] + 445 u[56] + 898 u[57] + 328 u[58]
   + 34 u[59] <= 969
 primal_lower28: 557 u[0] + 337 u[1] + 711 u[2] + 512 u[3] + 993 u[4]
   + 583 u[5] + 162 u[6] + 969 u[7] + 866 u[8] + 991 u[9] + 473 u[10]
   + 888 u[11] + 697 u[12] + 489 u[13] + 858 u[14] + 658 u[15] + 890 u[16]
   + 661 u[17] + 766 u[18] + 267 u[19] + 202 u[20] + 525 u[21] + 865 u[22]
   + 884 u[23] + 954 u[24] + 157 u[25] + 95 u[26] + 541 u[27] + 155 u[28]
   + 308 u[29] + 63 u[30] + 841 u[31] + 585 u[32] + 258 u[33] + 953 u[34]
   + 126 u[35] + 89 u[36] + 114 u[37] + 897 u[38] + 572 u[39] + 724 u[40]
   + 391 u[41] + 779 u[42] + 563 u[43] + 476 u[44] + 784 u[45] + 799 u[46]
   + 655 u[47] + 652 u[48] + 301 u[49] + 604 u[50] + 941 u[51] + 826 u[52]
   + 353 u[53] + 454 u[54] + 733 u[55] + 270 u[56] + 792 u[57] + u[58]
   + 943 u[59] <= 993
 primal_lower29: 496 u[0] + 708 u[1] + 626 u[2] + 75 u[3] + 76 u[4]
   + 506 u[5] + 349 u[6] + 300 u[7] + 469 u[8] + 162 u[9] + 980 u[10]
   + 691 u[11] + 300 u[12] + 172 u[13] + 853 u[14] + 13 u[15] + 325 u[16]
   + 920 u[17] + 657 u[18] + 614 u[19] + 173 u[20] + 752 u[21] + 556 u[22]
   + 383 u[23] + 69 u[24] + 648 u[25] + 586 u[26] + 32 u[27] + 702 u[28]
   + 159 u[29] + 218 u[30] + 236 u[31] + 756 u[32] + 429 u[33] + 524 u[34]
   + 257 u[35] + 692 u[36] + 301 u[37] + 964 u[38] + 391 u[39] + 519 u[40]
   + 610 u[41] + 974 u[42] + 478 u[43] + 895 u[44] + 3 u[45] + 514 u[46]
   + 394 u[47] + 535 u[48] + 880 u[49] + 911 u[50] + 512 u[51] + 69 u[52]
   + 36 u[53] + 289 u[54] + 864 u[55] + 385 u[56] + 451 u[57] + 580 u[58]
   + 282 u[59] <= 980
 primal_lower30: 926 u[0] + 386 u[1] + 344 u[2] + 569 u[3] + 50 u[4]
   + 832 u[5] + 395 u[6] + 626 u[7] + 307 u[8] + 448 u[9] + 930 u[10]
   + 561 u[11] + 210 u[12] + 258 u[13] + 155 u[14] + 779 u[15] + 123 u[16]
   + 830 u[17] + 727 u[18] + 84 u[19] + 235 u[20] + 262 u[21] + 106 u[22]
   + 293 u[23] + 643 u[24] + 582 u[25] + 376 u[26] + 374 u[27] + 132 u[28]
   + 461 u[29] + 920 u[30] + 978 u[31] + 298 u[32] + 387 u[33] + 946 u[34]
   + 39 u[35] + 162 u[36] + 723 u[37] + 34 u[38] + 949 u[39] + 77 u[40]
   + 248 u[41] + 484 u[42] + 908 u[43] + 597 u[44] + 609 u[45] + 984 u[46]
   + 728 u[47] + 421 u[48] + 598 u[49] + 773 u[50] + 134 u[51] + 283 u[52]
   + 338 u[53] + 919 u[54] + 158 u[55] + 39 u[56] + 945 u[57] + 322 u[58]
   + 664 u[59] <= 984
 primal_lower31: 732 u[0] + 16 u[1] + 486 u[2] + 791 u[3] + 344 u[4]
   + 934 u[5] + 513 u[6] + 592 u[7] + 449 u[8] + 110 u[9] + 640 u[10]
   + 575 u[11] + 232 u[12] + 320 u[13] + 177 u[14] + 705 u[15] + 465 u[16]
   + 308 u[17] + 373 u[18] + 770 u[19] + 57 u[20] + 308 u[21] + 368 u[22]
   + 339 u[23] + 817 u[24] + 412 u[25] + 670 u[26] + 780 u[27] + 570 u[28]
   + 627 u[29] + 334 u[30] + 128 u[31] + 264 u[32] + 121 u[33] + 976 u[34]
   + 933 u[35] + 424 u[36] + 393 u[37] + 568 u[38] + 203 u[39] + 443 u[40]
   + 574 u[41] + 554 u[42] + 754 u[43] + 659 u[44] + 71 u[45] + 782 u[46]
   + 550 u[47] + 851 u[48] + 228 u[49] + 235 u[50] + 68 u[51] + 241 u[52]
   + 152 u[53] + 133 u[54] + 860 u[55] + 901 u[56] + 919 u[57] + 376 u[58]
   + 662 u[59] <= 9612
 primal_lower32: 148 u[0] + 336 u[1] + 502 u[2] + 375 u[3] + 256 u[4]
   + 846 u[5] + 97 u[6] + 464 u[7] + 961 u[8] + 470 u[9] + 568 u[10]
   + 143 u[11] + 504 u[12] + 592 u[13] + 577 u[14] + 153 u[15] + 273 u[16]
   + 276 u[17] + 941 u[18] + 882 u[19] + 425 u[20] + 292 u[21] + 672 u[22]
   + 827 u[23] + 529 u[24] + 924 u[25] + 38 u[26] + 684 u[27] + 762 u[28]
   + 267 u[29] + 542 u[30] + 944 u[31] + 816 u[32] + 113 u[33] + 24 u[34]
   + 885 u[35] + 440 u[36] + 505 u[37] + 744 u[38] + 931 u[39] + 75 u[40]
   + 606 u[41] + 50 u[42] + 570 u[43] + 339 u[44] + 719 u[45] + 6 u[46]
   + 414 u[47] + 299 u[48] + 196 u[49] + 339 u[50] + 76 u[51] + 137 u[52]
   + 816 u[53] + 157 u[54] + 572 u[55] + 597 u[56] + 527 u[57] + 168 u[58]
   + 118 u[59] <= 961
 primal_lower33: 92 u[0] + 496 u[1] + 246 u[2] + 631 u[3] + 584 u[4]
   + 838 u[5] + 257 u[6] + 208 u[7] + 569 u[8] + 558 u[9] + 568 u[10]
   + 367 u[11] + 248 u[12] + 504 u[13] + 257 u[14] + 433 u[15] + 105 u[16]
   + 164 u[17] + 277 u[18] + 442 u[19] + 897 u[20] + 580 u[21] + 56 u[22]
   + 683 u[23] + 697 u[24] + 436 u[25] + 446 u[26] + 860 u[27] + 442 u[28]
   + 299 u[29] + 790 u[30] + 520 u[31] + 968 u[32] + 953 u[33] + 640 u[34]
   + 93 u[35] + 448 u[36] + 393 u[37] + 944 u[38] + 171 u[39] + 435 u[40]
   + 574 u[41] + 530 u[42] + 818 u[43] + 459 u[44] + 31 u[45] + 886 u[46]
   + 886 u[47] + 835 u[48] + 788 u[49] + 123 u[50] + 540 u[51] + 737 u[52]
   + 344 u[53] + 973 u[54] + 724 u[55] + 621 u[56] + 991 u[57] + 480 u[58]
   + 838 u[59] <= 991
 primal_lower34: 850 u[0] + 11 u[1] + 165 u[2] + 522 u[3] + 687 u[4]
   + 840 u[5] + 936 u[6] + 314 u[7] + 328 u[8] + 81 u[9] + 734 u[10]
   + 210 u[11] + 7 u[12] + 491 u[13] + 271 u[14] + 379 u[15] + 392 u[16]
   + 415 u[17] + 396 u[18] + 213 u[19] + 808 u[20] + 646 u[21] + 119 u[22]
   + 565 u[23] + 271 u[24] + 23 u[25] + 829 u[26] + 142 u[27] + 32 u[28]
   + 278 u[29] + 252 u[30] + 906 u[31] + 414 u[32] + 372 u[33] + 159 u[34]
   + 312 u[35] + 103 u[36] + 251 u[37] + 383 u[38] + 653 u[39] + 114 u[40]
   + 688 u[41] + 513 u[42] + 236 u[43] + 18 u[44] + 761 u[45] + 348 u[46]
   + 536 u[47] + 98 u[48] + 807 u[49] + 929 u[50] + 815 u[51] + 536 u[52]
   + 531 u[53] + 139 u[54] + 534 u[55] + 556 u[56] + 729 u[57] + 303 u[58]
   + 793 u[59] <= 936
 primal_lower35: 856 u[0] + 276 u[1] + 218 u[2] + 443 u[3] + 572 u[4]
   + 66 u[5] + 661 u[6] + 76 u[7] + 829 u[8] + 506 u[9] + 548 u[10]
   + 747 u[11] + 892 u[12] + 940 u[13] + 861 u[14] + 373 u[15] + 229 u[16]
   + 464 u[17] + 921 u[18] + 758 u[19] + 645 u[20] + 840 u[21] + 124 u[22]
   + 655 u[23] + 101 u[24] + 504 u[25] + 42 u[26] + 800 u[27] + 974 u[28]
   + 959 u[29] + 578 u[30] + 780 u[31] + 476 u[32] + 613 u[33] + 956 u[34]
   + 489 u[35] + 892 u[36] + 573 u[37] + 228 u[38] + 599 u[39] + 647 u[40]
   + 498 u[41] + 302 u[42] + 694 u[43] + 119 u[44] + 931 u[45] + 74 u[46]
   + 538 u[47] + 119 u[48] + 536 u[49] + 567 u[50] + 440 u[51] + 741 u[52]
   + 716 u[53] + 113 u[54] + 928 u[55] + 521 u[56] + 979 u[57] + 100 u[58]
   + 426 u[59] <= 979
 primal_lower36: 932 u[0] + 549 u[1] + 71 u[2] + 692 u[3] + 553 u[4]
   + 130 u[5] + 362 u[6] + 52 u[7] + 410 u[8] + 27 u[9] + 800 u[10]
   + 972 u[11] + 665 u[12] + 189 u[13] + 913 u[14] + 941 u[15] + 946 u[16]
   + 321 u[17] + 998 u[18] + 359 u[19] + 10 u[20] + 832 u[21] + 721 u[22]
   + 207 u[23] + 881 u[24] + 209 u[25] + 823 u[26] + 112 u[27] + 538 u[28]
   + 504 u[29] + 190 u[30] + 92 u[31] + 480 u[32] + 358 u[33] + 257 u[34]
   + 866 u[35] + 225 u[36] + 925 u[37] + 289 u[38] + 935 u[39] + 60 u[40]
   + 546 u[41] + 715 u[42] + 470 u[43] + 188 u[44] + 899 u[45] + 358 u[46]
   + 842 u[47] + 756 u[48] + 281 u[49] + 83 u[50] + 561 u[51] + 690 u[52]
   + 957 u[53] + 765 u[54] + 680 u[55] + 886 u[56] + 995 u[57] + 321 u[58]
   + 963 u[59] <= 10784
 primal_lower37: 42 u[0] + 683 u[1] + 885 u[2] + 482 u[3] + 671 u[4]
   + 736 u[5] + 440 u[6] + 354 u[7] + 72 u[8] + 913 u[9] + 742 u[10]
   + 74 u[11] + 7 u[12] + 619 u[13] + 975 u[14] + 243 u[15] + 208 u[16]
   + 543 u[17] + 940 u[18] + 669 u[19] + 432 u[20] + 6 u[21] + 103 u[22]
   + 277 u[23] + 615 u[24] + 783 u[25] + 549 u[26] + 390 u[27] + 888 u[28]
   + 470 u[29] + 716 u[30] + 698 u[31] + 790 u[32] + 628 u[33] + 63 u[34]
   + 960 u[35] + 407 u[36] + 699 u[37] + 159 u[38] + 269 u[39] + 194 u[40]
   + 888 u[41] + 593 u[42] + 788 u[43] + 954 u[44] + 529 u[45] + 244 u[46]
   + 816 u[47] + 866 u[48] + 439 u[49] + 497 u[50] + 487 u[51] + 992 u[52]
   + 211 u[53] + 355 u[54] + 246 u[55] + 132 u[56] + 441 u[57] + 727 u[58]
   + 209 u[59] <= 10269
 primal_lower38: 827 u[0] + 324 u[1] + 134 u[2] + 115 u[3] + 16 u[4]
   + 33 u[5] + 913 u[6] + 651 u[7] + 945 u[8] + 658 u[9] + 239 u[10]
   + 427 u[11] + 584 u[12] + 860 u[13] + 184 u[14] + 884 u[15] + 161 u[16]
   + 392 u[17] + 53 u[18] + 94 u[19] + 945 u[20] + 167 u[21] + 392 u[22]
   + 926 u[23] + 480 u[24] + 960 u[25] + 670 u[26] + 775 u[27] + 81 u[28]
   + 575 u[29] + 381 u[30] + 195 u[31] + 879 u[32] + 373 u[33] + 656 u[34]
   + 289 u[35] + 88 u[36] + 36 u[37] + 880 u[38] + 510 u[39] + 83 u[40]
   + 57 u[41] + 362 u[42] + 173 u[43] + 131 u[44] + 362 u[45] + 589 u[46]
   + 921 u[47] + 379 u[48] + 376 u[49] + 338 u[50] + 400 u[51] + 17 u[52]
   + 300 u[53] + 740 u[54] + 751 u[55] + 725 u[56] + 58 u[57] + 40 u[58]
   + 506 u[59] <= 8686
 primal_lower39: 933 u[0] + 526 u[1] + 816 u[2] + 365 u[3] + 170 u[4]
   + 179 u[5] + 443 u[6] + 317 u[7] + 595 u[8] + 172 u[9] + 497 u[10]
   + 557 u[11] + 34 u[12] + 110 u[13] + 66 u[14] + 670 u[15] + 523 u[16]
   + 226 u[17] + 591 u[18] + 240 u[19] + 83 u[20] + 681 u[21] + 818 u[22]
   + 480 u[23] + 66 u[24] + 138 u[25] + 936 u[26] + 561 u[27] + 579 u[28]
   + 849 u[29] + 983 u[30] + 405 u[31] + 241 u[32] + 343 u[33] + 730 u[34]
   + 203 u[35] + 354 u[36] + 278 u[37] + 538 u[38] + 696 u[39] + 437 u[40]
   + 307 u[41] + 444 u[42] + 271 u[43] + 357 u[44] + 292 u[45] + 927 u[46]
   + 627 u[47] + 253 u[48] + 66 u[49] + 916 u[50] + 66 u[51] + 427 u[52]
   + 814 u[53] + 814 u[54] + 537 u[55] + 783 u[56] + 228 u[57] + 282 u[58]
   + 12 u[59] <= 983
 primal_lower40: 482 u[0] + 371 u[1] + 157 u[2] + 378 u[3] + 23 u[4]
   + 944 u[5] + 336 u[6] + 730 u[7] + 288 u[8] + 833 u[9] + 310 u[10]
   + 730 u[11] + 991 u[12] + 787 u[13] + 303 u[14] + 715 u[15] + 216 u[16]
   + 823 u[17] + 172 u[18] + 197 u[19] + 40 u[20] + 238 u[21] + 111 u[22]
   + 581 u[23] + 911 u[24] + 935 u[25] + 597 u[26] + 862 u[27] + 320 u[28]
   + 622 u[29] + 964 u[30] + 706 u[31] + 494 u[32] + 284 u[33] + 7 u[34]
   + 688 u[35] + 575 u[36] + 843 u[37] + 599 u[38] + 357 u[39] + 562 u[40]
   + 432 u[41] + 409 u[42] + 860 u[43] + 218 u[44] + 841 u[45] + 124 u[46]
   + 144 u[47] + 250 u[48] + 191 u[49] + 873 u[50] + 439 u[51] + 520 u[52]
   + 427 u[53] + 83 u[54] + 582 u[55] + 356 u[56] + 721 u[57] + 903 u[58]
   + 657 u[59] <= 10037
 primal_lower41: 375 u[0] + 467 u[1] + 745 u[2] + 170 u[3] + 251 u[4]
   + 369 u[5] + 676 u[6] + 27 u[7] + 524 u[8] + 537 u[9] + 171 u[10]
   + 682 u[11] + 595 u[12] + 915 u[13] + 820 u[14] + 60 u[15] + 876 u[16]
   + 511 u[17] + 480 u[18] + 189 u[19] + 108 u[20] + 783 u[21] + 3 u[22]
   + 910 u[23] + 460 u[24] + 975 u[25] + 49 u[26] + 639 u[27] + 909 u[28]
   + 390 u[29] + 593 u[30] + 435 u[31] + 419 u[32] + 876 u[33] + 971 u[34]
   + 48 u[35] + 539 u[36] + 932 u[37] + 771 u[38] + 670 u[39] + 822 u[40]
   + 489 u[41] + 349 u[42] + 693 u[43] + 694 u[44] + 610 u[45] + 873 u[46]
   + 209 u[47] + 854 u[48] + 823 u[49] + 934 u[50] + 487 u[51] + 116 u[52]
   + 51 u[53] + 440 u[54] + 143 u[55] + 384 u[56] + 242 u[57] + 331 u[58]
   + 777 u[59] <= 975
 primal_lower42: 269 u[0] + 422 u[1] + 144 u[2] + 437 u[3] + 770 u[4]
   + 715 u[5] + 891 u[6] + 493 u[7] + 379 u[8] + 92 u[9] + 257 u[10]
   + 157 u[11] + 578 u[12] + 302 u[13] + 298 u[14] + 54 u[15] + 883 u[16]
   + 962 u[17] + 223 u[18] + 304 u[19] + 787 u[20] + 641 u[21] + 266 u[22]
   + 872 u[23] + 730 u[24] + 450 u[25] + 456 u[26] + 161 u[27] + 419 u[28]
   + 97 u[29] + 599 u[30] + 29 u[31] + 465 u[32] + 975 u[33] + 514 u[34]
   + 211 u[35] + 578 u[36] + 182 u[37] + 690 u[38] + 968 u[39] + 469 u[40]
   + 379 u[41] + 612 u[42] + 855 u[43] + 37 u[44] + 972 u[45] + 591 u[46]
   + 11 u[47] + 933 u[48] + 122 u[49] + 692 u[50] + 730 u[51] + 507 u[52]
   + 238 u[53] + 630 u[54] + 193 u[55] + 503 u[56] + 172 u[57] + 242 u[58]
   + 796 u[59] <= 9468
 primal_lower43: 574 u[0] + 863 u[1] + 385 u[2] + 606 u[3] + 91 u[4]
   + 52 u[5] + 516 u[6] + 70 u[7] + 460 u[8] + 29 u[9] + 410 u[10]
   + 270 u[11] + 267 u[12] + 847 u[13] + 571 u[14] + 423 u[15] + 340 u[16]
   + 811 u[17] + 152 u[18] + 97 u[19] + 380 u[20] + 770 u[21] + 963 u[22]
   + u[23] + 27 u[24] + 363 u[25] + 761 u[26] + 34 u[27] + 404 u[28]
   + 914 u[29] + 456 u[30] + 998 u[31] + 34 u[32] + 456 u[33] + 675 u[34]
   + 292 u[35] + 259 u[36] + 879 u[37] + 43 u[38] + 369 u[39] + 638 u[40]
   + 524 u[41] + 837 u[42] + 736 u[43] + 918 u[44] + 941 u[45] + 392 u[46]
   + 764 u[47] + 670 u[48] + 939 u[49] + 197 u[50] + 283 u[51] + 292 u[52]
   + 927 u[53] + 231 u[54] + 370 u[55] + 832 u[56] + 373 u[57] + 299 u[58]
   + 365 u[59] <= 9480
 primal_lower44: 213 u[0] + 377 u[1] + 615 u[2] + 368 u[3] + 129 u[4]
   + 287 u[5] + 930 u[6] + 241 u[7] + 706 u[8] + 503 u[9] + 241 u[10]
   + 112 u[11] + 641 u[12] + 241 u[13] + 826 u[14] + 362 u[15] + 250 u[16]
   + 637 u[17] + 502 u[18] + 275 u[19] + 362 u[20] + 941 u[21] + 81 u[22]
   + 964 u[23] + 514 u[24] + 349 u[25] + 311 u[26] + 141 u[27] + 851 u[28]
   + 988 u[29] + 743 u[30] + 633 u[31] + 905 u[32] + 770 u[33] + 969 u[34]
   + 438 u[35] + 153 u[36] + 874 u[37] + 153 u[38] + 28 u[39] + 380 u[40]
   + 143 u[41] + 67 u[42] + 347 u[43] + 412 u[44] + 856 u[45] + 167 u[46]
   + 127 u[47] + 276 u[48] + 5 u[49] + 996 u[50] + 797 u[51] + 538 u[52]
   + 81 u[53] + 78 u[54] + 365 u[55] + 790 u[56] + 736 u[57] + 561 u[58]
   + 503 u[59] <= 9283
 primal_lower45: 24 u[0] + 409 u[1] + 579 u[2] + 976 u[3] + 941 u[4]
   + 550 u[5] + 678 u[6] + 328 u[7] + 62 u[8] + 15 u[9] + 372 u[10]
   + 464 u[11] + 709 u[12] + 33 u[13] + 37 u[14] + 529 u[15] + 598 u[16]
   + 69 u[17] + 698 u[18] + 203 u[19] + 614 u[20] + 188 u[21] + 141 u[22]
   + 675 u[23] + 301 u[24] + 493 u[25] + 923 u[26] + 276 u[27] + 806 u[28]
   + 52 u[29] + 490 u[30] + 688 u[31] + 436 u[32] + 42 u[33] + 845 u[34]
   + 614 u[35] + 69 u[36] + 505 u[37] + 893 u[38] + 619 u[39] + 408 u[40]
   + 414 u[41] + 463 u[42] + 650 u[43] + 736 u[44] + 935 u[45] + 538 u[46]
   + 270 u[47] + 184 u[48] + 221 u[49] + 751 u[50] + 509 u[51] + 622 u[52]
   + 49 u[53] + 881 u[54] + 676 u[55] + 578 u[56] + 751 u[57] + 165 u[58]
   + 607 u[59] <= 9450
 primal_lower46: 320 u[0] + 425 u[1] + 363 u[2] + 96 u[3] + 981 u[4]
   + 670 u[5] + 30 u[6] + 864 u[7] + 838 u[8] + 511 u[9] + 796 u[10]
   + 128 u[11] + 781 u[12] + 345 u[13] + 853 u[14] + 529 u[15] + 622 u[16]
   + 77 u[17] + 538 u[18] + 683 u[19] + 382 u[20] + 748 u[21] + 181 u[22]
   + 499 u[23] + 317 u[24] + 997 u[25] + 955 u[26] + 564 u[27] + 46 u[28]
   + 580 u[29] + 178 u[30] + 16 u[31] + 860 u[32] + 570 u[33] + 245 u[34]
   + 374 u[35] + 181 u[36] + 225 u[37] + 389 u[38] + 435 u[39] + 648 u[40]
   + 30 u[41] + 111 u[42] + 162 u[43] + 840 u[44] + 39 u[45] + 802 u[46]
   + 518 u[47] + 352 u[48] + 877 u[49] + 199 u[50] + 461 u[51] + 502 u[52]
   + 489 u[53] + 145 u[54] + 492 u[55] + 122 u[56] + 31 u[57] + 349 u[58]
   + 631 u[59] <= 8997
 primal_lower47: 520 u[0] + 329 u[1] + 91 u[2] + 648 u[3] + 53 u[4]
   + 310 u[5] + 542 u[6] + 384 u[7] + 926 u[8] + 735 u[9] + 220 u[10]
   + 352 u[11] + 469 u[12] + 929 u[13] + 797 u[14] + 817 u[15] + 894 u[16]
   + 277 u[17] + 850 u[18] + 843 u[19] + 78 u[20] + 796 u[21] + 933 u[22]
   + 611 u[23] + 53 u[24] + 517 u[25] + 667 u[26] + 756 u[27] + 174 u[28]
   + 476 u[29] + 658 u[30] + 280 u[31] + 916 u[32] + 82 u[33] + 861 u[34]
   + 46 u[35] + 965 u[36] + 705 u[37] + 437 u[38] + 507 u[39] + 888 u[40]
   + 574 u[41] + 79 u[42] + 530 u[43] + 960 u[44] + 383 u[45] + 58 u[46]
   + 726 u[47] + 520 u[48] + 325 u[49] + 743 u[50] + 165 u[51] + 206 u[52]
   + 945 u[53] + 801 u[54] + 676 u[55] + 194 u[56] + 359 u[57] + 677 u[58]
   + 599 u[59] <= 10637
 primal_lower48: 810 u[0] + 750 u[1] + 604 u[2] + 541 u[3] + 190 u[4]
   + 180 u[5] + 191 u[6] + 854 u[7] + 527 u[8] + 140 u[9] + 718 u[10]
   + 205 u[11] + 566 u[12] + 542 u[13] + 823 u[14] + 631 u[15] + 743 u[16]
   + 562 u[17] + 203 u[18] + 472 u[19] + 855 u[20] + 274 u[21] + 478 u[22]
   + 865 u[23] + 759 u[24] + 634 u[25] + 100 u[26] + 482 u[27] + 424 u[28]
   + 329 u[29] + 52 u[30] + 342 u[31] + 502 u[32] + 375 u[33] + 174 u[34]
   + 419 u[35] + 910 u[36] + 711 u[37] + 142 u[38] + 241 u[39] + 889 u[40]
   + 60 u[41] + 96 u[42] + 840 u[43] + 401 u[44] + 965 u[45] + 572 u[46]
   + 268 u[47] + 41 u[48] + 50 u[49] + 817 u[50] + 770 u[51] + 111 u[52]
   + 758 u[53] + 387 u[54] + 802 u[55] + 523 u[56] + 293 u[57] + 958 u[58]
   + 332 u[59] <= 965
 primal_lower49: 1000 u[0] + 465 u[1] + 635 u[2] + 232 u[3] + 21 u[4]
   + 494 u[5] + 382 u[6] + 456 u[7] + 918 u[8] + 615 u[9] + 68 u[10]
   + 816 u[11] + 733 u[12] + 329 u[13] + 533 u[14] + 161 u[15] + 206 u[16]
   + 205 u[17] + 474 u[18] + 195 u[19] + 70 u[20] + 268 u[21] + 373 u[22]
   + 339 u[23] + 101 u[24] + 21 u[25] + 995 u[26] + 684 u[27] + 390 u[28]
   + 548 u[29] + 170 u[30] + 232 u[31] + 556 u[32] + 914 u[33] + 125 u[34]
   + 598 u[35] + 821 u[36] + 521 u[37] + 493 u[38] + 251 u[39] + 696 u[40]
   + 126 u[41] + 759 u[42] + 106 u[43] + 368 u[44] + 895 u[45] + 738 u[46]
   + 566 u[47] + 448 u[48] + 877 u[49] + 343 u[50] + 933 u[51] + 54 u[52]
   + 649 u[53] + 921 u[54] + 388 u[55] + 938 u[56] + 967 u[57] + 661 u[58]
   + 567 u[59] <= 9802
 primal_lower50: 66 u[0] + 334 u[1] + 836 u[2] + 917 u[3] + 910 u[4]
   + 12 u[5] + 655 u[6] + 566 u[7] + 855 u[8] + 692 u[9] + 6 u[10]
   + 917 u[11] + 590 u[12] + 646 u[13] + 183 u[14] + 879 u[15] + 935 u[16]
   + 162 u[17] + 931 u[18] + 184 u[19] + 783 u[20] + 770 u[21] + 518 u[22]
   + 217 u[23] + 911 u[24] + 314 u[25] + 916 u[26] + 322 u[27] + 696 u[28]
   + 873 u[29] + 668 u[30] + 230 u[31] + 382 u[32] + 215 u[33] + 334 u[34]
   + 403 u[35] + 558 u[36] + 407 u[37] + 862 u[38] + 921 u[39] + 417 u[40]
   + 892 u[41] + 560 u[42] + 352 u[43] + 705 u[44] + 125 u[45] + 932 u[46]
   + 196 u[47] + 465 u[48] + 522 u[49] + 697 u[50] + 994 u[51] + 511 u[52]
   + 118 u[53] + 99 u[54] + 842 u[55] + 331 u[56] + 717 u[57] + 886 u[58]
   + 516 u[59] <= 994
 primal_lower51: 148 u[0] + 648 u[1] + 886 u[2] + 415 u[3] + 776 u[4]
   + 254 u[5] + 761 u[6] + 312 u[7] + 297 u[8] + 622 u[9] + 928 u[10]
   + 487 u[11] + 232 u[12] + 224 u[13] + 177 u[14] + 177 u[15] + 481 u[16]
   + 188 u[17] + 421 u[18] + 58 u[19] + 449 u[20] + 900 u[21] + 288 u[22]
   + 563 u[23] + 497 u[24] + 68 u[25] + 670 u[26] + 28 u[27] + 162 u[28]
   + 67 u[29] + 110 u[30] + 752 u[31] + 728 u[32] + 905 u[33] + 776 u[34]
   + 525 u[35] + 392 u[36] + 833 u[37] + 640 u[38] + 27 u[39] + 643 u[40]
   + 910 u[41] + 762 u[42] + 594 u[43] + 43 u[44] + 807 u[45] + 782 u[46]
   + 846 u[47] + 683 u[48] + 468 u[49] + 363 u[50] + 340 u[51] + 737 u[52]
   + 584 u[53] + 269 u[54] + 636 u[55] + 885 u[56] + 655 u[57] + 808 u[58]
   + 262 u[59] <= 9983
 primal_lower52: 516 u[0] + 344 u[1] + 126 u[2] + 903 u[3] + 616 u[4]
   + 214 u[5] + 649 u[6] + 344 u[7] + 625 u[8] + 254 u[9] + 744 u[10]
   + 975 u[11] + 896 u[12] + 648 u[13] + 353 u[14] + 401 u[15] + 297 u[16]
   + 876 u[17] + 813 u[18] + 378 u[19] + 625 u[20] + 492 u[21] + 504 u[22]
   + 355 u[23] + 265 u[24] + 324 u[25] + 798 u[26] + 236 u[27] + 298 u[28]
   + 507 u[29] + 390 u[30] + 920 u[31] + 336 u[32] + 697 u[33] + 72 u[34]
   + 45 u[35] + 56 u[36] + 601 u[37] + 64 u[38] + 931 u[39] + 259 u[40]
   + 838 u[41] + 138 u[42] + 778 u[43] + 875 u[44] + 471 u[45] + 966 u[46]
   + 918 u[47] + 267 u[48] + 36 u[49] + 763 u[50] + 756 u[51] + 833 u[52]
   + 528 u[53] + 709 u[54] + 372 u[55] + 125 u[56] + 871 u[57] + 72 u[58]
   + 926 u[59] <= 10329
 primal_lower53: 414 u[0] + 394 u[1] + 384 u[2] + 577 u[3] + 18 u[4]
   + 264 u[5] + 243 u[6] + 554 u[7] + 27 u[8] + 232 u[9] + 250 u[10]
   + 121 u[11] + 658 u[12] + 594 u[13] + 859 u[14] + 523 u[15] + 587 u[16]
   + 702 u[17] + 359 u[18] + 548 u[19] + 507 u[20] + 814 u[21] + 978 u[22]
   + 37 u[23] + 291 u[24] + 86 u[25] + 832 u[26] + 326 u[27] + 236 u[28]
   + 965 u[29] + 776 u[30] + 714 u[31] + 218 u[32] + 739 u[33] + 890 u[34]
   + 943 u[35] + 50 u[36] + 683 u[37] + 186 u[38] + 285 u[39] + 293 u[40]
   + 592 u[41] + 964 u[42] + 44 u[43] + 749 u[44] + 129 u[45] + 664 u[46]
   + 744 u[47] + 509 u[48] + 126 u[49] + 245 u[50] + 166 u[51] + 35 u[52]
   + 570 u[53] + 927 u[54] + 70 u[55] + 831 u[56] + 513 u[57] + 850 u[58]
   + 536 u[59] <= 9473
 primal_lower54: 122 u[0] + 475 u[1] + 381 u[2] + 570 u[3] + 871 u[4]
   + 776 u[5] + 720 u[6] + 346 u[7] + 424 u[8] + 273 u[9] + 662 u[10]
   + 202 u[11] + 495 u[12] + 243 u[13] + 335 u[14] + 83 u[15] + 696 u[16]
   + 783 u[17] + 524 u[18] + 197 u[19] + 528 u[20] + 630 u[21] + 591 u[22]
   + 725 u[23] + 847 u[24] + 487 u[25] + 117 u[26] + 774 u[27] + 64 u[28]
   + 254 u[29] + 676 u[30] + 666 u[31] + 718 u[32] + 676 u[33] + 31 u[34]
   + 440 u[35] + 287 u[36] + 787 u[37] + 719 u[38] + 621 u[39] + 42 u[40]
   + 824 u[41] + 713 u[42] + 852 u[43] + 498 u[44] + 521 u[45] + 540 u[46]
   + 408 u[47] + 754 u[48] + 575 u[49] + 385 u[50] + 943 u[51] + 488 u[52]
   + 251 u[53] + 251 u[54] + 342 u[55] + 52 u[56] + 441 u[57] + 255 u[58]
   + 553 u[59] <= 943
 primal_lower55: 853 u[0] + u[1] + 215 u[2] + 1000 u[3] + 633 u[4]
   + 919 u[5] + 618 u[6] + 465 u[7] + 154 u[8] + 159 u[9] + 481 u[10]
   + 56 u[11] + 49 u[12] + 665 u[13] + 818 u[14] + 194 u[15] + 154 u[16]
   + 901 u[17] + 430 u[18] + 131 u[19] + 890 u[20] + 853 u[21] + 513 u[22]
   + 692 u[23] + 482 u[24] + 493 u[25] + 855 u[26] + 565 u[27] + 579 u[28]
   + 380 u[29] + 383 u[30] + 89 u[31] + 993 u[32] + 586 u[33] + 537 u[34]
   + 14 u[35] + 145 u[36] + 602 u[37] + 697 u[38] + 820 u[39] + 252 u[40]
   + 255 u[41] + 931 u[42] + 939 u[43] + 188 u[44] + 928 u[45] + 607 u[46]
   + 791 u[47] + 692 u[48] + 349 u[49] + 340 u[50] + 869 u[51] + 866 u[52]
   + 401 u[53] + 62 u[54] + 301 u[55] + 654 u[56] + 400 u[57] + 41 u[58]
   + 359 u[59] <= 10096
 primal_lower56: 697 u[0] + 269 u[1] + 483 u[2] + 916 u[3] + 365 u[4]
   + 267 u[5] + 558 u[6] + 845 u[7] + 86 u[8] + 219 u[9] + 213 u[10]
   + 388 u[11] + 845 u[12] + 661 u[13] + 742 u[14] + 638 u[15] + 422 u[16]
   + 945 u[17] + 690 u[18] + 311 u[19] + 206 u[20] + 665 u[21] + 845 u[22]
   + 856 u[23] + 334 u[24] + 553 u[25] + 571 u[26] + 481 u[27] + 95 u[28]
   + 784 u[29] + 619 u[30] + 397 u[31] + 85 u[32] + 406 u[33] + 69 u[34]
   + 442 u[35] + 837 u[36] + 342 u[37] + 885 u[38] + 216 u[39] + 336 u[40]
   + 811 u[41] + 367 u[42] + 311 u[43] + 624 u[44] + 236 u[45] + 659 u[46]
   + 931 u[47] + 704 u[48] + 417 u[49] + 872 u[50] + 905 u[51] + 598 u[52]
   + 917 u[53] + 602 u[54] + 817 u[55] + 778 u[56] + 284 u[57] + 13 u[58]
   + 923 u[59] <= 945
 primal_lower57: 410 u[0] + 739 u[1] + 637 u[2] + 946 u[3] + 791 u[4]
   + 384 u[5] + 136 u[6] + 818 u[7] + 208 u[8] + 225 u[9] + 694 u[10]
   + 826 u[11] + 175 u[12] + 563 u[13] + 615 u[14] + 491 u[15] + 328 u[16]
   + 167 u[17] + 92 u[18] + 581 u[19] + 208 u[20] + 206 u[21] + 847 u[22]
   + 261 u[23] + 983 u[24] + 799 u[25] + 541 u[26] + 518 u[27] + 408 u[28]
   + 990 u[29] + 668 u[30] + 554 u[31] + 606 u[32] + 156 u[33] + 199 u[34]
   + 152 u[35] + 711 u[36] + 163 u[37] + 759 u[38] + 37 u[39] + 370 u[40]
   + 368 u[41] + 57 u[42] + 228 u[43] + 226 u[44] + 761 u[45] + 788 u[46]
   + 640 u[47] + 690 u[48] + 39 u[49] + u[50] + 479 u[51] + 240 u[52]
   + 595 u[53] + 539 u[54] + 62 u[55] + 12 u[56] + 313 u[57] + 351 u[58]
   + 521 u[59] <= 990
 primal_lower58: 481 u[0] + 362 u[1] + 748 u[2] + 841 u[3] + 598 u[4]
   + 847 u[5] + 935 u[6] + 473 u[7] + 655 u[8] + 672 u[9] + 277 u[10]
   + 953 u[11] + 606 u[12] + 746 u[13] + 502 u[14] + 914 u[15] + 823 u[16]
   + 38 u[17] + 275 u[18] + 236 u[19] + 431 u[20] + 141 u[21] + 374 u[22]
   + 12 u[23] + 894 u[24] + 382 u[25] + 52 u[26] + 341 u[27] + 47 u[28]
   + 53 u[29] + 867 u[30] + 729 u[31] + 13 u[32] + 3 u[33] + 70 u[34]
   + 111 u[35] + 158 u[36] + 242 u[37] + 30 u[38] + 420 u[39] + 465 u[40]
   + 831 u[41] + 680 u[42] + 259 u[43] + 217 u[44] + 184 u[45] + 395 u[46]
   + 703 u[47] + 313 u[48] + 686 u[49] + 744 u[50] + 342 u[51] + 855 u[52]
   + 610 u[53] + 770 u[54] + 373 u[55] + 683 u[56] + 968 u[57] + 654 u[58]
   + 376 u[59] <= 968
 primal_lower59: 628 u[0] + 640 u[1] + 286 u[2] + 287 u[3] + 856 u[4]
   + 822 u[5] + 969 u[6] + 272 u[7] + 113 u[8] + 174 u[9] + 360 u[10]
   + 791 u[11] + 752 u[12] + 584 u[13] + 561 u[14] + 9 u[15] + 569 u[16]
   + 796 u[17] + 701 u[18] + 10 u[19] + 353 u[20] + 20 u[21] + 544 u[22]
   + 427 u[23] + 193 u[24] + 692 u[25] + 902 u[26] + 948 u[27] + 786 u[28]
   + 779 u[29] + 558 u[30] + 592 u[31] + 680 u[32] + 537 u[33] + 800 u[34]
   + 781 u[35] + 256 u[36] + 17 u[37] + 480 u[38] + 51 u[39] + 731 u[40]
   + 326 u[41] + 266 u[42] + 330 u[43] + 547 u[44] + 559 u[45] + 78 u[46]
   + 230 u[47] + 931 u[48] + 516 u[49] + 891 u[50] + 396 u[51] + 25 u[52]
   + 256 u[53] + 349 u[54] + 852 u[55] + 269 u[56] + 255 u[57] + 384 u[58]
   + 174 u[59] <= 9647
 primal_lower60: 305 u[0] + 386 u[1] + 164 u[2] + 441 u[3] + 310 u[4]
   + 871 u[5] + 887 u[6] + 257 u[7] + 543 u[8] + 592 u[9] + 437 u[10]
   + 249 u[11] + 718 u[12] + 338 u[13] + 702 u[14] + 554 u[15] + 727 u[16]
   + 502 u[17] + 899 u[18] + 596 u[19] + 455 u[20] + 101 u[21] + 862 u[22]
   + 580 u[23] + 294 u[24] + 502 u[25] + 684 u[26] + 957 u[27] + 751 u[28]
   + 85 u[29] + 155 u[30] + 233 u[31] + 77 u[32] + 795 u[33] + 766 u[34]
   + 271 u[35] + 102 u[36] + 290 u[37] + 662 u[38] + 900 u[39] + 305 u[40]
   + 351 u[41] + 568 u[42] + 667 u[43] + 865 u[44] + 576 u[45] + 691 u[46]
   + 231 u[47] + 353 u[48] + 510 u[49] + 800 u[50] + 102 u[51] + 959 u[52]
   + 18 u[53] + 178 u[54] + 557 u[55] + 371 u[56] + 992 u[57] + 342 u[58]
   + 632 u[59] <= 10022
 primal_lower61: 256 u[0] + 908 u[1] + 474 u[2] + 331 u[3] + 852 u[4]
   + 546 u[5] + 517 u[6] + 684 u[7] + 365 u[8] + 210 u[9] + 308 u[10]
   + 131 u[11] + 636 u[12] + 252 u[13] + 109 u[14] + 389 u[15] + 181 u[16]
   + 256 u[17] + 833 u[18] + 566 u[19] + 861 u[20] + 848 u[21] + 156 u[22]
   + 535 u[23] + 445 u[24] + 376 u[25] + 858 u[26] + 776 u[27] + 814 u[28]
   + 135 u[29] + 898 u[30] + 996 u[31] + 156 u[32] + 653 u[33] + 596 u[34]
   + 825 u[35] + 980 u[36] + 181 u[37] + 44 u[38] + 751 u[39] + 951 u[40]
   + 810 u[41] + 86 u[42] + 6 u[43] + 151 u[44] + 923 u[45] + 642 u[46]
   + 922 u[47] + 983 u[48] + 504 u[49] + 463 u[50] + 768 u[51] + 909 u[52]
   + 356 u[53] + 321 u[54] + 216 u[55] + 353 u[56] + 875 u[57] + 52 u[58]
   + 986 u[59] <= 10655
 primal_lower62: 412 u[0] + 368 u[1] + 334 u[2] + 967 u[3] + 96 u[4]
   + 358 u[5] + 337 u[6] + 840 u[7] + 57 u[8] + 366 u[9] + 272 u[10]
   + 607 u[11] + 912 u[12] + 128 u[13] + 649 u[14] + 361 u[15] + 257 u[16]
   + 348 u[17] + 789 u[18] + 458 u[19] + 577 u[20] + 244 u[21] + 176 u[22]
   + 915 u[23] + 761 u[24] + 388 u[25] + 342 u[26] + 244 u[27] + 314 u[28]
   + 395 u[29] + 894 u[30] + 152 u[31] + 64 u[32] + 257 u[33] + 800 u[34]
   + 797 u[35] + 824 u[36] + 17 u[37] + 760 u[38] + 115 u[39] + 251 u[40]
   + 782 u[41] + 722 u[42] + 722 u[43] + 699 u[44] + 207 u[45] + 494 u[46]
   + 30 u[47] + 331 u[48] + 500 u[49] + 403 u[50] + 612 u[51] + 201 u[52]
   + 888 u[53] + 213 u[54] + 628 u[55] + 197 u[56] + 791 u[57] + 136 u[58]
   + 742 u[59] <= 967
 primal_lower63: 895 u[0] + 859 u[1] + 953 u[2] + 274 u[3] + 195 u[4]
   + 665 u[5] + 868 u[6] + 931 u[7] + 500 u[8] + 777 u[9] + 211 u[10]
   + 858 u[11] + 819 u[12] + 243 u[13] + 796 u[14] + 252 u[15] + 44 u[16]
   + 303 u[17] + 944 u[18] + 205 u[19] + 652 u[20] + 175 u[21] + 715 u[22]
   + 246 u[23] + 12 u[24] + 495 u[25] + 737 u[26] + 967 u[27] + 501 u[28]
   + 30 u[29] + 257 u[30] + 59 u[31] + 19 u[32] + 564 u[33] + 443 u[34]
   + 704 u[35] + 283 u[36] + 892 u[37] + 187 u[38] + 166 u[39] + 998 u[40]
   + 465 u[41] + 677 u[42] + 557 u[43] + 526 u[44] + 186 u[45] + 753 u[46]
   + 289 u[47] + 62 u[48] + 879 u[49] + 582 u[50] + 655 u[51] + 460 u[52]
   + 523 u[53] + 752 u[54] + 79 u[55] + 16 u[56] + 218 u[57] + 939 u[58]
   + 353 u[59] <= 9888
 primal_lower64: 678 u[0] + 551 u[1] + 969 u[2] + 150 u[3] + 99 u[4]
   + 572 u[5] + 532 u[6] + 46 u[7] + 324 u[8] + 925 u[9] + 50 u[10]
   + 206 u[11] + 283 u[12] + 215 u[13] + 787 u[14] + 143 u[15] + 252 u[16]
   + 235 u[17] + 112 u[18] + 33 u[19] + 916 u[20] + 666 u[21] + 211 u[22]
   + 841 u[23] + 811 u[24] + 227 u[25] + 353 u[26] + 402 u[27] + 588 u[28]
   + 946 u[29] + 992 u[30] + 342 u[31] + 530 u[32] + 640 u[33] + 795 u[34]
   + 84 u[35] + 379 u[36] + 583 u[37] + 219 u[38] + 617 u[39] + 918 u[40]
   + 884 u[41] + 645 u[42] + 184 u[43] + 926 u[44] + 733 u[45] + 872 u[46]
   + 516 u[47] + 782 u[48] + 731 u[49] + 565 u[50] + 219 u[51] + 108 u[52]
   + 399 u[53] + 127 u[54] + 442 u[55] + 944 u[56] + 165 u[57] + 739 u[58]
   + 805 u[59] <= 10002
 primal_lower65: 356 u[0] + 981 u[1] + 935 u[2] + 996 u[3] + 673 u[4]
   + 50 u[5] + 882 u[6] + 612 u[7] + 722 u[8] + 611 u[9] + 64 u[10]
   + 844 u[11] + 833 u[12] + 973 u[13] + 121 u[14] + 5 u[15] + 258 u[16]
   + 849 u[17] + 790 u[18] + 967 u[19] + 874 u[20] + 600 u[21] + 337 u[22]
   + 367 u[23] + 73 u[24] + 673 u[25] + 471 u[26] + 480 u[27] + 10 u[28]
   + 16 u[29] + 766 u[30] + 844 u[31] + 968 u[32] + 326 u[33] + 377 u[34]
   + 730 u[35] + 569 u[36] + 77 u[37] + 905 u[38] + 735 u[39] + 548 u[40]
   + 202 u[41] + 603 u[42] + 678 u[43] + 684 u[44] + 979 u[45] + 958 u[46]
   + 474 u[47] + 676 u[48] + 281 u[49] + 123 u[50] + 753 u[51] + 58 u[52]
   + 157 u[53] + 317 u[54] + 760 u[55] + 806 u[56] + 859 u[57] + 561 u[58]
   + 123 u[59] <= 996
 primal_lower66: 496 u[0] + 17 u[1] + 339 u[2] + 520 u[3] + 245 u[4]
   + 782 u[5] + 486 u[6] + 216 u[7] + 158 u[8] + 799 u[9] + 356 u[10]
   + 352 u[11] + 925 u[12] + 873 u[13] + 101 u[14] + 865 u[15] + 462 u[16]
   + 405 u[17] + 170 u[18] + 163 u[19] + 910 u[20] + 276 u[21] + 341 u[22]
   + 923 u[23] + 669 u[24] + 733 u[25] + 211 u[26] + 700 u[27] + 934 u[28]
   + 196 u[29] + 778 u[30] + 48 u[31] + 436 u[32] + 458 u[33] + 53 u[34]
   + 494 u[35] + 629 u[36] + 33 u[37] + 501 u[38] + 435 u[39] + 736 u[40]
   + 118 u[41] + 199 u[42] + 154 u[43] + 856 u[44] + 511 u[45] + 522 u[46]
   + 718 u[47] + 856 u[48] + 757 u[49] + 775 u[50] + 477 u[51] + 766 u[52]
   + 745 u[53] + 345 u[54] + 348 u[55] + 418 u[56] + 239 u[57] + 477 u[58]
   + 887 u[59] <= 934
 primal_lower67: 639 u[0] + 160 u[1] + 234 u[2] + 127 u[3] + 476 u[4]
   + 973 u[5] + 133 u[6] + 191 u[7] + 653 u[8] + 654 u[9] + 579 u[10]
   + 287 u[11] + 356 u[12] + 720 u[13] + 44 u[14] + 72 u[15] + 437 u[16]
   + 588 u[17] + 89 u[18] + 394 u[19] + 101 u[20] + 523 u[21] + 620 u[22]
   + 250 u[23] + 708 u[24] + 44 u[25] + 466 u[26] + 43 u[27] + 61 u[28]
   + 683 u[29] + 121 u[30] + 255 u[31] + 179 u[32] + 881 u[33] + 308 u[34]
   + 869 u[35] + 988 u[36] + 72 u[37] + 260 u[38] + 50 u[39] + 567 u[40]
   + 725 u[41] + 270 u[42] + 321 u[43] + 519 u[44] + 670 u[45] + 193 u[46]
   + 957 u[47] + 31 u[48] + 388 u[49] + 550 u[50] + 812 u[51] + 389 u[52]
   + 400 u[53] + 488 u[54] + 291 u[55] + 449 u[56] + 734 u[57] + 900 u[58]
   + 70 u[59] <= 8337
 primal_lower68: 703 u[0] + 8 u[1] + 898 u[2] + 471 u[3] + 156 u[4]
   + 133 u[5] + 701 u[6] + 23 u[7] + 437 u[8] + 638 u[9] + 555 u[10]
   + 167 u[11] + 564 u[12] + 400 u[13] + 884 u[14] + 336 u[15] + 437 u[16]
   + 988 u[17] + 521 u[18] + 370 u[19] + 285 u[20] + 99 u[21] + 332 u[22]
   + 482 u[23] + 996 u[24] + 12 u[25] + 266 u[26] + 51 u[27] + 677 u[28]
   + 819 u[29] + 977 u[30] + 775 u[31] + 995 u[32] + 841 u[33] + 396 u[34]
   + 317 u[35] + 996 u[36] + 496 u[37] + 892 u[38] + 18 u[39] + 295 u[40]
   + 77 u[41] + 982 u[42] + 353 u[43] + 191 u[44] + 710 u[45] + 177 u[46]
   + 93 u[47] + 31 u[48] + 852 u[49] + 318 u[50] + 964 u[51] + 941 u[52]
   + 384 u[53] + 512 u[54] + 195 u[55] + 353 u[56] + 638 u[57] + 132 u[58]
   + 270 u[59] <= 9526
 primal_lower69: 912 u[0] + 212 u[1] + 490 u[2] + 771 u[3] + 564 u[4]
   + 410 u[5] + 989 u[6] + 860 u[7] + 117 u[8] + 410 u[9] + 380 u[10]
   + 571 u[11] + 116 u[12] + 180 u[13] + 861 u[14] + 605 u[15] + 525 u[16]
   + 872 u[17] + 457 u[18] + 182 u[19] + 493 u[20] + 904 u[21] + 820 u[22]
   + 399 u[23] + 269 u[24] + 256 u[25] + 690 u[26] + 56 u[27] + 94 u[28]
   + 815 u[29] + 290 u[30] + 244 u[31] + 100 u[32] + 29 u[33] + 492 u[34]
   + 545 u[35] + 188 u[36] + 757 u[37] + 156 u[38] + 311 u[39] + 823 u[40]
   + 418 u[41] + 46 u[42] + 246 u[43] + 167 u[44] + 91 u[45] + 186 u[46]
   + 202 u[47] + 407 u[48] + 688 u[49] + 775 u[50] + 184 u[51] + 149 u[52]
   + 356 u[53] + 897 u[54] + 448 u[55] + 505 u[56] + 995 u[57] + 284 u[58]
   + 642 u[59] <= 995
 primal_lower70: 270 u[0] + 479 u[1] + 489 u[2] + 102 u[3] + 763 u[4]
   + 92 u[5] + 628 u[6] + 334 u[7] + 484 u[8] + 973 u[9] + 66 u[10]
   + 46 u[11] + 739 u[12] + 423 u[13] + 771 u[14] + 47 u[15] + 180 u[16]
   + 579 u[17] + 592 u[18] + 681 u[19] + 164 u[20] + 738 u[21] + 107 u[22]
   + 897 u[23] + 571 u[24] + 619 u[25] + 41 u[26] + 450 u[27] + 676 u[28]
   + 946 u[29] + 992 u[30] + 694 u[31] + 242 u[32] + 392 u[33] + 539 u[34]
   + 820 u[35] + 683 u[36] + 151 u[37] + 347 u[38] + 673 u[39] + 558 u[40]
   + 228 u[41] + 909 u[42] + 688 u[43] + 774 u[44] + 917 u[45] + 904 u[46]
   + 772 u[47] + 726 u[48] + 579 u[49] + 901 u[50] + 139 u[51] + 916 u[52]
   + 727 u[53] + 383 u[54] + 418 u[55] + 720 u[56] + 261 u[57] + 211 u[58]
   + 773 u[59] <= 10661
 primal_lower71: 270 u[0] + 314 u[1] + 112 u[2] + 369 u[3] + 482 u[4]
   + 240 u[5] + 931 u[6] + 722 u[7] + 163 u[8] + 664 u[9] + 106 u[10]
   + 545 u[11] + 858 u[12] + 762 u[13] + 875 u[14] + 515 u[15] + 267 u[16]
   + 414 u[17] + 615 u[18] + 340 u[19] + 323 u[20] + 566 u[21] + 314 u[22]
   + 413 u[23] + 323 u[24] + 414 u[25] + 512 u[26] + 982 u[27] + 36 u[28]
   + 269 u[29] + 496 u[30] + 994 u[31] + 442 u[32] + 563 u[33] + 250 u[34]
   + 879 u[35] + 738 u[36] + 859 u[37] + 218 u[38] + 349 u[39] + 61 u[40]
   + 664 u[41] + 476 u[42] + 852 u[43] + 717 u[44] + 169 u[45] + 472 u[46]
   + 904 u[47] + 277 u[48] + 14 u[49] + 109 u[50] + 886 u[51] + 779 u[52]
   + 666 u[53] + 559 u[54] + 622 u[55] + 47 u[56] + 289 u[57] + 722 u[58]
   + 416 u[59] <= 994
 primal_lower72: 752 u[0] + 41 u[1] + 299 u[2] + 864 u[3] + 621 u[4]
   + 246 u[5] + 222 u[6] + 128 u[7] + 214 u[8] + 767 u[9] + 700 u[10]
   + 440 u[11] + 861 u[12] + 505 u[13] + 437 u[14] + 17 u[15] + 486 u[16]
   + 845 u[17] + 626 u[18] + 771 u[19] + 742 u[20] + 820 u[21] + 653 u[22]
   + 411 u[23] + 269 u[24] + 605 u[25] + 363 u[26] + 300 u[27] + 806 u[28]
   + 516 u[29] + 666 u[30] + 168 u[31] + 540 u[32] + 658 u[33] + 797 u[34]
   + 422 u[35] + 509 u[36] + 233 u[37] + 997 u[38] + 923 u[39] + 112 u[40]
   + 782 u[41] + 511 u[42] + 954 u[43] + 976 u[44] + 599 u[45] + 178 u[46]
   + 758 u[47] + 816 u[48] + 933 u[49] + 327 u[50] + 181 u[51] + 374 u[52]
   + 985 u[53] + 697 u[54] + 836 u[55] + 186 u[56] + 983 u[57] + 773 u[58]
   + 839 u[59] <= 11346
 primal_lower73: 819 u[0] + 556 u[1] + 806 u[2] + 163 u[3] + 952 u[4]
   + 129 u[5] + 337 u[6] + 827 u[7] + 977 u[8] + 50 u[9] + 127 u[10]
   + 451 u[11] + 824 u[12] + 532 u[13] + 480 u[14] + 44 u[15] + 361 u[16]
   + 376 u[17] + 685 u[18] + 318 u[19] + 841 u[20] + 463 u[21] + 272 u[22]
   + 790 u[23] + 728 u[24] + 128 u[25] + 670 u[26] + 447 u[27] + 601 u[28]
   + 15 u[29] + 133 u[30] + 259 u[31] + 583 u[32] + 693 u[33] + 16 u[34]
   + 865 u[35] + 880 u[36] + 428 u[37] + 896 u[38] + 486 u[39] + 347 u[40]
   + 377 u[41] + 18 u[42] + 269 u[43] + 771 u[44] + 194 u[45] + 325 u[46]
   + 937 u[47] + 811 u[48] + 112 u[49] + 698 u[50] + 680 u[51] + 937 u[52]
   + 476 u[53] + 60 u[54] + 351 u[55] + 261 u[56] + 834 u[57] + 272 u[58]
   + 634 u[59] <= 9790
 primal_lower74: 984 u[0] + 41 u[1] + 987 u[2] + 928 u[3] + 157 u[4]
   + 414 u[5] + 974 u[6] + 96 u[7] + 854 u[8] + 647 u[9] + 204 u[10]
   + 40 u[11] + 549 u[12] + 737 u[13] + 165 u[14] + 241 u[15] + 334 u[16]
   + 669 u[17] + 706 u[18] + 499 u[19] + 198 u[20] + 740 u[21] + 357 u[22]
   + 515 u[23] + 381 u[24] + 69 u[25] + 251 u[26] + 436 u[27] + 814 u[28]
   + 468 u[29] + 994 u[30] + 280 u[31] + 308 u[32] + 634 u[33] + 597 u[34]
   + 390 u[35] + 845 u[36] + 641 u[37] + 181 u[38] + 587 u[39] + 776 u[40]
   + 70 u[41] + 719 u[42] + 58 u[43] + 608 u[44] + 335 u[45] + 450 u[46]
   + 702 u[47] + 280 u[48] + 357 u[49] + 863 u[50] + 813 u[51] + 662 u[52]
   + 705 u[53] + 57 u[54] + 372 u[55] + 898 u[56] + 431 u[57] + 493 u[58]
   + 575 u[59] <= 994
 primal_lower75: 724 u[0] + 781 u[1] + 615 u[2] + 412 u[3] + 713 u[4]
   + 58 u[5] + 978 u[6] + 372 u[7] + 266 u[8] + 395 u[9] + 432 u[10]
   + 340 u[11] + 249 u[12] + 933 u[13] + 585 u[14] + 109 u[15] + 938 u[16]
   + 809 u[17] + 446 u[18] + 439 u[19] + 890 u[20] + 728 u[21] + 769 u[22]
   + 743 u[23] + 865 u[24] + 785 u[25] + 55 u[26] + 968 u[27] + 322 u[28]
   + 160 u[29] + 310 u[30] + 660 u[31] + 544 u[32] + 910 u[33] + 41 u[34]
   + 506 u[35] + 737 u[36] + 573 u[37] + 129 u[38] + 887 u[39] + 740 u[40]
   + 818 u[41] + 179 u[42] + 590 u[43] + 732 u[44] + 723 u[45] + 846 u[46]
   + 514 u[47] + 196 u[48] + 209 u[49] + 907 u[50] + 929 u[51] + 282 u[52]
   + 317 u[53] + 637 u[54] + 808 u[55] + 342 u[56] + 155 u[57] + 729 u[58]
   + 571 u[59] <= 11133
 primal_lower76: 877 u[0] + 513 u[1] + 615 u[2] + 832 u[3] + 153 u[4]
   + 831 u[5] + 178 u[6] + 889 u[7] + 226 u[8] + 47 u[9] + 729 u[10]
   + 304 u[11] + 505 u[12] + 601 u[13] + 98 u[14] + 538 u[15] + 386 u[16]
   + 341 u[17] + 438 u[18] + 947 u[19] + 218 u[20] + 261 u[21] + 209 u[22]
   + 372 u[23] + 610 u[24] + 13 u[25] + 439 u[26] + 333 u[27] + 411 u[28]
   + 252 u[29] + 487 u[30] + 393 u[31] + 217 u[32] + 450 u[33] + 865 u[34]
   + 278 u[35] + 97 u[36] + 74 u[37] + 369 u[38] + 900 u[39] + 708 u[40]
   + 711 u[41] + 235 u[42] + 843 u[43] + 676 u[44] + 544 u[45] + 647 u[46]
   + 903 u[47] + 116 u[48] + 637 u[49] + 684 u[50] + 525 u[51] + 58 u[52]
   + 793 u[53] + 998 u[54] + 613 u[55] + 734 u[56] + 696 u[57] + 641 u[58]
   + 407 u[59] <= 9821
 primal_lower77: 238 u[0] + 562 u[1] + 944 u[2] + 889 u[3] + 810 u[4]
   + 904 u[5] + 827 u[6] + 450 u[7] + 91 u[8] + 480 u[9] + 634 u[10]
   + 769 u[11] + 322 u[12] + 610 u[13] + 411 u[14] + 675 u[15] + 523 u[16]
   + 486 u[17] + 327 u[18] + 308 u[19] + 427 u[20] + 126 u[21] + 458 u[22]
   + 661 u[23] + 43 u[24] + 894 u[25] + 752 u[26] + 142 u[27] + 532 u[28]
   + 549 u[29] + 128 u[30] + 330 u[31] + 354 u[32] + 539 u[33] + 18 u[34]
   + 399 u[35] + 794 u[36] + 171 u[37] + 226 u[38] + 293 u[39] + 853 u[40]
   + 56 u[41] + 836 u[42] + 484 u[43] + 109 u[44] + 281 u[45] + 536 u[46]
   + 728 u[47] + 229 u[48] + 262 u[49] + 565 u[50] + 638 u[51] + 699 u[52]
   + 626 u[53] + 567 u[54] + 750 u[55] + 71 u[56] + 353 u[57] + 946 u[58]
   + 40 u[59] <= 9575
 primal_lower78: 636 u[0] + 544 u[1] + 190 u[2] + 87 u[3] + 744 u[4]
   + 662 u[5] + 449 u[6] + 840 u[7] + 793 u[8] + 206 u[9] + 80 u[10]
   + 951 u[11] + 672 u[12] + 192 u[13] + 57 u[14] + 481 u[15] + 537 u[16]
   + 716 u[17] + 901 u[18] + 674 u[19] + 857 u[20] + 732 u[21] + 456 u[22]
   + 947 u[23] + 921 u[24] + 164 u[25] + 6 u[26] + 348 u[27] + 842 u[28]
   + 555 u[29] + 814 u[30] + 368 u[31] + 480 u[32] + 513 u[33] + 488 u[34]
   + 309 u[35] + 136 u[36] + 457 u[37] + 632 u[38] + 275 u[39] + 595 u[40]
   + 142 u[41] + 146 u[42] + 426 u[43] + 683 u[44] + 983 u[45] + 382 u[46]
   + 534 u[47] + 955 u[48] + 636 u[49] + 187 u[50] + 268 u[51] + 25 u[52]
   + 240 u[53] + 645 u[54] + 468 u[55] + 693 u[56] + 463 u[57] + 96 u[58]
   + 518 u[59] <= 983
 primal_lower79: 866 u[0] + 891 u[1] + 341 u[2] + 194 u[3] + 151 u[4]
   + 944 u[5] + 256 u[6] + 634 u[7] + 96 u[8] + 721 u[9] + 374 u[10]
   + 682 u[11] + 471 u[12] + 139 u[13] + 783 u[14] + 835 u[15] + 696 u[16]
   + 991 u[17] + 796 u[18] + 485 u[19] + 408 u[20] + 134 u[21] + 743 u[22]
   + 373 u[23] + 695 u[24] + 807 u[25] + 109 u[26] + 126 u[27] + 792 u[28]
   + 710 u[29] + 60 u[30] + 778 u[31] + 838 u[32] + 644 u[33] + 63 u[34]
   + 648 u[35] + 639 u[36] + 899 u[37] + 999 u[38] + 749 u[39] + 514 u[40]
   + 992 u[41] + 57 u[42] + 148 u[43] + 194 u[44] + 553 u[45] + 988 u[46]
   + 288 u[47] + 330 u[48] + 911 u[49] + 505 u[50] + 911 u[51] + 896 u[52]
   + 83 u[53] + 539 u[54] + 110 u[55] + 436 u[56] + 209 u[57] + 327 u[58]
   + 369 u[59] <= 999
 primal_lower80: 36 u[0] + 208 u[1] + 774 u[2] + 319 u[3] + 648 u[4]
   + 30 u[5] + 809 u[6] + 272 u[7] + 633 u[8] + 374 u[9] + 704 u[10]
   + 319 u[11] + 824 u[12] + 56 u[13] + 617 u[14] + 57 u[15] + 177 u[16]
   + 140 u[17] + 997 u[18] + 218 u[19] + 633 u[20] + 20 u[21] + 64 u[22]
   + 435 u[23] + 25 u[24] + 12 u[25] + 470 u[26] + 308 u[27] + 82 u[28]
   + 435 u[29] + 878 u[30] + 968 u[31] + 504 u[32] + 865 u[33] + 808 u[34]
   + 493 u[35] + 392 u[36] + 977 u[37] + 8 u[38] + 379 u[39] + 451 u[40]
   + 286 u[41] + 650 u[42] + 202 u[43] + 659 u[44] + 959 u[45] + 94 u[46]
   + 78 u[47] + 339 u[48] + 484 u[49] + 163 u[50] + 796 u[51] + 985 u[52]
   + 16 u[53] + 589 u[54] + 468 u[55] + 189 u[56] + 263 u[57] + 88 u[58]
   + 766 u[59] <= 997
 primal_lower81: 826 u[0] + 918 u[1] + 180 u[2] + 797 u[3] + 974 u[4]
   + 812 u[5] + 807 u[6] + 702 u[7] + 191 u[8] + 580 u[9] + 998 u[10]
   + 917 u[11] + 998 u[12] + 534 u[13] + 15 u[14] + 599 u[15] + 175 u[16]
   + 242 u[17] + 475 u[18] + 920 u[19] + 775 u[20] + 922 u[21] + 990 u[22]
   + 81 u[23] + 711 u[24] + 490 u[25] + 436 u[26] + 90 u[27] + 984 u[28]
   + 33 u[29] + 628 u[30] + 254 u[31] + 510 u[32] + 903 u[33] + 230 u[34]
   + 211 u[35] + 750 u[36] + 431 u[37] + 886 u[38] + 97 u[39] + 825 u[40]
   + 60 u[41] + 56 u[42] + 552 u[43] + 745 u[44] + 229 u[45] + 204 u[46]
   + 156 u[47] + 905 u[48] + 706 u[49] + 385 u[50] + 74 u[51] + 479 u[52]
   + 286 u[53] + 387 u[54] + 858 u[55] + 219 u[56] + 253 u[57] + 670 u[58]
   + 460 u[59] <= 998
 primal_lower82: 24 u[0] + 60 u[1] + 162 u[2] + 323 u[3] + 84 u[4]
   + 514 u[5] + 309 u[6] + 220 u[7] + 413 u[8] + 818 u[9] + 940 u[10]
   + 843 u[11] + 476 u[12] + 828 u[13] + 341 u[14] + 45 u[15] + 101 u[16]
   + 728 u[17] + 297 u[18] + 406 u[19] + 821 u[20] + 40 u[21] + 388 u[22]
   + 855 u[23] + 373 u[24] + 192 u[25] + 274 u[26] + 688 u[27] + 774 u[28]
   + 359 u[29] + 130 u[30] + 604 u[31] + 652 u[32] + 797 u[33] + 444 u[34]
   + 145 u[35] + 644 u[36] + 869 u[37] + 556 u[38] + 911 u[39] + 239 u[40]
   + 266 u[41] + 454 u[42] + 862 u[43] + 87 u[44] + 555 u[45] + 466 u[46]
   + 266 u[47] + 311 u[48] + 8 u[49] + 7 u[50] + 592 u[51] + 685 u[52]
   + 524 u[53] + 281 u[54] + 200 u[55] + 289 u[56] + 843 u[57] + 764 u[58]
   + 538 u[59] <= 8895
 primal_lower83: 872 u[0] + 420 u[1] + 506 u[2] + 699 u[3] + 804 u[4]
   + 138 u[5] + 685 u[6] + 300 u[7] + 701 u[8] + 834 u[9] + 492 u[10]
   + 435 u[11] + 892 u[12] + 572 u[13] + 157 u[14] + 149 u[15] + 517 u[16]
   + 872 u[17] + 401 u[18] + 446 u[19] + 717 u[20] + 776 u[21] + 196 u[22]
   + 247 u[23] + 597 u[24] + 976 u[25] + 130 u[26] + 272 u[27] + 318 u[28]
   + 391 u[29] + 906 u[30] + 108 u[31] + 332 u[32] + 749 u[33] + 548 u[34]
   + 233 u[35] + 572 u[36] + 845 u[37] + 892 u[38] + 799 u[39] + 263 u[40]
   + 466 u[41] + 326 u[42] + 62 u[43] + 567 u[44] + 627 u[45] + 82 u[46]
   + 98 u[47] + 959 u[48] + 928 u[49] + 255 u[50] + 904 u[51] + 629 u[52]
   + 348 u[53] + 657 u[54] + 296 u[55] + 841 u[56] + 443 u[57] + 796 u[58]
   + 906 u[59] <= 10649
 primal_lower84: 259 u[0] + 751 u[1] + 597 u[2] + 342 u[3] + 823 u[4]
   + 581 u[5] + 8 u[6] + 487 u[7] + 16 u[8] + 493 u[9] + 39 u[10]
   + 406 u[11] + 159 u[12] + 383 u[13] + 976 u[14] + 32 u[15] + 776 u[16]
   + 339 u[17] + 180 u[18] + 273 u[19] + 424 u[20] + 355 u[21] + 631 u[22]
   + 730 u[23] + 920 u[24] + 787 u[25] + 109 u[26] + 99 u[27] + 177 u[28]
   + 754 u[29] + 125 u[30] + 63 u[31] + 607 u[32] + 240 u[33] + 647 u[34]
   + 156 u[35] + 503 u[36] + 304 u[37] + 279 u[38] + 826 u[39] + 730 u[40]
   + 21 u[41] + 393 u[42] + 593 u[43] + 122 u[44] + 606 u[45] + 525 u[46]
   + 581 u[47] + 178 u[48] + 603 u[49] + 602 u[50] + 219 u[51] + 272 u[52]
   + 839 u[53] + 820 u[54] + 419 u[55] + 740 u[56] + 734 u[57] + 959 u[58]
   + 517 u[59] <= 976
 primal_lower85: 631 u[0] + 219 u[1] + 297 u[2] + 714 u[3] + 251 u[4]
   + 697 u[5] + 948 u[6] + 171 u[7] + 660 u[8] + 577 u[9] + 595 u[10]
   + 658 u[11] + 931 u[12] + 539 u[13] + 836 u[14] + 140 u[15] + 180 u[16]
   + 47 u[17] + 160 u[18] + 301 u[19] + 636 u[20] + 79 u[21] + 571 u[22]
   + 646 u[23] + 404 u[24] + 415 u[25] + 537 u[26] + 591 u[27] + 565 u[28]
   + 14 u[29] + 73 u[30] + 11 u[31] + 699 u[32] + 644 u[33] + 163 u[34]
   + 704 u[35] + 635 u[36] + 516 u[37] + 667 u[38] + 214 u[39] + 294 u[40]
   + 873 u[41] + 93 u[42] + 461 u[43] + 246 u[44] + 146 u[45] + 785 u[46]
   + 273 u[47] + 518 u[48] + 327 u[49] + 918 u[50] + 287 u[51] + 860 u[52]
   + 659 u[53] + 896 u[54] + 263 u[55] + 832 u[56] + 938 u[57] + 619 u[58]
   + 801 u[59] <= 948
 primal_lower86: 39 u[0] + 632 u[1] + 626 u[2] + 551 u[3] + 188 u[4]
   + 341 u[5] + 493 u[6] + 623 u[7] + 493 u[8] + 822 u[9] + 203 u[10]
   + 655 u[11] + 508 u[12] + 584 u[13] + 604 u[14] + 648 u[15] + 77 u[16]
   + 820 u[17] + 377 u[18] + 938 u[19] + 877 u[20] + 811 u[21] + 228 u[22]
   + 930 u[23] + 4 u[24] + 892 u[25] + 122 u[26] + 3 u[27] + 301 u[28]
   + 755 u[29] + 185 u[30] + 663 u[31] + 203 u[32] + 233 u[33] + 436 u[34]
   + 53 u[35] + 244 u[36] + 784 u[37] + 636 u[38] + 154 u[39] + 423 u[40]
   + 869 u[41] + 582 u[42] + 97 u[43] + 303 u[44] + 838 u[45] + 97 u[46]
   + 693 u[47] + 415 u[48] + 236 u[49] + 718 u[50] + 532 u[51] + 349 u[52]
   + 176 u[53] + 432 u[54] + 483 u[55] + 945 u[56] + 534 u[57] + 84 u[58]
   + 318 u[59] <= 945
 primal_lower87: 837 u[0] + 225 u[1] + 623 u[2] + 776 u[3] + 745 u[4]
   + 831 u[5] + 130 u[6] + 41 u[7] + 746 u[8] + 415 u[9] + 481 u[10]
   + 800 u[11] + 945 u[12] + 313 u[13] + 546 u[14] + 130 u[15] + 842 u[16]
   + 845 u[17] + 222 u[18] + 547 u[19] + 106 u[20] + 61 u[21] + 361 u[22]
   + 964 u[23] + 346 u[24] + 21 u[25] + 431 u[26] + 141 u[27] + 635 u[28]
   + 980 u[29] + 783 u[30] + 337 u[31] + 913 u[32] + 282 u[33] + 169 u[34]
   + 326 u[35] + 41 u[36] + 826 u[37] + 449 u[38] + 4 u[39] + 980 u[40]
   + 647 u[41] + 59 u[42] + 283 u[43] + 116 u[44] + 304 u[45] + 303 u[46]
   + 503 u[47] + 508 u[48] + 253 u[49] + 364 u[50] + 733 u[51] + 962 u[52]
   + 889 u[53] + 70 u[54] + 485 u[55] + 374 u[56] + 232 u[57] + 977 u[58]
   + 303 u[59] <= 980
 primal_lower88: 773 u[0] + 30 u[1] + 384 u[2] + 261 u[3] + 570 u[4]
   + 243 u[5] + 867 u[6] + 605 u[7] + 483 u[8] + 684 u[9] + 105 u[10]
   + 909 u[11] + 306 u[12] + 326 u[13] + 250 u[14] + 302 u[15] + 67 u[16]
   + 282 u[17] + 967 u[18] + 224 u[19] + 51 u[20] + 705 u[21] + 434 u[22]
   + 1000 u[23] + 578 u[24] + 258 u[25] + 728 u[26] + 129 u[27] + 243 u[28]
   + 577 u[29] + 607 u[30] + 821 u[31] + 417 u[32] + 455 u[33] + 426 u[34]
   + 795 u[35] + 90 u[36] + 374 u[37] + 810 u[38] + 936 u[39] + 589 u[40]
   + 939 u[41] + 4 u[42] + 415 u[43] + 53 u[44] + 228 u[45] + 631 u[46]
   + 475 u[47] + 541 u[48] + 818 u[49] + 948 u[50] + 202 u[51] + 307 u[52]
   + 518 u[53] + 334 u[54] + 33 u[55] + 455 u[56] + 340 u[57] + 322 u[58]
   + 540 u[59] <= 1000
 primal_lower89: 779 u[0] + 223 u[1] + 405 u[2] + 246 u[3] + 143 u[4]
   + 13 u[5] + 856 u[6] + 159 u[7] + 720 u[8] + 469 u[9] + 999 u[10]
   + 502 u[11] + 175 u[12] + 719 u[13] + 272 u[14] + 104 u[15] + 856 u[16]
   + 35 u[17] + 420 u[18] + 785 u[19] + 272 u[20] + 995 u[21] + 87 u[22]
   + 818 u[23] + 128 u[24] + 547 u[25] + 461 u[26] + 75 u[27] + 985 u[28]
   + 898 u[29] + 389 u[30] + 231 u[31] + 223 u[32] + 360 u[33] + 671 u[34]
   + 84 u[35] + 31 u[36] + 880 u[37] + 295 u[38] + 458 u[39] + 618 u[40]
   + 277 u[41] + 289 u[42] + 489 u[43] + 522 u[44] + 542 u[45] + 149 u[46]
   + 637 u[47] + 682 u[48] + 331 u[49] + 434 u[50] + 483 u[51] + 480 u[52]
   + 943 u[53] + 28 u[54] + 531 u[55] + 500 u[56] + 758 u[57] + 383 u[58]
   + 21 u[59] <= 8955
 primal_lower90: 671 u[0] + 347 u[1] + 425 u[2] + 306 u[3] + 91 u[4]
   + 393 u[5] + 692 u[6] + 843 u[7] + 444 u[8] + 673 u[9] + 899 u[10]
   + 146 u[11] + 707 u[12] + 379 u[13] + 700 u[14] + 108 u[15] + 412 u[16]
   + 367 u[17] + 560 u[18] + 245 u[19] + 308 u[20] + 367 u[21] + 187 u[22]
   + 854 u[23] + 428 u[24] + 383 u[25] + 193 u[26] + 575 u[27] + 741 u[28]
   + 990 u[29] + 521 u[30] + 259 u[31] + 347 u[32] + 932 u[33] + 347 u[34]
   + 504 u[35] + 51 u[36] + 868 u[37] + 339 u[38] + 254 u[39] + 574 u[40]
   + 769 u[41] + 797 u[42] + 485 u[43] + 750 u[44] + 562 u[45] + 465 u[46]
   + 833 u[47] + 646 u[48] + 399 u[49] + 702 u[50] + 279 u[51] + 748 u[52]
   + 507 u[53] + 560 u[54] + 103 u[55] + 856 u[56] + 306 u[57] + 323 u[58]
   + 593 u[59] <= 990
 primal_lower91: 890 u[0] + 342 u[1] + 724 u[2] + 765 u[3] + 134 u[4]
   + 540 u[5] + 743 u[6] + 286 u[7] + 415 u[8] + 404 u[9] + 638 u[10]
   + 357 u[11] + 470 u[12] + 214 u[13] + 239 u[14] + 399 u[15] + 367 u[16]
   + 386 u[17] + 275 u[18] + 488 u[19] + 263 u[20] + 362 u[21] + 766 u[22]
   + 641 u[23] + 423 u[24] + 98 u[25] + 484 u[26] + 930 u[27] + 584 u[28]
   + 161 u[29] + 764 u[30] + 38 u[31] + 862 u[32] + 327 u[33] + 950 u[34]
   + 707 u[35] + 662 u[36] + 807 u[37] + 462 u[38] + 73 u[39] + 337 u[40]
   + 996 u[41] + 960 u[42] + 64 u[43] + 201 u[44] + 453 u[45] + 140 u[46]
   + 532 u[47] + 705 u[48] + 730 u[49] + 289 u[50] + 666 u[51] + 967 u[52]
   + 118 u[53] + 475 u[54] + 426 u[55] + 235 u[56] + 269 u[57] + 214 u[58]
   + 900 u[59] <= 9705
 primal_lower92: 179 u[0] + 548 u[1] + 790 u[2] + 363 u[3] + 616 u[4]
   + 633 u[5] + 249 u[6] + 739 u[7] + 737 u[8] + 602 u[9] + 415 u[10]
   + 27 u[11] + 480 u[12] + 612 u[13] + 128 u[14] + 188 u[15] + 201 u[16]
   + 712 u[17] + 205 u[18] + 302 u[19] + 865 u[20] + 39 u[21] + 872 u[22]
   + 246 u[23] + 512 u[24] + 648 u[25] + 14 u[26] + 967 u[27] + 465 u[28]
   + 463 u[29] + 381 u[30] + 531 u[31] + 943 u[32] + 749 u[33] + 144 u[34]
   + 569 u[35] + 472 u[36] + 556 u[37] + 904 u[38] + 174 u[39] + 403 u[40]
   + 681 u[41] + 322 u[42] + 77 u[43] + 659 u[44] + 178 u[45] + 901 u[46]
   + 809 u[47] + 939 u[48] + 472 u[49] + 370 u[50] + 192 u[51] + 977 u[52]
   + 820 u[53] + 684 u[54] + 263 u[55] + 381 u[56] + 402 u[57] + 608 u[58]
   + 482 u[59] <= 977
 primal_lower93: 185 u[0] + 877 u[1] + 579 u[2] + 4 u[3] + 821 u[4]
   + 147 u[5] + 950 u[6] + 845 u[7] + 686 u[8] + 811 u[9] + 725 u[10]
   + 612 u[11] + 317 u[12] + 285 u[13] + 750 u[14] + 430 u[15] + 350 u[16]
   + 177 u[17] + 298 u[18] + 751 u[19] + 486 u[20] + 337 u[21] + 125 u[22]
   + 448 u[23] + 38 u[24] + 769 u[25] + 851 u[26] + 177 u[27] + 975 u[28]
   + 192 u[29] + 171 u[30] + 973 u[31] + 61 u[32] + 758 u[33] + 629 u[34]
   + 770 u[35] + 277 u[36] + 702 u[37] + 557 u[38] + 704 u[39] + 560 u[40]
   + 347 u[41] + 335 u[42] + 343 u[43] + 96 u[44] + 748 u[45] + 267 u[46]
   + 291 u[47] + 344 u[48] + 33 u[49] + 704 u[50] + 625 u[51] + 70 u[52]
   + 405 u[53] + 186 u[54] + 977 u[55] + 578 u[56] + 612 u[57] + 613 u[58]
   + 435 u[59] <= 977
 primal_lower94: 899 u[0] + 332 u[1] + 774 u[2] + 115 u[3] + 664 u[4]
   + 481 u[5] + 753 u[6] + 755 u[7] + u[8] + 10 u[9] + 519 u[10]
   + 723 u[11] + 272 u[12] + 940 u[13] + 504 u[14] + 764 u[15] + 569 u[16]
   + 376 u[17] + 181 u[18] + 790 u[19] + 585 u[20] + 719 u[21] + 520 u[22]
   + 94 u[23] + 264 u[24] + 496 u[25] + 790 u[26] + 15 u[27] + 961 u[28]
   + 863 u[29] + 901 u[30] + 531 u[31] + 927 u[32] + 253 u[33] + 904 u[34]
   + 681 u[35] + 112 u[36] + 868 u[37] + 424 u[38] + 318 u[39] + 659 u[40]
   + 89 u[41] + 650 u[42] + 637 u[43] + 163 u[44] + 314 u[45] + 341 u[46]
   + 145 u[47] + 707 u[48] + 440 u[49] + 930 u[50] + 240 u[51] + 785 u[52]
   + 492 u[53] + 924 u[54] + 847 u[55] + 397 u[56] + 554 u[57] + 440 u[58]
   + 914 u[59] <= 961
 primal_lower95: 671 u[0] + 75 u[1] + 745 u[2] + 858 u[3] + 67 u[4]
   + 553 u[5] + 260 u[6] + 379 u[7] + 876 u[8] + 889 u[9] + 595 u[10]
   + 762 u[11] + 779 u[12] + 251 u[13] + 164 u[14] + 524 u[15] + 564 u[16]
   + 311 u[17] + 160 u[18] + 317 u[19] + 532 u[20] + 575 u[21] + 539 u[22]
   + 590 u[23] + 788 u[24] + 647 u[25] + 393 u[26] + 959 u[27] + 949 u[28]
   + 846 u[29] + 753 u[30] + 723 u[31] + 155 u[32] + 356 u[33] + 275 u[34]
   + 904 u[35] + 587 u[36] + 252 u[37] + 243 u[38] + 822 u[39] + 958 u[40]
   + 297 u[41] + 869 u[42] + 381 u[43] + 926 u[44] + 962 u[45] + 561 u[46]
   + 889 u[47] + 814 u[48] + 655 u[49] + 174 u[50] + 159 u[51] + 580 u[52]
   + 555 u[53] + 800 u[54] + 223 u[55] + 824 u[56] + 106 u[57] + 379 u[58]
   + 913 u[59] <= 11237
 primal_lower96: 582 u[0] + 458 u[1] + 576 u[2] + 961 u[3] + 618 u[4]
   + 424 u[5] + 667 u[6] + 722 u[7] + 451 u[8] + 232 u[9] + 754 u[10]
   + 769 u[11] + 562 u[12] + 562 u[13] + 627 u[14] + 43 u[15] + 979 u[16]
   + 246 u[17] + 839 u[18] + 828 u[19] + 955 u[20] + 150 u[21] + 90 u[22]
   + 981 u[23] + 963 u[24] + 750 u[25] + 240 u[26] + 958 u[27] + 36 u[28]
   + 653 u[29] + 152 u[30] + 154 u[31] + 154 u[32] + 403 u[33] + 642 u[34]
   + 391 u[35] + 394 u[36] + 395 u[37] + 850 u[38] + 549 u[39] + 93 u[40]
   + 832 u[41] + 300 u[42] + 964 u[43] + 477 u[44] + 857 u[45] + 688 u[46]
   + 552 u[47] + 565 u[48] + 990 u[49] + 437 u[50] + 190 u[51] + 595 u[52]
   + 10 u[53] + 471 u[54] + 502 u[55] + 223 u[56] + 793 u[57] + 114 u[58]
   + 104 u[59] <= 10505
 primal_lower97: 999 u[0] + 240 u[1] + 858 u[2] + 47 u[3] + 396 u[4]
   + 325 u[5] + 613 u[6] + 879 u[7] + 653 u[8] + 294 u[9] + 507 u[10]
   + 935 u[11] + 396 u[12] + 1000 u[13] + 620 u[14] + 848 u[15] + 541 u[16]
   + 612 u[17] + 969 u[18] + 850 u[19] + 757 u[20] + 915 u[21] + 908 u[22]
   + 442 u[23] + 644 u[24] + 588 u[25] + 874 u[26] + 251 u[27] + 517 u[28]
   + 259 u[29] + 273 u[30] + 679 u[31] + 747 u[32] + 97 u[33] + 396 u[34]
   + 645 u[35] + 756 u[36] + 472 u[37] + 348 u[38] + 978 u[39] + 567 u[40]
   + 109 u[41] + 734 u[42] + 89 u[43] + 831 u[44] + 430 u[45] + 225 u[46]
   + 829 u[47] + 759 u[48] + 844 u[49] + 990 u[50] + 972 u[51] + 605 u[52]
   + 232 u[53] + 288 u[54] + 595 u[55] + 177 u[56] + 758 u[57] + 460 u[58]
   + 886 u[59] <= 11836
 primal_lower98: 967 u[0] + 400 u[1] + 242 u[2] + 39 u[3] + 276 u[4]
   + 141 u[5] + 749 u[6] + 831 u[7] + 341 u[8] + 214 u[9] + 395 u[10]
   + 87 u[11] + 476 u[12] + 264 u[13] + 420 u[14] + 376 u[15] + 725 u[16]
   + 804 u[17] + 321 u[18] + 346 u[19] + 37 u[20] + 659 u[21] + 364 u[22]
   + 762 u[23] + 404 u[24] + 236 u[25] + 242 u[26] + 915 u[27] + 613 u[28]
   + 411 u[29] + u[30] + 671 u[31] + 451 u[32] + 913 u[33] + 204 u[34]
   + 93 u[35] + 636 u[36] + 704 u[37] + 276 u[38] + 682 u[39] + 223 u[40]
   + 613 u[41] + 742 u[42] + 761 u[43] + 991 u[44] + 766 u[45] + 25 u[46]
   + 653 u[47] + 303 u[48] + 996 u[49] + 486 u[50] + 76 u[51] + 157 u[52]
   + 704 u[53] + 120 u[54] + 331 u[55] + 593 u[56] + 366 u[57] + 460 u[58]
   + 542 u[59] <= 996
 primal_lower99: 452 u[0] + 541 u[1] + 63 u[2] + 228 u[3] + 529 u[4]
   + 170 u[5] + 514 u[6] + 332 u[7] + 618 u[8] + 411 u[9] + 648 u[10]
   + 540 u[11] + 777 u[12] + 493 u[13] + 169 u[14] + 669 u[15] + 450 u[16]
   + 321 u[17] + 622 u[18] + 727 u[19] + 898 u[20] + 992 u[21] + 937 u[22]
   + 879 u[23] + 313 u[24] + 945 u[25] + 199 u[26] + 408 u[27] + 330 u[28]
   + 216 u[29] + 382 u[30] + 564 u[31] + 768 u[32] + 94 u[33] + 825 u[34]
   + 618 u[35] + 841 u[36] + 285 u[37] + 921 u[38] + 95 u[39] + 532 u[40]
   + 522 u[41] + 171 u[42] + 966 u[43] + 84 u[44] + 35 u[45] + 814 u[46]
   + 490 u[47] + 980 u[48] + 161 u[49] + 939 u[50] + 201 u[51] + 450 u[52]
   + 365 u[53] + 981 u[54] + 352 u[55] + 622 u[56] + 771 u[57] + 65 u[58]
   + 235 u[59] <= 992
 interdiction[0]: x[0] + u[0] <= 1
 interdiction[1]: x[1] + u[1] <= 1
 interdiction[2]: x[2] + u[2] <= 1
 interdiction[3]: x[3] + u[3] <= 1
 interdiction[4]: x[4] + u[4] <= 1
 interdiction[5]: x[5] + u[5] <= 1
 interdiction[6]: x[6] + u[6] <= 1
 interdiction[7]: x[7] + u[7] <= 1
 interdiction[8]: x[8] + u[8] <= 1
 interdiction[9]: x[9] + u[9] <= 1
 interdiction[10]: x[10] + u[10] <= 1
 interdiction[11]: x[11] + u[11] <= 1
 interdiction[12]: x[12] + u[12] <= 1
 interdiction[13]: x[13] + u[13] <= 1
 interdiction[14]: x[14] + u[14] <= 1
 interdiction[15]: x[15] + u[15] <= 1
 interdiction[16]: x[16] + u[16] <= 1
 interdiction[17]: x[17] + u[17] <= 1
 interdiction[18]: x[18] + u[18] <= 1
 interdiction[19]: x[19] + u[19] <= 1
 interdiction[20]: x[20] + u[20] <= 1
 interdiction[21]: x[21] + u[21] <= 1
 interdiction[22]: x[22] + u[22] <= 1
 interdiction[23]: x[23] + u[23] <= 1
 interdiction[24]: x[24] + u[24] <= 1
 interdiction[25]: x[25] + u[25] <= 1
 interdiction[26]: x[26] + u[26] <= 1
 interdiction[27]: x[27] + u[27] <= 1
 interdiction[28]: x[28] + u[28] <= 1
 interdiction[29]: x[29] + u[29] <= 1
 interdiction[30]: x[30] + u[30] <= 1
 interdiction[31]: x[31] + u[31] <= 1
 interdiction[32]: x[32] + u[32] <= 1
 interdiction[33]: x[33] + u[33] <= 1
 interdiction[34]: x[34] + u[34] <= 1
 interdiction[35]: x[35] + u[35] <= 1
 interdiction[36]: x[36] + u[36] <= 1
 interdiction[37]: x[37] + u[37] <= 1
 interdiction[38]: x[38] + u[38] <= 1
 interdiction[39]: x[39] + u[39] <= 1
 interdiction[40]: x[40] + u[40] <= 1
 interdiction[41]: x[41] + u[41] <= 1
 interdiction[42]: x[42] + u[42] <= 1
 interdiction[43]: x[43] + u[43] <= 1
 interdiction[44]: x[44] + u[44] <= 1
 interdiction[45]: x[45] + u[45] <= 1
 interdiction[46]: x[46] + u[46] <= 1
 interdiction[47]: x[47] + u[47] <= 1
 interdiction[48]: x[48] + u[48] <= 1
 interdiction[49]: x[49] + u[49] <= 1
 interdiction[50]: x[50] + u[50] <= 1
 interdiction[51]: x[51] + u[51] <= 1
 interdiction[52]: x[52] + u[52] <= 1
 interdiction[53]: x[53] + u[53] <= 1
 interdiction[54]: x[54] + u[54] <= 1
 interdiction[55]: x[55] + u[55] <= 1
 interdiction[56]: x[56] + u[56] <= 1
 interdiction[57]: x[57] + u[57] <= 1
 interdiction[58]: x[58] + u[58] <= 1
 interdiction[59]: x[59] + u[59] <= 1
 mccormick1[0]: - u[0] + z[0] <= 0
 mccormick1[1]: - u[1] + z[1] <= 0
 mccormick1[2]: - u[2] + z[2] <= 0
 mccormick1[3]: - u[3] + z[3] <= 0
 mccormick1[4]: - u[4] + z[4] <= 0
 mccormick1[5]: - u[5] + z[5] <= 0
 mccormick1[6]: - u[6] + z[6] <= 0
 mccormick1[7]: - u[7] + z[7] <= 0
 mccormick1[8]: - u[8] + z[8] <= 0
 mccormick1[9]: - u[9] + z[9] <= 0
 mccormick1[10]: - u[10] + z[10] <= 0
 mccormick1[11]: - u[11] + z[11] <= 0
 mccormick1[12]: - u[12] + z[12] <= 0
 mccormick1[13]: - u[13] + z[13] <= 0
 mccormick1[14]: - u[14] + z[14] <= 0
 mccormick1[15]: - u[15] + z[15] <= 0
 mccormick1[16]: - u[16] + z[16] <= 0
 mccormick1[17]: - u[17] + z[17] <= 0
 mccormick1[18]: - u[18] + z[18] <= 0
 mccormick1[19]: - u[19] + z[19] <= 0
 mccormick1[20]: - u[20] + z[20] <= 0
 mccormick1[21]: - u[21] + z[21] <= 0
 mccormick1[22]: - u[22] + z[22] <= 0
 mccormick1[23]: - u[23] + z[23] <= 0
 mccormick1[24]: - u[24] + z[24] <= 0
 mccormick1[25]: - u[25] + z[25] <= 0
 mccormick1[26]: - u[26] + z[26] <= 0
 mccormick1[27]: - u[27] + z[27] <= 0
 mccormick1[28]: - u[28] + z[28] <= 0
 mccormick1[29]: - u[29] + z[29] <= 0
 mccormick1[30]: - u[30] + z[30] <= 0
 mccormick1[31]: - u[31] + z[31] <= 0
 mccormick1[32]: - u[32] + z[32] <= 0
 mccormick1[33]: - u[33] + z[33] <= 0
 mccormick1[34]: - u[34] + z[34] <= 0
 mccormick1[35]: - u[35] + z[35] <= 0
 mccormick1[36]: - u[36] + z[36] <= 0
 mccormick1[37]: - u[37] + z[37] <= 0
 mccormick1[38]: - u[38] + z[38] <= 0
 mccormick1[39]: - u[39] + z[39] <= 0
 mccormick1[40]: - u[40] + z[40] <= 0
 mccormick1[41]: - u[41] + z[41] <= 0
 mccormick1[42]: - u[42] + z[42] <= 0
 mccormick1[43]: - u[43] + z[43] <= 0
 mccormick1[44]: - u[44] + z[44] <= 0
 mccormick1[45]: - u[45] + z[45] <= 0
 mccormick1[46]: - u[46] + z[46] <= 0
 mccormick1[47]: - u[47] + z[47] <= 0
 mccormick1[48]: - u[48] + z[48] <= 0
 mccormick1[49]: - u[49] + z[49] <= 0
 mccormick1[50]: - u[50] + z[50] <= 0
 mccormick1[51]: - u[51] + z[51] <= 0
 mccormick1[52]: - u[52] + z[52] <= 0
 mccormick1[53]: - u[53] + z[53] <= 0
 mccormick1[54]: - u[54] + z[54] <= 0
 mccormick1[55]: - u[55] + z[55] <= 0
 mccormick1[56]: - u[56] + z[56] <= 0
 mccormick1[57]: - u[57] + z[57] <= 0
 mccormick1[58]: - u[58] + z[58] <= 0
 mccormick1[59]: - u[59] + z[59] <= 0
 mccormick2[0]: - y[0] + z[0] <= 0
 mccormick2[1]: - y[1] + z[1] <= 0
 mccormick2[2]: - y[2] + z[2] <= 0
 mccormick2[3]: - y[3] + z[3] <= 0
 mccormick2[4]: - y[4] + z[4] <= 0
 mccormick2[5]: - y[5] + z[5] <= 0
 mccormick2[6]: - y[6] + z[6] <= 0
 mccormick2[7]: - y[7] + z[7] <= 0
 mccormick2[8]: - y[8] + z[8] <= 0
 mccormick2[9]: - y[9] + z[9] <= 0
 mccormick2[10]: - y[10] + z[10] <= 0
 mccormick2[11]: - y[11] + z[11] <= 0
 mccormick2[12]: - y[12] + z[12] <= 0
 mccormick2[13]: - y[13] + z[13] <= 0
 mccormick2[14]: - y[14] + z[14] <= 0
 mccormick2[15]: - y[15] + z[15] <= 0
 mccormick2[16]: - y[16] + z[16] <= 0
 mccormick2[17]: - y[17] + z[17] <= 0
 mccormick2[18]: - y[18] + z[18] <= 0
 mccormick2[19]: - y[19] + z[19] <= 0
 mccormick2[20]: - y[20] + z[20] <= 0
 mccormick2[21]: - y[21] + z[21] <= 0
 mccormick2[22]: - y[22] + z[22] <= 0
 mccormick2[23]: - y[23] + z[23] <= 0
 mccormick2[24]: - y[24] + z[24] <= 0
 mccormick2[25]: - y[25] + z[25] <= 0
 mccormick2[26]: - y[26] + z[26] <= 0
 mccormick2[27]: - y[27] + z[27] <= 0
 mccormick2[28]: - y[28] + z[28] <= 0
 mccormick2[29]: - y[29] + z[29] <= 0
 mccormick2[30]: - y[30] + z[30] <= 0
 mccormick2[31]: - y[31] + z[31] <= 0
 mccormick2[32]: - y[32] + z[32] <= 0
 mccormick2[33]: - y[33] + z[33] <= 0
 mccormick2[34]: - y[34] + z[34] <= 0
 mccormick2[35]: - y[35] + z[35] <= 0
 mccormick2[36]: - y[36] + z[36] <= 0
 mccormick2[37]: - y[37] + z[37] <= 0
 mccormick2[38]: - y[38] + z[38] <= 0
 mccormick2[39]: - y[39] + z[39] <= 0
 mccormick2[40]: - y[40] + z[40] <= 0
 mccormick2[41]: - y[41] + z[41] <= 0
 mccormick2[42]: - y[42] + z[42] <= 0
 mccormick2[43]: - y[43] + z[43] <= 0
 mccormick2[44]: - y[44] + z[44] <= 0
 mccormick2[45]: - y[45] + z[45] <= 0
 mccormick2[46]: - y[46] + z[46] <= 0
 mccormick2[47]: - y[47] + z[47] <= 0
 mccormick2[48]: - y[48] + z[48] <= 0
 mccormick2[49]: - y[49] + z[49] <= 0
 mccormick2[50]: - y[50] + z[50] <= 0
 mccormick2[51]: - y[51] + z[51] <= 0
 mccormick2[52]: - y[52] + z[52] <= 0
 mccormick2[53]: - y[53] + z[53] <= 0
 mccormick2[54]: - y[54] + z[54] <= 0
 mccormick2[55]: - y[55] + z[55] <= 0
 mccormick2[56]: - y[56] + z[56] <= 0
 mccormick2[57]: - y[57] + z[57] <= 0
 mccormick2[58]: - y[58] + z[58] <= 0
 mccormick2[59]: - y[59] + z[59] <= 0
 mccormick3[0]: y[0] + u[0] - z[0] <= 1
 mccormick3[1]: y[1] + u[1] - z[1] <= 1
 mccormick3[2]: y[2] + u[2] - z[2] <= 1
 mccormick3[3]: y[3] + u[3] - z[3] <= 1
 mccormick3[4]: y[4] + u[4] - z[4] <= 1
 mccormick3[5]: y[5] + u[5] - z[5] <= 1
 mccormick3[6]: y[6] + u[6] - z[6] <= 1
 mccormick3[7]: y[7] + u[7] - z[7] <= 1
 mccormick3[8]: y[8] + u[8] - z[8] <= 1
 mccormick3[9]: y[9] + u[9] - z[9] <= 1
 mccormick3[10]: y[10] + u[10] - z[10] <= 1
 mccormick3[11]: y[11] + u[11] - z[11] <= 1
 mccormick3[12]: y[12] + u[12] - z[12] <= 1
 mccormick3[13]: y[13] + u[13] - z[13] <= 1
 mccormick3[14]: y[14] + u[14] - z[14] <= 1
 mccormick3[15]: y[15] + u[15] - z[15] <= 1
 mccormick3[16]: y[16] + u[16] - z[16] <= 1
 mccormick3[17]: y[17] + u[17] - z[17] <= 1
 mccormick3[18]: y[18] + u[18] - z[18] <= 1
 mccormick3[19]: y[19] + u[19] - z[19] <= 1
 mccormick3[20]: y[20] + u[20] - z[20] <= 1
 mccormick3[21]: y[21] + u[21] - z[21] <= 1
 mccormick3[22]: y[22] + u[22] - z[22] <= 1
 mccormick3[23]: y[23] + u[23] - z[23] <= 1
 mccormick3[24]: y[24] + u[24] - z[24] <= 1
 mccormick3[25]: y[25] + u[25] - z[25] <= 1
 mccormick3[26]: y[26] + u[26] - z[26] <= 1
 mccormick3[27]: y[27] + u[27] - z[27] <= 1
 mccormick3[28]: y[28] + u[28] - z[28] <= 1
 mccormick3[29]: y[29] + u[29] - z[29] <= 1
 mccormick3[30]: y[30] + u[30] - z[30] <= 1
 mccormick3[31]: y[31] + u[31] - z[31] <= 1
 mccormick3[32]: y[32] + u[32] - z[32] <= 1
 mccormick3[33]: y[33] + u[33] - z[33] <= 1
 mccormick3[34]: y[34] + u[34] - z[34] <= 1
 mccormick3[35]: y[35] + u[35] - z[35] <= 1
 mccormick3[36]: y[36] + u[36] - z[36] <= 1
 mccormick3[37]: y[37] + u[37] - z[37] <= 1
 mccormick3[38]: y[38] + u[38] - z[38] <= 1
 mccormick3[39]: y[39] + u[39] - z[39] <= 1
 mccormick3[40]: y[40] + u[40] - z[40] <= 1
 mccormick3[41]: y[41] + u[41] - z[41] <= 1
 mccormick3[42]: y[42] + u[42] - z[42] <= 1
 mccormick3[43]: y[43] + u[43] - z[43] <= 1
 mccormick3[44]: y[44] + u[44] - z[44] <= 1
 mccormick3[45]: y[45] + u[45] - z[45] <= 1
 mccormick3[46]: y[46] + u[46] - z[46] <= 1
 mccormick3[47]: y[47] + u[47] - z[47] <= 1
 mccormick3[48]: y[48] + u[48] - z[48] <= 1
 mccormick3[49]: y[49] + u[49] - z[49] <= 1
 mccormick3[50]: y[50] + u[50] - z[50] <= 1
 mccormick3[51]: y[51] + u[51] - z[51] <= 1
 mccormick3[52]: y[52] + u[52] - z[52] <= 1
 mccormick3[53]: y[53] + u[53] - z[53] <= 1
 mccormick3[54]: y[54] + u[54] - z[54] <= 1
 mccormick3[55]: y[55] + u[55] - z[55] <= 1
 mccormick3[56]: y[56] + u[56] - z[56] <= 1
 mccormick3[57]: y[57] + u[57] - z[57] <= 1
 mccormick3[58]: y[58] + u[58] - z[58] <= 1
 mccormick3[59]: y[59] + u[59] - z[59] <= 1
Bounds
Binaries
 x[0] x[1] x[2] x[3] x[4] x[5] x[6] x[7] x[8] x[9] x[10] x[11] x[12] x[13]
 x[14] x[15] x[16] x[17] x[18] x[19] x[20] x[21] x[22] x[23] x[24] x[25]
 x[26] x[27] x[28] x[29] x[30] x[31] x[32] x[33] x[34] x[35] x[36] x[37]
 x[38] x[39] x[40] x[41] x[42] x[43] x[44] x[45] x[46] x[47] x[48] x[49]
 x[50] x[51] x[52] x[53] x[54] x[55] x[56] x[57] x[58] x[59] y[0] y[1] y[2]
 y[3] y[4] y[5] y[6] y[7] y[8] y[9] y[10] y[11] y[12] y[13] y[14] y[15]
 y[16] y[17] y[18] y[19] y[20] y[21] y[22] y[23] y[24] y[25] y[26] y[27]
 y[28] y[29] y[30] y[31] y[32] y[33] y[34] y[35] y[36] y[37] y[38] y[39]
 y[40] y[41] y[42] y[43] y[44] y[45] y[46] y[47] y[48] y[49] y[50] y[51]
 y[52] y[53] y[54] y[55] y[56] y[57] y[58] y[59] u[0] u[1] u[2] u[3] u[4]
 u[5] u[6] u[7] u[8] u[9] u[10] u[11] u[12] u[13] u[14] u[15] u[16] u[17]
 u[18] u[19] u[20] u[21] u[22] u[23] u[24] u[25] u[26] u[27] u[28] u[29]
 u[30] u[31] u[32] u[33] u[34] u[35] u[36] u[37] u[38] u[39] u[40] u[41]
 u[42] u[43] u[44] u[45] u[46] u[47] u[48] u[49] u[50] u[51] u[52] u[53]
 u[54] u[55] u[56] u[57] u[58] u[59] z[0] z[1] z[2] z[3] z[4] z[5] z[6]
 z[7] z[8] z[9] z[10] z[11] z[12] z[13] z[14] z[15] z[16] z[17] z[18] z[19]
 z[20] z[21] z[22] z[23] z[24] z[25] z[26] z[27] z[28] z[29] z[30] z[31]
 z[32] z[33] z[34] z[35] z[36] z[37] z[38] z[39] z[40] z[41] z[42] z[43]
 z[44] z[45] z[46] z[47] z[48] z[49] z[50] z[51] z[52] z[53] z[54] z[55]
 z[56] z[57] z[58] z[59]
End
