\ Model knapsack_40_100_4
\ LP format - for model browsing. Use MPS format to capture full model detail.
\ Signature: 0xba60f4f0ca1d3fbc
Minimize
  10 x[0] + 10 x[1] + 10 x[2] + 10 x[3] + 10 x[4] + 10 x[5] + 10 x[6]
   + 10 x[7] + 10 x[8] + 10 x[9] + 10 x[10] + 10 x[11] + 10 x[12]
   + 10 x[13] + 10 x[14] + 10 x[15] + 10 x[16] + 10 x[17] + 10 x[18]
   + 10 x[19] + 10 x[20] + 10 x[21] + 10 x[22] + 10 x[23] + 10 x[24]
   + 10 x[25] + 10 x[26] + 10 x[27] + 10 x[28] + 10 x[29] + 10 x[30]
   + 10 x[31] + 10 x[32] + 10 x[33] + 10 x[34] + 10 x[35] + 10 x[36]
   + 10 x[37] + 10 x[38] + 10 x[39] - 331 y[0] - 276 y[1] - 101 y[2]
   - 601 y[3] - 943 y[4] - 910 y[5] - 471 y[6] - 361 y[7] - 740 y[8]
   - 944 y[9] - 540 y[10] - 688 y[11] - 128 y[12] - 399 y[13] - 452 y[14]
   - 345 y[15] - 891 y[16] - 95 y[17] - 144 y[18] - 999 y[19] - 743 y[20]
   - 772 y[21] - 769 y[22] - 789 y[23] - 286 y[24] - 340 y[25] - 373 y[26]
   - 965 y[27] - 527 y[28] - 702 y[29] - 962 y[30] - 525 y[31] - 681 y[32]
   - 964 y[33] - 209 y[34] - 970 y[35] - 286 y[36] - 204 y[37] - 52 y[38]
   - 17 y[39]
Subject To
 primal_upper: 921 y[0] + 597 y[1] + 243 y[2] + 420 y[3] + 157 y[4]
   + 867 y[5] + 838 y[6] + 517 y[7] + 654 y[8] + 483 y[9] + 245 y[10]
   + 868 y[11] + 933 y[12] + 909 y[13] + 254 y[14] + 342 y[15] + 598 y[16]
   + 857 y[17] + 658 y[18] + 247 y[19] + 70 y[20] + 849 y[21] + 509 y[22]
   + 232 y[23] + 222 y[24] + 257 y[25] + 323 y[26] + 721 y[27] + 231 y[28]
   + 448 y[29] + 659 y[30] + 613 y[31] + 141 y[32] + 766 y[33] + 381 y[34]
   + 634 y[35] + 77 y[36] + 22 y[37] + 213 y[38] + 424 y[39] + 92 z[0]
   + 60 z[1] + 24 z[2] + 42 z[3] + 16 z[4] + 87 z[5] + 84 z[6] + 52 z[7]
   + 65 z[8] + 48 z[9] + 24 z[10] + 87 z[11] + 93 z[12] + 91 z[13]
   + 25 z[14] + 34 z[15] + 60 z[16] + 86 z[17] + 66 z[18] + 25 z[19]
   + 7 z[20] + 85 z[21] + 51 z[22] + 23 z[23] + 22 z[24] + 26 z[25]
   + 32 z[26] + 72 z[27] + 23 z[28] + 45 z[29] + 66 z[30] + 61 z[31]
   + 14 z[32] + 77 z[33] + 38 z[34] + 63 z[35] + 8 z[36] + 2 z[37]
   + 21 z[38] + 42 z[39] <= 3880
 primal_lower0: 3 u[0] + 532 u[1] + 502 u[2] + 563 u[3] + 448 u[4]
   + 89 u[5] + 969 u[6] + 139 u[7] + 665 u[8] + 154 u[9] + 327 u[10]
   + 363 u[11] + 600 u[12] + 700 u[13] + 264 u[14] + 388 u[15] + 745 u[16]
   + 128 u[17] + 133 u[18] + 414 u[19] + 641 u[20] + 375 u[21] + 584 u[22]
   + 342 u[23] + 584 u[24] + 552 u[25] + 6 u[26] + 855 u[27] + 561 u[28]
   + 839 u[29] + 61 u[30] + 763 u[31] + 95 u[32] + 133 u[33] + 160 u[34]
   + 497 u[35] + 120 u[36] + 700 u[37] + 736 u[38] + 990 u[39] <= 7088
 primal_lower1: 842 u[0] + 246 u[1] + 700 u[2] + 973 u[3] + 974 u[4]
   + 68 u[5] + 695 u[6] + 422 u[7] + 7 u[8] + 796 u[9] + 414 u[10]
   + 917 u[11] + 542 u[12] + 94 u[13] + 919 u[14] + 519 u[15] + 855 u[16]
   + 826 u[17] + 995 u[18] + 64 u[19] + 991 u[20] + 834 u[21] + 830 u[22]
   + 9 u[23] + 79 u[24] + 58 u[25] + 452 u[26] + 682 u[27] + 528 u[28]
   + 673 u[29] + 12 u[30] + 966 u[31] + 350 u[32] + 455 u[33] + 934 u[34]
   + 483 u[35] + 910 u[36] + 47 u[37] + 758 u[38] + 489 u[39] <= 8963
 primal_lower2: 488 u[0] + 652 u[1] + 10 u[2] + 891 u[3] + 44 u[4]
   + 370 u[5] + 701 u[6] + 252 u[7] + 957 u[8] + 514 u[9] + 844 u[10]
   + 203 u[11] + 436 u[12] + 572 u[13] + 253 u[14] + 149 u[15] + 461 u[16]
   + 264 u[17] + 793 u[18] + 230 u[19] + 85 u[20] + 152 u[21] + 452 u[22]
   + 327 u[23] + 613 u[24] + 248 u[25] + 202 u[26] + 304 u[27] + 846 u[28]
   + 879 u[29] + 650 u[30] + 268 u[31] + 316 u[32] + 541 u[33] + 212 u[34]
   + 49 u[35] + 692 u[36] + 621 u[37] + 164 u[38] + 119 u[39] <= 6729
 primal_lower3: 482 u[0] + 94 u[1] + 772 u[2] + 469 u[3] + 478 u[4]
   + 556 u[5] + 703 u[6] + 638 u[7] + 95 u[8] + 468 u[9] + 990 u[10]
   + 53 u[11] + 966 u[12] + 638 u[13] + 367 u[14] + 423 u[15] + 767 u[16]
   + 970 u[17] + 227 u[18] + 192 u[19] + 863 u[20] + 802 u[21] + 94 u[22]
   + 841 u[23] + 71 u[24] + 826 u[25] + 428 u[26] + 986 u[27] + 488 u[28]
   + 97 u[29] + 148 u[30] + 86 u[31] + 158 u[32] + 567 u[33] + 966 u[34]
   + 299 u[35] + 998 u[36] + 23 u[37] + 622 u[38] + 457 u[39] <= 8067
 primal_lower4: 606 u[0] + 407 u[1] + 225 u[2] + 166 u[3] + 251 u[4]
   + 28 u[5] + 164 u[6] + 222 u[7] + 412 u[8] + 213 u[9] + 74 u[10]
   + 710 u[11] + 827 u[12] + 287 u[13] + 531 u[14] + 311 u[15] + 356 u[16]
   + 99 u[17] + 416 u[18] + 913 u[19] + 92 u[20] + 522 u[21] + 227 u[22]
   + 601 u[23] + 171 u[24] + 403 u[25] + 345 u[26] + 810 u[27] + 492 u[28]
   + 538 u[29] + 712 u[30] + 502 u[31] + 986 u[32] + 672 u[33] + 523 u[34]
   + 4 u[35] + 755 u[36] + 775 u[37] + 747 u[38] + 385 u[39] <= 10488
 primal_lower5: 843 u[0] + 724 u[1] + 494 u[2] + 419 u[3] + 136 u[4]
   + 745 u[5] + 729 u[6] + 579 u[7] + 25 u[8] + 514 u[9] + 767 u[10]
   + 371 u[11] + 144 u[12] + 476 u[13] + 656 u[14] + 804 u[15] + 889 u[16]
   + 464 u[17] + 29 u[18] + 222 u[19] + 777 u[20] + 983 u[21] + 776 u[22]
   + 126 u[23] + 936 u[24] + 528 u[25] + 166 u[26] + 79 u[27] + 825 u[28]
   + 575 u[29] + 117 u[30] + 563 u[31] + 167 u[32] + 453 u[33] + 912 u[34]
   + 449 u[35] + 904 u[36] + 468 u[37] + 112 u[38] + 326 u[39] <= 12163
 primal_lower6: 3 u[0] + 660 u[1] + 38 u[2] + 683 u[3] + 584 u[4]
   + 505 u[5] + 769 u[6] + 491 u[7] + 865 u[8] + 418 u[9] + 215 u[10]
   + 395 u[11] + 976 u[12] + 596 u[13] + 256 u[14] + 268 u[15] + 369 u[16]
   + 56 u[17] + 189 u[18] + 134 u[19] + 521 u[20] + 815 u[21] + 240 u[22]
   + 742 u[23] + 64 u[24] + 600 u[25] + 710 u[26] + 271 u[27] + 761 u[28]
   + 623 u[29] + 573 u[30] + 379 u[31] + 215 u[32] + 509 u[33] + 992 u[34]
   + 801 u[35] + 592 u[36] + 876 u[37] + 424 u[38] + 894 u[39] <= 992
 primal_lower7: 216 u[0] + 828 u[1] + 90 u[2] + 675 u[3] + 580 u[4]
   + 938 u[5] + 109 u[6] + 788 u[7] + 53 u[8] + 834 u[9] + 780 u[10]
   + 755 u[11] + 444 u[12] + 300 u[13] + 725 u[14] + 613 u[15] + 45 u[16]
   + 960 u[17] + 713 u[18] + 846 u[19] + 765 u[20] + 560 u[21] + 452 u[22]
   + 975 u[23] + 245 u[24] + 24 u[25] + 242 u[26] + 560 u[27] + 430 u[28]
   + 631 u[29] + 554 u[30] + 628 u[31] + 804 u[32] + 309 u[33] + 500 u[34]
   + 57 u[35] + 60 u[36] + 389 u[37] + 652 u[38] + 479 u[39] <= 4121
 primal_lower8: 191 u[0] + 584 u[1] + 666 u[2] + 215 u[3] + 180 u[4]
   + 125 u[5] + 589 u[6] + 199 u[7] + 733 u[8] + 958 u[9] + 11 u[10]
   + 407 u[11] + 628 u[12] + 280 u[13] + 580 u[14] + 568 u[15] + 869 u[16]
   + 588 u[17] + 753 u[18] + 74 u[19] + 813 u[20] + 491 u[21] + 36 u[22]
   + 274 u[23] + 940 u[24] + 60 u[25] + 898 u[26] + 955 u[27] + 157 u[28]
   + 523 u[29] + 977 u[30] + 967 u[31] + 435 u[32] + 73 u[33] + 276 u[34]
   + 797 u[35] + 268 u[36] + 136 u[37] + 196 u[38] + 362 u[39] <= 7532
 primal_lower9: 712 u[0] + 380 u[1] + 794 u[2] + 963 u[3] + 612 u[4]
   + 226 u[5] + 213 u[6] + 548 u[7] + 293 u[8] + 826 u[9] + 876 u[10]
   + 291 u[11] + 636 u[12] + 844 u[13] + 485 u[14] + 317 u[15] + 301 u[16]
   + 160 u[17] + 409 u[18] + 6 u[19] + 605 u[20] + 760 u[21] + 420 u[22]
   + 559 u[23] + 621 u[24] + 736 u[25] + 458 u[26] + 576 u[27] + 974 u[28]
   + 471 u[29] + 162 u[30] + 444 u[31] + 492 u[32] + 853 u[33] + 428 u[34]
   + 953 u[35] + 60 u[36] + 901 u[37] + 468 u[38] + 663 u[39] <= 4299
 primal_lower10: 104 u[0] + 188 u[1] + 410 u[2] + 715 u[3] + 4 u[4]
   + 34 u[5] + 429 u[6] + 188 u[7] + 733 u[8] + 490 u[9] + 748 u[10]
   + 611 u[11] + 452 u[12] + 180 u[13] + 413 u[14] + 421 u[15] + 877 u[16]
   + 688 u[17] + 969 u[18] + 302 u[19] + 453 u[20] + 336 u[21] + 28 u[22]
   + 175 u[23] + 205 u[24] + 728 u[25] + 50 u[26] + 520 u[27] + 142 u[28]
   + 855 u[29] + 266 u[30] + 956 u[31] + 12 u[32] + 173 u[33] + 148 u[34]
   + 833 u[35] + 932 u[36] + 541 u[37] + 780 u[38] + 503 u[39] <= 7036
 primal_lower11: 614 u[0] + 954 u[1] + 480 u[2] + 393 u[3] + 594 u[4]
   + 312 u[5] + 363 u[6] + 98 u[7] + 123 u[8] + 888 u[9] + 642 u[10]
   + 289 u[11] + 538 u[12] + 114 u[13] + 723 u[14] + 739 u[15] + 91 u[16]
   + 702 u[17] + 631 u[18] + 420 u[19] + 91 u[20] + 518 u[21] + 442 u[22]
   + 125 u[23] + 283 u[24] + 174 u[25] + 592 u[26] + 966 u[27] + 332 u[28]
   + 997 u[29] + 304 u[30] + 778 u[31] + 2 u[32] + 483 u[33] + 402 u[34]
   + 263 u[35] + 202 u[36] + 923 u[37] + 274 u[38] + 797 u[39] <= 3731
 primal_lower12: 866 u[0] + 635 u[1] + 269 u[2] + 146 u[3] + 263 u[4]
   + 304 u[5] + 656 u[6] + 122 u[7] + 696 u[8] + 193 u[9] + 790 u[10]
   + 426 u[11] + 719 u[12] + 347 u[13] + 607 u[14] + 883 u[15] + 64 u[16]
   + 519 u[17] + 300 u[18] + 237 u[19] + 648 u[20] + 62 u[21] + 239 u[22]
   + 573 u[23] + 735 u[24] + 711 u[25] + 893 u[26] + 294 u[27] + 584 u[28]
   + 142 u[29] + 652 u[30] + 738 u[31] + 406 u[32] + 892 u[33] + 399 u[34]
   + 40 u[35] + 695 u[36] + 931 u[37] + 431 u[38] + 133 u[39] <= 3848
 primal_lower13: 254 u[0] + 663 u[1] + 385 u[2] + 286 u[3] + 187 u[4]
   + 436 u[5] + 716 u[6] + 718 u[7] + 308 u[8] + 861 u[9] + 10 u[10]
   + 830 u[11] + 835 u[12] + 567 u[13] + 435 u[14] + 543 u[15] + 700 u[16]
   + 667 u[17] + 688 u[18] + 657 u[19] + 132 u[20] + 322 u[21] + 987 u[22]
   + 889 u[23] + 915 u[24] + 931 u[25] + 977 u[26] + 298 u[27] + 124 u[28]
   + 82 u[29] + 592 u[30] + 862 u[31] + 250 u[32] + 872 u[33] + 491 u[34]
   + 900 u[35] + 283 u[36] + 471 u[37] + 299 u[38] + 193 u[39] <= 4323
 primal_lower14: 871 u[0] + 251 u[1] + 345 u[2] + 50 u[3] + 163 u[4]
   + 225 u[5] + 204 u[6] + 171 u[7] + 724 u[8] + 897 u[9] + 323 u[10]
   + 370 u[11] + 395 u[12] + 963 u[13] + 644 u[14] + 396 u[15] + 684 u[16]
   + 567 u[17] + 64 u[18] + 405 u[19] + 4 u[20] + 607 u[21] + 939 u[22]
   + 966 u[23] + 356 u[24] + 903 u[25] + 905 u[26] + 575 u[27] + 869 u[28]
   + 886 u[29] + 193 u[30] + 523 u[31] + 211 u[32] + 636 u[33] + 771 u[34]
   + 176 u[35] + 835 u[36] + 348 u[37] + 387 u[38] + 518 u[39] <= 966
 primal_lower15: 773 u[0] + 286 u[1] + 456 u[2] + 309 u[3] + 458 u[4]
   + 883 u[5] + 467 u[6] + 309 u[7] + 75 u[8] + 212 u[9] + 689 u[10]
   + 165 u[11] + 58 u[12] + 118 u[13] + 426 u[14] + 446 u[15] + 507 u[16]
   + 946 u[17] + 463 u[18] + 472 u[19] + 811 u[20] + 777 u[21] + 938 u[22]
   + 608 u[23] + 346 u[24] + 354 u[25] + 136 u[26] + 961 u[27] + 451 u[28]
   + 953 u[29] + 823 u[30] + 669 u[31] + 849 u[32] + 399 u[33] + 898 u[34]
   + 403 u[35] + 34 u[36] + 534 u[37] + 378 u[38] + 744 u[39] <= 4116
 primal_lower16: 377 u[0] + 237 u[1] + 915 u[2] + 116 u[3] + 285 u[4]
   + 635 u[5] + 982 u[6] + 229 u[7] + 902 u[8] + 683 u[9] + 565 u[10]
   + 132 u[11] + 589 u[12] + 781 u[13] + 854 u[14] + 270 u[15] + 766 u[16]
   + 393 u[17] + 554 u[18] + 839 u[19] + 86 u[20] + 281 u[21] + 493 u[22]
   + 424 u[23] + 30 u[24] + 385 u[25] + 131 u[26] + 889 u[27] + 431 u[28]
   + 392 u[29] + 67 u[30] + 957 u[31] + 333 u[32] + 414 u[33] + 589 u[34]
   + 778 u[35] + 629 u[36] + 822 u[37] + 629 u[38] + 416 u[39] <= 8112
 primal_lower17: 620 u[0] + 96 u[1] + 894 u[2] + 655 u[3] + 248 u[4]
   + 670 u[5] + 489 u[6] + 136 u[7] + 241 u[8] + 822 u[9] + 584 u[10]
   + 87 u[11] + 336 u[12] + 688 u[13] + 721 u[14] + 561 u[15] + 905 u[16]
   + 812 u[17] + 453 u[18] + 130 u[19] + 449 u[20] + 724 u[21] + 160 u[22]
   + 99 u[23] + 641 u[24] + 788 u[25] + 470 u[26] + 468 u[27] + 114 u[28]
   + 83 u[29] + 974 u[30] + 312 u[31] + 88 u[32] + 489 u[33] + 336 u[34]
   + 117 u[35] + 632 u[36] + 465 u[37] + 312 u[38] + 499 u[39] <= 3673
 primal_lower18: 763 u[0] + 127 u[1] + 861 u[2] + 118 u[3] + 479 u[4]
   + 837 u[5] + 976 u[6] + 519 u[7] + 512 u[8] + 669 u[9] + 639 u[10]
   + 926 u[11] + 951 u[12] + 783 u[13] + 648 u[14] + 136 u[15] + 472 u[16]
   + 651 u[17] + 412 u[18] + 321 u[19] + 968 u[20] + 443 u[21] + 119 u[22]
   + 874 u[23] + 264 u[24] + 883 u[25] + 413 u[26] + 371 u[27] + 625 u[28]
   + 554 u[29] + 165 u[30] + 591 u[31] + 471 u[32] + 168 u[33] + 167 u[34]
   + 372 u[35] + 39 u[36] + 976 u[37] + 911 u[38] + 26 u[39] <= 12720
 primal_lower19: 873 u[0] + 234 u[1] + 244 u[2] + 641 u[3] + 878 u[4]
   + 295 u[5] + 751 u[6] + 625 u[7] + 687 u[8] + 672 u[9] + 733 u[10]
   + 337 u[11] + 174 u[12] + 874 u[13] + 798 u[14] + 970 u[15] + 839 u[16]
   + 38 u[17] + 331 u[18] + 972 u[19] + 39 u[20] + 789 u[21] + 294 u[22]
   + 428 u[23] + 246 u[24] + 470 u[25] + 860 u[26] + 117 u[27] + 615 u[28]
   + 5 u[29] + 187 u[30] + 89 u[31] + 581 u[32] + 267 u[33] + 262 u[34]
   + 407 u[35] + 166 u[36] + 42 u[37] + 910 u[38] + 876 u[39] <= 3923
 primal_lower20: 898 u[0] + 214 u[1] + 220 u[2] + 189 u[3] + 134 u[4]
   + 596 u[5] + 751 u[6] + 142 u[7] + 951 u[8] + 116 u[9] + 110 u[10]
   + 453 u[11] + 654 u[12] + 958 u[13] + 15 u[14] + 799 u[15] + 711 u[16]
   + 522 u[17] + 283 u[18] + 600 u[19] + 735 u[20] + 442 u[21] + 6 u[22]
   + 849 u[23] + 23 u[24] + 98 u[25] + 612 u[26] + 762 u[27] + 472 u[28]
   + 593 u[29] + 300 u[30] + 822 u[31] + 142 u[32] + 847 u[33] + 630 u[34]
   + 59 u[35] + 886 u[36] + 335 u[37] + 558 u[38] + 857 u[39] <= 7737
 primal_lower21: 246 u[0] + 2 u[1] + 88 u[2] + 401 u[3] + 218 u[4] + 8 u[5]
   + 99 u[6] + 666 u[7] + 555 u[8] + 680 u[9] + 858 u[10] + 465 u[11]
   + 794 u[12] + 778 u[13] + 155 u[14] + 243 u[15] + 707 u[16] + 6 u[17]
   + 119 u[18] + 36 u[19] + 491 u[20] + 502 u[21] + 818 u[22] + 213 u[23]
   + 763 u[24] + 134 u[25] + 920 u[26] + 150 u[27] + 220 u[28] + 349 u[29]
   + 448 u[30] + 770 u[31] + 786 u[32] + 603 u[33] + 114 u[34] + 999 u[35]
   + 914 u[36] + 187 u[37] + 786 u[38] + 789 u[39] <= 3616
 primal_lower22: 234 u[0] + 59 u[1] + 829 u[2] + 994 u[3] + 79 u[4]
   + 616 u[5] + 112 u[6] + 498 u[7] + 456 u[8] + 41 u[9] + 302 u[10]
   + 530 u[11] + 647 u[12] + 643 u[13] + 247 u[14] + 715 u[15] + 32 u[16]
   + 151 u[17] + 100 u[18] + 437 u[19] + 240 u[20] + 862 u[21] + 807 u[22]
   + 909 u[23] + 671 u[24] + 231 u[25] + 413 u[26] + 886 u[27] + 928 u[28]
   + 438 u[29] + 164 u[30] + 370 u[31] + 14 u[32] + 916 u[33] + 431 u[34]
   + 960 u[35] + 87 u[36] + 83 u[37] + 759 u[38] + 797 u[39] <= 3737
 primal_lower23: 209 u[0] + 794 u[1] + 900 u[2] + 673 u[3] + 22 u[4]
   + 863 u[5] + 751 u[6] + 521 u[7] + 151 u[8] + 328 u[9] + 797 u[10]
   + 761 u[11] + 366 u[12] + 266 u[13] + 342 u[14] + 330 u[15] + 847 u[16]
   + 398 u[17] + 691 u[18] + 100 u[19] + 871 u[20] + 429 u[21] + 686 u[22]
   + 268 u[23] + 294 u[24] + 254 u[25] + 308 u[26] + 237 u[27] + 31 u[28]
   + 373 u[29] + 987 u[30] + 129 u[31] + 741 u[32] + 715 u[33] + 830 u[34]
   + 727 u[35] + 470 u[36] + 978 u[37] + 86 u[38] + 396 u[39] <= 3984
 primal_lower24: 680 u[0] + 340 u[1] + 530 u[2] + 443 u[3] + 972 u[4]
   + 658 u[5] + 37 u[6] + 52 u[7] + 677 u[8] + 602 u[9] + 572 u[10]
   + 195 u[11] + 804 u[12] + 36 u[13] + 317 u[14] + 453 u[15] + 493 u[16]
   + 784 u[17] + 433 u[18] + 174 u[19] + 725 u[20] + 616 u[21] + 772 u[22]
   + 695 u[23] + 829 u[24] + 840 u[25] + 506 u[26] + 336 u[27] + 94 u[28]
   + 647 u[29] + 666 u[30] + 748 u[31] + 452 u[32] + 621 u[33] + 524 u[34]
   + 881 u[35] + 324 u[36] + 333 u[37] + 660 u[38] + 551 u[39] <= 972
 primal_lower25: 517 u[0] + 257 u[1] + 519 u[2] + 856 u[3] + 721 u[4]
   + 975 u[5] + 754 u[6] + 73 u[7] + 554 u[8] + 615 u[9] + 945 u[10]
   + 512 u[11] + 505 u[12] + 345 u[13] + 666 u[14] + 882 u[15] + 754 u[16]
   + 365 u[17] + 838 u[18] + 355 u[19] + 106 u[20] + 237 u[21] + 161 u[22]
   + 324 u[23] + 562 u[24] + 805 u[25] + 479 u[26] + 325 u[27] + 771 u[28]
   + 804 u[29] + 527 u[30] + 665 u[31] + 233 u[32] + 722 u[33] + 857 u[34]
   + 358 u[35] + 361 u[36] + 130 u[37] + 505 u[38] + 300 u[39] <= 12744
 primal_lower26: 760 u[0] + 28 u[1] + 666 u[2] + 59 u[3] + 428 u[4]
   + 354 u[5] + 693 u[6] + 12 u[7] + 461 u[8] + 858 u[9] + 324 u[10]
   + 395 u[11] + 676 u[12] + 860 u[13] + 605 u[14] + 733 u[15] + 437 u[16]
   + 904 u[17] + 377 u[18] + 174 u[19] + 645 u[20] + 864 u[21] + 140 u[22]
   + 71 u[23] + 21 u[24] + 376 u[25] + 946 u[26] + 408 u[27] + 862 u[28]
   + 559 u[29] + 530 u[30] + 676 u[31] + 588 u[32] + 829 u[33] + 452 u[34]
   + 433 u[35] + 380 u[36] + 693 u[37] + 108 u[38] + 143 u[39] <= 7811
 primal_lower27: 456 u[0] + 484 u[1] + 98 u[2] + 91 u[3] + 724 u[4]
   + 282 u[5] + 501 u[6] + 292 u[7] + 789 u[8] + 74 u[9] + 36 u[10]
   + 155 u[11] + 556 u[12] + 988 u[13] + 117 u[14] + 725 u[15] + 965 u[16]
   + 304 u[17] + 385 u[18] + 494 u[19] + 989 u[20] + 112 u[21] + 52 u[22]
   + 767 u[23] + 325 u[24] + 608 u[25] + 874 u[26] + 616 u[27] + 534 u[28]
   + 103 u[29] + 618 u[30] + 756 u[31] + 332 u[32] + 885 u[33] + 996 u[34]
   + u[35] + 972 u[36] + 877 u[37] + 164 u[38] + 591 u[39] <= 7875
 primal_lower28: 853 u[0] + 185 u[1] + 63 u[2] + 112 u[3] + 401 u[4]
   + 911 u[5] + 482 u[6] + 961 u[7] + 290 u[8] + 855 u[9] + 953 u[10]
   + 368 u[11] + 593 u[12] + 401 u[13] + 234 u[14] + 146 u[15] + 738 u[16]
   + 77 u[17] + 470 u[18] + 779 u[19] + 842 u[20] + 21 u[21] + 473 u[22]
   + 28 u[23] + 162 u[24] + 589 u[25] + 591 u[26] + 493 u[27] + 779 u[28]
   + 396 u[29] + 247 u[30] + 473 u[31] + 977 u[32] + 2 u[33] + 649 u[34]
   + 542 u[35] + 433 u[36] + 754 u[37] + 905 u[38] + 12 u[39] <= 3848
 primal_lower29: 116 u[0] + 992 u[1] + 310 u[2] + 519 u[3] + 616 u[4]
   + 254 u[5] + 761 u[6] + 568 u[7] + 121 u[8] + 238 u[9] + 96 u[10]
   + 759 u[11] + 664 u[12] + 416 u[13] + 585 u[14] + 849 u[15] + 57 u[16]
   + 556 u[17] + 813 u[18] + 202 u[19] + 873 u[20] + 620 u[21] + 512 u[22]
   + 411 u[23] + 129 u[24] + 620 u[25] + 774 u[26] + 812 u[27] + 458 u[28]
   + 427 u[29] + 894 u[30] + 128 u[31] + 416 u[32] + 137 u[33] + 888 u[34]
   + 501 u[35] + 752 u[36] + 409 u[37] + 776 u[38] + 731 u[39] <= 8304
 primal_lower30: 156 u[0] + 797 u[1] + 959 u[2] + 748 u[3] + 513 u[4]
   + 890 u[5] + 402 u[6] + 260 u[7] + 410 u[8] + 699 u[9] + 528 u[10]
   + 260 u[11] + 633 u[12] + 309 u[13] + 889 u[14] + 61 u[15] + 466 u[16]
   + 369 u[17] + 374 u[18] + 367 u[19] + 906 u[20] + 224 u[21] + 545 u[22]
   + 319 u[23] + 129 u[24] + 177 u[25] + 967 u[26] + 736 u[27] + 882 u[28]
   + 24 u[29] + 462 u[30] + 964 u[31] + 344 u[32] + 142 u[33] + 497 u[34]
   + 266 u[35] + 193 u[36] + 181 u[37] + 521 u[38] + 711 u[39] <= 967
 primal_lower31: 292 u[0] + 965 u[1] + 31 u[2] + 132 u[3] + 361 u[4]
   + 98 u[5] + 282 u[6] + 44 u[7] + 586 u[8] + 187 u[9] + 144 u[10]
   + 780 u[11] + 449 u[12] + 701 u[13] + 33 u[14] + 229 u[15] + 82 u[16]
   + 665 u[17] + 222 u[18] + 215 u[19] + 562 u[20] + 768 u[21] + u[22]
   + 455 u[23] + 169 u[24] + 633 u[25] + 327 u[26] + 328 u[27] + 778 u[28]
   + 440 u[29] + 406 u[30] + 436 u[31] + 120 u[32] + 774 u[33] + 777 u[34]
   + 938 u[35] + 793 u[36] + 765 u[37] + 785 u[38] + 391 u[39] <= 10286
 primal_lower32: 707 u[0] + 684 u[1] + 150 u[2] + 963 u[3] + 232 u[4]
   + 953 u[5] + 649 u[6] + 147 u[7] + 49 u[8] + 290 u[9] + 847 u[10]
   + 883 u[11] + 704 u[12] + 788 u[13] + 696 u[14] + 900 u[15] + 897 u[16]
   + 904 u[17] + 429 u[18] + 902 u[19] + u[20] + 71 u[21] + 168 u[22]
   + 198 u[23] + 376 u[24] + 120 u[25] + 318 u[26] + 903 u[27] + 129 u[28]
   + 751 u[29] + 685 u[30] + 323 u[31] + 703 u[32] + 389 u[33] + 464 u[34]
   + 81 u[35] + 968 u[36] + 868 u[37] + 728 u[38] + 550 u[39] <= 8627
 primal_lower33: 759 u[0] + 251 u[1] + 961 u[2] + 922 u[3] + 691 u[4]
   + 633 u[5] + 716 u[6] + 139 u[7] + 596 u[8] + 873 u[9] + 347 u[10]
   + 770 u[11] + 91 u[12] + 323 u[13] + 868 u[14] + 180 u[15] + 404 u[16]
   + 167 u[17] + 368 u[18] + 461 u[19] + 92 u[20] + 583 u[21] + 179 u[22]
   + 974 u[23] + 332 u[24] + 39 u[25] + 41 u[26] + 615 u[27] + 197 u[28]
   + 838 u[29] + 41 u[30] + 163 u[31] + 19 u[32] + 764 u[33] + 387 u[34]
   + 88 u[35] + 259 u[36] + 996 u[37] + 339 u[38] + 678 u[39] <= 7257
 primal_lower34: 85 u[0] + 262 u[1] + 488 u[2] + 573 u[3] + 962 u[4]
   + 83 u[5] + 171 u[6] + 573 u[7] + 203 u[8] + 148 u[9] + 585 u[10]
   + 205 u[11] + 586 u[12] + 518 u[13] + 930 u[14] + 270 u[15] + 235 u[16]
   + 186 u[17] + 551 u[18] + 184 u[19] + 507 u[20] + 105 u[21] + 90 u[22]
   + 496 u[23] + 370 u[24] + 426 u[25] + 328 u[26] + 601 u[27] + 835 u[28]
   + 897 u[29] + 167 u[30] + 941 u[31] + 337 u[32] + 455 u[33] + 778 u[34]
   + 379 u[35] + 730 u[36] + 374 u[37] + 330 u[38] + 568 u[39] <= 962
 primal_lower35: 376 u[0] + 884 u[1] + 602 u[2] + 3 u[3] + 524 u[4]
   + 242 u[5] + 221 u[6] + 300 u[7] + 437 u[8] + 906 u[9] + 116 u[10]
   + 835 u[11] + 68 u[12] + 556 u[13] + 757 u[14] + 885 u[15] + 477 u[16]
   + 64 u[17] + 801 u[18] + 966 u[19] + 893 u[20] + 488 u[21] + 372 u[22]
   + 319 u[23] + 93 u[24] + 904 u[25] + 306 u[26] + 40 u[27] + 358 u[28]
   + 319 u[29] + 658 u[30] + 980 u[31] + 404 u[32] + 29 u[33] + 28 u[34]
   + 521 u[35] + 92 u[36] + 789 u[37] + 604 u[38] + 239 u[39] <= 3691
 primal_lower36: 32 u[0] + 700 u[1] + 762 u[2] + 347 u[3] + 204 u[4]
   + 194 u[5] + 85 u[6] + 692 u[7] + 181 u[8] + 162 u[9] + 356 u[10]
   + 787 u[11] + 860 u[12] + 68 u[13] + 53 u[14] + 197 u[15] + 893 u[16]
   + 8 u[17] + 417 u[18] + 270 u[19] + 45 u[20] + 304 u[21] + 852 u[22]
   + 399 u[23] + 645 u[24] + 976 u[25] + 762 u[26] + 792 u[27] + 246 u[28]
   + 943 u[29] + 674 u[30] + 116 u[31] + 20 u[32] + 101 u[33] + 252 u[34]
   + 265 u[35] + 380 u[36] + 493 u[37] + 852 u[38] + 223 u[39] <= 3321
 primal_lower37: 951 u[0] + 395 u[1] + 201 u[2] + 34 u[3] + 219 u[4]
   + 945 u[5] + 964 u[6] + 899 u[7] + 20 u[8] + 633 u[9] + 851 u[10]
   + 266 u[11] + 739 u[12] + 651 u[13] + 76 u[14] + 20 u[15] + 868 u[16]
   + 919 u[17] + 640 u[18] + 981 u[19] + 652 u[20] + 815 u[21] + 915 u[22]
   + 134 u[23] + 60 u[24] + 271 u[25] + 881 u[26] + 383 u[27] + 821 u[28]
   + 958 u[29] + 689 u[30] + 371 u[31] + 331 u[32] + 836 u[33] + 75 u[34]
   + 856 u[35] + 643 u[36] + 476 u[37] + 139 u[38] + 542 u[39] <= 8848
 primal_lower38: 314 u[0] + 779 u[1] + 485 u[2] + 146 u[3] + 159 u[4]
   + 200 u[5] + 464 u[6] + 282 u[7] + 544 u[8] + 569 u[9] + 110 u[10]
   + 714 u[11] + 927 u[12] + 19 u[13] + 39 u[14] + 363 u[15] + 472 u[16]
   + 903 u[17] + 420 u[18] + 173 u[19] + 528 u[20] + 582 u[21] + 943 u[22]
   + 85 u[23] + 623 u[24] + 743 u[25] + 309 u[26] + 750 u[27] + 96 u[28]
   + 862 u[29] + 580 u[30] + 682 u[31] + 494 u[32] + 436 u[33] + 39 u[34]
   + 552 u[35] + 311 u[36] + 355 u[37] + 959 u[38] + 341 u[39] <= 3670
 primal_lower39: 192 u[0] + 4 u[1] + 114 u[2] + 995 u[3] + 348 u[4]
   + 426 u[5] + 885 u[6] + 516 u[7] + 645 u[8] + 794 u[9] + 364 u[10]
   + 163 u[11] + 260 u[12] + 732 u[13] + 653 u[14] + 53 u[15] + 413 u[16]
   + 608 u[17] + 417 u[18] + 854 u[19] + 413 u[20] + 736 u[21] + 140 u[22]
   + 367 u[23] + 957 u[24] + 552 u[25] + 834 u[26] + 256 u[27] + 6 u[28]
   + 575 u[29] + 882 u[30] + 708 u[31] + 668 u[32] + 653 u[33] + 228 u[34]
   + 153 u[35] + 156 u[36] + 397 u[37] + 892 u[38] + 495 u[39] <= 3900
 primal_lower40: 597 u[0] + 73 u[1] + 191 u[2] + 592 u[3] + 121 u[4]
   + 87 u[5] + 402 u[6] + 385 u[7] + 346 u[8] + 135 u[9] + 585 u[10]
   + 936 u[11] + 753 u[12] + 257 u[13] + 946 u[14] + 42 u[15] + 130 u[16]
   + 413 u[17] + 30 u[18] + 75 u[19] + 714 u[20] + 117 u[21] + 377 u[22]
   + 908 u[23] + 234 u[24] + 389 u[25] + 431 u[26] + 621 u[27] + 739 u[28]
   + 500 u[29] + 95 u[30] + 209 u[31] + 489 u[32] + 498 u[33] + 425 u[34]
   + 214 u[35] + 889 u[36] + 474 u[37] + 833 u[38] + 796 u[39] <= 3409
 primal_lower41: 806 u[0] + 823 u[1] + 97 u[2] + 814 u[3] + 291 u[4]
   + 756 u[5] + 68 u[6] + 958 u[7] + 684 u[8] + 493 u[9] + 666 u[10]
   + 446 u[11] + 827 u[12] + 263 u[13] + 827 u[14] + 695 u[15] + 700 u[16]
   + 627 u[17] + 720 u[18] + 761 u[19] + 116 u[20] + 522 u[21] + 795 u[22]
   + 121 u[23] + 635 u[24] + 115 u[25] + 681 u[26] + 474 u[27] + 228 u[28]
   + 378 u[29] + 816 u[30] + 654 u[31] + 522 u[32] + 880 u[33] + 83 u[34]
   + 700 u[35] + 619 u[36] + 575 u[37] + 931 u[38] + 73 u[39] <= 8896
 primal_lower42: 981 u[0] + 449 u[1] + 231 u[2] + 696 u[3] + 361 u[4]
   + 471 u[5] + 882 u[6] + 177 u[7] + 978 u[8] + 311 u[9] + 41 u[10]
   + 728 u[11] + 489 u[12] + 377 u[13] + 74 u[14] + 650 u[15] + 386 u[16]
   + 453 u[17] + 310 u[18] + 155 u[19] + 186 u[20] + 661 u[21] + 825 u[22]
   + 644 u[23] + 666 u[24] + 573 u[25] + 39 u[26] + 685 u[27] + 427 u[28]
   + 228 u[29] + 935 u[30] + 169 u[31] + 761 u[32] + 658 u[33] + 49 u[34]
   + 686 u[35] + 961 u[36] + 282 u[37] + 825 u[38] + 468 u[39] <= 3985
 primal_lower43: 825 u[0] + 74 u[1] + 148 u[2] + 993 u[3] + 830 u[4]
   + 183 u[5] + 103 u[6] + 57 u[7] + 879 u[8] + 728 u[9] + 925 u[10]
   + 641 u[11] + 494 u[12] + 962 u[13] + 110 u[14] + 138 u[15] + 695 u[16]
   + 814 u[17] + 555 u[18] + 108 u[19] + 7 u[20] + 189 u[21] + 854 u[22]
   + 996 u[23] + 942 u[24] + 334 u[25] + 612 u[26] + 845 u[27] + 351 u[28]
   + 141 u[29] + 835 u[30] + 977 u[31] + 829 u[32] + 451 u[33] + 582 u[34]
   + 575 u[35] + 278 u[36] + 122 u[37] + 638 u[38] + 484 u[39] <= 8521
 primal_lower44: 825 u[0] + 461 u[1] + 619 u[2] + 564 u[3] + 13 u[4]
   + 179 u[5] + 30 u[6] + 45 u[7] + 318 u[8] + 843 u[9] + 189 u[10]
   + 804 u[11] + 725 u[12] + 581 u[13] + 822 u[14] + 334 u[15] + 214 u[16]
   + 833 u[17] + 266 u[18] + 895 u[19] + 742 u[20] + 401 u[21] + 845 u[22]
   + 200 u[23] + 750 u[24] + 345 u[25] + 347 u[26] + 769 u[27] + 735 u[28]
   + 256 u[29] + 955 u[30] + 437 u[31] + 421 u[32] + 534 u[33] + 301 u[34]
   + 698 u[35] + 709 u[36] + 862 u[37] + 253 u[38] + 56 u[39] <= 955
 primal_lower45: 537 u[0] + 154 u[1] + 876 u[2] + 649 u[3] + 702 u[4]
   + 767 u[5] + 631 u[6] + 145 u[7] + 575 u[8] + 56 u[9] + 501 u[10]
   + 425 u[11] + 86 u[12] + 946 u[13] + 958 u[14] + 634 u[15] + 87 u[16]
   + 318 u[17] + 467 u[18] + 260 u[19] + 191 u[20] + 853 u[21] + 886 u[22]
   + 508 u[23] + 710 u[24] + 254 u[25] + 604 u[26] + 205 u[27] + 575 u[28]
   + 549 u[29] + 515 u[30] + 81 u[31] + 565 u[32] + 219 u[33] + 366 u[34]
   + 871 u[35] + 462 u[36] + 986 u[37] + 550 u[38] + 412 u[39] <= 4027
 primal_lower46: 572 u[0] + 480 u[1] + 158 u[2] + 95 u[3] + 864 u[4]
   + 430 u[5] + 513 u[6] + 496 u[7] + 377 u[8] + 62 u[9] + 384 u[10]
   + 775 u[11] + 704 u[12] + 32 u[13] + 105 u[14] + 705 u[15] + 457 u[16]
   + 700 u[17] + 861 u[18] + 506 u[19] + 969 u[20] + 708 u[21] + 208 u[22]
   + 387 u[23] + u[24] + 316 u[25] + 630 u[26] + 620 u[27] + 434 u[28]
   + 507 u[29] + 350 u[30] + 272 u[31] + 528 u[32] + 17 u[33] + 800 u[34]
   + 485 u[35] + 672 u[36] + 585 u[37] + 232 u[38] + 163 u[39] <= 3632
 primal_lower47: 261 u[0] + 905 u[1] + 183 u[2] + 72 u[3] + 689 u[4]
   + 711 u[5] + 714 u[6] + 745 u[7] + 994 u[8] + 431 u[9] + 521 u[10]
   + 952 u[11] + 281 u[12] + 937 u[13] + 370 u[14] + 266 u[15] + 114 u[16]
   + 621 u[17] + 998 u[18] + 83 u[19] + 42 u[20] + 365 u[21] + 89 u[22]
   + 252 u[23] + 930 u[24] + 341 u[25] + 303 u[26] + 405 u[27] + 107 u[28]
   + 916 u[29] + 711 u[30] + 49 u[31] + 73 u[32] + 98 u[33] + 569 u[34]
   + 606 u[35] + 201 u[36] + 146 u[37] + 393 u[38] + 92 u[39] <= 3507
 primal_lower48: 812 u[0] + 216 u[1] + 766 u[2] + 311 u[3] + 576 u[4]
   + 910 u[5] + 561 u[6] + 768 u[7] + 33 u[8] + 230 u[9] + 560 u[10]
   + 287 u[11] + 416 u[12] + 728 u[13] + 817 u[14] + 889 u[15] + 289 u[16]
   + 756 u[17] + 309 u[18] + 458 u[19] + 497 u[20] + 700 u[21] + 552 u[22]
   + 123 u[23] + 929 u[24] + 332 u[25] + 734 u[26] + 324 u[27] + 946 u[28]
   + 483 u[29] + 14 u[30] + 136 u[31] + 880 u[32] + 25 u[33] + 40 u[34]
   + 509 u[35] + 368 u[36] + 881 u[37] + 344 u[38] + 219 u[39] <= 7891
 primal_lower49: 991 u[0] + 947 u[1] + 641 u[2] + 194 u[3] + 771 u[4]
   + 73 u[5] + 340 u[6] + 819 u[7] + 364 u[8] + 697 u[9] + 491 u[10]
   + 2 u[11] + 443 u[12] + 875 u[13] + 556 u[14] + 452 u[15] + 716 u[16]
   + 495 u[17] + 672 u[18] + 333 u[19] + 212 u[20] + 239 u[21] + 467 u[22]
   + 822 u[23] + 852 u[24] + 599 u[25] + 481 u[26] + 343 u[27] + 13 u[28]
   + 942 u[29] + 857 u[30] + 355 u[31] + 251 u[32] + 660 u[33] + 435 u[34]
   + 608 u[35] + 963 u[36] + 684 u[37] + 867 u[38] + 766 u[39] <= 4457
 primal_lower50: 103 u[0] + 640 u[1] + 154 u[2] + 359 u[3] + 436 u[4]
   + 805 u[5] + 557 u[6] + 631 u[7] + 973 u[8] + 342 u[9] + 315 u[10]
   + 551 u[11] + 308 u[12] + 904 u[13] + 940 u[14] + 544 u[15] + 389 u[16]
   + 780 u[17] + 433 u[18] + 178 u[19] + 501 u[20] + 107 u[21] + 364 u[22]
   + 170 u[23] + 532 u[24] + 884 u[25] + 82 u[26] + 219 u[27] + 325 u[28]
   + 187 u[29] + 489 u[30] + 991 u[31] + 483 u[32] + 881 u[33] + 844 u[34]
   + 653 u[35] + 892 u[36] + 296 u[37] + 708 u[38] + 978 u[39] <= 8371
 primal_lower51: 939 u[0] + 252 u[1] + 294 u[2] + 307 u[3] + 368 u[4]
   + 977 u[5] + 665 u[6] + 475 u[7] + 617 u[8] + 850 u[9] + 103 u[10]
   + 83 u[11] + 680 u[12] + 444 u[13] + 200 u[14] + 100 u[15] + 393 u[16]
   + 304 u[17] + 485 u[18] + 246 u[19] + 241 u[20] + 287 u[21] + 800 u[22]
   + 646 u[23] + 224 u[24] + 824 u[25] + 246 u[26] + 215 u[27] + 745 u[28]
   + 71 u[29] + 989 u[30] + 91 u[31] + 623 u[32] + 909 u[33] + 680 u[34]
   + 297 u[35] + 8 u[36] + 764 u[37] + 568 u[38] + 734 u[39] <= 3748
 primal_lower52: 302 u[0] + 87 u[1] + 401 u[2] + 518 u[3] + 3 u[4]
   + 516 u[5] + 68 u[6] + 190 u[7] + 28 u[8] + 685 u[9] + 122 u[10]
   + 742 u[11] + 859 u[12] + 463 u[13] + 907 u[14] + 887 u[15] + 828 u[16]
   + 531 u[17] + 352 u[18] + 937 u[19] + 636 u[20] + 370 u[21] + 875 u[22]
   + 105 u[23] + 483 u[24] + 755 u[25] + 841 u[26] + 866 u[27] + 972 u[28]
   + 138 u[29] + 464 u[30] + 430 u[31] + 626 u[32] + 360 u[33] + 859 u[34]
   + 140 u[35] + 315 u[36] + 15 u[37] + 811 u[38] + 497 u[39] <= 972
 primal_lower53: 698 u[0] + 150 u[1] + 628 u[2] + 173 u[3] + 494 u[4]
   + 844 u[5] + 935 u[6] + 638 u[7] + 167 u[8] + 164 u[9] + 742 u[10]
   + 213 u[11] + 374 u[12] + 926 u[13] + 575 u[14] + 71 u[15] + 127 u[16]
   + 954 u[17] + 155 u[18] + 176 u[19] + 599 u[20] + 674 u[21] + 22 u[22]
   + 537 u[23] + 47 u[24] + 554 u[25] + 548 u[26] + 554 u[27] + 744 u[28]
   + 401 u[29] + 372 u[30] + 750 u[31] + 622 u[32] + 455 u[33] + 694 u[34]
   + 235 u[35] + 270 u[36] + 767 u[37] + 70 u[38] + 737 u[39] <= 3771
 primal_lower54: 848 u[0] + 348 u[1] + 218 u[2] + 835 u[3] + 940 u[4]
   + 858 u[5] + 589 u[6] + 76 u[7] + 357 u[8] + 362 u[9] + 492 u[10]
   + 563 u[11] + 540 u[12] + 164 u[13] + 661 u[14] + 709 u[15] + 309 u[16]
   + 80 u[17] + 929 u[18] + 718 u[19] + 101 u[20] + 224 u[21] + 772 u[22]
   + 511 u[23] + 109 u[24] + 648 u[25] + 498 u[26] + 264 u[27] + 894 u[28]
   + 103 u[29] + 882 u[30] + 228 u[31] + 524 u[32] + 245 u[33] + 996 u[34]
   + 105 u[35] + 852 u[36] + 877 u[37] + 804 u[38] + 527 u[39] <= 12456
 primal_lower55: 173 u[0] + 350 u[1] + 64 u[2] + 109 u[3] + 138 u[4]
   + 507 u[5] + 59 u[6] + 557 u[7] + 491 u[8] + 236 u[9] + 505 u[10]
   + 141 u[11] + 322 u[12] + 198 u[13] + 706 u[14] + 486 u[15] + 619 u[16]
   + 162 u[17] + 399 u[18] + 856 u[19] + 243 u[20] + 297 u[21] + 850 u[22]
   + 952 u[23] + 954 u[24] + 986 u[25] + 104 u[26] + 761 u[27] + 491 u[28]
   + 953 u[29] + 551 u[30] + 229 u[31] + 993 u[32] + 703 u[33] + 930 u[34]
   + 491 u[35] + 226 u[36] + 654 u[37] + 538 u[38] + 184 u[39] <= 993
 primal_lower56: 556 u[0] + 336 u[1] + 678 u[2] + 839 u[3] + 824 u[4]
   + 166 u[5] + 489 u[6] + 272 u[7] + 697 u[8] + 734 u[9] + 248 u[10]
   + 279 u[11] + 704 u[12] + 208 u[13] + 809 u[14] + 737 u[15] + 169 u[16]
   + 292 u[17] + 381 u[18] + 818 u[19] + 89 u[20] + 964 u[21] + 328 u[22]
   + 987 u[23] + 505 u[24] + 844 u[25] + 542 u[26] + 148 u[27] + 90 u[28]
   + 75 u[29] + 830 u[30] + 944 u[31] + 480 u[32] + 881 u[33] + 208 u[34]
   + 741 u[35] + 800 u[36] + 313 u[37] + 568 u[38] + 963 u[39] <= 8614
 primal_lower57: 945 u[0] + 498 u[1] + 956 u[2] + 497 u[3] + 414 u[4]
   + 383 u[5] + 999 u[6] + 433 u[7] + 143 u[8] + 744 u[9] + 597 u[10]
   + 889 u[11] + 422 u[12] + 746 u[13] + 486 u[14] + 802 u[15] + 879 u[16]
   + 686 u[17] + 763 u[18] + 108 u[19] + 439 u[20] + 29 u[21] + 734 u[22]
   + 396 u[23] + 606 u[24] + 102 u[25] + 388 u[26] + 997 u[27] + 703 u[28]
   + 53 u[29] + 923 u[30] + 273 u[31] + 869 u[32] + 899 u[33] + 174 u[34]
   + 407 u[35] + 942 u[36] + 34 u[37] + 22 u[38] + 492 u[39] <= 8748
 primal_lower58: 445 u[0] + 137 u[1] + 951 u[2] + 520 u[3] + 265 u[4]
   + 503 u[5] + 946 u[6] + 569 u[7] + 274 u[8] + 63 u[9] + 497 u[10]
   + 120 u[11] + 617 u[12] + 897 u[13] + 330 u[14] + 562 u[15] + 746 u[16]
   + 37 u[17] + 750 u[18] + 619 u[19] + 794 u[20] + 157 u[21] + 713 u[22]
   + 412 u[23] + 554 u[24] + 53 u[25] + 47 u[26] + 453 u[27] + 467 u[28]
   + 308 u[29] + 855 u[30] + 401 u[31] + 17 u[32] + 290 u[33] + 185 u[34]
   + 654 u[35] + 385 u[36] + 770 u[37] + 801 u[38] + 212 u[39] <= 3675
 primal_lower59: 202 u[0] + 195 u[1] + 37 u[2] + 530 u[3] + 951 u[4]
   + 360 u[5] + 72 u[6] + 130 u[7] + 512 u[8] + 801 u[9] + 662 u[10]
   + 578 u[11] + 775 u[12] + 619 u[13] + 935 u[14] + 731 u[15] + 136 u[16]
   + 535 u[17] + 844 u[18] + 741 u[19] + 816 u[20] + 350 u[21] + 727 u[22]
   + 901 u[23] + 799 u[24] + 999 u[25] + 205 u[26] + 638 u[27] + 232 u[28]
   + 678 u[29] + 284 u[30] + 978 u[31] + 390 u[32] + 4 u[33] + 447 u[34]
   + 32 u[35] + 511 u[36] + 59 u[37] + 919 u[38] + 357 u[39] <= 12403
 primal_lower60: 448 u[0] + 377 u[1] + 955 u[2] + 640 u[3] + 229 u[4]
   + 630 u[5] + 958 u[6] + 424 u[7] + 998 u[8] + 815 u[9] + 524 u[10]
   + 144 u[11] + 949 u[12] + 689 u[13] + 709 u[14] + 201 u[15] + 254 u[16]
   + 541 u[17] + 898 u[18] + 883 u[19] + 702 u[20] + 972 u[21] + 109 u[22]
   + 379 u[23] + 661 u[24] + 29 u[25] + 771 u[26] + 220 u[27] + 486 u[28]
   + 420 u[29] + 298 u[30] + 904 u[31] + 732 u[32] + 242 u[33] + 893 u[34]
   + 878 u[35] + 949 u[36] + 233 u[37] + 221 u[38] + 987 u[39] <= 4670
 primal_lower61: 679 u[0] + 547 u[1] + 105 u[2] + 362 u[3] + 555 u[4]
   + 441 u[5] + 4 u[6] + 115 u[7] + 484 u[8] + 601 u[9] + 259 u[10]
   + 522 u[11] + 179 u[12] + 283 u[13] + 436 u[14] + 972 u[15] + 180 u[16]
   + 807 u[17] + 144 u[18] + 405 u[19] + 820 u[20] + 775 u[21] + 379 u[22]
   + 454 u[23] + 252 u[24] + 167 u[25] + 345 u[26] + 727 u[27] + 613 u[28]
   + 990 u[29] + 985 u[30] + 347 u[31] + 299 u[32] + 876 u[33] + 379 u[34]
   + 680 u[35] + 363 u[36] + 988 u[37] + 859 u[38] + 758 u[39] <= 4027
 primal_lower62: 796 u[0] + 653 u[1] + 679 u[2] + 948 u[3] + 537 u[4]
   + 762 u[5] + 914 u[6] + 732 u[7] + 610 u[8] + 323 u[9] + 296 u[10]
   + 644 u[11] + 777 u[12] + 733 u[13] + 305 u[14] + 357 u[15] + 986 u[16]
   + 889 u[17] + 742 u[18] + 439 u[19] + 130 u[20] + 272 u[21] + 913 u[22]
   + 527 u[23] + 673 u[24] + 681 u[25] + 263 u[26] + 136 u[27] + 626 u[28]
   + 232 u[29] + 822 u[30] + 964 u[31] + 896 u[32] + 494 u[33] + 241 u[34]
   + 794 u[35] + 897 u[36] + 765 u[37] + 313 u[38] + 495 u[39] <= 4851
 primal_lower63: 430 u[0] + 415 u[1] + 33 u[2] + 174 u[3] + 19 u[4]
   + 660 u[5] + 668 u[6] + 246 u[7] + 324 u[8] + 877 u[9] + 322 u[10]
   + 70 u[11] + 571 u[12] + 543 u[13] + 371 u[14] + 511 u[15] + 852 u[16]
   + 171 u[17] + 944 u[18] + 593 u[19] + 908 u[20] + 570 u[21] + 571 u[22]
   + 513 u[23] + 507 u[24] + 691 u[25] + 585 u[26] + 642 u[27] + 612 u[28]
   + 994 u[29] + 640 u[30] + 510 u[31] + 290 u[32] + 640 u[33] + 619 u[34]
   + 172 u[35] + 371 u[36] + 367 u[37] + 851 u[38] + 241 u[39] <= 8035
 primal_lower64: 398 u[0] + 375 u[1] + 657 u[2] + 302 u[3] + 835 u[4]
   + 796 u[5] + 268 u[6] + 446 u[7] + 356 u[8] + 701 u[9] + 402 u[10]
   + 54 u[11] + 67 u[12] + 855 u[13] + 419 u[14] + 967 u[15] + 172 u[16]
   + 947 u[17] + 784 u[18] + 577 u[19] + 692 u[20] + 970 u[21] + 827 u[22]
   + 161 u[23] + 699 u[24] + 99 u[25] + 769 u[26] + 178 u[27] + 692 u[28]
   + 2 u[29] + 312 u[30] + 614 u[31] + 426 u[32] + 552 u[33] + 235 u[34]
   + 428 u[35] + 315 u[36] + 799 u[37] + 539 u[38] + 425 u[39] <= 970
 primal_lower65: 542 u[0] + 895 u[1] + 41 u[2] + 670 u[3] + 27 u[4]
   + 452 u[5] + 852 u[6] + 670 u[7] + 948 u[8] + 493 u[9] + 410 u[10]
   + 198 u[11] + 779 u[12] + 215 u[13] + 187 u[14] + 71 u[15] + 516 u[16]
   + 75 u[17] + 256 u[18] + 873 u[19] + 780 u[20] + 74 u[21] + 571 u[22]
   + 921 u[23] + 307 u[24] + 963 u[25] + 617 u[26] + 282 u[27] + 300 u[28]
   + 474 u[29] + 672 u[30] + 566 u[31] + 426 u[32] + 896 u[33] + 651 u[34]
   + 436 u[35] + 859 u[36] + 127 u[37] + 283 u[38] + 361 u[39] <= 7894
 primal_lower66: 473 u[0] + 885 u[1] + 491 u[2] + 876 u[3] + 205 u[4]
   + 411 u[5] + 990 u[6] + 917 u[7] + 230 u[8] + 379 u[9] + 789 u[10]
   + 708 u[11] + 109 u[12] + 693 u[13] + 830 u[14] + 566 u[15] + 414 u[16]
   + 745 u[17] + 746 u[18] + 71 u[19] + 934 u[20] + 489 u[21] + 973 u[22]
   + 864 u[23] + 230 u[24] + 489 u[25] + 731 u[26] + 313 u[27] + 343 u[28]
   + 528 u[29] + 587 u[30] + 21 u[31] + 533 u[32] + 342 u[33] + 997 u[34]
   + 546 u[35] + 77 u[36] + 110 u[37] + 533 u[38] + 16 u[39] <= 997
 primal_lower67: 777 u[0] + 546 u[1] + 772 u[2] + 289 u[3] + 78 u[4]
   + 951 u[5] + 319 u[6] + 553 u[7] + 591 u[8] + 800 u[9] + 453 u[10]
   + 609 u[11] + 854 u[12] + 458 u[13] + 566 u[14] + 426 u[15] + 23 u[16]
   + 830 u[17] + 251 u[18] + 492 u[19] + 327 u[20] + 957 u[21] + 846 u[22]
   + 516 u[23] + 718 u[24] + 342 u[25] + 428 u[26] + 773 u[27] + 95 u[28]
   + 21 u[29] + 867 u[30] + 753 u[31] + 661 u[32] + 123 u[33] + 982 u[34]
   + 407 u[35] + 230 u[36] + 850 u[37] + 206 u[38] + 612 u[39] <= 982
 primal_lower68: 939 u[0] + 119 u[1] + 53 u[2] + 918 u[3] + 711 u[4]
   + 13 u[5] + 664 u[6] + 687 u[7] + 600 u[8] + 5 u[9] + 391 u[10]
   + 566 u[11] + 207 u[12] + 527 u[13] + 808 u[14] + 128 u[15] + 976 u[16]
   + 579 u[17] + 692 u[18] + 449 u[19] + 960 u[20] + 203 u[21] + 583 u[22]
   + 154 u[23] + 928 u[24] + 403 u[25] + 173 u[26] + 539 u[27] + 505 u[28]
   + 98 u[29] + 237 u[30] + 583 u[31] + 167 u[32] + 392 u[33] + 879 u[34]
   + 204 u[35] + 423 u[36] + 384 u[37] + 999 u[38] + 362 u[39] <= 999
 primal_lower69: 644 u[0] + 552 u[1] + 790 u[2] + 495 u[3] + 944 u[4]
   + 814 u[5] + 985 u[6] + 416 u[7] + 185 u[8] + 86 u[9] + 56 u[10]
   + 247 u[11] + 624 u[12] + 784 u[13] + 577 u[14] + 25 u[15] + 369 u[16]
   + 4 u[17] + 477 u[18] + 18 u[19] + 705 u[20] + 596 u[21] + 744 u[22]
   + 843 u[23] + 377 u[24] + 452 u[25] + 22 u[26] + 724 u[27] + 946 u[28]
   + 723 u[29] + 918 u[30] + 656 u[31] + 448 u[32] + 313 u[33] + 192 u[34]
   + 965 u[35] + 960 u[36] + 769 u[37] + 656 u[38] + 291 u[39] <= 985
 primal_lower70: 994 u[0] + 942 u[1] + 588 u[2] + 941 u[3] + 430 u[4]
   + 700 u[5] + 415 u[6] + 598 u[7] + 199 u[8] + 356 u[9] + 254 u[10]
   + 333 u[11] + 774 u[12] + 878 u[13] + 503 u[14] + 975 u[15] + 79 u[16]
   + 778 u[17] + 251 u[18] + 328 u[19] + 695 u[20] + 90 u[21] + 230 u[22]
   + 41 u[23] + 879 u[24] + 634 u[25] + 876 u[26] + 26 u[27] + 600 u[28]
   + 233 u[29] + 228 u[30] + 430 u[31] + 166 u[32] + 207 u[33] + 590 u[34]
   + 99 u[35] + 118 u[36] + 431 u[37] + 62 u[38] + 593 u[39] <= 3708
 primal_lower71: 596 u[0] + 285 u[1] + 663 u[2] + 780 u[3] + 609 u[4]
   + 418 u[5] + 570 u[6] + 76 u[7] + 162 u[8] + 523 u[9] + 96 u[10]
   + 748 u[11] + 225 u[12] + 525 u[13] + 657 u[14] + 653 u[15] + 610 u[16]
   + 233 u[17] + 94 u[18] + 191 u[19] + 18 u[20] + 920 u[21] + 353 u[22]
   + 951 u[23] + 857 u[24] + 89 u[25] + 639 u[26] + 272 u[27] + 298 u[28]
   + 32 u[29] + 654 u[30] + 700 u[31] + 480 u[32] + 894 u[33] + 249 u[34]
   + 802 u[35] + 233 u[36] + 525 u[37] + 721 u[38] + 471 u[39] <= 3774
 primal_lower72: 247 u[0] + 296 u[1] + 114 u[2] + 383 u[3] + 260 u[4]
   + 205 u[5] + 45 u[6] + 407 u[7] + 85 u[8] + 558 u[9] + 931 u[10]
   + 879 u[11] + 372 u[12] + 544 u[13] + 500 u[14] + 896 u[15] + 285 u[16]
   + 812 u[17] + 545 u[18] + 170 u[19] + 989 u[20] + 411 u[21] + 900 u[22]
   + 506 u[23] + 924 u[24] + 196 u[25] + 842 u[26] + 395 u[27] + 701 u[28]
   + 875 u[29] + 857 u[30] + 783 u[31] + 987 u[32] + 521 u[33] + 308 u[34]
   + 957 u[35] + 108 u[36] + 264 u[37] + 620 u[38] + 922 u[39] <= 989
 primal_lower73: 220 u[0] + 112 u[1] + 166 u[2] + 327 u[3] + 568 u[4]
   + 22 u[5] + 737 u[6] + 488 u[7] + 409 u[8] + 598 u[9] + 792 u[10]
   + 207 u[11] + 64 u[12] + 48 u[13] + 617 u[14] + 889 u[15] + 385 u[16]
   + 252 u[17] + 365 u[18] + 898 u[19] + 153 u[20] + 676 u[21] + 928 u[22]
   + 203 u[23] + 617 u[24] + 748 u[25] + 190 u[26] + 36 u[27] + 458 u[28]
   + 259 u[29] + 94 u[30] + 16 u[31] + 392 u[32] + 633 u[33] + 880 u[34]
   + 717 u[35] + 296 u[36] + 625 u[37] + 800 u[38] + 971 u[39] <= 3571
 primal_lower74: 540 u[0] + 949 u[1] + 63 u[2] + 532 u[3] + 105 u[4]
   + 522 u[5] + 978 u[6] + 364 u[7] + 754 u[8] + 811 u[9] + 648 u[10]
   + 588 u[11] + 25 u[12] + 189 u[13] + 153 u[14] + 277 u[15] + 778 u[16]
   + 185 u[17] + 534 u[18] + 743 u[19] + 178 u[20] + 168 u[21] + 449 u[22]
   + 247 u[23] + 361 u[24] + 49 u[25] + 815 u[26] + 952 u[27] + 954 u[28]
   + 888 u[29] + 638 u[30] + 268 u[31] + 912 u[32] + 862 u[33] + 329 u[34]
   + 170 u[35] + 489 u[36] + 741 u[37] + 697 u[38] + 911 u[39] <= 8326
 primal_lower75: 919 u[0] + 64 u[1] + 674 u[2] + 335 u[3] + 716 u[4]
   + 717 u[5] + 157 u[6] + 135 u[7] + 53 u[8] + 286 u[9] + 923 u[10]
   + 55 u[11] + 836 u[12] + 760 u[13] + 876 u[14] + 664 u[15] + 861 u[16]
   + 820 u[17] + 17 u[18] + 730 u[19] + 357 u[20] + 427 u[21] + 356 u[22]
   + 474 u[23] + 988 u[24] + 244 u[25] + 250 u[26] + 651 u[27] + 357 u[28]
   + 291 u[29] + 33 u[30] + 447 u[31] + 283 u[32] + 585 u[33] + 604 u[34]
   + 925 u[35] + 780 u[36] + 432 u[37] + 844 u[38] + 810 u[39] <= 988
 primal_lower76: 688 u[0] + 817 u[1] + 595 u[2] + 408 u[3] + 365 u[4]
   + 902 u[5] + 982 u[6] + 608 u[7] + 102 u[8] + 87 u[9] + 252 u[10]
   + 248 u[11] + 301 u[12] + 89 u[13] + 989 u[14] + 801 u[15] + 94 u[16]
   + 269 u[17] + 962 u[18] + 339 u[19] + 414 u[20] + 268 u[21] + 981 u[22]
   + 843 u[23] + 301 u[24] + 733 u[25] + 827 u[26] + 364 u[27] + 990 u[28]
   + 172 u[29] + 946 u[30] + 264 u[31] + 932 u[32] + 282 u[33] + 789 u[34]
   + 446 u[35] + 405 u[36] + 465 u[37] + 157 u[38] + 955 u[39] <= 12859
 primal_lower77: 966 u[0] + 970 u[1] + 112 u[2] + 73 u[3] + 34 u[4]
   + 848 u[5] + 275 u[6] + 370 u[7] + 147 u[8] + 976 u[9] + 626 u[10]
   + 281 u[11] + 130 u[12] + 842 u[13] + 139 u[14] + 579 u[15] + 659 u[16]
   + 38 u[17] + 135 u[18] + 980 u[19] + 355 u[20] + 158 u[21] + 426 u[22]
   + 781 u[23] + 3 u[24] + 886 u[25] + 432 u[26] + 126 u[27] + 724 u[28]
   + 957 u[29] + 832 u[30] + 154 u[31] + 754 u[32] + 715 u[33] + 986 u[34]
   + 639 u[35] + 650 u[36] + 843 u[37] + 322 u[38] + 125 u[39] <= 986
 primal_lower78: 946 u[0] + 83 u[1] + 53 u[2] + 658 u[3] + 319 u[4]
   + 48 u[5] + 768 u[6] + 442 u[7] + 216 u[8] + 937 u[9] + 294 u[10]
   + 226 u[11] + 71 u[12] + 595 u[13] + 671 u[14] + 139 u[15] + 656 u[16]
   + 215 u[17] + 28 u[18] + 853 u[19] + 352 u[20] + 990 u[21] + 535 u[22]
   + 485 u[23] + 47 u[24] + 295 u[25] + 181 u[26] + 542 u[27] + 960 u[28]
   + 422 u[29] + 492 u[30] + 514 u[31] + 886 u[32] + 644 u[33] + 743 u[34]
   + 32 u[35] + 455 u[36] + 587 u[37] + 343 u[38] + 437 u[39] <= 7264
 primal_lower79: 871 u[0] + 547 u[1] + 201 u[2] + 954 u[3] + 387 u[4]
   + 945 u[5] + 812 u[6] + 955 u[7] + 732 u[8] + 841 u[9] + 155 u[10]
   + 858 u[11] + 275 u[12] + 379 u[13] + 292 u[14] + 300 u[15] + 612 u[16]
   + 239 u[17] + 72 u[18] + 717 u[19] + 484 u[20] + 655 u[21] + 315 u[22]
   + 558 u[23] + 628 u[24] + 711 u[25] + 281 u[26] + 103 u[27] + 453 u[28]
   + 750 u[29] + 377 u[30] + 635 u[31] + 539 u[32] + 940 u[33] + 635 u[34]
   + 152 u[35] + 755 u[36] + 220 u[37] + 251 u[38] + 94 u[39] <= 8272
 primal_lower80: 545 u[0] + 301 u[1] + 107 u[2] + 308 u[3] + 885 u[4]
   + 795 u[5] + 406 u[6] + 205 u[7] + 518 u[8] + 875 u[9] + 69 u[10]
   + 588 u[11] + 685 u[12] + 749 u[13] + 622 u[14] + 790 u[15] + 350 u[16]
   + 937 u[17] + 34 u[18] + 119 u[19] + 726 u[20] + 617 u[21] + 605 u[22]
   + 368 u[23] + 702 u[24] + 241 u[25] + 347 u[26] + 521 u[27] + 231 u[28]
   + 80 u[29] + 635 u[30] + 397 u[31] + 77 u[32] + 78 u[33] + 341 u[34]
   + 226 u[35] + 973 u[36] + 342 u[37] + 101 u[38] + 680 u[39] <= 7270
 primal_lower81: 653 u[0] + 169 u[1] + 327 u[2] + 384 u[3] + 681 u[4]
   + 543 u[5] + 34 u[6] + 153 u[7] + 330 u[8] + 575 u[9] + 169 u[10]
   + 776 u[11] + 569 u[12] + 137 u[13] + 442 u[14] + 906 u[15] + 930 u[16]
   + 189 u[17] + 190 u[18] + 955 u[19] + 2 u[20] + 709 u[21] + 305 u[22]
   + 852 u[23] + 834 u[24] + 165 u[25] + 431 u[26] + 85 u[27] + 459 u[28]
   + 844 u[29] + 255 u[30] + 289 u[31] + 577 u[32] + 602 u[33] + 473 u[34]
   + 422 u[35] + 17 u[36] + 746 u[37] + 9 u[38] + 364 u[39] <= 3510
 primal_lower82: 261 u[0] + 422 u[1] + 112 u[2] + 893 u[3] + 826 u[4]
   + 243 u[5] + 891 u[6] + 285 u[7] + 451 u[8] + 116 u[9] + 89 u[10]
   + 29 u[11] + 18 u[12] + 662 u[13] + 338 u[14] + 582 u[15] + 915 u[16]
   + 898 u[17] + 159 u[18] + 472 u[19] + 627 u[20] + 121 u[21] + 178 u[22]
   + 456 u[23] + 650 u[24] + 402 u[25] + 432 u[26] + 105 u[27] + 331 u[28]
   + 73 u[29] + 551 u[30] + 821 u[31] + 65 u[32] + 271 u[33] + 194 u[34]
   + 747 u[35] + 74 u[36] + 670 u[37] + 906 u[38] + 280 u[39] <= 6646
 primal_lower83: 889 u[0] + 229 u[1] + 683 u[2] + 916 u[3] + 317 u[4]
   + 395 u[5] + 134 u[6] + 301 u[7] + 374 u[8] + 91 u[9] + 245 u[10]
   + 572 u[11] + 141 u[12] + 445 u[13] + 150 u[14] + 526 u[15] + 302 u[16]
   + 329 u[17] + 922 u[18] + 375 u[19] + 814 u[20] + 729 u[21] + 813 u[22]
   + 488 u[23] + 382 u[24] + 73 u[25] + 483 u[26] + 129 u[27] + 135 u[28]
   + 888 u[29] + 211 u[30] + 413 u[31] + 413 u[32] + 62 u[33] + 645 u[34]
   + 874 u[35] + 741 u[36] + 670 u[37] + 477 u[38] + 888 u[39] <= 11198
 primal_lower84: 635 u[0] + 36 u[1] + 830 u[2] + 131 u[3] + 864 u[4]
   + 809 u[5] + 809 u[6] + 667 u[7] + 801 u[8] + 426 u[9] + 511 u[10]
   + 43 u[11] + 328 u[12] + 228 u[13] + 648 u[14] + 44 u[15] + 601 u[16]
   + 856 u[17] + 253 u[18] + 798 u[19] + 961 u[20] + 319 u[21] + 568 u[22]
   + 222 u[23] + 576 u[24] + 344 u[25] + 870 u[26] + 775 u[27] + 633 u[28]
   + 543 u[29] + 837 u[30] + 675 u[31] + 55 u[32] + 437 u[33] + 248 u[34]
   + 361 u[35] + 584 u[36] + 732 u[37] + 360 u[38] + 414 u[39] <= 8332
 primal_lower85: 760 u[0] + 676 u[1] + 386 u[2] + 619 u[3] + 28 u[4]
   + 378 u[5] + 797 u[6] + 972 u[7] + 165 u[8] + 338 u[9] + 100 u[10]
   + 91 u[11] + 148 u[12] + 724 u[13] + 749 u[14] + 77 u[15] + 677 u[16]
   + 136 u[17] + 201 u[18] + 750 u[19] + 565 u[20] + 824 u[21] + 748 u[22]
   + 863 u[23] + 533 u[24] + 208 u[25] + 482 u[26] + 952 u[27] + 46 u[28]
   + 911 u[29] + 162 u[30] + 596 u[31] + 572 u[32] + 821 u[33] + 828 u[34]
   + 561 u[35] + 132 u[36] + 461 u[37] + 412 u[38] + 767 u[39] <= 8086
 primal_lower86: 345 u[0] + 818 u[1] + 828 u[2] + 537 u[3] + 982 u[4]
   + 455 u[5] + 191 u[6] + 193 u[7] + 151 u[8] + 296 u[9] + 997 u[10]
   + 121 u[11] + 438 u[12] + 426 u[13] + 942 u[14] + 794 u[15] + 623 u[16]
   + 566 u[17] + 195 u[18] + 740 u[19] + 631 u[20] + 621 u[21] + 958 u[22]
   + 348 u[23] + 982 u[24] + 22 u[25] + 572 u[26] + 629 u[27] + 143 u[28]
   + 429 u[29] + 867 u[30] + 681 u[31] + 445 u[32] + 147 u[33] + 678 u[34]
   + 911 u[35] + 270 u[36] + 314 u[37] + 750 u[38] + 548 u[39] <= 12950
 primal_lower87: 661 u[0] + 942 u[1] + 360 u[2] + 797 u[3] + 650 u[4]
   + 187 u[5] + 811 u[6] + 605 u[7] + 115 u[8] + 764 u[9] + 297 u[10]
   + 237 u[11] + 426 u[12] + 294 u[13] + 546 u[14] + 838 u[15] + 331 u[16]
   + 2 u[17] + 103 u[18] + 616 u[19] + 315 u[20] + 57 u[21] + 794 u[22]
   + 80 u[23] + 594 u[24] + 370 u[25] + 992 u[26] + 673 u[27] + 979 u[28]
   + 593 u[29] + 743 u[30] + 117 u[31] + 209 u[32] + 231 u[33] + 890 u[34]
   + 635 u[35] + 338 u[36] + 750 u[37] + 874 u[38] + 856 u[39] <= 992
 primal_lower88: 321 u[0] + 173 u[1] + 995 u[2] + 316 u[3] + 805 u[4]
   + 579 u[5] + 630 u[6] + 981 u[7] + 62 u[8] + 563 u[9] + 229 u[10]
   + 356 u[11] + 509 u[12] + 573 u[13] + 886 u[14] + 478 u[15] + 782 u[16]
   + 401 u[17] + 394 u[18] + 319 u[19] + 22 u[20] + 321 u[21] + 237 u[22]
   + 984 u[23] + 558 u[24] + 273 u[25] + 915 u[26] + 185 u[27] + 879 u[28]
   + 392 u[29] + 819 u[30] + 61 u[31] + 957 u[32] + 766 u[33] + 741 u[34]
   + 746 u[35] + 349 u[36] + 462 u[37] + 509 u[38] + 288 u[39] <= 4163
 primal_lower89: 949 u[0] + 862 u[1] + 632 u[2] + 141 u[3] + 778 u[4]
   + 603 u[5] + 283 u[6] + 709 u[7] + 419 u[8] + 436 u[9] + 529 u[10]
   + 453 u[11] + 834 u[12] + 502 u[13] + 698 u[14] + 342 u[15] + 939 u[16]
   + 690 u[17] + 999 u[18] + 464 u[19] + 131 u[20] + 393 u[21] + 954 u[22]
   + 376 u[23] + 826 u[24] + 258 u[25] + 1000 u[26] + 313 u[27] + 755 u[28]
   + 993 u[29] + 63 u[30] + 205 u[31] + 473 u[32] + 463 u[33] + 298 u[34]
   + 339 u[35] + 154 u[36] + 886 u[37] + 770 u[38] + 120 u[39] <= 4406
 primal_lower90: 449 u[0] + 829 u[1] + 811 u[2] + 604 u[3] + 477 u[4]
   + 523 u[5] + 534 u[6] + 453 u[7] + 862 u[8] + 971 u[9] + 317 u[10]
   + 964 u[11] + 125 u[12] + 621 u[13] + 502 u[14] + 566 u[15] + 422 u[16]
   + 345 u[17] + 562 u[18] + 831 u[19] + 334 u[20] + 849 u[21] + 885 u[22]
   + 784 u[23] + 614 u[24] + 801 u[25] + 491 u[26] + 89 u[27] + 503 u[28]
   + 816 u[29] + 923 u[30] + 637 u[31] + 485 u[32] + 470 u[33] + 853 u[34]
   + 602 u[35] + 685 u[36] + 406 u[37] + 165 u[38] + 560 u[39] <= 4744
 primal_lower91: 384 u[0] + 564 u[1] + 98 u[2] + 427 u[3] + 524 u[4]
   + 490 u[5] + 421 u[6] + 156 u[7] + 165 u[8] + 618 u[9] + 396 u[10]
   + 931 u[11] + 252 u[12] + 300 u[13] + 533 u[14] + 477 u[15] + 821 u[16]
   + 200 u[17] + 809 u[18] + 78 u[19] + 365 u[20] + 568 u[21] + 804 u[22]
   + 335 u[23] + 693 u[24] + 904 u[25] + 434 u[26] + 872 u[27] + 246 u[28]
   + 751 u[29] + 2 u[30] + 764 u[31] + 684 u[32] + 357 u[33] + 708 u[34]
   + 681 u[35] + 316 u[36] + 317 u[37] + 700 u[38] + 23 u[39] <= 3833
 primal_lower92: 444 u[0] + 957 u[1] + 775 u[2] + 196 u[3] + 41 u[4]
   + 450 u[5] + 610 u[6] + 4 u[7] + 786 u[8] + 691 u[9] + 8 u[10]
   + 684 u[11] + 561 u[12] + 901 u[13] + 73 u[14] + 589 u[15] + 234 u[16]
   + 289 u[17] + 486 u[18] + 599 u[19] + 938 u[20] + 72 u[21] + 777 u[22]
   + 271 u[23] + 241 u[24] + 17 u[25] + 935 u[26] + 200 u[27] + 242 u[28]
   + 56 u[29] + 998 u[30] + 204 u[31] + 264 u[32] + 830 u[33] + 297 u[34]
   + 722 u[35] + 921 u[36] + 21 u[37] + 145 u[38] + 71 u[39] <= 3520
 primal_lower93: 250 u[0] + 19 u[1] + 269 u[2] + 330 u[3] + 543 u[4]
   + 696 u[5] + 464 u[6] + 418 u[7] + 1000 u[8] + 481 u[9] + 774 u[10]
   + 906 u[11] + 103 u[12] + 539 u[13] + 935 u[14] + 539 u[15] + 928 u[16]
   + 383 u[17] + 348 u[18] + 669 u[19] + 976 u[20] + 630 u[21] + 919 u[22]
   + 973 u[23] + 487 u[24] + 799 u[25] + 573 u[26] + 238 u[27] + 72 u[28]
   + 662 u[29] + 628 u[30] + 506 u[31] + 886 u[32] + 636 u[33] + 911 u[34]
   + 176 u[35] + 479 u[36] + 203 u[37] + 215 u[38] + 805 u[39] <= 8947
 primal_lower94: 877 u[0] + 137 u[1] + 575 u[2] + 912 u[3] + 385 u[4]
   + 647 u[5] + 506 u[6] + 393 u[7] + 90 u[8] + 159 u[9] + 257 u[10]
   + 992 u[11] + 961 u[12] + 865 u[13] + 490 u[14] + 586 u[15] + 994 u[16]
   + 357 u[17] + 206 u[18] + 491 u[19] + 74 u[20] + 285 u[21] + 441 u[22]
   + 844 u[23] + 930 u[24] + 109 u[25] + 703 u[26] + 213 u[27] + 211 u[28]
   + 236 u[29] + 623 u[30] + 9 u[31] + 233 u[32] + 34 u[33] + 561 u[34]
   + 750 u[35] + 809 u[36] + 730 u[37] + 353 u[38] + 708 u[39] <= 11841
 primal_lower95: 377 u[0] + 786 u[1] + 980 u[2] + 473 u[3] + 854 u[4]
   + 55 u[5] + 855 u[6] + 785 u[7] + 855 u[8] + 832 u[9] + 997 u[10]
   + u[11] + 734 u[12] + 58 u[13] + 326 u[14] + 338 u[15] + 255 u[16]
   + 302 u[17] + 91 u[18] + 964 u[19] + 231 u[20] + 317 u[21] + 350 u[22]
   + 428 u[23] + 702 u[24] + 422 u[25] + 908 u[26] + 381 u[27] + 247 u[28]
   + 61 u[29] + 843 u[30] + 113 u[31] + 861 u[32] + 707 u[33] + 702 u[34]
   + 767 u[35] + 670 u[36] + 66 u[37] + 702 u[38] + 748 u[39] <= 4228
 primal_lower96: 225 u[0] + 178 u[1] + 844 u[2] + 385 u[3] + 198 u[4]
   + 375 u[5] + 927 u[6] + 689 u[7] + 447 u[8] + 120 u[9] + 605 u[10]
   + 577 u[11] + 558 u[12] + 546 u[13] + 454 u[14] + 810 u[15] + 359 u[16]
   + 78 u[17] + 379 u[18] + 740 u[19] + 495 u[20] + 333 u[21] + 734 u[22]
   + 620 u[23] + 878 u[24] + 182 u[25] + 412 u[26] + 565 u[27] + 191 u[28]
   + 797 u[29] + 363 u[30] + 809 u[31] + 77 u[32] + 971 u[33] + 486 u[34]
   + 703 u[35] + 958 u[36] + 146 u[37] + 598 u[38] + 588 u[39] <= 12240
 primal_lower97: 558 u[0] + 599 u[1] + 409 u[2] + 958 u[3] + 603 u[4]
   + 84 u[5] + 604 u[6] + 694 u[7] + 92 u[8] + 597 u[9] + 490 u[10]
   + 318 u[11] + 675 u[12] + 511 u[13] + 699 u[14] + 943 u[15] + 780 u[16]
   + 835 u[17] + 8 u[18] + 665 u[19] + 948 u[20] + 962 u[21] + 371 u[22]
   + 377 u[23] + 355 u[24] + 243 u[25] + 369 u[26] + 994 u[27] + 236 u[28]
   + 322 u[29] + 728 u[30] + 662 u[31] + 250 u[32] + 864 u[33] + 467 u[34]
   + 44 u[35] + 307 u[36] + 87 u[37] + 171 u[38] + 753 u[39] <= 4126
 primal_lower98: 443 u[0] + 148 u[1] + 742 u[2] + 523 u[3] + 680 u[4]
   + 33 u[5] + 937 u[6] + 115 u[7] + 617 u[8] + 434 u[9] + 783 u[10]
   + 883 u[11] + 568 u[12] + 812 u[13] + 24 u[14] + 668 u[15] + 705 u[16]
   + 920 u[17] + 101 u[18] + 150 u[19] + 825 u[20] + 511 u[21] + 48 u[22]
   + 374 u[23] + 792 u[24] + 704 u[25] + 574 u[26] + 615 u[27] + 177 u[28]
   + 631 u[29] + 765 u[30] + 115 u[31] + 351 u[32] + 453 u[33] + 744 u[34]
   + 337 u[35] + 824 u[36] + 220 u[37] + 816 u[38] + 462 u[39] <= 937
 primal_lower99: 428 u[0] + 205 u[1] + 943 u[2] + 452 u[3] + 521 u[4]
   + 570 u[5] + 90 u[6] + 844 u[7] + 218 u[8] + 315 u[9] + 64 u[10]
   + 244 u[11] + 281 u[12] + 341 u[13] + 553 u[14] + 205 u[15] + 938 u[16]
   + 449 u[17] + 334 u[18] + 47 u[19] + 26 u[20] + 216 u[21] + u[22]
   + 863 u[23] + 297 u[24] + 89 u[25] + 167 u[26] + 632 u[27] + 490 u[28]
   + 408 u[29] + 894 u[30] + 756 u[31] + 152 u[32] + 742 u[33] + 417 u[34]
   + 498 u[35] + 49 u[36] + 357 u[37] + 217 u[38] + 687 u[39] <= 6400
 interdiction[0]: x[0] + u[0] <= 1
 interdiction[1]: x[1] + u[1] <= 1
 interdiction[2]: x[2] + u[2] <= 1
 interdiction[3]: x[3] + u[3] <= 1
 interdiction[4]: x[4] + u[4] <= 1
 interdiction[5]: x[5] + u[5] <= 1
 interdiction[6]: x[6] + u[6] <= 1
 interdiction[7]: x[7] + u[7] <= 1
 interdiction[8]: x[8] + u[8] <= 1
 interdiction[9]: x[9] + u[9] <= 1
 interdiction[10]: x[10] + u[10] <= 1
 interdiction[11]: x[11] + u[11] <= 1
 interdiction[12]: x[12] + u[12] <= 1
 interdiction[13]: x[13] + u[13] <= 1
 interdiction[14]: x[14] + u[14] <= 1
 interdiction[15]: x[15] + u[15] <= 1
 interdiction[16]: x[16] + u[16] <= 1
 interdiction[17]: x[17] + u[17] <= 1
 interdiction[18]: x[18] + u[18] <= 1
 interdiction[19]: x[19] + u[19] <= 1
 interdiction[20]: x[20] + u[20] <= 1
 interdiction[21]: x[21] + u[21] <= 1
 interdiction[22]: x[22] + u[22] <= 1
 interdiction[23]: x[23] + u[23] <= 1
 interdiction[24]: x[24] + u[24] <= 1
 interdiction[25]: x[25] + u[25] <= 1
 interdiction[26]: x[26] + u[26] <= 1
 interdiction[27]: x[27] + u[27] <= 1
 interdiction[28]: x[28] + u[28] <= 1
 interdiction[29]: x[29] + u[29] <= 1
 interdiction[30]: x[30] + u[30] <= 1
 interdiction[31]: x[31] + u[31] <= 1
 interdiction[32]: x[32] + u[32] <= 1
 interdiction[33]: x[33] + u[33] <= 1
 interdiction[34]: x[34] + u[34] <= 1
 interdiction[35]: x[35] + u[35] <= 1
 interdiction[36]: x[36] + u[36] <= 1
 interdiction[37]: x[37] + u[37] <= 1
 interdiction[38]: x[38] + u[38] <= 1
 interdiction[39]: x[39] + u[39] <= 1
 mccormick1[0]: - u[0] + z[0] <= 0
 mccormick1[1]: - u[1] + z[1] <= 0
 mccormick1[2]: - u[2] + z[2] <= 0
 mccormick1[3]: - u[3] + z[3] <= 0
 mccormick1[4]: - u[4] + z[4] <= 0
 mccormick1[5]: - u[5] + z[5] <= 0
 mccormick1[6]: - u[6] + z[6] <= 0
 mccormick1[7]: - u[7] + z[7] <= 0
 mccormick1[8]: - u[8] + z[8] <= 0
 mccormick1[9]: - u[9] + z[9] <= 0
 mccormick1[10]: - u[10] + z[10] <= 0
 mccormick1[11]: - u[11] + z[11] <= 0
 mccormick1[12]: - u[12] + z[12] <= 0
 mccormick1[13]: - u[13] + z[13] <= 0
 mccormick1[14]: - u[14] + z[14] <= 0
 mccormick1[15]: - u[15] + z[15] <= 0
 mccormick1[16]: - u[16] + z[16] <= 0
 mccormick1[17]: - u[17] + z[17] <= 0
 mccormick1[18]: - u[18] + z[18] <= 0
 mccormick1[19]: - u[19] + z[19] <= 0
 mccormick1[20]: - u[20] + z[20] <= 0
 mccormick1[21]: - u[21] + z[21] <= 0
 mccormick1[22]: - u[22] + z[22] <= 0
 mccormick1[23]: - u[23] + z[23] <= 0
 mccormick1[24]: - u[24] + z[24] <= 0
 mccormick1[25]: - u[25] + z[25] <= 0
 mccormick1[26]: - u[26] + z[26] <= 0
 mccormick1[27]: - u[27] + z[27] <= 0
 mccormick1[28]: - u[28] + z[28] <= 0
 mccormick1[29]: - u[29] + z[29] <= 0
 mccormick1[30]: - u[30] + z[30] <= 0
 mccormick1[31]: - u[31] + z[31] <= 0
 mccormick1[32]: - u[32] + z[32] <= 0
 mccormick1[33]: - u[33] + z[33] <= 0
 mccormick1[34]: - u[34] + z[34] <= 0
 mccormick1[35]: - u[35] + z[35] <= 0
 mccormick1[36]: - u[36] + z[36] <= 0
 mccormick1[37]: - u[37] + z[37] <= 0
 mccormick1[38]: - u[38] + z[38] <= 0
 mccormick1[39]: - u[39] + z[39] <= 0
 mccormick2[0]: - y[0] + z[0] <= 0
 mccormick2[1]: - y[1] + z[1] <= 0
 mccormick2[2]: - y[2] + z[2] <= 0
 mccormick2[3]: - y[3] + z[3] <= 0
 mccormick2[4]: - y[4] + z[4] <= 0
 mccormick2[5]: - y[5] + z[5] <= 0
 mccormick2[6]: - y[6] + z[6] <= 0
 mccormick2[7]: - y[7] + z[7] <= 0
 mccormick2[8]: - y[8] + z[8] <= 0
 mccormick2[9]: - y[9] + z[9] <= 0
 mccormick2[10]: - y[10] + z[10] <= 0
 mccormick2[11]: - y[11] + z[11] <= 0
 mccormick2[12]: - y[12] + z[12] <= 0
 mccormick2[13]: - y[13] + z[13] <= 0
 mccormick2[14]: - y[14] + z[14] <= 0
 mccormick2[15]: - y[15] + z[15] <= 0
 mccormick2[16]: - y[16] + z[16] <= 0
 mccormick2[17]: - y[17] + z[17] <= 0
 mccormick2[18]: - y[18] + z[18] <= 0
 mccormick2[19]: - y[19] + z[19] <= 0
 mccormick2[20]: - y[20] + z[20] <= 0
 mccormick2[21]: - y[21] + z[21] <= 0
 mccormick2[22]: - y[22] + z[22] <= 0
 mccormick2[23]: - y[23] + z[23] <= 0
 mccormick2[24]: - y[24] + z[24] <= 0
 mccormick2[25]: - y[25] + z[25] <= 0
 mccormick2[26]: - y[26] + z[26] <= 0
 mccormick2[27]: - y[27] + z[27] <= 0
 mccormick2[28]: - y[28] + z[28] <= 0
 mccormick2[29]: - y[29] + z[29] <= 0
 mccormick2[30]: - y[30] + z[30] <= 0
 mccormick2[31]: - y[31] + z[31] <= 0
 mccormick2[32]: - y[32] + z[32] <= 0
 mccormick2[33]: - y[33] + z[33] <= 0
 mccormick2[34]: - y[34] + z[34] <= 0
 mccormick2[35]: - y[35] + z[35] <= 0
 mccormick2[36]: - y[36] + z[36] <= 0
 mccormick2[37]: - y[37] + z[37] <= 0
 mccormick2[38]: - y[38] + z[38] <= 0
 mccormick2[39]: - y[39] + z[39] <= 0
 mccormick3[0]: y[0] + u[0] - z[0] <= 1
 mccormick3[1]: y[1] + u[1] - z[1] <= 1
 mccormick3[2]: y[2] + u[2] - z[2] <= 1
 mccormick3[3]: y[3] + u[3] - z[3] <= 1
 mccormick3[4]: y[4] + u[4] - z[4] <= 1
 mccormick3[5]: y[5] + u[5] - z[5] <= 1
 mccormick3[6]: y[6] + u[6] - z[6] <= 1
 mccormick3[7]: y[7] + u[7] - z[7] <= 1
 mccormick3[8]: y[8] + u[8] - z[8] <= 1
 mccormick3[9]: y[9] + u[9] - z[9] <= 1
 mccormick3[10]: y[10] + u[10] - z[10] <= 1
 mccormick3[11]: y[11] + u[11] - z[11] <= 1
 mccormick3[12]: y[12] + u[12] - z[12] <= 1
 mccormick3[13]: y[13] + u[13] - z[13] <= 1
 mccormick3[14]: y[14] + u[14] - z[14] <= 1
 mccormick3[15]: y[15] + u[15] - z[15] <= 1
 mccormick3[16]: y[16] + u[16] - z[16] <= 1
 mccormick3[17]: y[17] + u[17] - z[17] <= 1
 mccormick3[18]: y[18] + u[18] - z[18] <= 1
 mccormick3[19]: y[19] + u[19] - z[19] <= 1
 mccormick3[20]: y[20] + u[20] - z[20] <= 1
 mccormick3[21]: y[21] + u[21] - z[21] <= 1
 mccormick3[22]: y[22] + u[22] - z[22] <= 1
 mccormick3[23]: y[23] + u[23] - z[23] <= 1
 mccormick3[24]: y[24] + u[24] - z[24] <= 1
 mccormick3[25]: y[25] + u[25] - z[25] <= 1
 mccormick3[26]: y[26] + u[26] - z[26] <= 1
 mccormick3[27]: y[27] + u[27] - z[27] <= 1
 mccormick3[28]: y[28] + u[28] - z[28] <= 1
 mccormick3[29]: y[29] + u[29] - z[29] <= 1
 mccormick3[30]: y[30] + u[30] - z[30] <= 1
 mccormick3[31]: y[31] + u[31] - z[31] <= 1
 mccormick3[32]: y[32] + u[32] - z[32] <= 1
 mccormick3[33]: y[33] + u[33] - z[33] <= 1
 mccormick3[34]: y[34] + u[34] - z[34] <= 1
 mccormick3[35]: y[35] + u[35] - z[35] <= 1
 mccormick3[36]: y[36] + u[36] - z[36] <= 1
 mccormick3[37]: y[37] + u[37] - z[37] <= 1
 mccormick3[38]: y[38] + u[38] - z[38] <= 1
 mccormick3[39]: y[39] + u[39] - z[39] <= 1
Bounds
Binaries
 x[0] x[1] x[2] x[3] x[4] x[5] x[6] x[7] x[8] x[9] x[10] x[11] x[12] x[13]
 x[14] x[15] x[16] x[17] x[18] x[19] x[20] x[21] x[22] x[23] x[24] x[25]
 x[26] x[27] x[28] x[29] x[30] x[31] x[32] x[33] x[34] x[35] x[36] x[37]
 x[38] x[39] y[0] y[1] y[2] y[3] y[4] y[5] y[6] y[7] y[8] y[9] y[10] y[11]
 y[12] y[13] y[14] y[15] y[16] y[17] y[18] y[19] y[20] y[21] y[22] y[23]
 y[24] y[25] y[26] y[27] y[28] y[29] y[30] y[31] y[32] y[33] y[34] y[35]
 y[36] y[37] y[38] y[39] u[0] u[1] u[2] u[3] u[4] u[5] u[6] u[7] u[8] u[9]
 u[10] u[11] u[12] u[13] u[14] u[15] u[16] u[17] u[18] u[19] u[20] u[21]
 u[22] u[23] u[24] u[25] u[26] u[27] u[28] u[29] u[30] u[31] u[32] u[33]
 u[34] u[35] u[36] u[37] u[38] u[39] z[0] z[1] z[2] z[3] z[4] z[5] z[6]
 z[7] z[8] z[9] z[10] z[11] z[12] z[13] z[14] z[15] z[16] z[17] z[18] z[19]
 z[20] z[21] z[22] z[23] z[24] z[25] z[26] z[27] z[28] z[29] z[30] z[31]
 z[32] z[33] z[34] z[35] z[36] z[37] z[38] z[39]
End
