\ Model knapsack_20_100_2
\ LP format - for model browsing. Use MPS format to capture full model detail.
\ Signature: 0x6357969ace1194f9
Minimize
  10 x[0] + 10 x[1] + 10 x[2] + 10 x[3] + 10 x[4] + 10 x[5] + 10 x[6]
   + 10 x[7] + 10 x[8] + 10 x[9] + 10 x[10] + 10 x[11] + 10 x[12]
   + 10 x[13] + 10 x[14] + 10 x[15] + 10 x[16] + 10 x[17] + 10 x[18]
   + 10 x[19] - 463 y[0] - 248 y[1] - 305 y[2] - 557 y[3] - 451 y[4]
   - 634 y[5] - 691 y[6] - 333 y[7] - 728 y[8] - 532 y[9] - 624 y[10]
   - 476 y[11] - 756 y[12] - 995 y[13] - 744 y[14] - 885 y[15] - 967 y[16]
   - 803 y[17] - 68 y[18] - 219 y[19]
Subject To
 primal_upper: 85 y[0] + 465 y[1] + 919 y[2] + 32 y[3] + 569 y[4]
   + 895 y[5] + 426 y[6] + 65 y[7] + 506 y[8] + 567 y[9] + 377 y[10]
   + 56 y[11] + 273 y[12] + 401 y[13] + 34 y[14] + 322 y[15] + 978 y[16]
   + 29 y[17] + 30 y[18] + 323 y[19] + 8 z[0] + 46 z[1] + 92 z[2] + 3 z[3]
   + 57 z[4] + 90 z[5] + 43 z[6] + 6 z[7] + 51 z[8] + 57 z[9] + 38 z[10]
   + 6 z[11] + 27 z[12] + 40 z[13] + 3 z[14] + 32 z[15] + 98 z[16]
   + 3 z[17] + 3 z[18] + 32 z[19] <= 2450
 primal_lower0: 664 u[0] + 244 u[1] + 986 u[2] + 315 u[3] + 308 u[4]
   + 482 u[5] + 157 u[6] + 604 u[7] + 277 u[8] + 994 u[9] + 404 u[10]
   + 619 u[11] + 388 u[12] + 100 u[13] + 693 u[14] + 485 u[15] + 301 u[16]
   + 400 u[17] + 425 u[18] + 710 u[19] <= 994
 primal_lower1: 899 u[0] + 60 u[1] + 94 u[2] + 667 u[3] + 640 u[4]
   + 641 u[5] + 321 u[6] + 291 u[7] + 433 u[8] + 418 u[9] + 407 u[10]
   + 339 u[11] + 344 u[12] + 812 u[13] + 968 u[14] + 180 u[15] + 721 u[16]
   + 320 u[17] + 589 u[18] + 670 u[19] <= 968
 primal_lower2: 603 u[0] + 556 u[1] + 534 u[2] + 291 u[3] + 24 u[4]
   + 313 u[5] + 945 u[6] + 859 u[7] + 297 u[8] + 26 u[9] + 343 u[10]
   + 459 u[11] + 720 u[12] + 204 u[13] + 912 u[14] + 788 u[15] + 897 u[16]
   + 792 u[17] + 365 u[18] + 694 u[19] <= 945
 primal_lower3: 898 u[0] + 750 u[1] + 540 u[2] + 741 u[3] + 110 u[4]
   + 756 u[5] + 511 u[6] + 678 u[7] + 575 u[8] + 332 u[9] + 806 u[10]
   + 69 u[11] + 726 u[12] + 830 u[13] + 479 u[14] + 407 u[15] + 863 u[16]
   + 466 u[17] + 691 u[18] + 672 u[19] <= 3966
 primal_lower4: 152 u[0] + 596 u[1] + 818 u[2] + 355 u[3] + 876 u[4]
   + 914 u[5] + 949 u[6] + 900 u[7] + 477 u[8] + 58 u[9] + 332 u[10]
   + 587 u[11] + 300 u[12] + 740 u[13] + 525 u[14] + 133 u[15] + 789 u[16]
   + 160 u[17] + 729 u[18] + 710 u[19] <= 3700
 primal_lower5: 604 u[0] + 504 u[1] + 734 u[2] + 375 u[3] + 104 u[4]
   + 94 u[5] + 273 u[6] + 344 u[7] + 177 u[8] + 982 u[9] + 776 u[10]
   + 855 u[11] + 840 u[12] + 384 u[13] + 889 u[14] + 617 u[15] + 921 u[16]
   + 340 u[17] + 925 u[18] + 842 u[19] <= 3860
 primal_lower6: 10 u[0] + 142 u[1] + 380 u[2] + 381 u[3] + 294 u[4]
   + 732 u[5] + 503 u[6] + 966 u[7] + 815 u[8] + 308 u[9] + 974 u[10]
   + 917 u[11] + 942 u[12] + 542 u[13] + 223 u[14] + 15 u[15] + 135 u[16]
   + 434 u[17] + 715 u[18] + 944 u[19] <= 3457
 primal_lower7: 987 u[0] + 4 u[1] + 606 u[2] + 331 u[3] + 384 u[4]
   + 153 u[5] + 353 u[6] + 859 u[7] + 193 u[8] + 34 u[9] + 103 u[10]
   + 195 u[11] + 664 u[12] + 188 u[13] + 608 u[14] + 396 u[15] + 201 u[16]
   + 320 u[17] + 909 u[18] + 566 u[19] <= 2684
 primal_lower8: 944 u[0] + 180 u[1] + 834 u[2] + 707 u[3] + 628 u[4]
   + 818 u[5] + 461 u[6] + 260 u[7] + 821 u[8] + 754 u[9] + 380 u[10]
   + 451 u[11] + 412 u[12] + 812 u[13] + 245 u[14] + 957 u[15] + 349 u[16]
   + 608 u[17] + 353 u[18] + 406 u[19] <= 957
 primal_lower9: 954 u[0] + 579 u[1] + 701 u[2] + 354 u[3] + 551 u[4]
   + 112 u[5] + 912 u[6] + 802 u[7] + 808 u[8] + 761 u[9] + 294 u[10]
   + 10 u[11] + 903 u[12] + 603 u[13] + 839 u[14] + 587 u[15] + 416 u[16]
   + 175 u[17] + 804 u[18] + 509 u[19] <= 954
 primal_lower10: 752 u[0] + 273 u[1] + 275 u[2] + 912 u[3] + 765 u[4]
   + 518 u[5] + 422 u[6] + 208 u[7] + 822 u[8] + 183 u[9] + 140 u[10]
   + 672 u[11] + 989 u[12] + 129 u[13] + 909 u[14] + 969 u[15] + 974 u[16]
   + 853 u[17] + 138 u[18] + 643 u[19] <= 3848
 primal_lower11: 713 u[0] + 205 u[1] + 355 u[2] + 580 u[3] + 653 u[4]
   + 139 u[5] + 942 u[6] + 309 u[7] + 790 u[8] + 291 u[9] + 437 u[10]
   + 948 u[11] + 669 u[12] + 149 u[13] + 678 u[14] + 166 u[15] + 302 u[16]
   + 769 u[17] + 74 u[18] + 319 u[19] <= 948
 primal_lower12: 204 u[0] + 680 u[1] + 478 u[2] + 487 u[3] + 824 u[4]
   + 422 u[5] + 417 u[6] + 736 u[7] + 833 u[8] + 470 u[9] + 16 u[10]
   + 279 u[11] + 96 u[12] + 880 u[13] + 641 u[14] + 601 u[15] + 969 u[16]
   + 548 u[17] + 13 u[18] + 34 u[19] <= 969
 primal_lower13: 206 u[0] + 794 u[1] + 360 u[2] + 817 u[3] + 2 u[4]
   + 176 u[5] + 891 u[6] + 418 u[7] + 43 u[8] + 40 u[9] + 634 u[10]
   + 865 u[11] + 418 u[12] + 930 u[13] + 779 u[14] + 395 u[15] + 755 u[16]
   + 974 u[17] + 943 u[18] + 596 u[19] <= 974
 primal_lower14: 813 u[0] + 382 u[1] + 256 u[2] + 365 u[3] + 674 u[4]
   + 691 u[5] + 707 u[6] + 965 u[7] + 363 u[8] + 844 u[9] + 937 u[10]
   + 669 u[11] + 618 u[12] + 598 u[13] + 978 u[14] + 662 u[15] + 51 u[16]
   + 634 u[17] + 487 u[18] + 64 u[19] <= 978
 primal_lower15: 366 u[0] + 570 u[1] + 40 u[2] + 617 u[3] + 882 u[4]
   + 632 u[5] + 435 u[6] + 154 u[7] + 187 u[8] + 408 u[9] + 138 u[10]
   + 873 u[11] + 466 u[12] + 794 u[13] + 883 u[14] + 227 u[15] + 923 u[16]
   + 198 u[17] + 479 u[18] + 244 u[19] <= 3172
 primal_lower16: 493 u[0] + 201 u[1] + 647 u[2] + 584 u[3] + 993 u[4]
   + 87 u[5] + 298 u[6] + 609 u[7] + 186 u[8] + 207 u[9] + 665 u[10]
   + 768 u[11] + 329 u[12] + 273 u[13] + 338 u[14] + 882 u[15] + 762 u[16]
   + 965 u[17] + 462 u[18] + 307 u[19] <= 3352
 primal_lower17: 551 u[0] + 91 u[1] + 49 u[2] + 130 u[3] + 139 u[4]
   + 369 u[5] + 828 u[6] + 203 u[7] + 340 u[8] + 97 u[9] + 979 u[10]
   + 890 u[11] + 955 u[12] + 187 u[13] + 764 u[14] + 956 u[15] + 404 u[16]
   + 279 u[17] + 488 u[18] + 405 u[19] <= 3034
 primal_lower18: 627 u[0] + 799 u[1] + 117 u[2] + 270 u[3] + 63 u[4]
   + 517 u[5] + 792 u[6] + 751 u[7] + 448 u[8] + 453 u[9] + 79 u[10]
   + 198 u[11] + 543 u[12] + 943 u[13] + 8 u[14] + 720 u[15] + 352 u[16]
   + 795 u[17] + 940 u[18] + 17 u[19] <= 943
 primal_lower19: 97 u[0] + 610 u[1] + 668 u[2] + 625 u[3] + 782 u[4]
   + 279 u[5] + 591 u[6] + 185 u[7] + 79 u[8] + 608 u[9] + 349 u[10]
   + 849 u[11] + 326 u[12] + 890 u[13] + 958 u[14] + 162 u[15] + 175 u[16]
   + 14 u[17] + 763 u[18] + 508 u[19] <= 958
 primal_lower20: 988 u[0] + 64 u[1] + 814 u[2] + 591 u[3] + 920 u[4]
   + 470 u[5] + 617 u[6] + 632 u[7] + 945 u[8] + 238 u[9] + 704 u[10]
   + 767 u[11] + 120 u[12] + 240 u[13] + 433 u[14] + 369 u[15] + 569 u[16]
   + 556 u[17] + 437 u[18] + 570 u[19] <= 3681
 primal_lower21: 259 u[0] + 119 u[1] + 485 u[2] + 374 u[3] + 167 u[4]
   + 757 u[5] + 544 u[6] + 479 u[7] + 288 u[8] + 77 u[9] + 983 u[10]
   + 838 u[11] + 55 u[12] + 855 u[13] + 192 u[14] + 936 u[15] + 752 u[16]
   + 499 u[17] + 644 u[18] + 377 u[19] <= 983
 primal_lower22: 820 u[0] + 285 u[1] + 239 u[2] + 844 u[3] + 745 u[4]
   + 410 u[5] + 546 u[6] + 948 u[7] + 226 u[8] + 571 u[9] + 240 u[10]
   + 948 u[11] + 25 u[12] + 805 u[13] + 209 u[14] + 701 u[15] + 362 u[16]
   + 33 u[17] + 486 u[18] + 463 u[19] <= 948
 primal_lower23: 416 u[0] + 548 u[1] + 50 u[2] + 955 u[3] + 340 u[4]
   + 98 u[5] + 533 u[6] + 508 u[7] + 653 u[8] + 218 u[9] + 116 u[10]
   + 939 u[11] + 916 u[12] + 268 u[13] + 277 u[14] + 269 u[15] + 861 u[16]
   + 328 u[17] + 801 u[18] + 982 u[19] <= 982
 primal_lower24: 943 u[0] + 723 u[1] + 273 u[2] + 474 u[3] + 475 u[4]
   + 377 u[5] + 684 u[6] + 603 u[7] + 948 u[8] + 17 u[9] + 379 u[10]
   + 338 u[11] + 139 u[12] + 859 u[13] + 52 u[14] + 500 u[15] + 196 u[16]
   + 7 u[17] + 144 u[18] + 381 u[19] <= 2837
 primal_lower25: 95 u[0] + 547 u[1] + 585 u[2] + 18 u[3] + 523 u[4]
   + 937 u[5] + 980 u[6] + 827 u[7] + 796 u[8] + 889 u[9] + 299 u[10]
   + 58 u[11] + 75 u[12] + 659 u[13] + 844 u[14] + 540 u[15] + 364 u[16]
   + 39 u[17] + 464 u[18] + 797 u[19] <= 3445
 primal_lower26: 320 u[0] + 620 u[1] + 34 u[2] + 691 u[3] + 332 u[4]
   + 802 u[5] + 557 u[6] + 796 u[7] + 485 u[8] + 834 u[9] + 588 u[10]
   + 811 u[11] + 76 u[12] + 276 u[13] + 13 u[14] + 701 u[15] + 693 u[16]
   + 696 u[17] + 505 u[18] + 310 u[19] <= 3380
 primal_lower27: 570 u[0] + 307 u[1] + 101 u[2] + 178 u[3] + 703 u[4]
   + 776 u[5] + 640 u[6] + 738 u[7] + 584 u[8] + 545 u[9] + 198 u[10]
   + 418 u[11] + 919 u[12] + 403 u[13] + 191 u[14] + 859 u[15] + 832 u[16]
   + 407 u[17] + 980 u[18] + 581 u[19] <= 3643
 primal_lower28: 27 u[0] + 239 u[1] + 765 u[2] + 182 u[3] + 511 u[4]
   + 325 u[5] + 56 u[6] + 303 u[7] + 384 u[8] + 365 u[9] + 367 u[10]
   + 294 u[11] + 351 u[12] + 567 u[13] + 896 u[14] + 712 u[15] + 48 u[16]
   + 187 u[17] + 108 u[18] + 857 u[19] <= 2514
 primal_lower29: 348 u[0] + 120 u[1] + 262 u[2] + 55 u[3] + 640 u[4]
   + 942 u[5] + 537 u[6] + 192 u[7] + 505 u[8] + 526 u[9] + 104 u[10]
   + 311 u[11] + 400 u[12] + 232 u[13] + 89 u[14] + 633 u[15] + 593 u[16]
   + 964 u[17] + 709 u[18] + 834 u[19] <= 964
 primal_lower30: 907 u[0] + 540 u[1] + 22 u[2] + 227 u[3] + 384 u[4]
   + 17 u[5] + 793 u[6] + 779 u[7] + 505 u[8] + 34 u[9] + 687 u[10]
   + 267 u[11] + 944 u[12] + 604 u[13] + 992 u[14] + 700 u[15] + 201 u[16]
   + 232 u[17] + 85 u[18] + 462 u[19] <= 3127
 primal_lower31: 821 u[0] + 217 u[1] + 911 u[2] + 176 u[3] + 337 u[4]
   + 503 u[5] + 818 u[6] + 369 u[7] + 778 u[8] + 511 u[9] + 145 u[10]
   + 296 u[11] + 105 u[12] + 769 u[13] + 850 u[14] + 794 u[15] + 914 u[16]
   + 341 u[17] + 574 u[18] + 555 u[19] <= 914
 primal_lower32: 944 u[0] + 785 u[1] + 323 u[2] + 408 u[3] + 373 u[4]
   + 302 u[5] + 622 u[6] + 72 u[7] + 870 u[8] + 479 u[9] + 204 u[10]
   + 520 u[11] + 397 u[12] + 809 u[13] + 925 u[14] + 393 u[15] + 478 u[16]
   + 613 u[17] + 58 u[18] + 643 u[19] <= 3406
 primal_lower33: 807 u[0] + 864 u[1] + 914 u[2] + 535 u[3] + 988 u[4]
   + 445 u[5] + 941 u[6] + 735 u[7] + 461 u[8] + 166 u[9] + 139 u[10]
   + 287 u[11] + 948 u[12] + 168 u[13] + 348 u[14] + 568 u[15] + 717 u[16]
   + 196 u[17] + 809 u[18] + 82 u[19] <= 3706
 primal_lower34: 101 u[0] + 737 u[1] + 935 u[2] + 408 u[3] + 745 u[4]
   + 383 u[5] + 250 u[6] + 641 u[7] + 386 u[8] + 159 u[9] + 209 u[10]
   + 776 u[11] + 649 u[12] + 121 u[13] + 514 u[14] + 170 u[15] + 82 u[16]
   + 173 u[17] + 758 u[18] + 731 u[19] <= 2976
 primal_lower35: 775 u[0] + 296 u[1] + 978 u[2] + 975 u[3] + 892 u[4]
   + 293 u[5] + 509 u[6] + 959 u[7] + 525 u[8] + 870 u[9] + 139 u[10]
   + 823 u[11] + 764 u[12] + 560 u[13] + 492 u[14] + 488 u[15] + 557 u[16]
   + 252 u[17] + 561 u[18] + 698 u[19] <= 978
 primal_lower36: 865 u[0] + 426 u[1] + 212 u[2] + 97 u[3] + 934 u[4]
   + 823 u[5] + 751 u[6] + 609 u[7] + 759 u[8] + 888 u[9] + 565 u[10]
   + 209 u[11] + 614 u[12] + 42 u[13] + 838 u[14] + 498 u[15] + 871 u[16]
   + 166 u[17] + 75 u[18] + 948 u[19] <= 948
 primal_lower37: 127 u[0] + 803 u[1] + 137 u[2] + 538 u[3] + 907 u[4]
   + 873 u[5] + 748 u[6] + 755 u[7] + 204 u[8] + 33 u[9] + 939 u[10]
   + 178 u[11] + 339 u[12] + 635 u[13] + 908 u[14] + 404 u[15] + 124 u[16]
   + 879 u[17] + 232 u[18] + 5 u[19] <= 939
 primal_lower38: 941 u[0] + 822 u[1] + 896 u[2] + 5 u[3] + 146 u[4]
   + 563 u[5] + 51 u[6] + 309 u[7] + 531 u[8] + 92 u[9] + 497 u[10]
   + 173 u[11] + 474 u[12] + 166 u[13] + 482 u[14] + 238 u[15] + 611 u[16]
   + 962 u[17] + 47 u[18] + 384 u[19] <= 2796
 primal_lower39: 773 u[0] + 377 u[1] + 959 u[2] + 432 u[3] + 65 u[4]
   + 671 u[5] + 562 u[6] + 209 u[7] + 962 u[8] + 431 u[9] + 505 u[10]
   + 920 u[11] + 737 u[12] + 441 u[13] + 706 u[14] + 866 u[15] + 842 u[16]
   + 253 u[17] + 790 u[18] + 571 u[19] <= 4024
 primal_lower40: 61 u[0] + 878 u[1] + 624 u[2] + 669 u[3] + 386 u[4]
   + 395 u[5] + 603 u[6] + 501 u[7] + 523 u[8] + 524 u[9] + 417 u[10]
   + 989 u[11] + 506 u[12] + 478 u[13] + 642 u[14] + 806 u[15] + 627 u[16]
   + 482 u[17] + 791 u[18] + 280 u[19] <= 3727
 primal_lower41: 655 u[0] + 384 u[1] + 122 u[2] + 375 u[3] + 84 u[4]
   + 373 u[5] + 813 u[6] + 991 u[7] + 253 u[8] + 718 u[9] + 443 u[10]
   + 895 u[11] + 956 u[12] + 552 u[13] + 660 u[14] + 112 u[15] + 637 u[16]
   + 708 u[17] + 345 u[18] + 578 u[19] <= 3551
 primal_lower42: 482 u[0] + 678 u[1] + 28 u[2] + 149 u[3] + 22 u[4]
   + 804 u[5] + 607 u[6] + 758 u[7] + 999 u[8] + 404 u[9] + 654 u[10]
   + 589 u[11] + 622 u[12] + 398 u[13] + 695 u[14] + 839 u[15] + 823 u[16]
   + 938 u[17] + 107 u[18] + 296 u[19] <= 999
 primal_lower43: 998 u[0] + 322 u[1] + 872 u[2] + 985 u[3] + 930 u[4]
   + 312 u[5] + 339 u[6] + 634 u[7] + 259 u[8] + 304 u[9] + 906 u[10]
   + 641 u[11] + 362 u[12] + 162 u[13] + 883 u[14] + 955 u[15] + 547 u[16]
   + 174 u[17] + 583 u[18] + 364 u[19] <= 998
 primal_lower44: 399 u[0] + 992 u[1] + 82 u[2] + 999 u[3] + 364 u[4]
   + 541 u[5] + 541 u[6] + 279 u[7] + 925 u[8] + 166 u[9] + 155 u[10]
   + 375 u[11] + 932 u[12] + 448 u[13] + 108 u[14] + 864 u[15] + 445 u[16]
   + 916 u[17] + 617 u[18] + 58 u[19] <= 3402
 primal_lower45: 82 u[0] + 830 u[1] + 404 u[2] + 613 u[3] + 542 u[4]
   + 252 u[5] + 575 u[6] + 830 u[7] + 831 u[8] + 540 u[9] + 366 u[10]
   + 909 u[11] + 118 u[12] + 606 u[13] + 527 u[14] + 311 u[15] + 791 u[16]
   + 338 u[17] + 587 u[18] + 296 u[19] <= 3449
 primal_lower46: 21 u[0] + 393 u[1] + 319 u[2] + 368 u[3] + 433 u[4]
   + 983 u[5] + 762 u[6] + 353 u[7] + 434 u[8] + 519 u[9] + 873 u[10]
   + 904 u[11] + 721 u[12] + 481 u[13] + 330 u[14] + 474 u[15] + 226 u[16]
   + 597 u[17] + 478 u[18] + 643 u[19] <= 983
 primal_lower47: 778 u[0] + 238 u[1] + 92 u[2] + 517 u[3] + 270 u[4]
   + 92 u[5] + 47 u[6] + 526 u[7] + 879 u[8] + 228 u[9] + 302 u[10]
   + 749 u[11] + 222 u[12] + 846 u[13] + 367 u[14] + 303 u[15] + 415 u[16]
   + 714 u[17] + 315 u[18] + 200 u[19] <= 2700
 primal_lower48: 323 u[0] + 748 u[1] + 302 u[2] + 475 u[3] + 296 u[4]
   + 905 u[5] + 409 u[6] + 251 u[7] + 793 u[8] + 386 u[9] + 639 u[10]
   + 739 u[11] + 400 u[12] + 508 u[13] + 568 u[14] + 708 u[15] + 601 u[16]
   + 856 u[17] + 501 u[18] + 534 u[19] <= 3647
 primal_lower49: 991 u[0] + 947 u[1] + 641 u[2] + 194 u[3] + 771 u[4]
   + 73 u[5] + 340 u[6] + 819 u[7] + 364 u[8] + 697 u[9] + 491 u[10]
   + 2 u[11] + 443 u[12] + 875 u[13] + 556 u[14] + 452 u[15] + 716 u[16]
   + 495 u[17] + 672 u[18] + 333 u[19] <= 3624
 primal_lower50: 833 u[0] + 298 u[1] + 196 u[2] + 505 u[3] + 494 u[4]
   + 111 u[5] + 783 u[6] + 841 u[7] + 551 u[8] + 816 u[9] + 813 u[10]
   + 313 u[11] + 534 u[12] + 154 u[13] + 958 u[14] + 706 u[15] + 735 u[16]
   + 62 u[17] + 555 u[18] + 460 u[19] <= 3572
 primal_lower51: 131 u[0] + 351 u[1] + 853 u[2] + 910 u[3] + 39 u[4]
   + 277 u[5] + 704 u[6] + 719 u[7] + 616 u[8] + 613 u[9] + 343 u[10]
   + 862 u[11] + 103 u[12] + 127 u[13] + 536 u[14] + 896 u[15] + 768 u[16]
   + 59 u[17] + 700 u[18] + 9 u[19] <= 3205
 primal_lower52: 428 u[0] + 861 u[1] + 231 u[2] + 876 u[3] + 377 u[4]
   + 274 u[5] + 730 u[6] + 364 u[7] + 386 u[8] + 891 u[9] + 648 u[10]
   + 916 u[11] + 145 u[12] + 157 u[13] + 449 u[14] + 621 u[15] + 42 u[16]
   + 97 u[17] + 478 u[18] + 135 u[19] <= 916
 primal_lower53: 466 u[0] + 555 u[1] + 861 u[2] + 754 u[3] + 639 u[4]
   + 480 u[5] + 424 u[6] + 922 u[7] + 112 u[8] + 913 u[9] + 254 u[10]
   + 514 u[11] + 87 u[12] + 931 u[13] + 967 u[14] + 403 u[15] + 544 u[16]
   + 719 u[17] + 268 u[18] + 173 u[19] <= 967
 primal_lower54: 168 u[0] + 129 u[1] + 611 u[2] + 48 u[3] + 845 u[4]
   + 590 u[5] + 766 u[6] + 808 u[7] + 766 u[8] + 759 u[9] + 764 u[10]
   + 48 u[11] + 333 u[12] + 273 u[13] + 773 u[14] + 25 u[15] + 934 u[16]
   + 765 u[17] + 306 u[18] + 635 u[19] <= 934
 primal_lower55: 39 u[0] + 520 u[1] + 810 u[2] + 567 u[3] + 732 u[4]
   + 613 u[5] + 557 u[6] + 335 u[7] + 621 u[8] + 766 u[9] + 843 u[10]
   + 479 u[11] + 172 u[12] + 904 u[13] + 564 u[14] + 696 u[15] + 541 u[16]
   + 324 u[17] + 409 u[18] + 274 u[19] <= 3588
 primal_lower56: 883 u[0] + 204 u[1] + 94 u[2] + 451 u[3] + 376 u[4]
   + 609 u[5] + 177 u[6] + 291 u[7] + 297 u[8] + 938 u[9] + 295 u[10]
   + 163 u[11] + 640 u[12] + 452 u[13] + 568 u[14] + 236 u[15] + 689 u[16]
   + 552 u[17] + 797 u[18] + 590 u[19] <= 3100
 primal_lower57: 252 u[0] + 741 u[1] + 503 u[2] + 148 u[3] + 201 u[4]
   + 874 u[5] + 434 u[6] + 844 u[7] + 98 u[8] + 291 u[9] + 392 u[10]
   + 244 u[11] + 513 u[12] + 517 u[13] + 297 u[14] + 749 u[15] + 914 u[16]
   + 241 u[17] + 950 u[18] + 95 u[19] <= 3099
 primal_lower58: 106 u[0] + 747 u[1] + 917 u[2] + 282 u[3] + 551 u[4]
   + 968 u[5] + 376 u[6] + 698 u[7] + 488 u[8] + 57 u[9] + 438 u[10]
   + 58 u[11] + 975 u[12] + 779 u[13] + 927 u[14] + 19 u[15] + 288 u[16]
   + 559 u[17] + 980 u[18] + 837 u[19] <= 3683
 primal_lower59: 718 u[0] + 642 u[1] + 176 u[2] + 289 u[3] + 146 u[4]
   + 128 u[5] + 603 u[6] + 378 u[7] + 147 u[8] + 928 u[9] + 898 u[10]
   + 145 u[11] + 226 u[12] + 362 u[13] + 723 u[14] + 947 u[15] + 67 u[16]
   + 974 u[17] + 967 u[18] + 732 u[19] <= 974
 primal_lower60: 238 u[0] + 439 u[1] + 305 u[2] + 230 u[3] + 579 u[4]
   + 36 u[5] + 36 u[6] + 726 u[7] + 708 u[8] + 797 u[9] + 954 u[10]
   + 30 u[11] + 235 u[12] + 735 u[13] + 819 u[14] + 695 u[15] + 500 u[16]
   + 355 u[17] + 432 u[18] + 473 u[19] <= 954
 primal_lower61: 76 u[0] + 144 u[1] + 822 u[2] + 455 u[3] + 32 u[4]
   + 214 u[5] + 777 u[6] + 56 u[7] + 769 u[8] + 230 u[9] + 816 u[10]
   + 535 u[11] + 272 u[12] + 776 u[13] + 457 u[14] + 513 u[15] + 281 u[16]
   + 116 u[17] + 773 u[18] + 538 u[19] <= 822
 primal_lower62: 837 u[0] + 945 u[1] + 375 u[2] + 272 u[3] + 657 u[4]
   + 311 u[5] + 162 u[6] + 209 u[7] + 714 u[8] + 727 u[9] + 369 u[10]
   + 440 u[11] + 625 u[12] + 233 u[13] + 258 u[14] + 666 u[15] + 322 u[16]
   + 373 u[17] + 310 u[18] + 915 u[19] <= 3240
 primal_lower63: 416 u[0] + 297 u[1] + 875 u[2] + 368 u[3] + 357 u[4]
   + 198 u[5] + 134 u[6] + 432 u[7] + 70 u[8] + 271 u[9] + 548 u[10]
   + 168 u[11] + 645 u[12] + 497 u[13] + 501 u[14] + 217 u[15] + 22 u[16]
   + 653 u[17] + 658 u[18] + 619 u[19] <= 2648
 primal_lower64: 869 u[0] + 446 u[1] + 176 u[2] + 973 u[3] + 346 u[4]
   + 747 u[5] + 867 u[6] + 213 u[7] + 203 u[8] + 964 u[9] + 81 u[10]
   + 445 u[11] + 698 u[12] + 806 u[13] + 946 u[14] + 454 u[15] + 35 u[16]
   + 626 u[17] + 647 u[18] + 584 u[19] <= 3708
 primal_lower65: 788 u[0] + 69 u[1] + 391 u[2] + 916 u[3] + 49 u[4]
   + 42 u[5] + 10 u[6] + 404 u[7] + 778 u[8] + 603 u[9] + 464 u[10]
   + 788 u[11] + 561 u[12] + 333 u[13] + 209 u[14] + 469 u[15] + 962 u[16]
   + 49 u[17] + 606 u[18] + 311 u[19] <= 2934
 primal_lower66: 626 u[0] + 774 u[1] + 908 u[2] + 949 u[3] + 502 u[4]
   + 28 u[5] + 559 u[6] + 542 u[7] + 839 u[8] + 36 u[9] + 326 u[10]
   + 293 u[11] + 790 u[12] + 566 u[13] + 847 u[14] + 287 u[15] + 551 u[16]
   + 810 u[17] + 947 u[18] + 376 u[19] <= 3852
 primal_lower67: 631 u[0] + 467 u[1] + 801 u[2] + 706 u[3] + 75 u[4]
   + 657 u[5] + 820 u[6] + 315 u[7] + 596 u[8] + 201 u[9] + 371 u[10]
   + 938 u[11] + 99 u[12] + 379 u[13] + 260 u[14] + 212 u[15] + 948 u[16]
   + 487 u[17] + 144 u[18] + 37 u[19] <= 948
 primal_lower68: 107 u[0] + 620 u[1] + 414 u[2] + 27 u[3] + 968 u[4]
   + 161 u[5] + 441 u[6] + 43 u[7] + 457 u[8] + 50 u[9] + 775 u[10]
   + 635 u[11] + 592 u[12] + 972 u[13] + 792 u[14] + 868 u[15] + 193 u[16]
   + 192 u[17] + 117 u[18] + 566 u[19] <= 2996
 primal_lower69: 137 u[0] + 453 u[1] + 371 u[2] + 772 u[3] + 5 u[4]
   + 67 u[5] + 598 u[6] + 373 u[7] + 966 u[8] + 987 u[9] + 421 u[10]
   + 508 u[11] + 293 u[12] + 197 u[13] + 470 u[14] + 278 u[15] + 30 u[16]
   + 313 u[17] + 634 u[18] + 471 u[19] <= 987
 primal_lower70: 414 u[0] + 522 u[1] + 920 u[2] + 697 u[3] + 962 u[4]
   + 488 u[5] + 43 u[6] + 906 u[7] + 227 u[8] + 496 u[9] + 946 u[10]
   + 345 u[11] + 842 u[12] + 490 u[13] + 851 u[14] + 595 u[15] + 403 u[16]
   + 630 u[17] + 607 u[18] + 268 u[19] <= 3884
 primal_lower71: 433 u[0] + 778 u[1] + 868 u[2] + 145 u[3] + 214 u[4]
   + 655 u[5] + 279 u[6] + 825 u[7] + 239 u[8] + 120 u[9] + 221 u[10]
   + 833 u[11] + 798 u[12] + 210 u[13] + 534 u[14] + 130 u[15] + 191 u[16]
   + 806 u[17] + 795 u[18] + 692 u[19] <= 3255
 primal_lower72: 443 u[0] + 495 u[1] + 317 u[2] + 694 u[3] + 175 u[4]
   + 461 u[5] + 632 u[6] + 719 u[7] + 96 u[8] + 181 u[9] + 991 u[10]
   + 86 u[11] + 807 u[12] + 927 u[13] + 480 u[14] + 424 u[15] + 672 u[16]
   + 891 u[17] + 924 u[18] + 497 u[19] <= 991
 primal_lower73: 855 u[0] + 672 u[1] + 730 u[2] + 551 u[3] + 636 u[4]
   + 581 u[5] + 693 u[6] + 263 u[7] + 781 u[8] + 782 u[9] + 531 u[10]
   + 679 u[11] + 908 u[12] + 752 u[13] + 180 u[14] + 744 u[15] + 101 u[16]
   + 460 u[17] + 217 u[18] + 330 u[19] <= 908
 primal_lower74: 47 u[0] + 83 u[1] + 673 u[2] + 386 u[3] + 19 u[4]
   + 289 u[5] + 396 u[6] + 971 u[7] + 116 u[8] + 697 u[9] + 131 u[10]
   + 994 u[11] + 59 u[12] + 259 u[13] + 116 u[14] + 756 u[15] + 684 u[16]
   + 127 u[17] + 720 u[18] + 461 u[19] <= 2661
 primal_lower75: 486 u[0] + 335 u[1] + 697 u[2] + 910 u[3] + 67 u[4]
   + 996 u[5] + 164 u[6] + 78 u[7] + 444 u[8] + 525 u[9] + 434 u[10]
   + 766 u[11] + 427 u[12] + 639 u[13] + 11 u[14] + 303 u[15] + 740 u[16]
   + 187 u[17] + 576 u[18] + 529 u[19] <= 3104
 primal_lower76: 561 u[0] + 610 u[1] + 964 u[2] + 489 u[3] + 398 u[4]
   + 911 u[5] + 127 u[6] + 233 u[7] + 711 u[8] + 512 u[9] + 973 u[10]
   + 585 u[11] + 374 u[12] + 42 u[13] + 6 u[14] + 98 u[15] + 551 u[16]
   + 510 u[17] + 491 u[18] + 148 u[19] <= 3098
 primal_lower77: 15 u[0] + 203 u[1] + 161 u[2] + 978 u[3] + 211 u[4]
   + 537 u[5] + 300 u[6] + 539 u[7] + 36 u[8] + 57 u[9] + 963 u[10]
   + 994 u[11] + 339 u[12] + 19 u[13] + 660 u[14] + 844 u[15] + 316 u[16]
   + 463 u[17] + 184 u[18] + 709 u[19] <= 994
 primal_lower78: 872 u[0] + 764 u[1] + 410 u[2] + 83 u[3] + 948 u[4]
   + 434 u[5] + 45 u[6] + 972 u[7] + 533 u[8] + 258 u[9] + 908 u[10]
   + 763 u[11] + 28 u[12] + 756 u[13] + 453 u[14] + 733 u[15] + 413 u[16]
   + 416 u[17] + 65 u[18] + 358 u[19] <= 972
 primal_lower79: 133 u[0] + 214 u[1] + 368 u[2] + 653 u[3] + 42 u[4]
   + 939 u[5] + 779 u[6] + 517 u[7] + 243 u[8] + 236 u[9] + 393 u[10]
   + 485 u[11] + 962 u[12] + 406 u[13] + 90 u[14] + 638 u[15] + 715 u[16]
   + 618 u[17] + 487 u[18] + 208 u[19] <= 3042
 primal_lower80: 579 u[0] + 7 u[1] + 101 u[2] + 654 u[3] + 359 u[4]
   + 773 u[5] + 680 u[6] + 983 u[7] + 104 u[8] + 93 u[9] + 215 u[10]
   + 934 u[11] + 759 u[12] + 503 u[13] + 536 u[14] + 792 u[15] + 184 u[16]
   + 923 u[17] + 628 u[18] + 449 u[19] <= 983
 primal_lower81: 160 u[0] + 956 u[1] + 362 u[2] + 67 u[3] + 908 u[4]
   + 882 u[5] + 757 u[6] + 540 u[7] + 213 u[8] + 714 u[9] + 444 u[10]
   + 979 u[11] + 172 u[12] + 92 u[13] + 949 u[14] + 629 u[15] + 61 u[16]
   + 160 u[17] + 745 u[18] + 134 u[19] <= 3308
 primal_lower82: 32 u[0] + 705 u[1] + 659 u[2] + 616 u[3] + 917 u[4]
   + 742 u[5] + 286 u[6] + 320 u[7] + 998 u[8] + 935 u[9] + 372 u[10]
   + 80 u[11] + 957 u[12] + 89 u[13] + 453 u[14] + 97 u[15] + 686 u[16]
   + 805 u[17] + 962 u[18] + 347 u[19] <= 3686
 primal_lower83: 125 u[0] + 761 u[1] + 479 u[2] + 144 u[3] + 41 u[4]
   + 575 u[5] + 202 u[6] + 281 u[7] + 450 u[8] + 103 u[9] + 433 u[10]
   + 536 u[11] + 417 u[12] + 641 u[13] + 338 u[14] + 610 u[15] + 386 u[16]
   + 941 u[17] + 566 u[18] + 235 u[19] <= 2754
 primal_lower84: 282 u[0] + 971 u[1] + 5 u[2] + 674 u[3] + 663 u[4]
   + 712 u[5] + 296 u[6] + 58 u[7] + 536 u[8] + 761 u[9] + 54 u[10]
   + 850 u[11] + 223 u[12] + 835 u[13] + 151 u[14] + 451 u[15] + 152 u[16]
   + 535 u[17] + 148 u[18] + 213 u[19] <= 2856
 primal_lower85: 571 u[0] + 807 u[1] + 421 u[2] + 406 u[3] + 703 u[4]
   + 917 u[5] + 368 u[6] + 519 u[7] + 64 u[8] + 165 u[9] + 855 u[10]
   + 366 u[11] + 479 u[12] + 791 u[13] + 800 u[14] + 928 u[15] + 416 u[16]
   + 291 u[17] + 44 u[18] + 289 u[19] <= 928
 primal_lower86: 889 u[0] + 541 u[1] + 259 u[2] + 956 u[3] + 29 u[4]
   + 803 u[5] + 606 u[6] + 957 u[7] + 710 u[8] + 51 u[9] + 413 u[10]
   + 916 u[11] + 61 u[12] + 77 u[13] + 942 u[14] + 550 u[15] + 510 u[16]
   + 433 u[17] + 402 u[18] + 551 u[19] <= 3552
 primal_lower87: 92 u[0] + 464 u[1] + 110 u[2] + 95 u[3] + 152 u[4]
   + 950 u[5] + 561 u[6] + 384 u[7] + 265 u[8] + 286 u[9] + 512 u[10]
   + 575 u[11] + 840 u[12] + 952 u[13] + 753 u[14] + 65 u[15] + 417 u[16]
   + 532 u[17] + 901 u[18] + 706 u[19] <= 952
 primal_lower88: 711 u[0] + 616 u[1] + 362 u[2] + 151 u[3] + 844 u[4]
   + 925 u[5] + 973 u[6] + 671 u[7] + 901 u[8] + 518 u[9] + 915 u[10]
   + 127 u[11] + 732 u[12] + 280 u[13] + 900 u[14] + 928 u[15] + 733 u[16]
   + 636 u[17] + 265 u[18] + 690 u[19] <= 4292
 primal_lower89: 54 u[0] + 954 u[1] + 328 u[2] + 329 u[3] + 466 u[4]
   + 928 u[5] + 731 u[6] + 130 u[7] + 675 u[8] + 960 u[9] + 378 u[10]
   + 289 u[11] + 442 u[12] + 914 u[13] + 843 u[14] + 235 u[15] + 307 u[16]
   + 894 u[17] + 343 u[18] + 124 u[19] <= 3441
 primal_lower90: 401 u[0] + 26 u[1] + 700 u[2] + 665 u[3] + 542 u[4]
   + 127 u[5] + 983 u[6] + 553 u[7] + 359 u[8] + 936 u[9] + 749 u[10]
   + 57 u[11] + 262 u[12] + 866 u[13] + 262 u[14] + 98 u[15] + 639 u[16]
   + 878 u[17] + 507 u[18] + 660 u[19] <= 983
 primal_lower91: 647 u[0] + 640 u[1] + 162 u[2] + 879 u[3] + 220 u[4]
   + 349 u[5] + 605 u[6] + 487 u[7] + 725 u[8] + 462 u[9] + 51 u[10]
   + 23 u[11] + 148 u[12] + 512 u[13] + 68 u[14] + 592 u[15] + 109 u[16]
   + 308 u[17] + 585 u[18] + 994 u[19] <= 994
 primal_lower92: 820 u[0] + 109 u[1] + 767 u[2] + 788 u[3] + 425 u[4]
   + 906 u[5] + 410 u[6] + 12 u[7] + 554 u[8] + 779 u[9] + 576 u[10]
   + 804 u[11] + 65 u[12] + 21 u[13] + 353 u[14] + 821 u[15] + 642 u[16]
   + 81 u[17] + 766 u[18] + 327 u[19] <= 3342
 primal_lower93: 337 u[0] + 573 u[1] + 547 u[2] + 620 u[3] + 925 u[4]
   + 483 u[5] + 254 u[6] + 909 u[7] + 334 u[8] + 419 u[9] + 757 u[10]
   + 108 u[11] + 69 u[12] + 189 u[13] + 550 u[14] + 398 u[15] + 510 u[16]
   + 281 u[17] + 370 u[18] + 447 u[19] <= 925
 primal_lower94: 582 u[0] + 546 u[1] + 216 u[2] + 489 u[3] + 874 u[4]
   + 80 u[5] + 235 u[6] + 690 u[7] + 883 u[8] + 128 u[9] + 586 u[10]
   + 841 u[11] + 946 u[12] + 954 u[13] + 555 u[14] + 483 u[15] + 435 u[16]
   + 318 u[17] + 7 u[18] + 300 u[19] <= 3382
 primal_lower95: 341 u[0] + 289 u[1] + 503 u[2] + 512 u[3] + 689 u[4]
   + 871 u[5] + 434 u[6] + 225 u[7] + 906 u[8] + 439 u[9] + 913 u[10]
   + 976 u[11] + 9 u[12] + 81 u[13] + 618 u[14] + 402 u[15] + 330 u[16]
   + 53 u[17] + 974 u[18] + 227 u[19] <= 976
 primal_lower96: 73 u[0] + 261 u[1] + 803 u[2] + 852 u[3] + 181 u[4]
   + 611 u[5] + 862 u[6] + 869 u[7] + 350 u[8] + 579 u[9] + 29 u[10]
   + 300 u[11] + 949 u[12] + 141 u[13] + 334 u[14] + 430 u[15] + 326 u[16]
   + 177 u[17] + 346 u[18] + 775 u[19] <= 949
 primal_lower97: 353 u[0] + 922 u[1] + 300 u[2] + 9 u[3] + 126 u[4]
   + 975 u[5] + 399 u[6] + 129 u[7] + 487 u[8] + 424 u[9] + 717 u[10]
   + 257 u[11] + 750 u[12] + 986 u[13] + 998 u[14] + 338 u[15] + 263 u[16]
   + 902 u[17] + 715 u[18] + 724 u[19] <= 3591
 primal_lower98: 938 u[0] + 302 u[1] + 980 u[2] + 709 u[3] + 470 u[4]
   + 76 u[5] + 887 u[6] + 598 u[7] + 919 u[8] + 396 u[9] + 446 u[10]
   + 997 u[11] + 430 u[12] + 862 u[13] + 151 u[14] + 839 u[15] + 711 u[16]
   + 42 u[17] + 723 u[18] + 24 u[19] <= 3833
 primal_lower99: 869 u[0] + 918 u[1] + 424 u[2] + 477 u[3] + 434 u[4]
   + 459 u[5] + 835 u[6] + 237 u[7] + 235 u[8] + 652 u[9] + 385 u[10]
   + 805 u[11] + 210 u[12] + 886 u[13] + 234 u[14] + 110 u[15] + 747 u[16]
   + 906 u[17] + 559 u[18] + 24 u[19] <= 3468
 interdiction[0]: x[0] + u[0] <= 1
 interdiction[1]: x[1] + u[1] <= 1
 interdiction[2]: x[2] + u[2] <= 1
 interdiction[3]: x[3] + u[3] <= 1
 interdiction[4]: x[4] + u[4] <= 1
 interdiction[5]: x[5] + u[5] <= 1
 interdiction[6]: x[6] + u[6] <= 1
 interdiction[7]: x[7] + u[7] <= 1
 interdiction[8]: x[8] + u[8] <= 1
 interdiction[9]: x[9] + u[9] <= 1
 interdiction[10]: x[10] + u[10] <= 1
 interdiction[11]: x[11] + u[11] <= 1
 interdiction[12]: x[12] + u[12] <= 1
 interdiction[13]: x[13] + u[13] <= 1
 interdiction[14]: x[14] + u[14] <= 1
 interdiction[15]: x[15] + u[15] <= 1
 interdiction[16]: x[16] + u[16] <= 1
 interdiction[17]: x[17] + u[17] <= 1
 interdiction[18]: x[18] + u[18] <= 1
 interdiction[19]: x[19] + u[19] <= 1
 mccormick1[0]: - u[0] + z[0] <= 0
 mccormick1[1]: - u[1] + z[1] <= 0
 mccormick1[2]: - u[2] + z[2] <= 0
 mccormick1[3]: - u[3] + z[3] <= 0
 mccormick1[4]: - u[4] + z[4] <= 0
 mccormick1[5]: - u[5] + z[5] <= 0
 mccormick1[6]: - u[6] + z[6] <= 0
 mccormick1[7]: - u[7] + z[7] <= 0
 mccormick1[8]: - u[8] + z[8] <= 0
 mccormick1[9]: - u[9] + z[9] <= 0
 mccormick1[10]: - u[10] + z[10] <= 0
 mccormick1[11]: - u[11] + z[11] <= 0
 mccormick1[12]: - u[12] + z[12] <= 0
 mccormick1[13]: - u[13] + z[13] <= 0
 mccormick1[14]: - u[14] + z[14] <= 0
 mccormick1[15]: - u[15] + z[15] <= 0
 mccormick1[16]: - u[16] + z[16] <= 0
 mccormick1[17]: - u[17] + z[17] <= 0
 mccormick1[18]: - u[18] + z[18] <= 0
 mccormick1[19]: - u[19] + z[19] <= 0
 mccormick2[0]: - y[0] + z[0] <= 0
 mccormick2[1]: - y[1] + z[1] <= 0
 mccormick2[2]: - y[2] + z[2] <= 0
 mccormick2[3]: - y[3] + z[3] <= 0
 mccormick2[4]: - y[4] + z[4] <= 0
 mccormick2[5]: - y[5] + z[5] <= 0
 mccormick2[6]: - y[6] + z[6] <= 0
 mccormick2[7]: - y[7] + z[7] <= 0
 mccormick2[8]: - y[8] + z[8] <= 0
 mccormick2[9]: - y[9] + z[9] <= 0
 mccormick2[10]: - y[10] + z[10] <= 0
 mccormick2[11]: - y[11] + z[11] <= 0
 mccormick2[12]: - y[12] + z[12] <= 0
 mccormick2[13]: - y[13] + z[13] <= 0
 mccormick2[14]: - y[14] + z[14] <= 0
 mccormick2[15]: - y[15] + z[15] <= 0
 mccormick2[16]: - y[16] + z[16] <= 0
 mccormick2[17]: - y[17] + z[17] <= 0
 mccormick2[18]: - y[18] + z[18] <= 0
 mccormick2[19]: - y[19] + z[19] <= 0
 mccormick3[0]: y[0] + u[0] - z[0] <= 1
 mccormick3[1]: y[1] + u[1] - z[1] <= 1
 mccormick3[2]: y[2] + u[2] - z[2] <= 1
 mccormick3[3]: y[3] + u[3] - z[3] <= 1
 mccormick3[4]: y[4] + u[4] - z[4] <= 1
 mccormick3[5]: y[5] + u[5] - z[5] <= 1
 mccormick3[6]: y[6] + u[6] - z[6] <= 1
 mccormick3[7]: y[7] + u[7] - z[7] <= 1
 mccormick3[8]: y[8] + u[8] - z[8] <= 1
 mccormick3[9]: y[9] + u[9] - z[9] <= 1
 mccormick3[10]: y[10] + u[10] - z[10] <= 1
 mccormick3[11]: y[11] + u[11] - z[11] <= 1
 mccormick3[12]: y[12] + u[12] - z[12] <= 1
 mccormick3[13]: y[13] + u[13] - z[13] <= 1
 mccormick3[14]: y[14] + u[14] - z[14] <= 1
 mccormick3[15]: y[15] + u[15] - z[15] <= 1
 mccormick3[16]: y[16] + u[16] - z[16] <= 1
 mccormick3[17]: y[17] + u[17] - z[17] <= 1
 mccormick3[18]: y[18] + u[18] - z[18] <= 1
 mccormick3[19]: y[19] + u[19] - z[19] <= 1
Bounds
Binaries
 x[0] x[1] x[2] x[3] x[4] x[5] x[6] x[7] x[8] x[9] x[10] x[11] x[12] x[13]
 x[14] x[15] x[16] x[17] x[18] x[19] y[0] y[1] y[2] y[3] y[4] y[5] y[6]
 y[7] y[8] y[9] y[10] y[11] y[12] y[13] y[14] y[15] y[16] y[17] y[18] y[19]
 u[0] u[1] u[2] u[3] u[4] u[5] u[6] u[7] u[8] u[9] u[10] u[11] u[12] u[13]
 u[14] u[15] u[16] u[17] u[18] u[19] z[0] z[1] z[2] z[3] z[4] z[5] z[6]
 z[7] z[8] z[9] z[10] z[11] z[12] z[13] z[14] z[15] z[16] z[17] z[18] z[19]
End
