* Signature: 0x4857e2aea06549e9
NAME knapsack_100_100_3
ROWS
 N  OBJ
 L  primal_upper
 L  primal_lower0
 L  primal_lower1
 L  primal_lower2
 L  primal_lower3
 L  primal_lower4
 L  primal_lower5
 L  primal_lower6
 L  primal_lower7
 L  primal_lower8
 L  primal_lower9
 L  primal_lower10
 L  primal_lower11
 L  primal_lower12
 L  primal_lower13
 L  primal_lower14
 L  primal_lower15
 L  primal_lower16
 L  primal_lower17
 L  primal_lower18
 L  primal_lower19
 L  primal_lower20
 L  primal_lower21
 L  primal_lower22
 L  primal_lower23
 L  primal_lower24
 L  primal_lower25
 L  primal_lower26
 L  primal_lower27
 L  primal_lower28
 L  primal_lower29
 L  primal_lower30
 L  primal_lower31
 L  primal_lower32
 L  primal_lower33
 L  primal_lower34
 L  primal_lower35
 L  primal_lower36
 L  primal_lower37
 L  primal_lower38
 L  primal_lower39
 L  primal_lower40
 L  primal_lower41
 L  primal_lower42
 L  primal_lower43
 L  primal_lower44
 L  primal_lower45
 L  primal_lower46
 L  primal_lower47
 L  primal_lower48
 L  primal_lower49
 L  primal_lower50
 L  primal_lower51
 L  primal_lower52
 L  primal_lower53
 L  primal_lower54
 L  primal_lower55
 L  primal_lower56
 L  primal_lower57
 L  primal_lower58
 L  primal_lower59
 L  primal_lower60
 L  primal_lower61
 L  primal_lower62
 L  primal_lower63
 L  primal_lower64
 L  primal_lower65
 L  primal_lower66
 L  primal_lower67
 L  primal_lower68
 L  primal_lower69
 L  primal_lower70
 L  primal_lower71
 L  primal_lower72
 L  primal_lower73
 L  primal_lower74
 L  primal_lower75
 L  primal_lower76
 L  primal_lower77
 L  primal_lower78
 L  primal_lower79
 L  primal_lower80
 L  primal_lower81
 L  primal_lower82
 L  primal_lower83
 L  primal_lower84
 L  primal_lower85
 L  primal_lower86
 L  primal_lower87
 L  primal_lower88
 L  primal_lower89
 L  primal_lower90
 L  primal_lower91
 L  primal_lower92
 L  primal_lower93
 L  primal_lower94
 L  primal_lower95
 L  primal_lower96
 L  primal_lower97
 L  primal_lower98
 L  primal_lower99
 L  interdiction[0]
 L  interdiction[1]
 L  interdiction[2]
 L  interdiction[3]
 L  interdiction[4]
 L  interdiction[5]
 L  interdiction[6]
 L  interdiction[7]
 L  interdiction[8]
 L  interdiction[9]
 L  interdiction[10]
 L  interdiction[11]
 L  interdiction[12]
 L  interdiction[13]
 L  interdiction[14]
 L  interdiction[15]
 L  interdiction[16]
 L  interdiction[17]
 L  interdiction[18]
 L  interdiction[19]
 L  interdiction[20]
 L  interdiction[21]
 L  interdiction[22]
 L  interdiction[23]
 L  interdiction[24]
 L  interdiction[25]
 L  interdiction[26]
 L  interdiction[27]
 L  interdiction[28]
 L  interdiction[29]
 L  interdiction[30]
 L  interdiction[31]
 L  interdiction[32]
 L  interdiction[33]
 L  interdiction[34]
 L  interdiction[35]
 L  interdiction[36]
 L  interdiction[37]
 L  interdiction[38]
 L  interdiction[39]
 L  interdiction[40]
 L  interdiction[41]
 L  interdiction[42]
 L  interdiction[43]
 L  interdiction[44]
 L  interdiction[45]
 L  interdiction[46]
 L  interdiction[47]
 L  interdiction[48]
 L  interdiction[49]
 L  interdiction[50]
 L  interdiction[51]
 L  interdiction[52]
 L  interdiction[53]
 L  interdiction[54]
 L  interdiction[55]
 L  interdiction[56]
 L  interdiction[57]
 L  interdiction[58]
 L  interdiction[59]
 L  interdiction[60]
 L  interdiction[61]
 L  interdiction[62]
 L  interdiction[63]
 L  interdiction[64]
 L  interdiction[65]
 L  interdiction[66]
 L  interdiction[67]
 L  interdiction[68]
 L  interdiction[69]
 L  interdiction[70]
 L  interdiction[71]
 L  interdiction[72]
 L  interdiction[73]
 L  interdiction[74]
 L  interdiction[75]
 L  interdiction[76]
 L  interdiction[77]
 L  interdiction[78]
 L  interdiction[79]
 L  interdiction[80]
 L  interdiction[81]
 L  interdiction[82]
 L  interdiction[83]
 L  interdiction[84]
 L  interdiction[85]
 L  interdiction[86]
 L  interdiction[87]
 L  interdiction[88]
 L  interdiction[89]
 L  interdiction[90]
 L  interdiction[91]
 L  interdiction[92]
 L  interdiction[93]
 L  interdiction[94]
 L  interdiction[95]
 L  interdiction[96]
 L  interdiction[97]
 L  interdiction[98]
 L  interdiction[99]
 L  mccormick1[0]
 L  mccormick1[1]
 L  mccormick1[2]
 L  mccormick1[3]
 L  mccormick1[4]
 L  mccormick1[5]
 L  mccormick1[6]
 L  mccormick1[7]
 L  mccormick1[8]
 L  mccormick1[9]
 L  mccormick1[10]
 L  mccormick1[11]
 L  mccormick1[12]
 L  mccormick1[13]
 L  mccormick1[14]
 L  mccormick1[15]
 L  mccormick1[16]
 L  mccormick1[17]
 L  mccormick1[18]
 L  mccormick1[19]
 L  mccormick1[20]
 L  mccormick1[21]
 L  mccormick1[22]
 L  mccormick1[23]
 L  mccormick1[24]
 L  mccormick1[25]
 L  mccormick1[26]
 L  mccormick1[27]
 L  mccormick1[28]
 L  mccormick1[29]
 L  mccormick1[30]
 L  mccormick1[31]
 L  mccormick1[32]
 L  mccormick1[33]
 L  mccormick1[34]
 L  mccormick1[35]
 L  mccormick1[36]
 L  mccormick1[37]
 L  mccormick1[38]
 L  mccormick1[39]
 L  mccormick1[40]
 L  mccormick1[41]
 L  mccormick1[42]
 L  mccormick1[43]
 L  mccormick1[44]
 L  mccormick1[45]
 L  mccormick1[46]
 L  mccormick1[47]
 L  mccormick1[48]
 L  mccormick1[49]
 L  mccormick1[50]
 L  mccormick1[51]
 L  mccormick1[52]
 L  mccormick1[53]
 L  mccormick1[54]
 L  mccormick1[55]
 L  mccormick1[56]
 L  mccormick1[57]
 L  mccormick1[58]
 L  mccormick1[59]
 L  mccormick1[60]
 L  mccormick1[61]
 L  mccormick1[62]
 L  mccormick1[63]
 L  mccormick1[64]
 L  mccormick1[65]
 L  mccormick1[66]
 L  mccormick1[67]
 L  mccormick1[68]
 L  mccormick1[69]
 L  mccormick1[70]
 L  mccormick1[71]
 L  mccormick1[72]
 L  mccormick1[73]
 L  mccormick1[74]
 L  mccormick1[75]
 L  mccormick1[76]
 L  mccormick1[77]
 L  mccormick1[78]
 L  mccormick1[79]
 L  mccormick1[80]
 L  mccormick1[81]
 L  mccormick1[82]
 L  mccormick1[83]
 L  mccormick1[84]
 L  mccormick1[85]
 L  mccormick1[86]
 L  mccormick1[87]
 L  mccormick1[88]
 L  mccormick1[89]
 L  mccormick1[90]
 L  mccormick1[91]
 L  mccormick1[92]
 L  mccormick1[93]
 L  mccormick1[94]
 L  mccormick1[95]
 L  mccormick1[96]
 L  mccormick1[97]
 L  mccormick1[98]
 L  mccormick1[99]
 L  mccormick2[0]
 L  mccormick2[1]
 L  mccormick2[2]
 L  mccormick2[3]
 L  mccormick2[4]
 L  mccormick2[5]
 L  mccormick2[6]
 L  mccormick2[7]
 L  mccormick2[8]
 L  mccormick2[9]
 L  mccormick2[10]
 L  mccormick2[11]
 L  mccormick2[12]
 L  mccormick2[13]
 L  mccormick2[14]
 L  mccormick2[15]
 L  mccormick2[16]
 L  mccormick2[17]
 L  mccormick2[18]
 L  mccormick2[19]
 L  mccormick2[20]
 L  mccormick2[21]
 L  mccormick2[22]
 L  mccormick2[23]
 L  mccormick2[24]
 L  mccormick2[25]
 L  mccormick2[26]
 L  mccormick2[27]
 L  mccormick2[28]
 L  mccormick2[29]
 L  mccormick2[30]
 L  mccormick2[31]
 L  mccormick2[32]
 L  mccormick2[33]
 L  mccormick2[34]
 L  mccormick2[35]
 L  mccormick2[36]
 L  mccormick2[37]
 L  mccormick2[38]
 L  mccormick2[39]
 L  mccormick2[40]
 L  mccormick2[41]
 L  mccormick2[42]
 L  mccormick2[43]
 L  mccormick2[44]
 L  mccormick2[45]
 L  mccormick2[46]
 L  mccormick2[47]
 L  mccormick2[48]
 L  mccormick2[49]
 L  mccormick2[50]
 L  mccormick2[51]
 L  mccormick2[52]
 L  mccormick2[53]
 L  mccormick2[54]
 L  mccormick2[55]
 L  mccormick2[56]
 L  mccormick2[57]
 L  mccormick2[58]
 L  mccormick2[59]
 L  mccormick2[60]
 L  mccormick2[61]
 L  mccormick2[62]
 L  mccormick2[63]
 L  mccormick2[64]
 L  mccormick2[65]
 L  mccormick2[66]
 L  mccormick2[67]
 L  mccormick2[68]
 L  mccormick2[69]
 L  mccormick2[70]
 L  mccormick2[71]
 L  mccormick2[72]
 L  mccormick2[73]
 L  mccormick2[74]
 L  mccormick2[75]
 L  mccormick2[76]
 L  mccormick2[77]
 L  mccormick2[78]
 L  mccormick2[79]
 L  mccormick2[80]
 L  mccormick2[81]
 L  mccormick2[82]
 L  mccormick2[83]
 L  mccormick2[84]
 L  mccormick2[85]
 L  mccormick2[86]
 L  mccormick2[87]
 L  mccormick2[88]
 L  mccormick2[89]
 L  mccormick2[90]
 L  mccormick2[91]
 L  mccormick2[92]
 L  mccormick2[93]
 L  mccormick2[94]
 L  mccormick2[95]
 L  mccormick2[96]
 L  mccormick2[97]
 L  mccormick2[98]
 L  mccormick2[99]
 L  mccormick3[0]
 L  mccormick3[1]
 L  mccormick3[2]
 L  mccormick3[3]
 L  mccormick3[4]
 L  mccormick3[5]
 L  mccormick3[6]
 L  mccormick3[7]
 L  mccormick3[8]
 L  mccormick3[9]
 L  mccormick3[10]
 L  mccormick3[11]
 L  mccormick3[12]
 L  mccormick3[13]
 L  mccormick3[14]
 L  mccormick3[15]
 L  mccormick3[16]
 L  mccormick3[17]
 L  mccormick3[18]
 L  mccormick3[19]
 L  mccormick3[20]
 L  mccormick3[21]
 L  mccormick3[22]
 L  mccormick3[23]
 L  mccormick3[24]
 L  mccormick3[25]
 L  mccormick3[26]
 L  mccormick3[27]
 L  mccormick3[28]
 L  mccormick3[29]
 L  mccormick3[30]
 L  mccormick3[31]
 L  mccormick3[32]
 L  mccormick3[33]
 L  mccormick3[34]
 L  mccormick3[35]
 L  mccormick3[36]
 L  mccormick3[37]
 L  mccormick3[38]
 L  mccormick3[39]
 L  mccormick3[40]
 L  mccormick3[41]
 L  mccormick3[42]
 L  mccormick3[43]
 L  mccormick3[44]
 L  mccormick3[45]
 L  mccormick3[46]
 L  mccormick3[47]
 L  mccormick3[48]
 L  mccormick3[49]
 L  mccormick3[50]
 L  mccormick3[51]
 L  mccormick3[52]
 L  mccormick3[53]
 L  mccormick3[54]
 L  mccormick3[55]
 L  mccormick3[56]
 L  mccormick3[57]
 L  mccormick3[58]
 L  mccormick3[59]
 L  mccormick3[60]
 L  mccormick3[61]
 L  mccormick3[62]
 L  mccormick3[63]
 L  mccormick3[64]
 L  mccormick3[65]
 L  mccormick3[66]
 L  mccormick3[67]
 L  mccormick3[68]
 L  mccormick3[69]
 L  mccormick3[70]
 L  mccormick3[71]
 L  mccormick3[72]
 L  mccormick3[73]
 L  mccormick3[74]
 L  mccormick3[75]
 L  mccormick3[76]
 L  mccormick3[77]
 L  mccormick3[78]
 L  mccormick3[79]
 L  mccormick3[80]
 L  mccormick3[81]
 L  mccormick3[82]
 L  mccormick3[83]
 L  mccormick3[84]
 L  mccormick3[85]
 L  mccormick3[86]
 L  mccormick3[87]
 L  mccormick3[88]
 L  mccormick3[89]
 L  mccormick3[90]
 L  mccormick3[91]
 L  mccormick3[92]
 L  mccormick3[93]
 L  mccormick3[94]
 L  mccormick3[95]
 L  mccormick3[96]
 L  mccormick3[97]
 L  mccormick3[98]
 L  mccormick3[99]
COLUMNS
    MARKER    'MARKER'                 'INTORG'
    x[0]      OBJ       10
    x[0]      interdiction[0]  1
    x[1]      OBJ       10
    x[1]      interdiction[1]  1
    x[2]      OBJ       10
    x[2]      interdiction[2]  1
    x[3]      OBJ       10
    x[3]      interdiction[3]  1
    x[4]      OBJ       10
    x[4]      interdiction[4]  1
    x[5]      OBJ       10
    x[5]      interdiction[5]  1
    x[6]      OBJ       10
    x[6]      interdiction[6]  1
    x[7]      OBJ       10
    x[7]      interdiction[7]  1
    x[8]      OBJ       10
    x[8]      interdiction[8]  1
    x[9]      OBJ       10
    x[9]      interdiction[9]  1
    x[10]     OBJ       10
    x[10]     interdiction[10]  1
    x[11]     OBJ       10
    x[11]     interdiction[11]  1
    x[12]     OBJ       10
    x[12]     interdiction[12]  1
    x[13]     OBJ       10
    x[13]     interdiction[13]  1
    x[14]     OBJ       10
    x[14]     interdiction[14]  1
    x[15]     OBJ       10
    x[15]     interdiction[15]  1
    x[16]     OBJ       10
    x[16]     interdiction[16]  1
    x[17]     OBJ       10
    x[17]     interdiction[17]  1
    x[18]     OBJ       10
    x[18]     interdiction[18]  1
    x[19]     OBJ       10
    x[19]     interdiction[19]  1
    x[20]     OBJ       10
    x[20]     interdiction[20]  1
    x[21]     OBJ       10
    x[21]     interdiction[21]  1
    x[22]     OBJ       10
    x[22]     interdiction[22]  1
    x[23]     OBJ       10
    x[23]     interdiction[23]  1
    x[24]     OBJ       10
    x[24]     interdiction[24]  1
    x[25]     OBJ       10
    x[25]     interdiction[25]  1
    x[26]     OBJ       10
    x[26]     interdiction[26]  1
    x[27]     OBJ       10
    x[27]     interdiction[27]  1
    x[28]     OBJ       10
    x[28]     interdiction[28]  1
    x[29]     OBJ       10
    x[29]     interdiction[29]  1
    x[30]     OBJ       10
    x[30]     interdiction[30]  1
    x[31]     OBJ       10
    x[31]     interdiction[31]  1
    x[32]     OBJ       10
    x[32]     interdiction[32]  1
    x[33]     OBJ       10
    x[33]     interdiction[33]  1
    x[34]     OBJ       10
    x[34]     interdiction[34]  1
    x[35]     OBJ       10
    x[35]     interdiction[35]  1
    x[36]     OBJ       10
    x[36]     interdiction[36]  1
    x[37]     OBJ       10
    x[37]     interdiction[37]  1
    x[38]     OBJ       10
    x[38]     interdiction[38]  1
    x[39]     OBJ       10
    x[39]     interdiction[39]  1
    x[40]     OBJ       10
    x[40]     interdiction[40]  1
    x[41]     OBJ       10
    x[41]     interdiction[41]  1
    x[42]     OBJ       10
    x[42]     interdiction[42]  1
    x[43]     OBJ       10
    x[43]     interdiction[43]  1
    x[44]     OBJ       10
    x[44]     interdiction[44]  1
    x[45]     OBJ       10
    x[45]     interdiction[45]  1
    x[46]     OBJ       10
    x[46]     interdiction[46]  1
    x[47]     OBJ       10
    x[47]     interdiction[47]  1
    x[48]     OBJ       10
    x[48]     interdiction[48]  1
    x[49]     OBJ       10
    x[49]     interdiction[49]  1
    x[50]     OBJ       10
    x[50]     interdiction[50]  1
    x[51]     OBJ       10
    x[51]     interdiction[51]  1
    x[52]     OBJ       10
    x[52]     interdiction[52]  1
    x[53]     OBJ       10
    x[53]     interdiction[53]  1
    x[54]     OBJ       10
    x[54]     interdiction[54]  1
    x[55]     OBJ       10
    x[55]     interdiction[55]  1
    x[56]     OBJ       10
    x[56]     interdiction[56]  1
    x[57]     OBJ       10
    x[57]     interdiction[57]  1
    x[58]     OBJ       10
    x[58]     interdiction[58]  1
    x[59]     OBJ       10
    x[59]     interdiction[59]  1
    x[60]     OBJ       10
    x[60]     interdiction[60]  1
    x[61]     OBJ       10
    x[61]     interdiction[61]  1
    x[62]     OBJ       10
    x[62]     interdiction[62]  1
    x[63]     OBJ       10
    x[63]     interdiction[63]  1
    x[64]     OBJ       10
    x[64]     interdiction[64]  1
    x[65]     OBJ       10
    x[65]     interdiction[65]  1
    x[66]     OBJ       10
    x[66]     interdiction[66]  1
    x[67]     OBJ       10
    x[67]     interdiction[67]  1
    x[68]     OBJ       10
    x[68]     interdiction[68]  1
    x[69]     OBJ       10
    x[69]     interdiction[69]  1
    x[70]     OBJ       10
    x[70]     interdiction[70]  1
    x[71]     OBJ       10
    x[71]     interdiction[71]  1
    x[72]     OBJ       10
    x[72]     interdiction[72]  1
    x[73]     OBJ       10
    x[73]     interdiction[73]  1
    x[74]     OBJ       10
    x[74]     interdiction[74]  1
    x[75]     OBJ       10
    x[75]     interdiction[75]  1
    x[76]     OBJ       10
    x[76]     interdiction[76]  1
    x[77]     OBJ       10
    x[77]     interdiction[77]  1
    x[78]     OBJ       10
    x[78]     interdiction[78]  1
    x[79]     OBJ       10
    x[79]     interdiction[79]  1
    x[80]     OBJ       10
    x[80]     interdiction[80]  1
    x[81]     OBJ       10
    x[81]     interdiction[81]  1
    x[82]     OBJ       10
    x[82]     interdiction[82]  1
    x[83]     OBJ       10
    x[83]     interdiction[83]  1
    x[84]     OBJ       10
    x[84]     interdiction[84]  1
    x[85]     OBJ       10
    x[85]     interdiction[85]  1
    x[86]     OBJ       10
    x[86]     interdiction[86]  1
    x[87]     OBJ       10
    x[87]     interdiction[87]  1
    x[88]     OBJ       10
    x[88]     interdiction[88]  1
    x[89]     OBJ       10
    x[89]     interdiction[89]  1
    x[90]     OBJ       10
    x[90]     interdiction[90]  1
    x[91]     OBJ       10
    x[91]     interdiction[91]  1
    x[92]     OBJ       10
    x[92]     interdiction[92]  1
    x[93]     OBJ       10
    x[93]     interdiction[93]  1
    x[94]     OBJ       10
    x[94]     interdiction[94]  1
    x[95]     OBJ       10
    x[95]     interdiction[95]  1
    x[96]     OBJ       10
    x[96]     interdiction[96]  1
    x[97]     OBJ       10
    x[97]     interdiction[97]  1
    x[98]     OBJ       10
    x[98]     interdiction[98]  1
    x[99]     OBJ       10
    x[99]     interdiction[99]  1
    y[0]      OBJ       -591
    y[0]      primal_upper  898
    y[0]      mccormick2[0]  -1
    y[0]      mccormick3[0]  1
    y[1]      OBJ       -355
    y[1]      primal_upper  971
    y[1]      mccormick2[1]  -1
    y[1]      mccormick3[1]  1
    y[2]      OBJ       -433
    y[2]      primal_upper  421
    y[2]      mccormick2[2]  -1
    y[2]      mccormick3[2]  1
    y[3]      OBJ       -257
    y[3]      primal_upper  466
    y[3]      mccormick2[3]  -1
    y[3]      mccormick3[3]  1
    y[4]      OBJ       -258
    y[4]      primal_upper  23
    y[4]      mccormick2[4]  -1
    y[4]      mccormick3[4]  1
    y[5]      OBJ       -238
    y[5]      primal_upper  376
    y[5]      mccormick2[5]  -1
    y[5]      mccormick3[5]  1
    y[6]      OBJ       -362
    y[6]      primal_upper  80
    y[6]      mccormick2[6]  -1
    y[6]      mccormick3[6]  1
    y[7]      OBJ       -640
    y[7]      primal_upper  626
    y[7]      mccormick2[7]  -1
    y[7]      mccormick3[7]  1
    y[8]      OBJ       -455
    y[8]      primal_upper  24
    y[8]      mccormick2[8]  -1
    y[8]      mccormick3[8]  1
    y[9]      OBJ       -783
    y[9]      primal_upper  73
    y[9]      mccormick2[9]  -1
    y[9]      mccormick3[9]  1
    y[10]     OBJ       -432
    y[10]     primal_upper  350
    y[10]     mccormick2[10]  -1
    y[10]     mccormick3[10]  1
    y[11]     OBJ       -840
    y[11]     primal_upper  658
    y[11]     mccormick2[11]  -1
    y[11]     mccormick3[11]  1
    y[12]     OBJ       -476
    y[12]     primal_upper  775
    y[12]     mccormick2[12]  -1
    y[12]     mccormick3[12]  1
    y[13]     OBJ       -679
    y[13]     primal_upper  139
    y[13]     mccormick2[13]  -1
    y[13]     mccormick3[13]  1
    y[14]     OBJ       -72
    y[14]     primal_upper  991
    y[14]     mccormick2[14]  -1
    y[14]     mccormick3[14]  1
    y[15]     OBJ       -481
    y[15]     primal_upper  819
    y[15]     mccormick2[15]  -1
    y[15]     mccormick3[15]  1
    y[16]     OBJ       -735
    y[16]     primal_upper  736
    y[16]     mccormick2[16]  -1
    y[16]     mccormick3[16]  1
    y[17]     OBJ       -999
    y[17]     primal_upper  71
    y[17]     mccormick2[17]  -1
    y[17]     mccormick3[17]  1
    y[18]     OBJ       -915
    y[18]     primal_upper  844
    y[18]     mccormick2[18]  -1
    y[18]     mccormick3[18]  1
    y[19]     OBJ       -190
    y[19]     primal_upper  749
    y[19]     mccormick2[19]  -1
    y[19]     mccormick3[19]  1
    y[20]     OBJ       -882
    y[20]     primal_upper  872
    y[20]     mccormick2[20]  -1
    y[20]     mccormick3[20]  1
    y[21]     OBJ       -524
    y[21]     primal_upper  358
    y[21]     mccormick2[21]  -1
    y[21]     mccormick3[21]  1
    y[22]     OBJ       -349
    y[22]     primal_upper  263
    y[22]     mccormick2[22]  -1
    y[22]     mccormick3[22]  1
    y[23]     OBJ       -989
    y[23]     primal_upper  5
    y[23]     mccormick2[23]  -1
    y[23]     mccormick3[23]  1
    y[24]     OBJ       -426
    y[24]     primal_upper  831
    y[24]     mccormick2[24]  -1
    y[24]     mccormick3[24]  1
    y[25]     OBJ       -587
    y[25]     primal_upper  423
    y[25]     mccormick2[25]  -1
    y[25]     mccormick3[25]  1
    y[26]     OBJ       -849
    y[26]     primal_upper  757
    y[26]     mccormick2[26]  -1
    y[26]     mccormick3[26]  1
    y[27]     OBJ       -500
    y[27]     primal_upper  318
    y[27]     mccormick2[27]  -1
    y[27]     mccormick3[27]  1
    y[28]     OBJ       -731
    y[28]     primal_upper  512
    y[28]     mccormick2[28]  -1
    y[28]     mccormick3[28]  1
    y[29]     OBJ       -949
    y[29]     primal_upper  358
    y[29]     mccormick2[29]  -1
    y[29]     mccormick3[29]  1
    y[30]     OBJ       -830
    y[30]     primal_upper  188
    y[30]     mccormick2[30]  -1
    y[30]     mccormick3[30]  1
    y[31]     OBJ       -365
    y[31]     primal_upper  946
    y[31]     mccormick2[31]  -1
    y[31]     mccormick3[31]  1
    y[32]     OBJ       -781
    y[32]     primal_upper  614
    y[32]     mccormick2[32]  -1
    y[32]     mccormick3[32]  1
    y[33]     OBJ       -828
    y[33]     primal_upper  948
    y[33]     mccormick2[33]  -1
    y[33]     mccormick3[33]  1
    y[34]     OBJ       -140
    y[34]     primal_upper  127
    y[34]     mccormick2[34]  -1
    y[34]     mccormick3[34]  1
    y[35]     OBJ       -882
    y[35]     primal_upper  624
    y[35]     mccormick2[35]  -1
    y[35]     mccormick3[35]  1
    y[36]     OBJ       -106
    y[36]     primal_upper  183
    y[36]     mccormick2[36]  -1
    y[36]     mccormick3[36]  1
    y[37]     OBJ       -620
    y[37]     primal_upper  371
    y[37]     mccormick2[37]  -1
    y[37]     mccormick3[37]  1
    y[38]     OBJ       -247
    y[38]     primal_upper  919
    y[38]     mccormick2[38]  -1
    y[38]     mccormick3[38]  1
    y[39]     OBJ       -176
    y[39]     primal_upper  37
    y[39]     mccormick2[39]  -1
    y[39]     mccormick3[39]  1
    y[40]     OBJ       -733
    y[40]     primal_upper  210
    y[40]     mccormick2[40]  -1
    y[40]     mccormick3[40]  1
    y[41]     OBJ       -666
    y[41]     primal_upper  936
    y[41]     mccormick2[41]  -1
    y[41]     mccormick3[41]  1
    y[42]     OBJ       -554
    y[42]     primal_upper  89
    y[42]     mccormick2[42]  -1
    y[42]     mccormick3[42]  1
    y[43]     OBJ       -208
    y[43]     primal_upper  428
    y[43]     mccormick2[43]  -1
    y[43]     mccormick3[43]  1
    y[44]     OBJ       -283
    y[44]     primal_upper  658
    y[44]     mccormick2[44]  -1
    y[44]     mccormick3[44]  1
    y[45]     OBJ       -840
    y[45]     primal_upper  593
    y[45]     mccormick2[45]  -1
    y[45]     mccormick3[45]  1
    y[46]     OBJ       -973
    y[46]     primal_upper  788
    y[46]     mccormick2[46]  -1
    y[46]     mccormick3[46]  1
    y[47]     OBJ       -137
    y[47]     primal_upper  280
    y[47]     mccormick2[47]  -1
    y[47]     mccormick3[47]  1
    y[48]     OBJ       -965
    y[48]     primal_upper  754
    y[48]     mccormick2[48]  -1
    y[48]     mccormick3[48]  1
    y[49]     OBJ       -334
    y[49]     primal_upper  551
    y[49]     mccormick2[49]  -1
    y[49]     mccormick3[49]  1
    y[50]     OBJ       -928
    y[50]     primal_upper  921
    y[50]     mccormick2[50]  -1
    y[50]     mccormick3[50]  1
    y[51]     OBJ       -215
    y[51]     primal_upper  319
    y[51]     mccormick2[51]  -1
    y[51]     mccormick3[51]  1
    y[52]     OBJ       -500
    y[52]     primal_upper  416
    y[52]     mccormick2[52]  -1
    y[52]     mccormick3[52]  1
    y[53]     OBJ       -562
    y[53]     primal_upper  107
    y[53]     mccormick2[53]  -1
    y[53]     mccormick3[53]  1
    y[54]     OBJ       -293
    y[54]     primal_upper  483
    y[54]     mccormick2[54]  -1
    y[54]     mccormick3[54]  1
    y[55]     OBJ       -927
    y[55]     primal_upper  838
    y[55]     mccormick2[55]  -1
    y[55]     mccormick3[55]  1
    y[56]     OBJ       -491
    y[56]     primal_upper  484
    y[56]     mccormick2[56]  -1
    y[56]     mccormick3[56]  1
    y[57]     OBJ       -593
    y[57]     primal_upper  553
    y[57]     mccormick2[57]  -1
    y[57]     mccormick3[57]  1
    y[58]     OBJ       -185
    y[58]     primal_upper  103
    y[58]     mccormick2[58]  -1
    y[58]     mccormick3[58]  1
    y[59]     OBJ       -136
    y[59]     primal_upper  569
    y[59]     mccormick2[59]  -1
    y[59]     mccormick3[59]  1
    y[60]     OBJ       -649
    y[60]     primal_upper  183
    y[60]     mccormick2[60]  -1
    y[60]     mccormick3[60]  1
    y[61]     OBJ       -835
    y[61]     primal_upper  825
    y[61]     mccormick2[61]  -1
    y[61]     mccormick3[61]  1
    y[62]     OBJ       -242
    y[62]     primal_upper  42
    y[62]     mccormick2[62]  -1
    y[62]     mccormick3[62]  1
    y[63]     OBJ       -146
    y[63]     primal_upper  769
    y[63]     mccormick2[63]  -1
    y[63]     mccormick3[63]  1
    y[64]     OBJ       -835
    y[64]     primal_upper  846
    y[64]     mccormick2[64]  -1
    y[64]     mccormick3[64]  1
    y[65]     OBJ       -858
    y[65]     primal_upper  867
    y[65]     mccormick2[65]  -1
    y[65]     mccormick3[65]  1
    y[66]     OBJ       -386
    y[66]     primal_upper  247
    y[66]     mccormick2[66]  -1
    y[66]     mccormick3[66]  1
    y[67]     OBJ       -954
    y[67]     primal_upper  517
    y[67]     mccormick2[67]  -1
    y[67]     mccormick3[67]  1
    y[68]     OBJ       -917
    y[68]     primal_upper  823
    y[68]     mccormick2[68]  -1
    y[68]     mccormick3[68]  1
    y[69]     OBJ       -458
    y[69]     primal_upper  256
    y[69]     mccormick2[69]  -1
    y[69]     mccormick3[69]  1
    y[70]     OBJ       -706
    y[70]     primal_upper  824
    y[70]     mccormick2[70]  -1
    y[70]     mccormick3[70]  1
    y[71]     OBJ       -508
    y[71]     primal_upper  652
    y[71]     mccormick2[71]  -1
    y[71]     mccormick3[71]  1
    y[72]     OBJ       -458
    y[72]     primal_upper  793
    y[72]     mccormick2[72]  -1
    y[72]     mccormick3[72]  1
    y[73]     OBJ       -810
    y[73]     primal_upper  62
    y[73]     mccormick2[73]  -1
    y[73]     mccormick3[73]  1
    y[74]     OBJ       -327
    y[74]     primal_upper  394
    y[74]     mccormick2[74]  -1
    y[74]     mccormick3[74]  1
    y[75]     OBJ       -719
    y[75]     primal_upper  367
    y[75]     mccormick2[75]  -1
    y[75]     mccormick3[75]  1
    y[76]     OBJ       -175
    y[76]     primal_upper  661
    y[76]     mccormick2[76]  -1
    y[76]     mccormick3[76]  1
    y[77]     OBJ       -570
    y[77]     primal_upper  698
    y[77]     mccormick2[77]  -1
    y[77]     mccormick3[77]  1
    y[78]     OBJ       -689
    y[78]     primal_upper  139
    y[78]     mccormick2[78]  -1
    y[78]     mccormick3[78]  1
    y[79]     OBJ       -68
    y[79]     primal_upper  385
    y[79]     mccormick2[79]  -1
    y[79]     mccormick3[79]  1
    y[80]     OBJ       -884
    y[80]     primal_upper  112
    y[80]     mccormick2[80]  -1
    y[80]     mccormick3[80]  1
    y[81]     OBJ       -355
    y[81]     primal_upper  76
    y[81]     mccormick2[81]  -1
    y[81]     mccormick3[81]  1
    y[82]     OBJ       -662
    y[82]     primal_upper  757
    y[82]     mccormick2[82]  -1
    y[82]     mccormick3[82]  1
    y[83]     OBJ       -7
    y[83]     primal_upper  848
    y[83]     mccormick2[83]  -1
    y[83]     mccormick3[83]  1
    y[84]     OBJ       -218
    y[84]     primal_upper  656
    y[84]     mccormick2[84]  -1
    y[84]     mccormick3[84]  1
    y[85]     OBJ       -985
    y[85]     primal_upper  192
    y[85]     mccormick2[85]  -1
    y[85]     mccormick3[85]  1
    y[86]     OBJ       -243
    y[86]     primal_upper  538
    y[86]     mccormick2[86]  -1
    y[86]     mccormick3[86]  1
    y[87]     OBJ       -516
    y[87]     primal_upper  115
    y[87]     mccormick2[87]  -1
    y[87]     mccormick3[87]  1
    y[88]     OBJ       -21
    y[88]     primal_upper  669
    y[88]     mccormick2[88]  -1
    y[88]     mccormick3[88]  1
    y[89]     OBJ       -187
    y[89]     primal_upper  626
    y[89]     mccormick2[89]  -1
    y[89]     mccormick3[89]  1
    y[90]     OBJ       -91
    y[90]     primal_upper  7
    y[90]     mccormick2[90]  -1
    y[90]     mccormick3[90]  1
    y[91]     OBJ       -178
    y[91]     primal_upper  19
    y[91]     mccormick2[91]  -1
    y[91]     mccormick3[91]  1
    y[92]     OBJ       -66
    y[92]     primal_upper  647
    y[92]     mccormick2[92]  -1
    y[92]     mccormick3[92]  1
    y[93]     OBJ       -9
    y[93]     primal_upper  358
    y[93]     mccormick2[93]  -1
    y[93]     mccormick3[93]  1
    y[94]     OBJ       -757
    y[94]     primal_upper  419
    y[94]     mccormick2[94]  -1
    y[94]     mccormick3[94]  1
    y[95]     OBJ       -883
    y[95]     primal_upper  580
    y[95]     mccormick2[95]  -1
    y[95]     mccormick3[95]  1
    y[96]     OBJ       -538
    y[96]     primal_upper  140
    y[96]     mccormick2[96]  -1
    y[96]     mccormick3[96]  1
    y[97]     OBJ       -597
    y[97]     primal_upper  223
    y[97]     mccormick2[97]  -1
    y[97]     mccormick3[97]  1
    y[98]     OBJ       -945
    y[98]     primal_upper  311
    y[98]     mccormick2[98]  -1
    y[98]     mccormick3[98]  1
    y[99]     OBJ       -833
    y[99]     primal_upper  675
    y[99]     mccormick2[99]  -1
    y[99]     mccormick3[99]  1
    u[0]      primal_lower0  801
    u[0]      primal_lower1  11
    u[0]      primal_lower2  31
    u[0]      primal_lower3  344
    u[0]      primal_lower4  838
    u[0]      primal_lower5  641
    u[0]      primal_lower6  870
    u[0]      primal_lower7  47
    u[0]      primal_lower8  818
    u[0]      primal_lower9  722
    u[0]      primal_lower10  508
    u[0]      primal_lower11  433
    u[0]      primal_lower12  410
    u[0]      primal_lower13  260
    u[0]      primal_lower14  523
    u[0]      primal_lower15  882
    u[0]      primal_lower16  840
    u[0]      primal_lower17  41
    u[0]      primal_lower18  988
    u[0]      primal_lower19  257
    u[0]      primal_lower20  357
    u[0]      primal_lower21  380
    u[0]      primal_lower22  29
    u[0]      primal_lower23  463
    u[0]      primal_lower24  884
    u[0]      primal_lower25  907
    u[0]      primal_lower26  337
    u[0]      primal_lower27  505
    u[0]      primal_lower28  299
    u[0]      primal_lower29  162
    u[0]      primal_lower30  679
    u[0]      primal_lower31  486
    u[0]      primal_lower32  518
    u[0]      primal_lower33  158
    u[0]      primal_lower34  904
    u[0]      primal_lower35  738
    u[0]      primal_lower36  376
    u[0]      primal_lower37  968
    u[0]      primal_lower38  683
    u[0]      primal_lower39  568
    u[0]      primal_lower40  571
    u[0]      primal_lower41  287
    u[0]      primal_lower42  807
    u[0]      primal_lower43  354
    u[0]      primal_lower44  908
    u[0]      primal_lower45  817
    u[0]      primal_lower46  345
    u[0]      primal_lower47  834
    u[0]      primal_lower48  984
    u[0]      primal_lower49  19
    u[0]      primal_lower50  879
    u[0]      primal_lower51  970
    u[0]      primal_lower52  652
    u[0]      primal_lower53  227
    u[0]      primal_lower54  888
    u[0]      primal_lower55  780
    u[0]      primal_lower56  293
    u[0]      primal_lower57  198
    u[0]      primal_lower58  955
    u[0]      primal_lower59  608
    u[0]      primal_lower60  383
    u[0]      primal_lower61  26
    u[0]      primal_lower62  24
    u[0]      primal_lower63  513
    u[0]      primal_lower64  364
    u[0]      primal_lower65  540
    u[0]      primal_lower66  971
    u[0]      primal_lower67  485
    u[0]      primal_lower68  113
    u[0]      primal_lower69  394
    u[0]      primal_lower70  808
    u[0]      primal_lower71  307
    u[0]      primal_lower72  527
    u[0]      primal_lower73  490
    u[0]      primal_lower74  767
    u[0]      primal_lower75  425
    u[0]      primal_lower76  608
    u[0]      primal_lower77  293
    u[0]      primal_lower78  192
    u[0]      primal_lower79  980
    u[0]      primal_lower80  754
    u[0]      primal_lower81  117
    u[0]      primal_lower82  620
    u[0]      primal_lower83  322
    u[0]      primal_lower84  315
    u[0]      primal_lower85  935
    u[0]      primal_lower86  246
    u[0]      primal_lower87  747
    u[0]      primal_lower88  143
    u[0]      primal_lower89  95
    u[0]      primal_lower90  756
    u[0]      primal_lower91  595
    u[0]      primal_lower92  771
    u[0]      primal_lower93  306
    u[0]      primal_lower94  287
    u[0]      primal_lower95  476
    u[0]      primal_lower96  340
    u[0]      primal_lower97  138
    u[0]      primal_lower98  68
    u[0]      primal_lower99  188
    u[0]      interdiction[0]  1
    u[0]      mccormick1[0]  -1
    u[0]      mccormick3[0]  1
    u[1]      primal_lower0  597
    u[1]      primal_lower1  695
    u[1]      primal_lower2  195
    u[1]      primal_lower3  521
    u[1]      primal_lower4  759
    u[1]      primal_lower5  498
    u[1]      primal_lower6  122
    u[1]      primal_lower7  176
    u[1]      primal_lower8  955
    u[1]      primal_lower9  571
    u[1]      primal_lower10  925
    u[1]      primal_lower11  106
    u[1]      primal_lower12  678
    u[1]      primal_lower13  992
    u[1]      primal_lower14  396
    u[1]      primal_lower15  158
    u[1]      primal_lower16  852
    u[1]      primal_lower17  821
    u[1]      primal_lower18  413
    u[1]      primal_lower19  925
    u[1]      primal_lower20  377
    u[1]      primal_lower21  621
    u[1]      primal_lower22  38
    u[1]      primal_lower23  464
    u[1]      primal_lower24  896
    u[1]      primal_lower25  935
    u[1]      primal_lower26  306
    u[1]      primal_lower27  258
    u[1]      primal_lower28  647
    u[1]      primal_lower29  795
    u[1]      primal_lower30  899
    u[1]      primal_lower31  370
    u[1]      primal_lower32  522
    u[1]      primal_lower33  298
    u[1]      primal_lower34  284
    u[1]      primal_lower35  827
    u[1]      primal_lower36  708
    u[1]      primal_lower37  548
    u[1]      primal_lower38  532
    u[1]      primal_lower39  396
    u[1]      primal_lower40  700
    u[1]      primal_lower41  528
    u[1]      primal_lower42  859
    u[1]      primal_lower43  398
    u[1]      primal_lower44  160
    u[1]      primal_lower45  242
    u[1]      primal_lower46  906
    u[1]      primal_lower47  918
    u[1]      primal_lower48  260
    u[1]      primal_lower49  967
    u[1]      primal_lower50  256
    u[1]      primal_lower51  35
    u[1]      primal_lower52  189
    u[1]      primal_lower53  471
    u[1]      primal_lower54  276
    u[1]      primal_lower55  592
    u[1]      primal_lower56  985
    u[1]      primal_lower57  210
    u[1]      primal_lower58  812
    u[1]      primal_lower59  329
    u[1]      primal_lower60  667
    u[1]      primal_lower61  403
    u[1]      primal_lower62  100
    u[1]      primal_lower63  626
    u[1]      primal_lower64  13
    u[1]      primal_lower65  112
    u[1]      primal_lower66  908
    u[1]      primal_lower67  966
    u[1]      primal_lower68  234
    u[1]      primal_lower69  886
    u[1]      primal_lower70  772
    u[1]      primal_lower71  36
    u[1]      primal_lower72  200
    u[1]      primal_lower73  710
    u[1]      primal_lower74  656
    u[1]      primal_lower75  762
    u[1]      primal_lower76  724
    u[1]      primal_lower77  881
    u[1]      primal_lower78  476
    u[1]      primal_lower79  784
    u[1]      primal_lower80  870
    u[1]      primal_lower81  577
    u[1]      primal_lower82  272
    u[1]      primal_lower83  486
    u[1]      primal_lower84  327
    u[1]      primal_lower85  560
    u[1]      primal_lower86  546
    u[1]      primal_lower87  431
    u[1]      primal_lower88  648
    u[1]      primal_lower89  312
    u[1]      primal_lower90  845
    u[1]      primal_lower91  847
    u[1]      primal_lower92  148
    u[1]      primal_lower93  374
    u[1]      primal_lower94  211
    u[1]      primal_lower95  837
    u[1]      primal_lower96  152
    u[1]      primal_lower97  110
    u[1]      primal_lower98  477
    u[1]      primal_lower99  205
    u[1]      interdiction[1]  1
    u[1]      mccormick1[1]  -1
    u[1]      mccormick3[1]  1
    u[2]      primal_lower0  747
    u[2]      primal_lower1  341
    u[2]      primal_lower2  265
    u[2]      primal_lower3  939
    u[2]      primal_lower4  113
    u[2]      primal_lower5  668
    u[2]      primal_lower6  776
    u[2]      primal_lower7  210
    u[2]      primal_lower8  181
    u[2]      primal_lower9  525
    u[2]      primal_lower10  407
    u[2]      primal_lower11  52
    u[2]      primal_lower12  428
    u[2]      primal_lower13  982
    u[2]      primal_lower14  958
    u[2]      primal_lower15  572
    u[2]      primal_lower16  570
    u[2]      primal_lower17  403
    u[2]      primal_lower18  231
    u[2]      primal_lower19  115
    u[2]      primal_lower20  479
    u[2]      primal_lower21  63
    u[2]      primal_lower22  816
    u[2]      primal_lower23  898
    u[2]      primal_lower24  222
    u[2]      primal_lower25  533
    u[2]      primal_lower26  572
    u[2]      primal_lower27  756
    u[2]      primal_lower28  749
    u[2]      primal_lower29  117
    u[2]      primal_lower30  577
    u[2]      primal_lower31  888
    u[2]      primal_lower32  80
    u[2]      primal_lower33  120
    u[2]      primal_lower34  410
    u[2]      primal_lower35  933
    u[2]      primal_lower36  130
    u[2]      primal_lower37  90
    u[2]      primal_lower38  70
    u[2]      primal_lower39  650
    u[2]      primal_lower40  198
    u[2]      primal_lower41  210
    u[2]      primal_lower42  209
    u[2]      primal_lower43  252
    u[2]      primal_lower44  310
    u[2]      primal_lower45  548
    u[2]      primal_lower46  468
    u[2]      primal_lower47  484
    u[2]      primal_lower48  26
    u[2]      primal_lower49  53
    u[2]      primal_lower50  162
    u[2]      primal_lower51  565
    u[2]      primal_lower52  719
    u[2]      primal_lower53  869
    u[2]      primal_lower54  698
    u[2]      primal_lower55  326
    u[2]      primal_lower56  343
    u[2]      primal_lower57  72
    u[2]      primal_lower58  518
    u[2]      primal_lower59  107
    u[2]      primal_lower60  617
    u[2]      primal_lower61  493
    u[2]      primal_lower62  866
    u[2]      primal_lower63  868
    u[2]      primal_lower64  375
    u[2]      primal_lower65  790
    u[2]      primal_lower66  62
    u[2]      primal_lower67  776
    u[2]      primal_lower68  964
    u[2]      primal_lower69  228
    u[2]      primal_lower70  410
    u[2]      primal_lower71  366
    u[2]      primal_lower72  746
    u[2]      primal_lower73  468
    u[2]      primal_lower74  186
    u[2]      primal_lower75  36
    u[2]      primal_lower76  346
    u[2]      primal_lower77  903
    u[2]      primal_lower78  362
    u[2]      primal_lower79  534
    u[2]      primal_lower80  644
    u[2]      primal_lower81  407
    u[2]      primal_lower82  174
    u[2]      primal_lower83  412
    u[2]      primal_lower84  549
    u[2]      primal_lower85  434
    u[2]      primal_lower86  448
    u[2]      primal_lower87  533
    u[2]      primal_lower88  506
    u[2]      primal_lower89  938
    u[2]      primal_lower90  167
    u[2]      primal_lower91  573
    u[2]      primal_lower92  398
    u[2]      primal_lower93  260
    u[2]      primal_lower94  929
    u[2]      primal_lower95  287
    u[2]      primal_lower96  558
    u[2]      primal_lower97  580
    u[2]      primal_lower98  599
    u[2]      primal_lower99  223
    u[2]      interdiction[2]  1
    u[2]      mccormick1[2]  -1
    u[2]      mccormick3[2]  1
    u[3]      primal_lower0  292
    u[3]      primal_lower1  6
    u[3]      primal_lower2  178
    u[3]      primal_lower3  768
    u[3]      primal_lower4  214
    u[3]      primal_lower5  969
    u[3]      primal_lower6  449
    u[3]      primal_lower7  183
    u[3]      primal_lower8  58
    u[3]      primal_lower9  690
    u[3]      primal_lower10  604
    u[3]      primal_lower11  585
    u[3]      primal_lower12  685
    u[3]      primal_lower13  927
    u[3]      primal_lower14  171
    u[3]      primal_lower15  461
    u[3]      primal_lower16  331
    u[3]      primal_lower17  412
    u[3]      primal_lower18  436
    u[3]      primal_lower19  404
    u[3]      primal_lower20  776
    u[3]      primal_lower21  756
    u[3]      primal_lower22  661
    u[3]      primal_lower23  423
    u[3]      primal_lower24  679
    u[3]      primal_lower25  526
    u[3]      primal_lower26  249
    u[3]      primal_lower27  649
    u[3]      primal_lower28  886
    u[3]      primal_lower29  138
    u[3]      primal_lower30  802
    u[3]      primal_lower31  233
    u[3]      primal_lower32  89
    u[3]      primal_lower33  649
    u[3]      primal_lower34  515
    u[3]      primal_lower35  474
    u[3]      primal_lower36  947
    u[3]      primal_lower37  19
    u[3]      primal_lower38  299
    u[3]      primal_lower39  499
    u[3]      primal_lower40  339
    u[3]      primal_lower41  423
    u[3]      primal_lower42  266
    u[3]      primal_lower43  781
    u[3]      primal_lower44  519
    u[3]      primal_lower45  777
    u[3]      primal_lower46  65
    u[3]      primal_lower47  989
    u[3]      primal_lower48  171
    u[3]      primal_lower49  998
    u[3]      primal_lower50  511
    u[3]      primal_lower51  458
    u[3]      primal_lower52  924
    u[3]      primal_lower53  366
    u[3]      primal_lower54  915
    u[3]      primal_lower55  951
    u[3]      primal_lower56  992
    u[3]      primal_lower57  785
    u[3]      primal_lower58  883
    u[3]      primal_lower59  496
    u[3]      primal_lower60  418
    u[3]      primal_lower61  242
    u[3]      primal_lower62  723
    u[3]      primal_lower63  225
    u[3]      primal_lower64  532
    u[3]      primal_lower65  591
    u[3]      primal_lower66  203
    u[3]      primal_lower67  397
    u[3]      primal_lower68  249
    u[3]      primal_lower69  869
    u[3]      primal_lower70  219
    u[3]      primal_lower71  131
    u[3]      primal_lower72  591
    u[3]      primal_lower73  877
    u[3]      primal_lower74  951
    u[3]      primal_lower75  9
    u[3]      primal_lower76  955
    u[3]      primal_lower77  872
    u[3]      primal_lower78  307
    u[3]      primal_lower79  735
    u[3]      primal_lower80  205
    u[3]      primal_lower81  680
    u[3]      primal_lower82  711
    u[3]      primal_lower83  29
    u[3]      primal_lower84  502
    u[3]      primal_lower85  223
    u[3]      primal_lower86  489
    u[3]      primal_lower87  366
    u[3]      primal_lower88  79
    u[3]      primal_lower89  375
    u[3]      primal_lower90  932
    u[3]      primal_lower91  734
    u[3]      primal_lower92  523
    u[3]      primal_lower93  117
    u[3]      primal_lower94  114
    u[3]      primal_lower95  604
    u[3]      primal_lower96  47
    u[3]      primal_lower97  517
    u[3]      primal_lower98  972
    u[3]      primal_lower99  652
    u[3]      interdiction[3]  1
    u[3]      mccormick1[3]  -1
    u[3]      mccormick3[3]  1
    u[4]      primal_lower0  285
    u[4]      primal_lower1  767
    u[4]      primal_lower2  675
    u[4]      primal_lower3  397
    u[4]      primal_lower4  731
    u[4]      primal_lower5  110
    u[4]      primal_lower6  858
    u[4]      primal_lower7  988
    u[4]      primal_lower8  559
    u[4]      primal_lower9  215
    u[4]      primal_lower10  409
    u[4]      primal_lower11  870
    u[4]      primal_lower12  254
    u[4]      primal_lower13  584
    u[4]      primal_lower14  480
    u[4]      primal_lower15  158
    u[4]      primal_lower16  708
    u[4]      primal_lower17  29
    u[4]      primal_lower18  969
    u[4]      primal_lower19  157
    u[4]      primal_lower20  289
    u[4]      primal_lower21  137
    u[4]      primal_lower22  458
    u[4]      primal_lower23  276
    u[4]      primal_lower24  568
    u[4]      primal_lower25  447
    u[4]      primal_lower26  806
    u[4]      primal_lower27  950
    u[4]      primal_lower28  519
    u[4]      primal_lower29  735
    u[4]      primal_lower30  955
    u[4]      primal_lower31  42
    u[4]      primal_lower32  682
    u[4]      primal_lower33  874
    u[4]      primal_lower34  476
    u[4]      primal_lower35  447
    u[4]      primal_lower36  12
    u[4]      primal_lower37  68
    u[4]      primal_lower38  992
    u[4]      primal_lower39  132
    u[4]      primal_lower40  608
    u[4]      primal_lower41  868
    u[4]      primal_lower42  83
    u[4]      primal_lower43  926
    u[4]      primal_lower44  264
    u[4]      primal_lower45  518
    u[4]      primal_lower46  238
    u[4]      primal_lower47  374
    u[4]      primal_lower48  900
    u[4]      primal_lower49  543
    u[4]      primal_lower50  276
    u[4]      primal_lower51  303
    u[4]      primal_lower52  713
    u[4]      primal_lower53  239
    u[4]      primal_lower54  68
    u[4]      primal_lower55  848
    u[4]      primal_lower56  209
    u[4]      primal_lower57  514
    u[4]      primal_lower58  56
    u[4]      primal_lower59  429
    u[4]      primal_lower60  907
    u[4]      primal_lower61  431
    u[4]      primal_lower62  772
    u[4]      primal_lower63  238
    u[4]      primal_lower64  697
    u[4]      primal_lower65  24
    u[4]      primal_lower66  720
    u[4]      primal_lower67  362
    u[4]      primal_lower68  358
    u[4]      primal_lower69  422
    u[4]      primal_lower70  188
    u[4]      primal_lower71  464
    u[4]      primal_lower72  692
    u[4]      primal_lower73  854
    u[4]      primal_lower74  580
    u[4]      primal_lower75  326
    u[4]      primal_lower76  228
    u[4]      primal_lower77  817
    u[4]      primal_lower78  436
    u[4]      primal_lower79  888
    u[4]      primal_lower80  830
    u[4]      primal_lower81  521
    u[4]      primal_lower82  760
    u[4]      primal_lower83  686
    u[4]      primal_lower84  727
    u[4]      primal_lower85  348
    u[4]      primal_lower86  74
    u[4]      primal_lower87  591
    u[4]      primal_lower88  396
    u[4]      primal_lower89  836
    u[4]      primal_lower90  289
    u[4]      primal_lower91  135
    u[4]      primal_lower92  80
    u[4]      primal_lower93  78
    u[4]      primal_lower94  443
    u[4]      primal_lower95  657
    u[4]      primal_lower96  128
    u[4]      primal_lower97  678
    u[4]      primal_lower98  1
    u[4]      primal_lower99  41
    u[4]      interdiction[4]  1
    u[4]      mccormick1[4]  -1
    u[4]      mccormick3[4]  1
    u[5]      primal_lower0  291
    u[5]      primal_lower1  701
    u[5]      primal_lower2  665
    u[5]      primal_lower3  126
    u[5]      primal_lower4  468
    u[5]      primal_lower5  287
    u[5]      primal_lower6  392
    u[5]      primal_lower7  493
    u[5]      primal_lower8  776
    u[5]      primal_lower9  968
    u[5]      primal_lower10  154
    u[5]      primal_lower11  263
    u[5]      primal_lower12  876
    u[5]      primal_lower13  950
    u[5]      primal_lower14  905
    u[5]      primal_lower15  180
    u[5]      primal_lower16  794
    u[5]      primal_lower17  491
    u[5]      primal_lower18  506
    u[5]      primal_lower19  355
    u[5]      primal_lower20  175
    u[5]      primal_lower21  378
    u[5]      primal_lower22  211
    u[5]      primal_lower23  517
    u[5]      primal_lower24  750
    u[5]      primal_lower25  533
    u[5]      primal_lower26  191
    u[5]      primal_lower27  623
    u[5]      primal_lower28  5
    u[5]      primal_lower29  528
    u[5]      primal_lower30  417
    u[5]      primal_lower31  824
    u[5]      primal_lower32  416
    u[5]      primal_lower33  640
    u[5]      primal_lower34  690
    u[5]      primal_lower35  256
    u[5]      primal_lower36  738
    u[5]      primal_lower37  306
    u[5]      primal_lower38  345
    u[5]      primal_lower39  26
    u[5]      primal_lower40  441
    u[5]      primal_lower41  109
    u[5]      primal_lower42  897
    u[5]      primal_lower43  236
    u[5]      primal_lower44  894
    u[5]      primal_lower45  695
    u[5]      primal_lower46  303
    u[5]      primal_lower47  988
    u[5]      primal_lower48  426
    u[5]      primal_lower49  13
    u[5]      primal_lower50  949
    u[5]      primal_lower51  784
    u[5]      primal_lower52  362
    u[5]      primal_lower53  573
    u[5]      primal_lower54  362
    u[5]      primal_lower55  606
    u[5]      primal_lower56  847
    u[5]      primal_lower57  264
    u[5]      primal_lower58  993
    u[5]      primal_lower59  590
    u[5]      primal_lower60  225
    u[5]      primal_lower61  568
    u[5]      primal_lower62  82
    u[5]      primal_lower63  463
    u[5]      primal_lower64  114
    u[5]      primal_lower65  766
    u[5]      primal_lower66  977
    u[5]      primal_lower67  211
    u[5]      primal_lower68  935
    u[5]      primal_lower69  780
    u[5]      primal_lower70  658
    u[5]      primal_lower71  593
    u[5]      primal_lower72  949
    u[5]      primal_lower73  868
    u[5]      primal_lower74  613
    u[5]      primal_lower75  791
    u[5]      primal_lower76  402
    u[5]      primal_lower77  991
    u[5]      primal_lower78  138
    u[5]      primal_lower79  478
    u[5]      primal_lower80  604
    u[5]      primal_lower81  919
    u[5]      primal_lower82  174
    u[5]      primal_lower83  596
    u[5]      primal_lower84  429
    u[5]      primal_lower85  957
    u[5]      primal_lower86  688
    u[5]      primal_lower87  917
    u[5]      primal_lower88  957
    u[5]      primal_lower89  533
    u[5]      primal_lower90  994
    u[5]      primal_lower91  309
    u[5]      primal_lower92  249
    u[5]      primal_lower93  220
    u[5]      primal_lower94  153
    u[5]      primal_lower95  202
    u[5]      primal_lower96  358
    u[5]      primal_lower97  892
    u[5]      primal_lower98  386
    u[5]      primal_lower99  122
    u[5]      interdiction[5]  1
    u[5]      mccormick1[5]  -1
    u[5]      mccormick3[5]  1
    u[6]      primal_lower0  574
    u[6]      primal_lower1  576
    u[6]      primal_lower2  972
    u[6]      primal_lower3  718
    u[6]      primal_lower4  36
    u[6]      primal_lower5  703
    u[6]      primal_lower6  539
    u[6]      primal_lower7  165
    u[6]      primal_lower8  704
    u[6]      primal_lower9  400
    u[6]      primal_lower10  442
    u[6]      primal_lower11  391
    u[6]      primal_lower12  63
    u[6]      primal_lower13  417
    u[6]      primal_lower14  321
    u[6]      primal_lower15  295
    u[6]      primal_lower16  253
    u[6]      primal_lower17  230
    u[6]      primal_lower18  986
    u[6]      primal_lower19  830
    u[6]      primal_lower20  586
    u[6]      primal_lower21  434
    u[6]      primal_lower22  739
    u[6]      primal_lower23  245
    u[6]      primal_lower24  905
    u[6]      primal_lower25  632
    u[6]      primal_lower26  215
    u[6]      primal_lower27  895
    u[6]      primal_lower28  552
    u[6]      primal_lower29  864
    u[6]      primal_lower30  900
    u[6]      primal_lower31  195
    u[6]      primal_lower32  531
    u[6]      primal_lower33  803
    u[6]      primal_lower34  141
    u[6]      primal_lower35  584
    u[6]      primal_lower36  277
    u[6]      primal_lower37  581
    u[6]      primal_lower38  897
    u[6]      primal_lower39  421
    u[6]      primal_lower40  409
    u[6]      primal_lower41  621
    u[6]      primal_lower42  740
    u[6]      primal_lower43  567
    u[6]      primal_lower44  401
    u[6]      primal_lower45  327
    u[6]      primal_lower46  759
    u[6]      primal_lower47  583
    u[6]      primal_lower48  869
    u[6]      primal_lower49  816
    u[6]      primal_lower50  989
    u[6]      primal_lower51  600
    u[6]      primal_lower52  426
    u[6]      primal_lower53  872
    u[6]      primal_lower54  829
    u[6]      primal_lower55  65
    u[6]      primal_lower56  122
    u[6]      primal_lower57  987
    u[6]      primal_lower58  785
    u[6]      primal_lower59  638
    u[6]      primal_lower60  988
    u[6]      primal_lower61  888
    u[6]      primal_lower62  541
    u[6]      primal_lower63  431
    u[6]      primal_lower64  162
    u[6]      primal_lower65  809
    u[6]      primal_lower66  665
    u[6]      primal_lower67  955
    u[6]      primal_lower68  311
    u[6]      primal_lower69  743
    u[6]      primal_lower70  845
    u[6]      primal_lower71  929
    u[6]      primal_lower72  877
    u[6]      primal_lower73  887
    u[6]      primal_lower74  733
    u[6]      primal_lower75  639
    u[6]      primal_lower76  893
    u[6]      primal_lower77  914
    u[6]      primal_lower78  853
    u[6]      primal_lower79  649
    u[6]      primal_lower80  927
    u[6]      primal_lower81  530
    u[6]      primal_lower82  625
    u[6]      primal_lower83  967
    u[6]      primal_lower84  336
    u[6]      primal_lower85  77
    u[6]      primal_lower86  771
    u[6]      primal_lower87  328
    u[6]      primal_lower88  37
    u[6]      primal_lower89  445
    u[6]      primal_lower90  746
    u[6]      primal_lower91  768
    u[6]      primal_lower92  817
    u[6]      primal_lower93  447
    u[6]      primal_lower94  756
    u[6]      primal_lower95  706
    u[6]      primal_lower96  233
    u[6]      primal_lower97  879
    u[6]      primal_lower98  506
    u[6]      primal_lower99  338
    u[6]      interdiction[6]  1
    u[6]      mccormick1[6]  -1
    u[6]      mccormick3[6]  1
    u[7]      primal_lower0  581
    u[7]      primal_lower1  151
    u[7]      primal_lower2  451
    u[7]      primal_lower3  712
    u[7]      primal_lower4  534
    u[7]      primal_lower5  753
    u[7]      primal_lower6  122
    u[7]      primal_lower7  567
    u[7]      primal_lower8  946
    u[7]      primal_lower9  162
    u[7]      primal_lower10  628
    u[7]      primal_lower11  433
    u[7]      primal_lower12  46
    u[7]      primal_lower13  824
    u[7]      primal_lower14  67
    u[7]      primal_lower15  886
    u[7]      primal_lower16  716
    u[7]      primal_lower17  445
    u[7]      primal_lower18  932
    u[7]      primal_lower19  333
    u[7]      primal_lower20  497
    u[7]      primal_lower21  196
    u[7]      primal_lower22  453
    u[7]      primal_lower23  807
    u[7]      primal_lower24  264
    u[7]      primal_lower25  967
    u[7]      primal_lower26  73
    u[7]      primal_lower27  761
    u[7]      primal_lower28  79
    u[7]      primal_lower29  882
    u[7]      primal_lower30  347
    u[7]      primal_lower31  834
    u[7]      primal_lower32  730
    u[7]      primal_lower33  738
    u[7]      primal_lower34  972
    u[7]      primal_lower35  786
    u[7]      primal_lower36  364
    u[7]      primal_lower37  572
    u[7]      primal_lower38  347
    u[7]      primal_lower39  356
    u[7]      primal_lower40  747
    u[7]      primal_lower41  975
    u[7]      primal_lower42  107
    u[7]      primal_lower43  782
    u[7]      primal_lower44  352
    u[7]      primal_lower45  585
    u[7]      primal_lower46  161
    u[7]      primal_lower47  606
    u[7]      primal_lower48  156
    u[7]      primal_lower49  631
    u[7]      primal_lower50  703
    u[7]      primal_lower51  874
    u[7]      primal_lower52  148
    u[7]      primal_lower53  239
    u[7]      primal_lower54  300
    u[7]      primal_lower55  848
    u[7]      primal_lower56  433
    u[7]      primal_lower57  90
    u[7]      primal_lower58  579
    u[7]      primal_lower59  96
    u[7]      primal_lower60  491
    u[7]      primal_lower61  410
    u[7]      primal_lower62  412
    u[7]      primal_lower63  961
    u[7]      primal_lower64  340
    u[7]      primal_lower65  280
    u[7]      primal_lower66  219
    u[7]      primal_lower67  389
    u[7]      primal_lower68  801
    u[7]      primal_lower69  862
    u[7]      primal_lower70  836
    u[7]      primal_lower71  475
    u[7]      primal_lower72  543
    u[7]      primal_lower73  678
    u[7]      primal_lower74  487
    u[7]      primal_lower75  857
    u[7]      primal_lower76  396
    u[7]      primal_lower77  705
    u[7]      primal_lower78  540
    u[7]      primal_lower79  592
    u[7]      primal_lower80  214
    u[7]      primal_lower81  577
    u[7]      primal_lower82  72
    u[7]      primal_lower83  526
    u[7]      primal_lower84  839
    u[7]      primal_lower85  591
    u[7]      primal_lower86  594
    u[7]      primal_lower87  695
    u[7]      primal_lower88  511
    u[7]      primal_lower89  7
    u[7]      primal_lower90  300
    u[7]      primal_lower91  111
    u[7]      primal_lower92  115
    u[7]      primal_lower93  934
    u[7]      primal_lower94  499
    u[7]      primal_lower95  436
    u[7]      primal_lower96  808
    u[7]      primal_lower97  286
    u[7]      primal_lower98  196
    u[7]      primal_lower99  860
    u[7]      interdiction[7]  1
    u[7]      mccormick1[7]  -1
    u[7]      mccormick3[7]  1
    u[8]      primal_lower0  950
    u[8]      primal_lower1  584
    u[8]      primal_lower2  28
    u[8]      primal_lower3  974
    u[8]      primal_lower4  892
    u[8]      primal_lower5  959
    u[8]      primal_lower6  355
    u[8]      primal_lower7  365
    u[8]      primal_lower8  384
    u[8]      primal_lower9  160
    u[8]      primal_lower10  306
    u[8]      primal_lower11  743
    u[8]      primal_lower12  455
    u[8]      primal_lower13  257
    u[8]      primal_lower14  673
    u[8]      primal_lower15  703
    u[8]      primal_lower16  765
    u[8]      primal_lower17  614
    u[8]      primal_lower18  594
    u[8]      primal_lower19  510
    u[8]      primal_lower20  650
    u[8]      primal_lower21  802
    u[8]      primal_lower22  211
    u[8]      primal_lower23  573
    u[8]      primal_lower24  585
    u[8]      primal_lower25  456
    u[8]      primal_lower26  775
    u[8]      primal_lower27  327
    u[8]      primal_lower28  192
    u[8]      primal_lower29  1000
    u[8]      primal_lower30  972
    u[8]      primal_lower31  587
    u[8]      primal_lower32  235
    u[8]      primal_lower33  59
    u[8]      primal_lower34  805
    u[8]      primal_lower35  64
    u[8]      primal_lower36  765
    u[8]      primal_lower37  525
    u[8]      primal_lower38  977
    u[8]      primal_lower39  677
    u[8]      primal_lower40  657
    u[8]      primal_lower41  229
    u[8]      primal_lower42  452
    u[8]      primal_lower43  335
    u[8]      primal_lower44  721
    u[8]      primal_lower45  111
    u[8]      primal_lower46  583
    u[8]      primal_lower47  767
    u[8]      primal_lower48  133
    u[8]      primal_lower49  888
    u[8]      primal_lower50  117
    u[8]      primal_lower51  824
    u[8]      primal_lower52  306
    u[8]      primal_lower53  976
    u[8]      primal_lower54  837
    u[8]      primal_lower55  353
    u[8]      primal_lower56  570
    u[8]      primal_lower57  211
    u[8]      primal_lower58  585
    u[8]      primal_lower59  622
    u[8]      primal_lower60  564
    u[8]      primal_lower61  536
    u[8]      primal_lower62  373
    u[8]      primal_lower63  719
    u[8]      primal_lower64  602
    u[8]      primal_lower65  97
    u[8]      primal_lower66  793
    u[8]      primal_lower67  3
    u[8]      primal_lower68  255
    u[8]      primal_lower69  71
    u[8]      primal_lower70  381
    u[8]      primal_lower71  185
    u[8]      primal_lower72  485
    u[8]      primal_lower73  879
    u[8]      primal_lower74  757
    u[8]      primal_lower75  335
    u[8]      primal_lower76  925
    u[8]      primal_lower77  162
    u[8]      primal_lower78  677
    u[8]      primal_lower79  985
    u[8]      primal_lower80  175
    u[8]      primal_lower81  194
    u[8]      primal_lower82  913
    u[8]      primal_lower83  759
    u[8]      primal_lower84  304
    u[8]      primal_lower85  29
    u[8]      primal_lower86  691
    u[8]      primal_lower87  880
    u[8]      primal_lower88  21
    u[8]      primal_lower89  541
    u[8]      primal_lower90  674
    u[8]      primal_lower91  912
    u[8]      primal_lower92  233
    u[8]      primal_lower93  383
    u[8]      primal_lower94  76
    u[8]      primal_lower95  58
    u[8]      primal_lower96  881
    u[8]      primal_lower97  951
    u[8]      primal_lower98  514
    u[8]      primal_lower99  650
    u[8]      interdiction[8]  1
    u[8]      mccormick1[8]  -1
    u[8]      mccormick3[8]  1
    u[9]      primal_lower0  435
    u[9]      primal_lower1  37
    u[9]      primal_lower2  897
    u[9]      primal_lower3  95
    u[9]      primal_lower4  565
    u[9]      primal_lower5  480
    u[9]      primal_lower6  376
    u[9]      primal_lower7  174
    u[9]      primal_lower8  649
    u[9]      primal_lower9  833
    u[9]      primal_lower10  843
    u[9]      primal_lower11  528
    u[9]      primal_lower12  212
    u[9]      primal_lower13  70
    u[9]      primal_lower14  82
    u[9]      primal_lower15  684
    u[9]      primal_lower16  538
    u[9]      primal_lower17  547
    u[9]      primal_lower18  243
    u[9]      primal_lower19  723
    u[9]      primal_lower20  335
    u[9]      primal_lower21  763
    u[9]      primal_lower22  444
    u[9]      primal_lower23  262
    u[9]      primal_lower24  558
    u[9]      primal_lower25  309
    u[9]      primal_lower26  408
    u[9]      primal_lower27  352
    u[9]      primal_lower28  981
    u[9]      primal_lower29  969
    u[9]      primal_lower30  121
    u[9]      primal_lower31  312
    u[9]      primal_lower32  544
    u[9]      primal_lower33  576
    u[9]      primal_lower34  218
    u[9]      primal_lower35  169
    u[9]      primal_lower36  114
    u[9]      primal_lower37  314
    u[9]      primal_lower38  82
    u[9]      primal_lower39  202
    u[9]      primal_lower40  738
    u[9]      primal_lower41  550
    u[9]      primal_lower42  585
    u[9]      primal_lower43  692
    u[9]      primal_lower44  822
    u[9]      primal_lower45  384
    u[9]      primal_lower46  384
    u[9]      primal_lower47  604
    u[9]      primal_lower48  130
    u[9]      primal_lower49  797
    u[9]      primal_lower50  502
    u[9]      primal_lower51  241
    u[9]      primal_lower52  107
    u[9]      primal_lower53  997
    u[9]      primal_lower54  314
    u[9]      primal_lower55  310
    u[9]      primal_lower56  23
    u[9]      primal_lower57  320
    u[9]      primal_lower58  434
    u[9]      primal_lower59  975
    u[9]      primal_lower60  465
    u[9]      primal_lower61  417
    u[9]      primal_lower62  186
    u[9]      primal_lower63  912
    u[9]      primal_lower64  907
    u[9]      primal_lower65  670
    u[9]      primal_lower66  234
    u[9]      primal_lower67  684
    u[9]      primal_lower68  720
    u[9]      primal_lower69  212
    u[9]      primal_lower70  946
    u[9]      primal_lower71  378
    u[9]      primal_lower72  998
    u[9]      primal_lower73  700
    u[9]      primal_lower74  526
    u[9]      primal_lower75  80
    u[9]      primal_lower76  202
    u[9]      primal_lower77  871
    u[9]      primal_lower78  482
    u[9]      primal_lower79  574
    u[9]      primal_lower80  860
    u[9]      primal_lower81  431
    u[9]      primal_lower82  614
    u[9]      primal_lower83  972
    u[9]      primal_lower84  717
    u[9]      primal_lower85  942
    u[9]      primal_lower86  248
    u[9]      primal_lower87  917
    u[9]      primal_lower88  78
    u[9]      primal_lower89  150
    u[9]      primal_lower90  731
    u[9]      primal_lower91  365
    u[9]      primal_lower92  290
    u[9]      primal_lower93  916
    u[9]      primal_lower94  817
    u[9]      primal_lower95  139
    u[9]      primal_lower96  14
    u[9]      primal_lower97  868
    u[9]      primal_lower98  195
    u[9]      primal_lower99  459
    u[9]      interdiction[9]  1
    u[9]      mccormick1[9]  -1
    u[9]      mccormick3[9]  1
    u[10]     primal_lower0  717
    u[10]     primal_lower1  615
    u[10]     primal_lower2  771
    u[10]     primal_lower3  132
    u[10]     primal_lower4  418
    u[10]     primal_lower5  533
    u[10]     primal_lower6  402
    u[10]     primal_lower7  979
    u[10]     primal_lower8  902
    u[10]     primal_lower9  174
    u[10]     primal_lower10  872
    u[10]     primal_lower11  109
    u[10]     primal_lower12  902
    u[10]     primal_lower13  320
    u[10]     primal_lower14  479
    u[10]     primal_lower15  806
    u[10]     primal_lower16  684
    u[10]     primal_lower17  917
    u[10]     primal_lower18  136
    u[10]     primal_lower19  61
    u[10]     primal_lower20  273
    u[10]     primal_lower21  8
    u[10]     primal_lower22  113
    u[10]     primal_lower23  659
    u[10]     primal_lower24  952
    u[10]     primal_lower25  863
    u[10]     primal_lower26  469
    u[10]     primal_lower27  805
    u[10]     primal_lower28  903
    u[10]     primal_lower29  438
    u[10]     primal_lower30  483
    u[10]     primal_lower31  474
    u[10]     primal_lower32  946
    u[10]     primal_lower33  410
    u[10]     primal_lower34  132
    u[10]     primal_lower35  286
    u[10]     primal_lower36  452
    u[10]     primal_lower37  828
    u[10]     primal_lower38  735
    u[10]     primal_lower39  372
    u[10]     primal_lower40  703
    u[10]     primal_lower41  875
    u[10]     primal_lower42  123
    u[10]     primal_lower43  846
    u[10]     primal_lower44  424
    u[10]     primal_lower45  509
    u[10]     primal_lower46  829
    u[10]     primal_lower47  358
    u[10]     primal_lower48  716
    u[10]     primal_lower49  895
    u[10]     primal_lower50  891
    u[10]     primal_lower51  406
    u[10]     primal_lower52  488
    u[10]     primal_lower53  871
    u[10]     primal_lower54  604
    u[10]     primal_lower55  976
    u[10]     primal_lower56  881
    u[10]     primal_lower57  994
    u[10]     primal_lower58  575
    u[10]     primal_lower59  692
    u[10]     primal_lower60  531
    u[10]     primal_lower61  102
    u[10]     primal_lower62  996
    u[10]     primal_lower63  917
    u[10]     primal_lower64  672
    u[10]     primal_lower65  384
    u[10]     primal_lower66  743
    u[10]     primal_lower67  457
    u[10]     primal_lower68  405
    u[10]     primal_lower69  182
    u[10]     primal_lower70  324
    u[10]     primal_lower71  751
    u[10]     primal_lower72  467
    u[10]     primal_lower73  70
    u[10]     primal_lower74  723
    u[10]     primal_lower75  333
    u[10]     primal_lower76  484
    u[10]     primal_lower77  521
    u[10]     primal_lower78  668
    u[10]     primal_lower79  424
    u[10]     primal_lower80  662
    u[10]     primal_lower81  793
    u[10]     primal_lower82  248
    u[10]     primal_lower83  622
    u[10]     primal_lower84  735
    u[10]     primal_lower85  283
    u[10]     primal_lower86  466
    u[10]     primal_lower87  471
    u[10]     primal_lower88  539
    u[10]     primal_lower89  259
    u[10]     primal_lower90  72
    u[10]     primal_lower91  799
    u[10]     primal_lower92  543
    u[10]     primal_lower93  734
    u[10]     primal_lower94  499
    u[10]     primal_lower95  176
    u[10]     primal_lower96  184
    u[10]     primal_lower97  422
    u[10]     primal_lower98  360
    u[10]     primal_lower99  392
    u[10]     interdiction[10]  1
    u[10]     mccormick1[10]  -1
    u[10]     mccormick3[10]  1
    u[11]     primal_lower0  60
    u[11]     primal_lower1  462
    u[11]     primal_lower2  562
    u[11]     primal_lower3  832
    u[11]     primal_lower4  534
    u[11]     primal_lower5  145
    u[11]     primal_lower6  537
    u[11]     primal_lower7  359
    u[11]     primal_lower8  66
    u[11]     primal_lower9  706
    u[11]     primal_lower10  620
    u[11]     primal_lower11  305
    u[11]     primal_lower12  253
    u[11]     primal_lower13  415
    u[11]     primal_lower14  707
    u[11]     primal_lower15  837
    u[11]     primal_lower16  779
    u[11]     primal_lower17  868
    u[11]     primal_lower18  580
    u[11]     primal_lower19  868
    u[11]     primal_lower20  576
    u[11]     primal_lower21  316
    u[11]     primal_lower22  141
    u[11]     primal_lower23  943
    u[11]     primal_lower24  111
    u[11]     primal_lower25  390
    u[11]     primal_lower26  209
    u[11]     primal_lower27  489
    u[11]     primal_lower28  470
    u[11]     primal_lower29  978
    u[11]     primal_lower30  18
    u[11]     primal_lower31  433
    u[11]     primal_lower32  817
    u[11]     primal_lower33  817
    u[11]     primal_lower34  307
    u[11]     primal_lower35  298
    u[11]     primal_lower36  883
    u[11]     primal_lower37  539
    u[11]     primal_lower38  899
    u[11]     primal_lower39  683
    u[11]     primal_lower40  755
    u[11]     primal_lower41  391
    u[11]     primal_lower42  994
    u[11]     primal_lower43  101
    u[11]     primal_lower44  271
    u[11]     primal_lower45  697
    u[11]     primal_lower46  193
    u[11]     primal_lower47  317
    u[11]     primal_lower48  827
    u[11]     primal_lower49  782
    u[11]     primal_lower50  63
    u[11]     primal_lower51  42
    u[11]     primal_lower52  508
    u[11]     primal_lower53  990
    u[11]     primal_lower54  611
    u[11]     primal_lower55  735
    u[11]     primal_lower56  200
    u[11]     primal_lower57  9
    u[11]     primal_lower58  43
    u[11]     primal_lower59  296
    u[11]     primal_lower60  250
    u[11]     primal_lower61  186
    u[11]     primal_lower62  803
    u[11]     primal_lower63  241
    u[11]     primal_lower64  36
    u[11]     primal_lower65  479
    u[11]     primal_lower66  619
    u[11]     primal_lower67  725
    u[11]     primal_lower68  65
    u[11]     primal_lower69  61
    u[11]     primal_lower70  531
    u[11]     primal_lower71  451
    u[11]     primal_lower72  647
    u[11]     primal_lower73  973
    u[11]     primal_lower74  879
    u[11]     primal_lower75  577
    u[11]     primal_lower76  147
    u[11]     primal_lower77  1000
    u[11]     primal_lower78  715
    u[11]     primal_lower79  279
    u[11]     primal_lower80  661
    u[11]     primal_lower81  288
    u[11]     primal_lower82  231
    u[11]     primal_lower83  309
    u[11]     primal_lower84  774
    u[11]     primal_lower85  239
    u[11]     primal_lower86  41
    u[11]     primal_lower87  574
    u[11]     primal_lower88  983
    u[11]     primal_lower89  951
    u[11]     primal_lower90  652
    u[11]     primal_lower91  254
    u[11]     primal_lower92  475
    u[11]     primal_lower93  605
    u[11]     primal_lower94  754
    u[11]     primal_lower95  492
    u[11]     primal_lower96  167
    u[11]     primal_lower97  61
    u[11]     primal_lower98  92
    u[11]     primal_lower99  708
    u[11]     interdiction[11]  1
    u[11]     mccormick1[11]  -1
    u[11]     mccormick3[11]  1
    u[12]     primal_lower0  549
    u[12]     primal_lower1  375
    u[12]     primal_lower2  811
    u[12]     primal_lower3  757
    u[12]     primal_lower4  715
    u[12]     primal_lower5  830
    u[12]     primal_lower6  218
    u[12]     primal_lower7  924
    u[12]     primal_lower8  135
    u[12]     primal_lower9  959
    u[12]     primal_lower10  561
    u[12]     primal_lower11  894
    u[12]     primal_lower12  718
    u[12]     primal_lower13  864
    u[12]     primal_lower14  336
    u[12]     primal_lower15  230
    u[12]     primal_lower16  708
    u[12]     primal_lower17  141
    u[12]     primal_lower18  353
    u[12]     primal_lower19  997
    u[12]     primal_lower20  841
    u[12]     primal_lower21  473
    u[12]     primal_lower22  394
    u[12]     primal_lower23  788
    u[12]     primal_lower24  8
    u[12]     primal_lower25  959
    u[12]     primal_lower26  238
    u[12]     primal_lower27  998
    u[12]     primal_lower28  999
    u[12]     primal_lower29  207
    u[12]     primal_lower30  707
    u[12]     primal_lower31  938
    u[12]     primal_lower32  778
    u[12]     primal_lower33  994
    u[12]     primal_lower34  436
    u[12]     primal_lower35  967
    u[12]     primal_lower36  108
    u[12]     primal_lower37  316
    u[12]     primal_lower38  752
    u[12]     primal_lower39  476
    u[12]     primal_lower40  760
    u[12]     primal_lower41  700
    u[12]     primal_lower42  659
    u[12]     primal_lower43  358
    u[12]     primal_lower44  296
    u[12]     primal_lower45  110
    u[12]     primal_lower46  822
    u[12]     primal_lower47  886
    u[12]     primal_lower48  604
    u[12]     primal_lower49  863
    u[12]     primal_lower50  572
    u[12]     primal_lower51  631
    u[12]     primal_lower52  905
    u[12]     primal_lower53  135
    u[12]     primal_lower54  596
    u[12]     primal_lower55  64
    u[12]     primal_lower56  913
    u[12]     primal_lower57  202
    u[12]     primal_lower58  24
    u[12]     primal_lower59  149
    u[12]     primal_lower60  875
    u[12]     primal_lower61  239
    u[12]     primal_lower62  276
    u[12]     primal_lower63  454
    u[12]     primal_lower64  937
    u[12]     primal_lower65  912
    u[12]     primal_lower66  248
    u[12]     primal_lower67  538
    u[12]     primal_lower68  230
    u[12]     primal_lower69  246
    u[12]     primal_lower70  76
    u[12]     primal_lower71  920
    u[12]     primal_lower72  852
    u[12]     primal_lower73  726
    u[12]     primal_lower74  380
    u[12]     primal_lower75  62
    u[12]     primal_lower76  836
    u[12]     primal_lower77  161
    u[12]     primal_lower78  580
    u[12]     primal_lower79  48
    u[12]     primal_lower80  510
    u[12]     primal_lower81  313
    u[12]     primal_lower82  296
    u[12]     primal_lower83  230
    u[12]     primal_lower84  879
    u[12]     primal_lower85  364
    u[12]     primal_lower86  842
    u[12]     primal_lower87  839
    u[12]     primal_lower88  292
    u[12]     primal_lower89  652
    u[12]     primal_lower90  513
    u[12]     primal_lower91  423
    u[12]     primal_lower92  976
    u[12]     primal_lower93  446
    u[12]     primal_lower94  683
    u[12]     primal_lower95  473
    u[12]     primal_lower96  248
    u[12]     primal_lower97  478
    u[12]     primal_lower98  769
    u[12]     primal_lower99  33
    u[12]     interdiction[12]  1
    u[12]     mccormick1[12]  -1
    u[12]     mccormick3[12]  1
    u[13]     primal_lower0  509
    u[13]     primal_lower1  31
    u[13]     primal_lower2  227
    u[13]     primal_lower3  921
    u[13]     primal_lower4  343
    u[13]     primal_lower5  818
    u[13]     primal_lower6  978
    u[13]     primal_lower7  672
    u[13]     primal_lower8  467
    u[13]     primal_lower9  731
    u[13]     primal_lower10  717
    u[13]     primal_lower11  178
    u[13]     primal_lower12  702
    u[13]     primal_lower13  48
    u[13]     primal_lower14  108
    u[13]     primal_lower15  526
    u[13]     primal_lower16  156
    u[13]     primal_lower17  621
    u[13]     primal_lower18  445
    u[13]     primal_lower19  677
    u[13]     primal_lower20  65
    u[13]     primal_lower21  805
    u[13]     primal_lower22  742
    u[13]     primal_lower23  392
    u[13]     primal_lower24  840
    u[13]     primal_lower25  607
    u[13]     primal_lower26  82
    u[13]     primal_lower27  370
    u[13]     primal_lower28  599
    u[13]     primal_lower29  771
    u[13]     primal_lower30  419
    u[13]     primal_lower31  122
    u[13]     primal_lower32  490
    u[13]     primal_lower33  786
    u[13]     primal_lower34  476
    u[13]     primal_lower35  115
    u[13]     primal_lower36  772
    u[13]     primal_lower37  708
    u[13]     primal_lower38  372
    u[13]     primal_lower39  236
    u[13]     primal_lower40  252
    u[13]     primal_lower41  680
    u[13]     primal_lower42  147
    u[13]     primal_lower43  86
    u[13]     primal_lower44  936
    u[13]     primal_lower45  722
    u[13]     primal_lower46  818
    u[13]     primal_lower47  486
    u[13]     primal_lower48  764
    u[13]     primal_lower49  799
    u[13]     primal_lower50  936
    u[13]     primal_lower51  59
    u[13]     primal_lower52  285
    u[13]     primal_lower53  119
    u[13]     primal_lower54  932
    u[13]     primal_lower55  280
    u[13]     primal_lower56  57
    u[13]     primal_lower57  338
    u[13]     primal_lower58  508
    u[13]     primal_lower59  145
    u[13]     primal_lower60  819
    u[13]     primal_lower61  947
    u[13]     primal_lower62  332
    u[13]     primal_lower63  482
    u[13]     primal_lower64  285
    u[13]     primal_lower65  376
    u[13]     primal_lower66  444
    u[13]     primal_lower67  78
    u[13]     primal_lower68  746
    u[13]     primal_lower69  14
    u[13]     primal_lower70  844
    u[13]     primal_lower71  260
    u[13]     primal_lower72  584
    u[13]     primal_lower73  710
    u[13]     primal_lower74  320
    u[13]     primal_lower75  234
    u[13]     primal_lower76  28
    u[13]     primal_lower77  329
    u[13]     primal_lower78  812
    u[13]     primal_lower79  328
    u[13]     primal_lower80  950
    u[13]     primal_lower81  265
    u[13]     primal_lower82  472
    u[13]     primal_lower83  294
    u[13]     primal_lower84  295
    u[13]     primal_lower85  720
    u[13]     primal_lower86  34
    u[13]     primal_lower87  871
    u[13]     primal_lower88  800
    u[13]     primal_lower89  104
    u[13]     primal_lower90  909
    u[13]     primal_lower91  647
    u[13]     primal_lower92  972
    u[13]     primal_lower93  22
    u[13]     primal_lower94  835
    u[13]     primal_lower95  141
    u[13]     primal_lower96  144
    u[13]     primal_lower97  222
    u[13]     primal_lower98  5
    u[13]     primal_lower99  469
    u[13]     interdiction[13]  1
    u[13]     mccormick1[13]  -1
    u[13]     mccormick3[13]  1
    u[14]     primal_lower0  494
    u[14]     primal_lower1  96
    u[14]     primal_lower2  996
    u[14]     primal_lower3  245
    u[14]     primal_lower4  899
    u[14]     primal_lower5  854
    u[14]     primal_lower6  411
    u[14]     primal_lower7  444
    u[14]     primal_lower8  959
    u[14]     primal_lower9  767
    u[14]     primal_lower10  345
    u[14]     primal_lower11  494
    u[14]     primal_lower12  791
    u[14]     primal_lower13  57
    u[14]     primal_lower14  336
    u[14]     primal_lower15  647
    u[14]     primal_lower16  493
    u[14]     primal_lower17  662
    u[14]     primal_lower18  937
    u[14]     primal_lower19  518
    u[14]     primal_lower20  490
    u[14]     primal_lower21  585
    u[14]     primal_lower22  442
    u[14]     primal_lower23  532
    u[14]     primal_lower24  177
    u[14]     primal_lower25  312
    u[14]     primal_lower26  414
    u[14]     primal_lower27  334
    u[14]     primal_lower28  560
    u[14]     primal_lower29  559
    u[14]     primal_lower30  484
    u[14]     primal_lower31  867
    u[14]     primal_lower32  859
    u[14]     primal_lower33  739
    u[14]     primal_lower34  445
    u[14]     primal_lower35  887
    u[14]     primal_lower36  901
    u[14]     primal_lower37  173
    u[14]     primal_lower38  688
    u[14]     primal_lower39  965
    u[14]     primal_lower40  376
    u[14]     primal_lower41  988
    u[14]     primal_lower42  948
    u[14]     primal_lower43  687
    u[14]     primal_lower44  225
    u[14]     primal_lower45  590
    u[14]     primal_lower46  870
    u[14]     primal_lower47  999
    u[14]     primal_lower48  437
    u[14]     primal_lower49  592
    u[14]     primal_lower50  220
    u[14]     primal_lower51  927
    u[14]     primal_lower52  937
    u[14]     primal_lower53  800
    u[14]     primal_lower54  749
    u[14]     primal_lower55  537
    u[14]     primal_lower56  602
    u[14]     primal_lower57  683
    u[14]     primal_lower58  360
    u[14]     primal_lower59  669
    u[14]     primal_lower60  556
    u[14]     primal_lower61  743
    u[14]     primal_lower62  597
    u[14]     primal_lower63  318
    u[14]     primal_lower64  609
    u[14]     primal_lower65  1
    u[14]     primal_lower66  984
    u[14]     primal_lower67  746
    u[14]     primal_lower68  294
    u[14]     primal_lower69  351
    u[14]     primal_lower70  69
    u[14]     primal_lower71  496
    u[14]     primal_lower72  332
    u[14]     primal_lower73  183
    u[14]     primal_lower74  972
    u[14]     primal_lower75  406
    u[14]     primal_lower76  773
    u[14]     primal_lower77  506
    u[14]     primal_lower78  941
    u[14]     primal_lower79  377
    u[14]     primal_lower80  247
    u[14]     primal_lower81  770
    u[14]     primal_lower82  577
    u[14]     primal_lower83  727
    u[14]     primal_lower84  512
    u[14]     primal_lower85  28
    u[14]     primal_lower86  227
    u[14]     primal_lower87  744
    u[14]     primal_lower88  564
    u[14]     primal_lower89  212
    u[14]     primal_lower90  649
    u[14]     primal_lower91  984
    u[14]     primal_lower92  176
    u[14]     primal_lower93  935
    u[14]     primal_lower94  796
    u[14]     primal_lower95  529
    u[14]     primal_lower96  633
    u[14]     primal_lower97  439
    u[14]     primal_lower98  833
    u[14]     primal_lower99  57
    u[14]     interdiction[14]  1
    u[14]     mccormick1[14]  -1
    u[14]     mccormick3[14]  1
    u[15]     primal_lower0  334
    u[15]     primal_lower1  792
    u[15]     primal_lower2  740
    u[15]     primal_lower3  969
    u[15]     primal_lower4  487
    u[15]     primal_lower5  258
    u[15]     primal_lower6  403
    u[15]     primal_lower7  96
    u[15]     primal_lower8  587
    u[15]     primal_lower9  803
    u[15]     primal_lower10  853
    u[15]     primal_lower11  594
    u[15]     primal_lower12  519
    u[15]     primal_lower13  785
    u[15]     primal_lower14  44
    u[15]     primal_lower15  463
    u[15]     primal_lower16  261
    u[15]     primal_lower17  614
    u[15]     primal_lower18  853
    u[15]     primal_lower19  750
    u[15]     primal_lower20  298
    u[15]     primal_lower21  421
    u[15]     primal_lower22  526
    u[15]     primal_lower23  176
    u[15]     primal_lower24  113
    u[15]     primal_lower25  264
    u[15]     primal_lower26  906
    u[15]     primal_lower27  282
    u[15]     primal_lower28  856
    u[15]     primal_lower29  883
    u[15]     primal_lower30  436
    u[15]     primal_lower31  843
    u[15]     primal_lower32  147
    u[15]     primal_lower33  51
    u[15]     primal_lower34  621
    u[15]     primal_lower35  403
    u[15]     primal_lower36  5
    u[15]     primal_lower37  789
    u[15]     primal_lower38  388
    u[15]     primal_lower39  309
    u[15]     primal_lower40  196
    u[15]     primal_lower41  256
    u[15]     primal_lower42  476
    u[15]     primal_lower43  703
    u[15]     primal_lower44  577
    u[15]     primal_lower45  178
    u[15]     primal_lower46  426
    u[15]     primal_lower47  583
    u[15]     primal_lower48  733
    u[15]     primal_lower49  848
    u[15]     primal_lower50  280
    u[15]     primal_lower51  579
    u[15]     primal_lower52  5
    u[15]     primal_lower53  464
    u[15]     primal_lower54  93
    u[15]     primal_lower55  121
    u[15]     primal_lower56  570
    u[15]     primal_lower57  315
    u[15]     primal_lower58  460
    u[15]     primal_lower59  105
    u[15]     primal_lower60  116
    u[15]     primal_lower61  323
    u[15]     primal_lower62  677
    u[15]     primal_lower63  850
    u[15]     primal_lower64  357
    u[15]     primal_lower65  889
    u[15]     primal_lower66  428
    u[15]     primal_lower67  286
    u[15]     primal_lower68  666
    u[15]     primal_lower69  207
    u[15]     primal_lower70  957
    u[15]     primal_lower71  764
    u[15]     primal_lower72  488
    u[15]     primal_lower73  191
    u[15]     primal_lower74  528
    u[15]     primal_lower75  26
    u[15]     primal_lower76  157
    u[15]     primal_lower77  690
    u[15]     primal_lower78  709
    u[15]     primal_lower79  241
    u[15]     primal_lower80  471
    u[15]     primal_lower81  186
    u[15]     primal_lower82  633
    u[15]     primal_lower83  423
    u[15]     primal_lower84  240
    u[15]     primal_lower85  96
    u[15]     primal_lower86  27
    u[15]     primal_lower87  824
    u[15]     primal_lower88  320
    u[15]     primal_lower89  416
    u[15]     primal_lower90  973
    u[15]     primal_lower91  808
    u[15]     primal_lower92  140
    u[15]     primal_lower93  15
    u[15]     primal_lower94  332
    u[15]     primal_lower95  501
    u[15]     primal_lower96  529
    u[15]     primal_lower97  935
    u[15]     primal_lower98  85
    u[15]     primal_lower99  509
    u[15]     interdiction[15]  1
    u[15]     mccormick1[15]  -1
    u[15]     mccormick3[15]  1
    u[16]     primal_lower0  222
    u[16]     primal_lower1  224
    u[16]     primal_lower2  28
    u[16]     primal_lower3  974
    u[16]     primal_lower4  644
    u[16]     primal_lower5  167
    u[16]     primal_lower6  339
    u[16]     primal_lower7  741
    u[16]     primal_lower8  496
    u[16]     primal_lower9  24
    u[16]     primal_lower10  378
    u[16]     primal_lower11  807
    u[16]     primal_lower12  959
    u[16]     primal_lower13  657
    u[16]     primal_lower14  433
    u[16]     primal_lower15  879
    u[16]     primal_lower16  549
    u[16]     primal_lower17  982
    u[16]     primal_lower18  258
    u[16]     primal_lower19  118
    u[16]     primal_lower20  850
    u[16]     primal_lower21  306
    u[16]     primal_lower22  811
    u[16]     primal_lower23  53
    u[16]     primal_lower24  81
    u[16]     primal_lower25  72
    u[16]     primal_lower26  455
    u[16]     primal_lower27  311
    u[16]     primal_lower28  520
    u[16]     primal_lower29  184
    u[16]     primal_lower30  940
    u[16]     primal_lower31  499
    u[16]     primal_lower32  715
    u[16]     primal_lower33  579
    u[16]     primal_lower34  477
    u[16]     primal_lower35  528
    u[16]     primal_lower36  757
    u[16]     primal_lower37  549
    u[16]     primal_lower38  777
    u[16]     primal_lower39  981
    u[16]     primal_lower40  609
    u[16]     primal_lower41  317
    u[16]     primal_lower42  924
    u[16]     primal_lower43  767
    u[16]     primal_lower44  737
    u[16]     primal_lower45  903
    u[16]     primal_lower46  887
    u[16]     primal_lower47  271
    u[16]     primal_lower48  485
    u[16]     primal_lower49  40
    u[16]     primal_lower50  573
    u[16]     primal_lower51  912
    u[16]     primal_lower52  282
    u[16]     primal_lower53  936
    u[16]     primal_lower54  549
    u[16]     primal_lower55  361
    u[16]     primal_lower56  90
    u[16]     primal_lower57  539
    u[16]     primal_lower58  625
    u[16]     primal_lower59  142
    u[16]     primal_lower60  836
    u[16]     primal_lower61  432
    u[16]     primal_lower62  461
    u[16]     primal_lower63  447
    u[16]     primal_lower64  42
    u[16]     primal_lower65  161
    u[16]     primal_lower66  817
    u[16]     primal_lower67  235
    u[16]     primal_lower68  655
    u[16]     primal_lower69  239
    u[16]     primal_lower70  381
    u[16]     primal_lower71  665
    u[16]     primal_lower72  517
    u[16]     primal_lower73  607
    u[16]     primal_lower74  765
    u[16]     primal_lower75  815
    u[16]     primal_lower76  885
    u[16]     primal_lower77  418
    u[16]     primal_lower78  125
    u[16]     primal_lower79  889
    u[16]     primal_lower80  215
    u[16]     primal_lower81  834
    u[16]     primal_lower82  625
    u[16]     primal_lower83  711
    u[16]     primal_lower84  960
    u[16]     primal_lower85  717
    u[16]     primal_lower86  403
    u[16]     primal_lower87  752
    u[16]     primal_lower88  669
    u[16]     primal_lower89  805
    u[16]     primal_lower90  698
    u[16]     primal_lower91  936
    u[16]     primal_lower92  641
    u[16]     primal_lower93  111
    u[16]     primal_lower94  316
    u[16]     primal_lower95  602
    u[16]     primal_lower96  121
    u[16]     primal_lower97  983
    u[16]     primal_lower98  402
    u[16]     primal_lower99  122
    u[16]     interdiction[16]  1
    u[16]     mccormick1[16]  -1
    u[16]     mccormick3[16]  1
    u[17]     primal_lower0  433
    u[17]     primal_lower1  139
    u[17]     primal_lower2  383
    u[17]     primal_lower3  525
    u[17]     primal_lower4  731
    u[17]     primal_lower5  46
    u[17]     primal_lower6  270
    u[17]     primal_lower7  996
    u[17]     primal_lower8  799
    u[17]     primal_lower9  279
    u[17]     primal_lower10  201
    u[17]     primal_lower11  110
    u[17]     primal_lower12  930
    u[17]     primal_lower13  132
    u[17]     primal_lower14  392
    u[17]     primal_lower15  186
    u[17]     primal_lower16  120
    u[17]     primal_lower17  161
    u[17]     primal_lower18  897
    u[17]     primal_lower19  17
    u[17]     primal_lower20  213
    u[17]     primal_lower21  217
    u[17]     primal_lower22  674
    u[17]     primal_lower23  332
    u[17]     primal_lower24  436
    u[17]     primal_lower25  227
    u[17]     primal_lower26  214
    u[17]     primal_lower27  70
    u[17]     primal_lower28  459
    u[17]     primal_lower29  503
    u[17]     primal_lower30  767
    u[17]     primal_lower31  246
    u[17]     primal_lower32  966
    u[17]     primal_lower33  622
    u[17]     primal_lower34  144
    u[17]     primal_lower35  31
    u[17]     primal_lower36  304
    u[17]     primal_lower37  920
    u[17]     primal_lower38  208
    u[17]     primal_lower39  824
    u[17]     primal_lower40  744
    u[17]     primal_lower41  652
    u[17]     primal_lower42  207
    u[17]     primal_lower43  978
    u[17]     primal_lower44  628
    u[17]     primal_lower45  726
    u[17]     primal_lower46  446
    u[17]     primal_lower47  458
    u[17]     primal_lower48  904
    u[17]     primal_lower49  259
    u[17]     primal_lower50  580
    u[17]     primal_lower51  495
    u[17]     primal_lower52  857
    u[17]     primal_lower53  691
    u[17]     primal_lower54  832
    u[17]     primal_lower55  564
    u[17]     primal_lower56  853
    u[17]     primal_lower57  134
    u[17]     primal_lower58  744
    u[17]     primal_lower59  525
    u[17]     primal_lower60  951
    u[17]     primal_lower61  983
    u[17]     primal_lower62  584
    u[17]     primal_lower63  294
    u[17]     primal_lower64  505
    u[17]     primal_lower65  172
    u[17]     primal_lower66  936
    u[17]     primal_lower67  466
    u[17]     primal_lower68  926
    u[17]     primal_lower69  482
    u[17]     primal_lower70  696
    u[17]     primal_lower71  872
    u[17]     primal_lower72  44
    u[17]     primal_lower73  594
    u[17]     primal_lower74  164
    u[17]     primal_lower75  350
    u[17]     primal_lower76  368
    u[17]     primal_lower77  581
    u[17]     primal_lower78  888
    u[17]     primal_lower79  212
    u[17]     primal_lower80  402
    u[17]     primal_lower81  893
    u[17]     primal_lower82  572
    u[17]     primal_lower83  682
    u[17]     primal_lower84  811
    u[17]     primal_lower85  996
    u[17]     primal_lower86  118
    u[17]     primal_lower87  59
    u[17]     primal_lower88  396
    u[17]     primal_lower89  412
    u[17]     primal_lower90  649
    u[17]     primal_lower91  643
    u[17]     primal_lower92  904
    u[17]     primal_lower93  906
    u[17]     primal_lower94  751
    u[17]     primal_lower95  145
    u[17]     primal_lower96  724
    u[17]     primal_lower97  290
    u[17]     primal_lower98  193
    u[17]     primal_lower99  753
    u[17]     interdiction[17]  1
    u[17]     mccormick1[17]  -1
    u[17]     mccormick3[17]  1
    u[18]     primal_lower0  890
    u[18]     primal_lower1  604
    u[18]     primal_lower2  928
    u[18]     primal_lower3  610
    u[18]     primal_lower4  240
    u[18]     primal_lower5  947
    u[18]     primal_lower6  431
    u[18]     primal_lower7  625
    u[18]     primal_lower8  140
    u[18]     primal_lower9  836
    u[18]     primal_lower10  654
    u[18]     primal_lower11  371
    u[18]     primal_lower12  563
    u[18]     primal_lower13  781
    u[18]     primal_lower14  317
    u[18]     primal_lower15  163
    u[18]     primal_lower16  153
    u[18]     primal_lower17  538
    u[18]     primal_lower18  646
    u[18]     primal_lower19  314
    u[18]     primal_lower20  470
    u[18]     primal_lower21  46
    u[18]     primal_lower22  143
    u[18]     primal_lower23  817
    u[18]     primal_lower24  861
    u[18]     primal_lower25  380
    u[18]     primal_lower26  323
    u[18]     primal_lower27  835
    u[18]     primal_lower28  68
    u[18]     primal_lower29  668
    u[18]     primal_lower30  320
    u[18]     primal_lower31  919
    u[18]     primal_lower32  47
    u[18]     primal_lower33  823
    u[18]     primal_lower34  841
    u[18]     primal_lower35  468
    u[18]     primal_lower36  81
    u[18]     primal_lower37  17
    u[18]     primal_lower38  181
    u[18]     primal_lower39  721
    u[18]     primal_lower40  437
    u[18]     primal_lower41  329
    u[18]     primal_lower42  264
    u[18]     primal_lower43  363
    u[18]     primal_lower44  885
    u[18]     primal_lower45  435
    u[18]     primal_lower46  555
    u[18]     primal_lower47  355
    u[18]     primal_lower48  473
    u[18]     primal_lower49  260
    u[18]     primal_lower50  489
    u[18]     primal_lower51  764
    u[18]     primal_lower52  630
    u[18]     primal_lower53  996
    u[18]     primal_lower54  193
    u[18]     primal_lower55  77
    u[18]     primal_lower56  670
    u[18]     primal_lower57  807
    u[18]     primal_lower58  893
    u[18]     primal_lower59  154
    u[18]     primal_lower60  64
    u[18]     primal_lower61  700
    u[18]     primal_lower62  185
    u[18]     primal_lower63  363
    u[18]     primal_lower64  46
    u[18]     primal_lower65  125
    u[18]     primal_lower66  901
    u[18]     primal_lower67  727
    u[18]     primal_lower68  667
    u[18]     primal_lower69  451
    u[18]     primal_lower70  481
    u[18]     primal_lower71  237
    u[18]     primal_lower72  473
    u[18]     primal_lower73  363
    u[18]     primal_lower74  441
    u[18]     primal_lower75  635
    u[18]     primal_lower76  633
    u[18]     primal_lower77  406
    u[18]     primal_lower78  329
    u[18]     primal_lower79  77
    u[18]     primal_lower80  459
    u[18]     primal_lower81  270
    u[18]     primal_lower82  173
    u[18]     primal_lower83  259
    u[18]     primal_lower84  956
    u[18]     primal_lower85  673
    u[18]     primal_lower86  111
    u[18]     primal_lower87  52
    u[18]     primal_lower88  97
    u[18]     primal_lower89  793
    u[18]     primal_lower90  214
    u[18]     primal_lower91  140
    u[18]     primal_lower92  117
    u[18]     primal_lower93  347
    u[18]     primal_lower94  496
    u[18]     primal_lower95  22
    u[18]     primal_lower96  829
    u[18]     primal_lower97  979
    u[18]     primal_lower98  822
    u[18]     primal_lower99  806
    u[18]     interdiction[18]  1
    u[18]     mccormick1[18]  -1
    u[18]     mccormick3[18]  1
    u[19]     primal_lower0  655
    u[19]     primal_lower1  953
    u[19]     primal_lower2  21
    u[19]     primal_lower3  979
    u[19]     primal_lower4  441
    u[19]     primal_lower5  660
    u[19]     primal_lower6  236
    u[19]     primal_lower7  818
    u[19]     primal_lower8  517
    u[19]     primal_lower9  893
    u[19]     primal_lower10  591
    u[19]     primal_lower11  548
    u[19]     primal_lower12  768
    u[19]     primal_lower13  106
    u[19]     primal_lower14  254
    u[19]     primal_lower15  384
    u[19]     primal_lower16  62
    u[19]     primal_lower17  919
    u[19]     primal_lower18  367
    u[19]     primal_lower19  695
    u[19]     primal_lower20  179
    u[19]     primal_lower21  503
    u[19]     primal_lower22  776
    u[19]     primal_lower23  386
    u[19]     primal_lower24  490
    u[19]     primal_lower25  225
    u[19]     primal_lower26  404
    u[19]     primal_lower27  20
    u[19]     primal_lower28  537
    u[19]     primal_lower29  301
    u[19]     primal_lower30  829
    u[19]     primal_lower31  700
    u[19]     primal_lower32  380
    u[19]     primal_lower33  524
    u[19]     primal_lower34  518
    u[19]     primal_lower35  621
    u[19]     primal_lower36  22
    u[19]     primal_lower37  822
    u[19]     primal_lower38  678
    u[19]     primal_lower39  966
    u[19]     primal_lower40  326
    u[19]     primal_lower41  802
    u[19]     primal_lower42  197
    u[19]     primal_lower43  240
    u[19]     primal_lower44  378
    u[19]     primal_lower45  244
    u[19]     primal_lower46  212
    u[19]     primal_lower47  376
    u[19]     primal_lower48  126
    u[19]     primal_lower49  905
    u[19]     primal_lower50  938
    u[19]     primal_lower51  373
    u[19]     primal_lower52  447
    u[19]     primal_lower53  873
    u[19]     primal_lower54  526
    u[19]     primal_lower55  146
    u[19]     primal_lower56  971
    u[19]     primal_lower57  468
    u[19]     primal_lower58  638
    u[19]     primal_lower59  475
    u[19]     primal_lower60  157
    u[19]     primal_lower61  749
    u[19]     primal_lower62  462
    u[19]     primal_lower63  956
    u[19]     primal_lower64  159
    u[19]     primal_lower65  634
    u[19]     primal_lower66  102
    u[19]     primal_lower67  976
    u[19]     primal_lower68  340
    u[19]     primal_lower69  312
    u[19]     primal_lower70  174
    u[19]     primal_lower71  38
    u[19]     primal_lower72  506
    u[19]     primal_lower73  488
    u[19]     primal_lower74  642
    u[19]     primal_lower75  988
    u[19]     primal_lower76  614
    u[19]     primal_lower77  819
    u[19]     primal_lower78  294
    u[19]     primal_lower79  106
    u[19]     primal_lower80  784
    u[19]     primal_lower81  947
    u[19]     primal_lower82  74
    u[19]     primal_lower83  944
    u[19]     primal_lower84  105
    u[19]     primal_lower85  842
    u[19]     primal_lower86  84
    u[19]     primal_lower87  505
    u[19]     primal_lower88  106
    u[19]     primal_lower89  490
    u[19]     primal_lower90  839
    u[19]     primal_lower91  473
    u[19]     primal_lower92  718
    u[19]     primal_lower93  800
    u[19]     primal_lower94  741
    u[19]     primal_lower95  351
    u[19]     primal_lower96  546
    u[19]     primal_lower97  632
    u[19]     primal_lower98  823
    u[19]     primal_lower99  487
    u[19]     interdiction[19]  1
    u[19]     mccormick1[19]  -1
    u[19]     mccormick3[19]  1
    u[20]     primal_lower0  334
    u[20]     primal_lower1  192
    u[20]     primal_lower2  436
    u[20]     primal_lower3  38
    u[20]     primal_lower4  156
    u[20]     primal_lower5  863
    u[20]     primal_lower6  11
    u[20]     primal_lower7  589
    u[20]     primal_lower8  576
    u[20]     primal_lower9  8
    u[20]     primal_lower10  506
    u[20]     primal_lower11  527
    u[20]     primal_lower12  735
    u[20]     primal_lower13  753
    u[20]     primal_lower14  649
    u[20]     primal_lower15  487
    u[20]     primal_lower16  965
    u[20]     primal_lower17  342
    u[20]     primal_lower18  578
    u[20]     primal_lower19  990
    u[20]     primal_lower20  434
    u[20]     primal_lower21  82
    u[20]     primal_lower22  339
    u[20]     primal_lower23  397
    u[20]     primal_lower24  905
    u[20]     primal_lower25  848
    u[20]     primal_lower26  287
    u[20]     primal_lower27  399
    u[20]     primal_lower28  376
    u[20]     primal_lower29  840
    u[20]     primal_lower30  900
    u[20]     primal_lower31  395
    u[20]     primal_lower32  947
    u[20]     primal_lower33  395
    u[20]     primal_lower34  285
    u[20]     primal_lower35  752
    u[20]     primal_lower36  437
    u[20]     primal_lower37  333
    u[20]     primal_lower38  81
    u[20]     primal_lower39  77
    u[20]     primal_lower40  961
    u[20]     primal_lower41  477
    u[20]     primal_lower42  548
    u[20]     primal_lower43  495
    u[20]     primal_lower44  161
    u[20]     primal_lower45  783
    u[20]     primal_lower46  455
    u[20]     primal_lower47  599
    u[20]     primal_lower48  997
    u[20]     primal_lower49  320
    u[20]     primal_lower50  37
    u[20]     primal_lower51  584
    u[20]     primal_lower52  642
    u[20]     primal_lower53  992
    u[20]     primal_lower54  805
    u[20]     primal_lower55  481
    u[20]     primal_lower56  978
    u[20]     primal_lower57  555
    u[20]     primal_lower58  321
    u[20]     primal_lower59  654
    u[20]     primal_lower60  428
    u[20]     primal_lower61  984
    u[20]     primal_lower62  877
    u[20]     primal_lower63  847
    u[20]     primal_lower64  258
    u[20]     primal_lower65  713
    u[20]     primal_lower66  817
    u[20]     primal_lower67  339
    u[20]     primal_lower68  847
    u[20]     primal_lower69  743
    u[20]     primal_lower70  29
    u[20]     primal_lower71  241
    u[20]     primal_lower72  245
    u[20]     primal_lower73  47
    u[20]     primal_lower74  973
    u[20]     primal_lower75  311
    u[20]     primal_lower76  437
    u[20]     primal_lower77  138
    u[20]     primal_lower78  877
    u[20]     primal_lower79  969
    u[20]     primal_lower80  271
    u[20]     primal_lower81  786
    u[20]     primal_lower82  97
    u[20]     primal_lower83  159
    u[20]     primal_lower84  480
    u[20]     primal_lower85  509
    u[20]     primal_lower86  235
    u[20]     primal_lower87  320
    u[20]     primal_lower88  981
    u[20]     primal_lower89  301
    u[20]     primal_lower90  810
    u[20]     primal_lower91  288
    u[20]     primal_lower92  545
    u[20]     primal_lower93  647
    u[20]     primal_lower94  244
    u[20]     primal_lower95  522
    u[20]     primal_lower96  945
    u[20]     primal_lower97  175
    u[20]     primal_lower98  450
    u[20]     primal_lower99  218
    u[20]     interdiction[20]  1
    u[20]     mccormick1[20]  -1
    u[20]     mccormick3[20]  1
    u[21]     primal_lower0  953
    u[21]     primal_lower1  51
    u[21]     primal_lower2  783
    u[21]     primal_lower3  12
    u[21]     primal_lower4  938
    u[21]     primal_lower5  509
    u[21]     primal_lower6  414
    u[21]     primal_lower7  915
    u[21]     primal_lower8  134
    u[21]     primal_lower9  374
    u[21]     primal_lower10  936
    u[21]     primal_lower11  701
    u[21]     primal_lower12  218
    u[21]     primal_lower13  428
    u[21]     primal_lower14  903
    u[21]     primal_lower15  514
    u[21]     primal_lower16  312
    u[21]     primal_lower17  801
    u[21]     primal_lower18  448
    u[21]     primal_lower19  321
    u[21]     primal_lower20  941
    u[21]     primal_lower21  448
    u[21]     primal_lower22  881
    u[21]     primal_lower23  811
    u[21]     primal_lower24  732
    u[21]     primal_lower25  251
    u[21]     primal_lower26  797
    u[21]     primal_lower27  61
    u[21]     primal_lower28  667
    u[21]     primal_lower29  622
    u[21]     primal_lower30  7
    u[21]     primal_lower31  894
    u[21]     primal_lower32  566
    u[21]     primal_lower33  822
    u[21]     primal_lower34  744
    u[21]     primal_lower35  838
    u[21]     primal_lower36  856
    u[21]     primal_lower37  656
    u[21]     primal_lower38  271
    u[21]     primal_lower39  128
    u[21]     primal_lower40  47
    u[21]     primal_lower41  395
    u[21]     primal_lower42  799
    u[21]     primal_lower43  458
    u[21]     primal_lower44  412
    u[21]     primal_lower45  733
    u[21]     primal_lower46  437
    u[21]     primal_lower47  794
    u[21]     primal_lower48  888
    u[21]     primal_lower49  363
    u[21]     primal_lower50  931
    u[21]     primal_lower51  254
    u[21]     primal_lower52  160
    u[21]     primal_lower53  243
    u[21]     primal_lower54  816
    u[21]     primal_lower55  700
    u[21]     primal_lower56  133
    u[21]     primal_lower57  46
    u[21]     primal_lower58  823
    u[21]     primal_lower59  716
    u[21]     primal_lower60  191
    u[21]     primal_lower61  286
    u[21]     primal_lower62  664
    u[21]     primal_lower63  533
    u[21]     primal_lower64  752
    u[21]     primal_lower65  780
    u[21]     primal_lower66  375
    u[21]     primal_lower67  17
    u[21]     primal_lower68  37
    u[21]     primal_lower69  514
    u[21]     primal_lower70  544
    u[21]     primal_lower71  503
    u[21]     primal_lower72  315
    u[21]     primal_lower73  354
    u[21]     primal_lower74  331
    u[21]     primal_lower75  941
    u[21]     primal_lower76  144
    u[21]     primal_lower77  405
    u[21]     primal_lower78  872
    u[21]     primal_lower79  452
    u[21]     primal_lower80  938
    u[21]     primal_lower81  581
    u[21]     primal_lower82  356
    u[21]     primal_lower83  298
    u[21]     primal_lower84  619
    u[21]     primal_lower85  403
    u[21]     primal_lower86  278
    u[21]     primal_lower87  931
    u[21]     primal_lower88  491
    u[21]     primal_lower89  259
    u[21]     primal_lower90  776
    u[21]     primal_lower91  203
    u[21]     primal_lower92  135
    u[21]     primal_lower93  834
    u[21]     primal_lower94  335
    u[21]     primal_lower95  952
    u[21]     primal_lower96  196
    u[21]     primal_lower97  506
    u[21]     primal_lower98  864
    u[21]     primal_lower99  968
    u[21]     interdiction[21]  1
    u[21]     mccormick1[21]  -1
    u[21]     mccormick3[21]  1
    u[22]     primal_lower0  565
    u[22]     primal_lower1  639
    u[22]     primal_lower2  795
    u[22]     primal_lower3  237
    u[22]     primal_lower4  419
    u[22]     primal_lower5  38
    u[22]     primal_lower6  746
    u[22]     primal_lower7  612
    u[22]     primal_lower8  39
    u[22]     primal_lower9  7
    u[22]     primal_lower10  945
    u[22]     primal_lower11  14
    u[22]     primal_lower12  366
    u[22]     primal_lower13  240
    u[22]     primal_lower14  144
    u[22]     primal_lower15  6
    u[22]     primal_lower16  300
    u[22]     primal_lower17  93
    u[22]     primal_lower18  777
    u[22]     primal_lower19  29
    u[22]     primal_lower20  1
    u[22]     primal_lower21  689
    u[22]     primal_lower22  506
    u[22]     primal_lower23  148
    u[22]     primal_lower24  728
    u[22]     primal_lower25  847
    u[22]     primal_lower26  342
    u[22]     primal_lower27  38
    u[22]     primal_lower28  375
    u[22]     primal_lower29  367
    u[22]     primal_lower30  771
    u[22]     primal_lower31  338
    u[22]     primal_lower32  498
    u[22]     primal_lower33  218
    u[22]     primal_lower34  372
    u[22]     primal_lower35  399
    u[22]     primal_lower36  804
    u[22]     primal_lower37  724
    u[22]     primal_lower38  1000
    u[22]     primal_lower39  124
    u[22]     primal_lower40  576
    u[22]     primal_lower41  796
    u[22]     primal_lower42  835
    u[22]     primal_lower43  478
    u[22]     primal_lower44  312
    u[22]     primal_lower45  390
    u[22]     primal_lower46  838
    u[22]     primal_lower47  982
    u[22]     primal_lower48  724
    u[22]     primal_lower49  375
    u[22]     primal_lower50  492
    u[22]     primal_lower51  503
    u[22]     primal_lower52  377
    u[22]     primal_lower53  815
    u[22]     primal_lower54  92
    u[22]     primal_lower55  352
    u[22]     primal_lower56  705
    u[22]     primal_lower57  298
    u[22]     primal_lower58  416
    u[22]     primal_lower59  909
    u[22]     primal_lower60  195
    u[22]     primal_lower61  175
    u[22]     primal_lower62  356
    u[22]     primal_lower63  854
    u[22]     primal_lower64  905
    u[22]     primal_lower65  512
    u[22]     primal_lower66  576
    u[22]     primal_lower67  474
    u[22]     primal_lower68  894
    u[22]     primal_lower69  686
    u[22]     primal_lower70  684
    u[22]     primal_lower71  896
    u[22]     primal_lower72  636
    u[22]     primal_lower73  926
    u[22]     primal_lower74  844
    u[22]     primal_lower75  830
    u[22]     primal_lower76  940
    u[22]     primal_lower77  681
    u[22]     primal_lower78  988
    u[22]     primal_lower79  280
    u[22]     primal_lower80  86
    u[22]     primal_lower81  313
    u[22]     primal_lower82  920
    u[22]     primal_lower83  390
    u[22]     primal_lower84  607
    u[22]     primal_lower85  820
    u[22]     primal_lower86  114
    u[22]     primal_lower87  455
    u[22]     primal_lower88  332
    u[22]     primal_lower89  324
    u[22]     primal_lower90  49
    u[22]     primal_lower91  375
    u[22]     primal_lower92  720
    u[22]     primal_lower93  86
    u[22]     primal_lower94  811
    u[22]     primal_lower95  97
    u[22]     primal_lower96  648
    u[22]     primal_lower97  678
    u[22]     primal_lower98  105
    u[22]     primal_lower99  209
    u[22]     interdiction[22]  1
    u[22]     mccormick1[22]  -1
    u[22]     mccormick3[22]  1
    u[23]     primal_lower0  312
    u[23]     primal_lower1  858
    u[23]     primal_lower2  62
    u[23]     primal_lower3  859
    u[23]     primal_lower4  209
    u[23]     primal_lower5  108
    u[23]     primal_lower6  669
    u[23]     primal_lower7  66
    u[23]     primal_lower8  749
    u[23]     primal_lower9  93
    u[23]     primal_lower10  39
    u[23]     primal_lower11  988
    u[23]     primal_lower12  849
    u[23]     primal_lower13  283
    u[23]     primal_lower14  614
    u[23]     primal_lower15  185
    u[23]     primal_lower16  831
    u[23]     primal_lower17  640
    u[23]     primal_lower18  975
    u[23]     primal_lower19  280
    u[23]     primal_lower20  836
    u[23]     primal_lower21  447
    u[23]     primal_lower22  344
    u[23]     primal_lower23  754
    u[23]     primal_lower24  899
    u[23]     primal_lower25  746
    u[23]     primal_lower26  12
    u[23]     primal_lower27  892
    u[23]     primal_lower28  954
    u[23]     primal_lower29  941
    u[23]     primal_lower30  662
    u[23]     primal_lower31  597
    u[23]     primal_lower32  13
    u[23]     primal_lower33  765
    u[23]     primal_lower34  551
    u[23]     primal_lower35  237
    u[23]     primal_lower36  463
    u[23]     primal_lower37  103
    u[23]     primal_lower38  710
    u[23]     primal_lower39  831
    u[23]     primal_lower40  102
    u[23]     primal_lower41  794
    u[23]     primal_lower42  718
    u[23]     primal_lower43  569
    u[23]     primal_lower44  451
    u[23]     primal_lower45  260
    u[23]     primal_lower46  276
    u[23]     primal_lower47  9
    u[23]     primal_lower48  39
    u[23]     primal_lower49  538
    u[23]     primal_lower50  178
    u[23]     primal_lower51  301
    u[23]     primal_lower52  191
    u[23]     primal_lower53  914
    u[23]     primal_lower54  535
    u[23]     primal_lower55  579
    u[23]     primal_lower56  396
    u[23]     primal_lower57  645
    u[23]     primal_lower58  46
    u[23]     primal_lower59  651
    u[23]     primal_lower60  510
    u[23]     primal_lower61  997
    u[23]     primal_lower62  135
    u[23]     primal_lower63  172
    u[23]     primal_lower64  287
    u[23]     primal_lower65  643
    u[23]     primal_lower66  990
    u[23]     primal_lower67  648
    u[23]     primal_lower68  756
    u[23]     primal_lower69  657
    u[23]     primal_lower70  687
    u[23]     primal_lower71  174
    u[23]     primal_lower72  730
    u[23]     primal_lower73  953
    u[23]     primal_lower74  42
    u[23]     primal_lower75  524
    u[23]     primal_lower76  519
    u[23]     primal_lower77  812
    u[23]     primal_lower78  303
    u[23]     primal_lower79  803
    u[23]     primal_lower80  249
    u[23]     primal_lower81  500
    u[23]     primal_lower82  955
    u[23]     primal_lower83  809
    u[23]     primal_lower84  90
    u[23]     primal_lower85  82
    u[23]     primal_lower86  933
    u[23]     primal_lower87  786
    u[23]     primal_lower88  650
    u[23]     primal_lower89  362
    u[23]     primal_lower90  231
    u[23]     primal_lower91  306
    u[23]     primal_lower92  230
    u[23]     primal_lower93  17
    u[23]     primal_lower94  774
    u[23]     primal_lower95  231
    u[23]     primal_lower96  595
    u[23]     primal_lower97  105
    u[23]     primal_lower98  879
    u[23]     primal_lower99  535
    u[23]     interdiction[23]  1
    u[23]     mccormick1[23]  -1
    u[23]     mccormick3[23]  1
    u[24]     primal_lower0  134
    u[24]     primal_lower1  448
    u[24]     primal_lower2  860
    u[24]     primal_lower3  261
    u[24]     primal_lower4  403
    u[24]     primal_lower5  398
    u[24]     primal_lower6  427
    u[24]     primal_lower7  748
    u[24]     primal_lower8  591
    u[24]     primal_lower9  655
    u[24]     primal_lower10  441
    u[24]     primal_lower11  310
    u[24]     primal_lower12  775
    u[24]     primal_lower13  441
    u[24]     primal_lower14  536
    u[24]     primal_lower15  487
    u[24]     primal_lower16  189
    u[24]     primal_lower17  334
    u[24]     primal_lower18  977
    u[24]     primal_lower19  958
    u[24]     primal_lower20  826
    u[24]     primal_lower21  681
    u[24]     primal_lower22  482
    u[24]     primal_lower23  508
    u[24]     primal_lower24  489
    u[24]     primal_lower25  768
    u[24]     primal_lower26  190
    u[24]     primal_lower27  270
    u[24]     primal_lower28  440
    u[24]     primal_lower29  119
    u[24]     primal_lower30  740
    u[24]     primal_lower31  123
    u[24]     primal_lower32  523
    u[24]     primal_lower33  427
    u[24]     primal_lower34  293
    u[24]     primal_lower35  759
    u[24]     primal_lower36  981
    u[24]     primal_lower37  765
    u[24]     primal_lower38  40
    u[24]     primal_lower39  197
    u[24]     primal_lower40  1000
    u[24]     primal_lower41  236
    u[24]     primal_lower42  580
    u[24]     primal_lower43  495
    u[24]     primal_lower44  225
    u[24]     primal_lower45  670
    u[24]     primal_lower46  134
    u[24]     primal_lower47  967
    u[24]     primal_lower48  381
    u[24]     primal_lower49  360
    u[24]     primal_lower50  428
    u[24]     primal_lower51  815
    u[24]     primal_lower52  281
    u[24]     primal_lower53  40
    u[24]     primal_lower54  581
    u[24]     primal_lower55  129
    u[24]     primal_lower56  50
    u[24]     primal_lower57  11
    u[24]     primal_lower58  920
    u[24]     primal_lower59  661
    u[24]     primal_lower60  92
    u[24]     primal_lower61  879
    u[24]     primal_lower62  701
    u[24]     primal_lower63  710
    u[24]     primal_lower64  89
    u[24]     primal_lower65  161
    u[24]     primal_lower66  784
    u[24]     primal_lower67  994
    u[24]     primal_lower68  246
    u[24]     primal_lower69  575
    u[24]     primal_lower70  877
    u[24]     primal_lower71  952
    u[24]     primal_lower72  204
    u[24]     primal_lower73  887
    u[24]     primal_lower74  716
    u[24]     primal_lower75  134
    u[24]     primal_lower76  789
    u[24]     primal_lower77  26
    u[24]     primal_lower78  357
    u[24]     primal_lower79  569
    u[24]     primal_lower80  791
    u[24]     primal_lower81  570
    u[24]     primal_lower82  753
    u[24]     primal_lower83  167
    u[24]     primal_lower84  296
    u[24]     primal_lower85  164
    u[24]     primal_lower86  427
    u[24]     primal_lower87  712
    u[24]     primal_lower88  836
    u[24]     primal_lower89  420
    u[24]     primal_lower90  113
    u[24]     primal_lower91  328
    u[24]     primal_lower92  416
    u[24]     primal_lower93  239
    u[24]     primal_lower94  68
    u[24]     primal_lower95  809
    u[24]     primal_lower96  33
    u[24]     primal_lower97  175
    u[24]     primal_lower98  41
    u[24]     primal_lower99  297
    u[24]     interdiction[24]  1
    u[24]     mccormick1[24]  -1
    u[24]     mccormick3[24]  1
    u[25]     primal_lower0  657
    u[25]     primal_lower1  179
    u[25]     primal_lower2  215
    u[25]     primal_lower3  901
    u[25]     primal_lower4  539
    u[25]     primal_lower5  694
    u[25]     primal_lower6  542
    u[25]     primal_lower7  796
    u[25]     primal_lower8  599
    u[25]     primal_lower9  183
    u[25]     primal_lower10  793
    u[25]     primal_lower11  318
    u[25]     primal_lower12  762
    u[25]     primal_lower13  860
    u[25]     primal_lower14  48
    u[25]     primal_lower15  458
    u[25]     primal_lower16  552
    u[25]     primal_lower17  481
    u[25]     primal_lower18  273
    u[25]     primal_lower19  329
    u[25]     primal_lower20  589
    u[25]     primal_lower21  241
    u[25]     primal_lower22  602
    u[25]     primal_lower23  332
    u[25]     primal_lower24  84
    u[25]     primal_lower25  123
    u[25]     primal_lower26  286
    u[25]     primal_lower27  46
    u[25]     primal_lower28  43
    u[25]     primal_lower29  599
    u[25]     primal_lower30  335
    u[25]     primal_lower31  646
    u[25]     primal_lower32  950
    u[25]     primal_lower33  718
    u[25]     primal_lower34  712
    u[25]     primal_lower35  63
    u[25]     primal_lower36  240
    u[25]     primal_lower37  296
    u[25]     primal_lower38  360
    u[25]     primal_lower39  640
    u[25]     primal_lower40  256
    u[25]     primal_lower41  476
    u[25]     primal_lower42  767
    u[25]     primal_lower43  82
    u[25]     primal_lower44  556
    u[25]     primal_lower45  358
    u[25]     primal_lower46  854
    u[25]     primal_lower47  34
    u[25]     primal_lower48  8
    u[25]     primal_lower49  155
    u[25]     primal_lower50  820
    u[25]     primal_lower51  7
    u[25]     primal_lower52  369
    u[25]     primal_lower53  243
    u[25]     primal_lower54  880
    u[25]     primal_lower55  860
    u[25]     primal_lower56  645
    u[25]     primal_lower57  806
    u[25]     primal_lower58  416
    u[25]     primal_lower59  741
    u[25]     primal_lower60  759
    u[25]     primal_lower61  23
    u[25]     primal_lower62  408
    u[25]     primal_lower63  94
    u[25]     primal_lower64  193
    u[25]     primal_lower65  940
    u[25]     primal_lower66  272
    u[25]     primal_lower67  490
    u[25]     primal_lower68  174
    u[25]     primal_lower69  458
    u[25]     primal_lower70  248
    u[25]     primal_lower71  104
    u[25]     primal_lower72  396
    u[25]     primal_lower73  226
    u[25]     primal_lower74  740
    u[25]     primal_lower75  654
    u[25]     primal_lower76  848
    u[25]     primal_lower77  981
    u[25]     primal_lower78  528
    u[25]     primal_lower79  948
    u[25]     primal_lower80  738
    u[25]     primal_lower81  813
    u[25]     primal_lower82  644
    u[25]     primal_lower83  538
    u[25]     primal_lower84  779
    u[25]     primal_lower85  884
    u[25]     primal_lower86  798
    u[25]     primal_lower87  3
    u[25]     primal_lower88  44
    u[25]     primal_lower89  52
    u[25]     primal_lower90  257
    u[25]     primal_lower91  643
    u[25]     primal_lower92  944
    u[25]     primal_lower93  42
    u[25]     primal_lower94  151
    u[25]     primal_lower95  393
    u[25]     primal_lower96  564
    u[25]     primal_lower97  634
    u[25]     primal_lower98  905
    u[25]     primal_lower99  577
    u[25]     interdiction[25]  1
    u[25]     mccormick1[25]  -1
    u[25]     mccormick3[25]  1
    u[26]     primal_lower0  299
    u[26]     primal_lower1  333
    u[26]     primal_lower2  633
    u[26]     primal_lower3  835
    u[26]     primal_lower4  369
    u[26]     primal_lower5  588
    u[26]     primal_lower6  840
    u[26]     primal_lower7  554
    u[26]     primal_lower8  621
    u[26]     primal_lower9  637
    u[26]     primal_lower10  255
    u[26]     primal_lower11  668
    u[26]     primal_lower12  948
    u[26]     primal_lower13  622
    u[26]     primal_lower14  678
    u[26]     primal_lower15  396
    u[26]     primal_lower16  106
    u[26]     primal_lower17  779
    u[26]     primal_lower18  47
    u[26]     primal_lower19  803
    u[26]     primal_lower20  159
    u[26]     primal_lower21  951
    u[26]     primal_lower22  624
    u[26]     primal_lower23  82
    u[26]     primal_lower24  22
    u[26]     primal_lower25  261
    u[26]     primal_lower26  980
    u[26]     primal_lower27  748
    u[26]     primal_lower28  797
    u[26]     primal_lower29  885
    u[26]     primal_lower30  809
    u[26]     primal_lower31  304
    u[26]     primal_lower32  568
    u[26]     primal_lower33  64
    u[26]     primal_lower34  10
    u[26]     primal_lower35  37
    u[26]     primal_lower36  562
    u[26]     primal_lower37  706
    u[26]     primal_lower38  214
    u[26]     primal_lower39  866
    u[26]     primal_lower40  22
    u[26]     primal_lower41  738
    u[26]     primal_lower42  833
    u[26]     primal_lower43  20
    u[26]     primal_lower44  574
    u[26]     primal_lower45  124
    u[26]     primal_lower46  444
    u[26]     primal_lower47  596
    u[26]     primal_lower48  642
    u[26]     primal_lower49  965
    u[26]     primal_lower50  242
    u[26]     primal_lower51  101
    u[26]     primal_lower52  503
    u[26]     primal_lower53  333
    u[26]     primal_lower54  26
    u[26]     primal_lower55  678
    u[26]     primal_lower56  87
    u[26]     primal_lower57  336
    u[26]     primal_lower58  902
    u[26]     primal_lower59  707
    u[26]     primal_lower60  201
    u[26]     primal_lower61  765
    u[26]     primal_lower62  106
    u[26]     primal_lower63  436
    u[26]     primal_lower64  279
    u[26]     primal_lower65  982
    u[26]     primal_lower66  950
    u[26]     primal_lower67  624
    u[26]     primal_lower68  580
    u[26]     primal_lower69  324
    u[26]     primal_lower70  514
    u[26]     primal_lower71  246
    u[26]     primal_lower72  434
    u[26]     primal_lower73  476
    u[26]     primal_lower74  882
    u[26]     primal_lower75  420
    u[26]     primal_lower76  706
    u[26]     primal_lower77  823
    u[26]     primal_lower78  818
    u[26]     primal_lower79  582
    u[26]     primal_lower80  676
    u[26]     primal_lower81  567
    u[26]     primal_lower82  214
    u[26]     primal_lower83  908
    u[26]     primal_lower84  277
    u[26]     primal_lower85  610
    u[26]     primal_lower86  328
    u[26]     primal_lower87  869
    u[26]     primal_lower88  410
    u[26]     primal_lower89  226
    u[26]     primal_lower90  447
    u[26]     primal_lower91  757
    u[26]     primal_lower92  198
    u[26]     primal_lower93  468
    u[26]     primal_lower94  737
    u[26]     primal_lower95  399
    u[26]     primal_lower96  46
    u[26]     primal_lower97  396
    u[26]     primal_lower98  223
    u[26]     primal_lower99  447
    u[26]     interdiction[26]  1
    u[26]     mccormick1[26]  -1
    u[26]     mccormick3[26]  1
    u[27]     primal_lower0  737
    u[27]     primal_lower1  955
    u[27]     primal_lower2  895
    u[27]     primal_lower3  708
    u[27]     primal_lower4  434
    u[27]     primal_lower5  469
    u[27]     primal_lower6  766
    u[27]     primal_lower7  483
    u[27]     primal_lower8  894
    u[27]     primal_lower9  958
    u[27]     primal_lower10  496
    u[27]     primal_lower11  693
    u[27]     primal_lower12  554
    u[27]     primal_lower13  316
    u[27]     primal_lower14  927
    u[27]     primal_lower15  786
    u[27]     primal_lower16  552
    u[27]     primal_lower17  969
    u[27]     primal_lower18  880
    u[27]     primal_lower19  145
    u[27]     primal_lower20  837
    u[27]     primal_lower21  856
    u[27]     primal_lower22  721
    u[27]     primal_lower23  403
    u[27]     primal_lower24  244
    u[27]     primal_lower25  875
    u[27]     primal_lower26  941
    u[27]     primal_lower27  165
    u[27]     primal_lower28  387
    u[27]     primal_lower29  6
    u[27]     primal_lower30  991
    u[27]     primal_lower31  582
    u[27]     primal_lower32  454
    u[27]     primal_lower33  46
    u[27]     primal_lower34  552
    u[27]     primal_lower35  62
    u[27]     primal_lower36  48
    u[27]     primal_lower37  376
    u[27]     primal_lower38  55
    u[27]     primal_lower39  80
    u[27]     primal_lower40  207
    u[27]     primal_lower41  939
    u[27]     primal_lower42  303
    u[27]     primal_lower43  162
    u[27]     primal_lower44  308
    u[27]     primal_lower45  933
    u[27]     primal_lower46  125
    u[27]     primal_lower47  114
    u[27]     primal_lower48  24
    u[27]     primal_lower49  627
    u[27]     primal_lower50  51
    u[27]     primal_lower51  262
    u[27]     primal_lower52  768
    u[27]     primal_lower53  811
    u[27]     primal_lower54  344
    u[27]     primal_lower55  900
    u[27]     primal_lower56  565
    u[27]     primal_lower57  310
    u[27]     primal_lower58  535
    u[27]     primal_lower59  196
    u[27]     primal_lower60  791
    u[27]     primal_lower61  374
    u[27]     primal_lower62  608
    u[27]     primal_lower63  653
    u[27]     primal_lower64  488
    u[27]     primal_lower65  836
    u[27]     primal_lower66  431
    u[27]     primal_lower67  289
    u[27]     primal_lower68  309
    u[27]     primal_lower69  538
    u[27]     primal_lower70  392
    u[27]     primal_lower71  727
    u[27]     primal_lower72  3
    u[27]     primal_lower73  954
    u[27]     primal_lower74  931
    u[27]     primal_lower75  341
    u[27]     primal_lower76  1000
    u[27]     primal_lower77  93
    u[27]     primal_lower78  808
    u[27]     primal_lower79  300
    u[27]     primal_lower80  930
    u[27]     primal_lower81  357
    u[27]     primal_lower82  460
    u[27]     primal_lower83  114
    u[27]     primal_lower84  243
    u[27]     primal_lower85  579
    u[27]     primal_lower86  382
    u[27]     primal_lower87  507
    u[27]     primal_lower88  723
    u[27]     primal_lower89  651
    u[27]     primal_lower90  344
    u[27]     primal_lower91  603
    u[27]     primal_lower92  663
    u[27]     primal_lower93  434
    u[27]     primal_lower94  335
    u[27]     primal_lower95  456
    u[27]     primal_lower96  940
    u[27]     primal_lower97  642
    u[27]     primal_lower98  880
    u[27]     primal_lower99  440
    u[27]     interdiction[27]  1
    u[27]     mccormick1[27]  -1
    u[27]     mccormick3[27]  1
    u[28]     primal_lower0  895
    u[28]     primal_lower1  993
    u[28]     primal_lower2  13
    u[28]     primal_lower3  494
    u[28]     primal_lower4  740
    u[28]     primal_lower5  191
    u[28]     primal_lower6  796
    u[28]     primal_lower7  973
    u[28]     primal_lower8  528
    u[28]     primal_lower9  200
    u[28]     primal_lower10  850
    u[28]     primal_lower11  583
    u[28]     primal_lower12  176
    u[28]     primal_lower13  634
    u[28]     primal_lower14  345
    u[28]     primal_lower15  528
    u[28]     primal_lower16  206
    u[28]     primal_lower17  799
    u[28]     primal_lower18  74
    u[28]     primal_lower19  463
    u[28]     primal_lower20  27
    u[28]     primal_lower21  42
    u[28]     primal_lower22  107
    u[28]     primal_lower23  573
    u[28]     primal_lower24  842
    u[28]     primal_lower25  801
    u[28]     primal_lower26  871
    u[28]     primal_lower27  479
    u[28]     primal_lower28  169
    u[28]     primal_lower29  840
    u[28]     primal_lower30  621
    u[28]     primal_lower31  716
    u[28]     primal_lower32  20
    u[28]     primal_lower33  780
    u[28]     primal_lower34  246
    u[28]     primal_lower35  160
    u[28]     primal_lower36  366
    u[28]     primal_lower37  438
    u[28]     primal_lower38  489
    u[28]     primal_lower39  614
    u[28]     primal_lower40  201
    u[28]     primal_lower41  885
    u[28]     primal_lower42  437
    u[28]     primal_lower43  256
    u[28]     primal_lower44  674
    u[28]     primal_lower45  71
    u[28]     primal_lower46  735
    u[28]     primal_lower47  648
    u[28]     primal_lower48  390
    u[28]     primal_lower49  873
    u[28]     primal_lower50  765
    u[28]     primal_lower51  392
    u[28]     primal_lower52  250
    u[28]     primal_lower53  673
    u[28]     primal_lower54  478
    u[28]     primal_lower55  642
    u[28]     primal_lower56  403
    u[28]     primal_lower57  548
    u[28]     primal_lower58  897
    u[28]     primal_lower59  6
    u[28]     primal_lower60  589
    u[28]     primal_lower61  136
    u[28]     primal_lower62  382
    u[28]     primal_lower63  967
    u[28]     primal_lower64  266
    u[28]     primal_lower65  530
    u[28]     primal_lower66  449
    u[28]     primal_lower67  683
    u[28]     primal_lower68  519
    u[28]     primal_lower69  648
    u[28]     primal_lower70  910
    u[28]     primal_lower71  473
    u[28]     primal_lower72  997
    u[28]     primal_lower73  744
    u[28]     primal_lower74  85
    u[28]     primal_lower75  119
    u[28]     primal_lower76  190
    u[28]     primal_lower77  227
    u[28]     primal_lower78  6
    u[28]     primal_lower79  146
    u[28]     primal_lower80  496
    u[28]     primal_lower81  715
    u[28]     primal_lower82  298
    u[28]     primal_lower83  344
    u[28]     primal_lower84  913
    u[28]     primal_lower85  709
    u[28]     primal_lower86  804
    u[28]     primal_lower87  65
    u[28]     primal_lower88  701
    u[28]     primal_lower89  445
    u[28]     primal_lower90  34
    u[28]     primal_lower91  801
    u[28]     primal_lower92  337
    u[28]     primal_lower93  400
    u[28]     primal_lower94  445
    u[28]     primal_lower95  754
    u[28]     primal_lower96  210
    u[28]     primal_lower97  968
    u[28]     primal_lower98  42
    u[28]     primal_lower99  586
    u[28]     interdiction[28]  1
    u[28]     mccormick1[28]  -1
    u[28]     mccormick3[28]  1
    u[29]     primal_lower0  544
    u[29]     primal_lower1  946
    u[29]     primal_lower2  886
    u[29]     primal_lower3  948
    u[29]     primal_lower4  306
    u[29]     primal_lower5  245
    u[29]     primal_lower6  677
    u[29]     primal_lower7  259
    u[29]     primal_lower8  710
    u[29]     primal_lower9  382
    u[29]     primal_lower10  832
    u[29]     primal_lower11  269
    u[29]     primal_lower12  377
    u[29]     primal_lower13  619
    u[29]     primal_lower14  767
    u[29]     primal_lower15  905
    u[29]     primal_lower16  687
    u[29]     primal_lower17  576
    u[29]     primal_lower18  552
    u[29]     primal_lower19  328
    u[29]     primal_lower20  180
    u[29]     primal_lower21  864
    u[29]     primal_lower22  769
    u[29]     primal_lower23  195
    u[29]     primal_lower24  395
    u[29]     primal_lower25  746
    u[29]     primal_lower26  437
    u[29]     primal_lower27  277
    u[29]     primal_lower28  50
    u[29]     primal_lower29  390
    u[29]     primal_lower30  638
    u[29]     primal_lower31  741
    u[29]     primal_lower32  581
    u[29]     primal_lower33  645
    u[29]     primal_lower34  319
    u[29]     primal_lower35  22
    u[29]     primal_lower36  255
    u[29]     primal_lower37  151
    u[29]     primal_lower38  959
    u[29]     primal_lower39  215
    u[29]     primal_lower40  183
    u[29]     primal_lower41  75
    u[29]     primal_lower42  102
    u[29]     primal_lower43  825
    u[29]     primal_lower44  35
    u[29]     primal_lower45  365
    u[29]     primal_lower46  365
    u[29]     primal_lower47  889
    u[29]     primal_lower48  951
    u[29]     primal_lower49  306
    u[29]     primal_lower50  931
    u[29]     primal_lower51  262
    u[29]     primal_lower52  544
    u[29]     primal_lower53  130
    u[29]     primal_lower54  103
    u[29]     primal_lower55  547
    u[29]     primal_lower56  396
    u[29]     primal_lower57  709
    u[29]     primal_lower58  559
    u[29]     primal_lower59  236
    u[29]     primal_lower60  390
    u[29]     primal_lower61  918
    u[29]     primal_lower62  15
    u[29]     primal_lower63  909
    u[29]     primal_lower64  576
    u[29]     primal_lower65  947
    u[29]     primal_lower66  903
    u[29]     primal_lower67  625
    u[29]     primal_lower68  173
    u[29]     primal_lower69  401
    u[29]     primal_lower70  399
    u[29]     primal_lower71  639
    u[29]     primal_lower72  483
    u[29]     primal_lower73  793
    u[29]     primal_lower74  3
    u[29]     primal_lower75  717
    u[29]     primal_lower76  143
    u[29]     primal_lower77  692
    u[29]     primal_lower78  863
    u[29]     primal_lower79  163
    u[29]     primal_lower80  705
    u[29]     primal_lower81  988
    u[29]     primal_lower82  147
    u[29]     primal_lower83  617
    u[29]     primal_lower84  530
    u[29]     primal_lower85  563
    u[29]     primal_lower86  829
    u[29]     primal_lower87  330
    u[29]     primal_lower88  523
    u[29]     primal_lower89  403
    u[29]     primal_lower90  872
    u[29]     primal_lower91  786
    u[29]     primal_lower92  727
    u[29]     primal_lower93  697
    u[29]     primal_lower94  894
    u[29]     primal_lower95  560
    u[29]     primal_lower96  819
    u[29]     primal_lower97  697
    u[29]     primal_lower98  480
    u[29]     primal_lower99  240
    u[29]     interdiction[29]  1
    u[29]     mccormick1[29]  -1
    u[29]     mccormick3[29]  1
    u[30]     primal_lower0  291
    u[30]     primal_lower1  541
    u[30]     primal_lower2  705
    u[30]     primal_lower3  450
    u[30]     primal_lower4  48
    u[30]     primal_lower5  379
    u[30]     primal_lower6  256
    u[30]     primal_lower7  769
    u[30]     primal_lower8  372
    u[30]     primal_lower9  756
    u[30]     primal_lower10  502
    u[30]     primal_lower11  667
    u[30]     primal_lower12  268
    u[30]     primal_lower13  382
    u[30]     primal_lower14  549
    u[30]     primal_lower15  684
    u[30]     primal_lower16  402
    u[30]     primal_lower17  331
    u[30]     primal_lower18  190
    u[30]     primal_lower19  491
    u[30]     primal_lower20  231
    u[30]     primal_lower21  766
    u[30]     primal_lower22  303
    u[30]     primal_lower23  425
    u[30]     primal_lower24  414
    u[30]     primal_lower25  653
    u[30]     primal_lower26  27
    u[30]     primal_lower27  83
    u[30]     primal_lower28  605
    u[30]     primal_lower29  236
    u[30]     primal_lower30  353
    u[30]     primal_lower31  552
    u[30]     primal_lower32  392
    u[30]     primal_lower33  176
    u[30]     primal_lower34  426
    u[30]     primal_lower35  236
    u[30]     primal_lower36  850
    u[30]     primal_lower37  306
    u[30]     primal_lower38  253
    u[30]     primal_lower39  866
    u[30]     primal_lower40  773
    u[30]     primal_lower41  513
    u[30]     primal_lower42  777
    u[30]     primal_lower43  244
    u[30]     primal_lower44  550
    u[30]     primal_lower45  291
    u[30]     primal_lower46  771
    u[30]     primal_lower47  36
    u[30]     primal_lower48  610
    u[30]     primal_lower49  357
    u[30]     primal_lower50  457
    u[30]     primal_lower51  868
    u[30]     primal_lower52  454
    u[30]     primal_lower53  773
    u[30]     primal_lower54  106
    u[30]     primal_lower55  350
    u[30]     primal_lower56  7
    u[30]     primal_lower57  16
    u[30]     primal_lower58  981
    u[30]     primal_lower59  306
    u[30]     primal_lower60  57
    u[30]     primal_lower61  628
    u[30]     primal_lower62  930
    u[30]     primal_lower63  859
    u[30]     primal_lower64  726
    u[30]     primal_lower65  902
    u[30]     primal_lower66  397
    u[30]     primal_lower67  31
    u[30]     primal_lower68  371
    u[30]     primal_lower69  116
    u[30]     primal_lower70  106
    u[30]     primal_lower71  981
    u[30]     primal_lower72  961
    u[30]     primal_lower73  444
    u[30]     primal_lower74  969
    u[30]     primal_lower75  139
    u[30]     primal_lower76  370
    u[30]     primal_lower77  743
    u[30]     primal_lower78  706
    u[30]     primal_lower79  958
    u[30]     primal_lower80  308
    u[30]     primal_lower81  271
    u[30]     primal_lower82  782
    u[30]     primal_lower83  620
    u[30]     primal_lower84  357
    u[30]     primal_lower85  729
    u[30]     primal_lower86  984
    u[30]     primal_lower87  221
    u[30]     primal_lower88  481
    u[30]     primal_lower89  513
    u[30]     primal_lower90  246
    u[30]     primal_lower91  349
    u[30]     primal_lower92  621
    u[30]     primal_lower93  844
    u[30]     primal_lower94  897
    u[30]     primal_lower95  70
    u[30]     primal_lower96  262
    u[30]     primal_lower97  388
    u[30]     primal_lower98  110
    u[30]     primal_lower99  518
    u[30]     interdiction[30]  1
    u[30]     mccormick1[30]  -1
    u[30]     mccormick3[30]  1
    u[31]     primal_lower0  53
    u[31]     primal_lower1  767
    u[31]     primal_lower2  419
    u[31]     primal_lower3  672
    u[31]     primal_lower4  894
    u[31]     primal_lower5  625
    u[31]     primal_lower6  202
    u[31]     primal_lower7  943
    u[31]     primal_lower8  322
    u[31]     primal_lower9  906
    u[31]     primal_lower10  68
    u[31]     primal_lower11  849
    u[31]     primal_lower12  702
    u[31]     primal_lower13  304
    u[31]     primal_lower14  3
    u[31]     primal_lower15  646
    u[31]     primal_lower16  828
    u[31]     primal_lower17  29
    u[31]     primal_lower18  100
    u[31]     primal_lower19  581
    u[31]     primal_lower20  617
    u[31]     primal_lower21  572
    u[31]     primal_lower22  437
    u[31]     primal_lower23  375
    u[31]     primal_lower24  976
    u[31]     primal_lower25  767
    u[31]     primal_lower26  785
    u[31]     primal_lower27  305
    u[31]     primal_lower28  47
    u[31]     primal_lower29  186
    u[31]     primal_lower30  427
    u[31]     primal_lower31  666
    u[31]     primal_lower32  482
    u[31]     primal_lower33  946
    u[31]     primal_lower34  700
    u[31]     primal_lower35  970
    u[31]     primal_lower36  676
    u[31]     primal_lower37  676
    u[31]     primal_lower38  707
    u[31]     primal_lower39  156
    u[31]     primal_lower40  35
    u[31]     primal_lower41  343
    u[31]     primal_lower42  923
    u[31]     primal_lower43  238
    u[31]     primal_lower44  320
    u[31]     primal_lower45  657
    u[31]     primal_lower46  833
    u[31]     primal_lower47  454
    u[31]     primal_lower48  852
    u[31]     primal_lower49  511
    u[31]     primal_lower50  615
    u[31]     primal_lower51  50
    u[31]     primal_lower52  980
    u[31]     primal_lower53  823
    u[31]     primal_lower54  404
    u[31]     primal_lower55  896
    u[31]     primal_lower56  17
    u[31]     primal_lower57  618
    u[31]     primal_lower58  75
    u[31]     primal_lower59  216
    u[31]     primal_lower60  523
    u[31]     primal_lower61  866
    u[31]     primal_lower62  876
    u[31]     primal_lower63  281
    u[31]     primal_lower64  236
    u[31]     primal_lower65  72
    u[31]     primal_lower66  715
    u[31]     primal_lower67  813
    u[31]     primal_lower68  217
    u[31]     primal_lower69  454
    u[31]     primal_lower70  668
    u[31]     primal_lower71  411
    u[31]     primal_lower72  975
    u[31]     primal_lower73  822
    u[31]     primal_lower74  215
    u[31]     primal_lower75  649
    u[31]     primal_lower76  292
    u[31]     primal_lower77  369
    u[31]     primal_lower78  132
    u[31]     primal_lower79  192
    u[31]     primal_lower80  646
    u[31]     primal_lower81  369
    u[31]     primal_lower82  616
    u[31]     primal_lower83  766
    u[31]     primal_lower84  839
    u[31]     primal_lower85  855
    u[31]     primal_lower86  842
    u[31]     primal_lower87  103
    u[31]     primal_lower88  703
    u[31]     primal_lower89  287
    u[31]     primal_lower90  132
    u[31]     primal_lower91  567
    u[31]     primal_lower92  379
    u[31]     primal_lower93  630
    u[31]     primal_lower94  451
    u[31]     primal_lower95  292
    u[31]     primal_lower96  848
    u[31]     primal_lower97  294
    u[31]     primal_lower98  412
    u[31]     primal_lower99  436
    u[31]     interdiction[31]  1
    u[31]     mccormick1[31]  -1
    u[31]     mccormick3[31]  1
    u[32]     primal_lower0  373
    u[32]     primal_lower1  559
    u[32]     primal_lower2  635
    u[32]     primal_lower3  12
    u[32]     primal_lower4  594
    u[32]     primal_lower5  437
    u[32]     primal_lower6  986
    u[32]     primal_lower7  795
    u[32]     primal_lower8  790
    u[32]     primal_lower9  214
    u[32]     primal_lower10  632
    u[32]     primal_lower11  845
    u[32]     primal_lower12  598
    u[32]     primal_lower13  368
    u[32]     primal_lower14  263
    u[32]     primal_lower15  302
    u[32]     primal_lower16  228
    u[32]     primal_lower17  437
    u[32]     primal_lower18  480
    u[32]     primal_lower19  829
    u[32]     primal_lower20  857
    u[32]     primal_lower21  120
    u[32]     primal_lower22  937
    u[32]     primal_lower23  811
    u[32]     primal_lower24  872
    u[32]     primal_lower25  423
    u[32]     primal_lower26  197
    u[32]     primal_lower27  405
    u[32]     primal_lower28  167
    u[32]     primal_lower29  726
    u[32]     primal_lower30  315
    u[32]     primal_lower31  730
    u[32]     primal_lower32  130
    u[32]     primal_lower33  490
    u[32]     primal_lower34  972
    u[32]     primal_lower35  430
    u[32]     primal_lower36  988
    u[32]     primal_lower37  668
    u[32]     primal_lower38  879
    u[32]     primal_lower39  316
    u[32]     primal_lower40  87
    u[32]     primal_lower41  787
    u[32]     primal_lower42  379
    u[32]     primal_lower43  718
    u[32]     primal_lower44  232
    u[32]     primal_lower45  461
    u[32]     primal_lower46  653
    u[32]     primal_lower47  86
    u[32]     primal_lower48  868
    u[32]     primal_lower49  959
    u[32]     primal_lower50  931
    u[32]     primal_lower51  142
    u[32]     primal_lower52  392
    u[32]     primal_lower53  87
    u[32]     primal_lower54  428
    u[32]     primal_lower55  912
    u[32]     primal_lower56  25
    u[32]     primal_lower57  810
    u[32]     primal_lower58  375
    u[32]     primal_lower59  540
    u[32]     primal_lower60  563
    u[32]     primal_lower61  246
    u[32]     primal_lower62  564
    u[32]     primal_lower63  581
    u[32]     primal_lower64  888
    u[32]     primal_lower65  800
    u[32]     primal_lower66  127
    u[32]     primal_lower67  273
    u[32]     primal_lower68  749
    u[32]     primal_lower69  758
    u[32]     primal_lower70  276
    u[32]     primal_lower71  439
    u[32]     primal_lower72  91
    u[32]     primal_lower73  182
    u[32]     primal_lower74  243
    u[32]     primal_lower75  821
    u[32]     primal_lower76  340
    u[32]     primal_lower77  57
    u[32]     primal_lower78  236
    u[32]     primal_lower79  728
    u[32]     primal_lower80  742
    u[32]     primal_lower81  433
    u[32]     primal_lower82  504
    u[32]     primal_lower83  974
    u[32]     primal_lower84  23
    u[32]     primal_lower85  155
    u[32]     primal_lower86  978
    u[32]     primal_lower87  31
    u[32]     primal_lower88  579
    u[32]     primal_lower89  219
    u[32]     primal_lower90  544
    u[32]     primal_lower91  575
    u[32]     primal_lower92  967
    u[32]     primal_lower93  462
    u[32]     primal_lower94  539
    u[32]     primal_lower95  664
    u[32]     primal_lower96  72
    u[32]     primal_lower97  326
    u[32]     primal_lower98  408
    u[32]     primal_lower99  984
    u[32]     interdiction[32]  1
    u[32]     mccormick1[32]  -1
    u[32]     mccormick3[32]  1
    u[33]     primal_lower0  854
    u[33]     primal_lower1  816
    u[33]     primal_lower2  596
    u[33]     primal_lower3  466
    u[33]     primal_lower4  320
    u[33]     primal_lower5  155
    u[33]     primal_lower6  691
    u[33]     primal_lower7  281
    u[33]     primal_lower8  460
    u[33]     primal_lower9  204
    u[33]     primal_lower10  262
    u[33]     primal_lower11  443
    u[33]     primal_lower12  167
    u[33]     primal_lower13  73
    u[33]     primal_lower14  301
    u[33]     primal_lower15  871
    u[33]     primal_lower16  333
    u[33]     primal_lower17  166
    u[33]     primal_lower18  102
    u[33]     primal_lower19  854
    u[33]     primal_lower20  514
    u[33]     primal_lower21  566
    u[33]     primal_lower22  975
    u[33]     primal_lower23  153
    u[33]     primal_lower24  97
    u[33]     primal_lower25  104
    u[33]     primal_lower26  411
    u[33]     primal_lower27  187
    u[33]     primal_lower28  360
    u[33]     primal_lower29  284
    u[33]     primal_lower30  884
    u[33]     primal_lower31  115
    u[33]     primal_lower32  91
    u[33]     primal_lower33  867
    u[33]     primal_lower34  325
    u[33]     primal_lower35  84
    u[33]     primal_lower36  517
    u[33]     primal_lower37  253
    u[33]     primal_lower38  453
    u[33]     primal_lower39  597
    u[33]     primal_lower40  317
    u[33]     primal_lower41  969
    u[33]     primal_lower42  668
    u[33]     primal_lower43  647
    u[33]     primal_lower44  921
    u[33]     primal_lower45  147
    u[33]     primal_lower46  307
    u[33]     primal_lower47  943
    u[33]     primal_lower48  933
    u[33]     primal_lower49  288
    u[33]     primal_lower50  817
    u[33]     primal_lower51  676
    u[33]     primal_lower52  854
    u[33]     primal_lower53  888
    u[33]     primal_lower54  485
    u[33]     primal_lower55  377
    u[33]     primal_lower56  546
    u[33]     primal_lower57  619
    u[33]     primal_lower58  485
    u[33]     primal_lower59  314
    u[33]     primal_lower60  820
    u[33]     primal_lower61  212
    u[33]     primal_lower62  13
    u[33]     primal_lower63  723
    u[33]     primal_lower64  678
    u[33]     primal_lower65  313
    u[33]     primal_lower66  677
    u[33]     primal_lower67  23
    u[33]     primal_lower68  139
    u[33]     primal_lower69  39
    u[33]     primal_lower70  693
    u[33]     primal_lower71  861
    u[33]     primal_lower72  225
    u[33]     primal_lower73  287
    u[33]     primal_lower74  897
    u[33]     primal_lower75  107
    u[33]     primal_lower76  981
    u[33]     primal_lower77  562
    u[33]     primal_lower78  325
    u[33]     primal_lower79  481
    u[33]     primal_lower80  999
    u[33]     primal_lower81  74
    u[33]     primal_lower82  1
    u[33]     primal_lower83  935
    u[33]     primal_lower84  728
    u[33]     primal_lower85  729
    u[33]     primal_lower86  947
    u[33]     primal_lower87  120
    u[33]     primal_lower88  697
    u[33]     primal_lower89  369
    u[33]     primal_lower90  726
    u[33]     primal_lower91  112
    u[33]     primal_lower92  29
    u[33]     primal_lower93  111
    u[33]     primal_lower94  36
    u[33]     primal_lower95  38
    u[33]     primal_lower96  761
    u[33]     primal_lower97  879
    u[33]     primal_lower98  726
    u[33]     primal_lower99  62
    u[33]     interdiction[33]  1
    u[33]     mccormick1[33]  -1
    u[33]     mccormick3[33]  1
    u[34]     primal_lower0  157
    u[34]     primal_lower1  735
    u[34]     primal_lower2  235
    u[34]     primal_lower3  261
    u[34]     primal_lower4  427
    u[34]     primal_lower5  342
    u[34]     primal_lower6  386
    u[34]     primal_lower7  92
    u[34]     primal_lower8  367
    u[34]     primal_lower9  839
    u[34]     primal_lower10  25
    u[34]     primal_lower11  542
    u[34]     primal_lower12  950
    u[34]     primal_lower13  784
    u[34]     primal_lower14  896
    u[34]     primal_lower15  998
    u[34]     primal_lower16  428
    u[34]     primal_lower17  261
    u[34]     primal_lower18  913
    u[34]     primal_lower19  749
    u[34]     primal_lower20  57
    u[34]     primal_lower21  537
    u[34]     primal_lower22  90
    u[34]     primal_lower23  460
    u[34]     primal_lower24  936
    u[34]     primal_lower25  255
    u[34]     primal_lower26  702
    u[34]     primal_lower27  702
    u[34]     primal_lower28  631
    u[34]     primal_lower29  519
    u[34]     primal_lower30  195
    u[34]     primal_lower31  650
    u[34]     primal_lower32  786
    u[34]     primal_lower33  266
    u[34]     primal_lower34  12
    u[34]     primal_lower35  663
    u[34]     primal_lower36  108
    u[34]     primal_lower37  604
    u[34]     primal_lower38  168
    u[34]     primal_lower39  612
    u[34]     primal_lower40  816
    u[34]     primal_lower41  28
    u[34]     primal_lower42  59
    u[34]     primal_lower43  982
    u[34]     primal_lower44  792
    u[34]     primal_lower45  774
    u[34]     primal_lower46  638
    u[34]     primal_lower47  70
    u[34]     primal_lower48  612
    u[34]     primal_lower49  319
    u[34]     primal_lower50  772
    u[34]     primal_lower51  847
    u[34]     primal_lower52  777
    u[34]     primal_lower53  679
    u[34]     primal_lower54  660
    u[34]     primal_lower55  640
    u[34]     primal_lower56  345
    u[34]     primal_lower57  850
    u[34]     primal_lower58  256
    u[34]     primal_lower59  573
    u[34]     primal_lower60  3
    u[34]     primal_lower61  447
    u[34]     primal_lower62  316
    u[34]     primal_lower63  438
    u[34]     primal_lower64  897
    u[34]     primal_lower65  872
    u[34]     primal_lower66  760
    u[34]     primal_lower67  778
    u[34]     primal_lower68  382
    u[34]     primal_lower69  174
    u[34]     primal_lower70  844
    u[34]     primal_lower71  744
    u[34]     primal_lower72  796
    u[34]     primal_lower73  502
    u[34]     primal_lower74  100
    u[34]     primal_lower75  270
    u[34]     primal_lower76  988
    u[34]     primal_lower77  785
    u[34]     primal_lower78  492
    u[34]     primal_lower79  736
    u[34]     primal_lower80  110
    u[34]     primal_lower81  457
    u[34]     primal_lower82  256
    u[34]     primal_lower83  238
    u[34]     primal_lower84  151
    u[34]     primal_lower85  12
    u[34]     primal_lower86  258
    u[34]     primal_lower87  567
    u[34]     primal_lower88  580
    u[34]     primal_lower89  980
    u[34]     primal_lower90  217
    u[34]     primal_lower91  143
    u[34]     primal_lower92  56
    u[34]     primal_lower93  326
    u[34]     primal_lower94  115
    u[34]     primal_lower95  361
    u[34]     primal_lower96  976
    u[34]     primal_lower97  710
    u[34]     primal_lower98  145
    u[34]     primal_lower99  297
    u[34]     interdiction[34]  1
    u[34]     mccormick1[34]  -1
    u[34]     mccormick3[34]  1
    u[35]     primal_lower0  562
    u[35]     primal_lower1  36
    u[35]     primal_lower2  720
    u[35]     primal_lower3  550
    u[35]     primal_lower4  708
    u[35]     primal_lower5  655
    u[35]     primal_lower6  487
    u[35]     primal_lower7  909
    u[35]     primal_lower8  384
    u[35]     primal_lower9  832
    u[35]     primal_lower10  90
    u[35]     primal_lower11  543
    u[35]     primal_lower12  139
    u[35]     primal_lower13  293
    u[35]     primal_lower14  945
    u[35]     primal_lower15  387
    u[35]     primal_lower16  281
    u[35]     primal_lower17  754
    u[35]     primal_lower18  514
    u[35]     primal_lower19  394
    u[35]     primal_lower20  230
    u[35]     primal_lower21  298
    u[35]     primal_lower22  867
    u[35]     primal_lower23  13
    u[35]     primal_lower24  77
    u[35]     primal_lower25  164
    u[35]     primal_lower26  95
    u[35]     primal_lower27  95
    u[35]     primal_lower28  396
    u[35]     primal_lower29  960
    u[35]     primal_lower30  552
    u[35]     primal_lower31  487
    u[35]     primal_lower32  679
    u[35]     primal_lower33  607
    u[35]     primal_lower34  833
    u[35]     primal_lower35  696
    u[35]     primal_lower36  185
    u[35]     primal_lower37  177
    u[35]     primal_lower38  681
    u[35]     primal_lower39  17
    u[35]     primal_lower40  265
    u[35]     primal_lower41  213
    u[35]     primal_lower42  856
    u[35]     primal_lower43  403
    u[35]     primal_lower44  117
    u[35]     primal_lower45  455
    u[35]     primal_lower46  175
    u[35]     primal_lower47  3
    u[35]     primal_lower48  169
    u[35]     primal_lower49  100
    u[35]     primal_lower50  757
    u[35]     primal_lower51  240
    u[35]     primal_lower52  682
    u[35]     primal_lower53  660
    u[35]     primal_lower54  193
    u[35]     primal_lower55  333
    u[35]     primal_lower56  910
    u[35]     primal_lower57  31
    u[35]     primal_lower58  609
    u[35]     primal_lower59  222
    u[35]     primal_lower60  224
    u[35]     primal_lower61  720
    u[35]     primal_lower62  185
    u[35]     primal_lower63  615
    u[35]     primal_lower64  562
    u[35]     primal_lower65  725
    u[35]     primal_lower66  321
    u[35]     primal_lower67  795
    u[35]     primal_lower68  839
    u[35]     primal_lower69  267
    u[35]     primal_lower70  977
    u[35]     primal_lower71  889
    u[35]     primal_lower72  13
    u[35]     primal_lower73  371
    u[35]     primal_lower74  573
    u[35]     primal_lower75  71
    u[35]     primal_lower76  9
    u[35]     primal_lower77  654
    u[35]     primal_lower78  137
    u[35]     primal_lower79  789
    u[35]     primal_lower80  587
    u[35]     primal_lower81  318
    u[35]     primal_lower82  261
    u[35]     primal_lower83  771
    u[35]     primal_lower84  540
    u[35]     primal_lower85  541
    u[35]     primal_lower86  199
    u[35]     primal_lower87  564
    u[35]     primal_lower88  533
    u[35]     primal_lower89  365
    u[35]     primal_lower90  626
    u[35]     primal_lower91  876
    u[35]     primal_lower92  809
    u[35]     primal_lower93  67
    u[35]     primal_lower94  784
    u[35]     primal_lower95  314
    u[35]     primal_lower96  829
    u[35]     primal_lower97  563
    u[35]     primal_lower98  786
    u[35]     primal_lower99  66
    u[35]     interdiction[35]  1
    u[35]     mccormick1[35]  -1
    u[35]     mccormick3[35]  1
    u[36]     primal_lower0  317
    u[36]     primal_lower1  959
    u[36]     primal_lower2  651
    u[36]     primal_lower3  869
    u[36]     primal_lower4  851
    u[36]     primal_lower5  974
    u[36]     primal_lower6  74
    u[36]     primal_lower7  868
    u[36]     primal_lower8  527
    u[36]     primal_lower9  415
    u[36]     primal_lower10  273
    u[36]     primal_lower11  574
    u[36]     primal_lower12  590
    u[36]     primal_lower13  88
    u[36]     primal_lower14  456
    u[36]     primal_lower15  190
    u[36]     primal_lower16  108
    u[36]     primal_lower17  125
    u[36]     primal_lower18  185
    u[36]     primal_lower19  597
    u[36]     primal_lower20  489
    u[36]     primal_lower21  185
    u[36]     primal_lower22  130
    u[36]     primal_lower23  716
    u[36]     primal_lower24  112
    u[36]     primal_lower25  375
    u[36]     primal_lower26  6
    u[36]     primal_lower27  718
    u[36]     primal_lower28  943
    u[36]     primal_lower29  311
    u[36]     primal_lower30  611
    u[36]     primal_lower31  522
    u[36]     primal_lower32  402
    u[36]     primal_lower33  834
    u[36]     primal_lower34  660
    u[36]     primal_lower35  239
    u[36]     primal_lower36  932
    u[36]     primal_lower37  932
    u[36]     primal_lower38  272
    u[36]     primal_lower39  564
    u[36]     primal_lower40  144
    u[36]     primal_lower41  148
    u[36]     primal_lower42  771
    u[36]     primal_lower43  174
    u[36]     primal_lower44  248
    u[36]     primal_lower45  542
    u[36]     primal_lower46  254
    u[36]     primal_lower47  934
    u[36]     primal_lower48  508
    u[36]     primal_lower49  119
    u[36]     primal_lower50  324
    u[36]     primal_lower51  23
    u[36]     primal_lower52  681
    u[36]     primal_lower53  151
    u[36]     primal_lower54  652
    u[36]     primal_lower55  88
    u[36]     primal_lower56  425
    u[36]     primal_lower57  602
    u[36]     primal_lower58  656
    u[36]     primal_lower59  965
    u[36]     primal_lower60  851
    u[36]     primal_lower61  935
    u[36]     primal_lower62  132
    u[36]     primal_lower63  990
    u[36]     primal_lower64  921
    u[36]     primal_lower65  336
    u[36]     primal_lower66  648
    u[36]     primal_lower67  474
    u[36]     primal_lower68  198
    u[36]     primal_lower69  966
    u[36]     primal_lower70  884
    u[36]     primal_lower71  40
    u[36]     primal_lower72  900
    u[36]     primal_lower73  574
    u[36]     primal_lower74  684
    u[36]     primal_lower75  270
    u[36]     primal_lower76  108
    u[36]     primal_lower77  921
    u[36]     primal_lower78  748
    u[36]     primal_lower79  664
    u[36]     primal_lower80  430
    u[36]     primal_lower81  265
    u[36]     primal_lower82  792
    u[36]     primal_lower83  590
    u[36]     primal_lower84  351
    u[36]     primal_lower85  708
    u[36]     primal_lower86  650
    u[36]     primal_lower87  791
    u[36]     primal_lower88  156
    u[36]     primal_lower89  108
    u[36]     primal_lower90  633
    u[36]     primal_lower91  535
    u[36]     primal_lower92  176
    u[36]     primal_lower93  78
    u[36]     primal_lower94  83
    u[36]     primal_lower95  337
    u[36]     primal_lower96  544
    u[36]     primal_lower97  902
    u[36]     primal_lower98  529
    u[36]     primal_lower99  17
    u[36]     interdiction[36]  1
    u[36]     mccormick1[36]  -1
    u[36]     mccormick3[36]  1
    u[37]     primal_lower0  158
    u[37]     primal_lower1  704
    u[37]     primal_lower2  556
    u[37]     primal_lower3  641
    u[37]     primal_lower4  415
    u[37]     primal_lower5  258
    u[37]     primal_lower6  563
    u[37]     primal_lower7  336
    u[37]     primal_lower8  227
    u[37]     primal_lower9  371
    u[37]     primal_lower10  629
    u[37]     primal_lower11  394
    u[37]     primal_lower12  599
    u[37]     primal_lower13  617
    u[37]     primal_lower14  76
    u[37]     primal_lower15  143
    u[37]     primal_lower16  693
    u[37]     primal_lower17  134
    u[37]     primal_lower18  485
    u[37]     primal_lower19  438
    u[37]     primal_lower20  274
    u[37]     primal_lower21  725
    u[37]     primal_lower22  118
    u[37]     primal_lower23  536
    u[37]     primal_lower24  929
    u[37]     primal_lower25  376
    u[37]     primal_lower26  674
    u[37]     primal_lower27  858
    u[37]     primal_lower28  944
    u[37]     primal_lower29  91
    u[37]     primal_lower30  220
    u[37]     primal_lower31  603
    u[37]     primal_lower32  699
    u[37]     primal_lower33  859
    u[37]     primal_lower34  61
    u[37]     primal_lower35  363
    u[37]     primal_lower36  245
    u[37]     primal_lower37  541
    u[37]     primal_lower38  284
    u[37]     primal_lower39  149
    u[37]     primal_lower40  436
    u[37]     primal_lower41  296
    u[37]     primal_lower42  692
    u[37]     primal_lower43  175
    u[37]     primal_lower44  233
    u[37]     primal_lower45  498
    u[37]     primal_lower46  394
    u[37]     primal_lower47  751
    u[37]     primal_lower48  301
    u[37]     primal_lower49  832
    u[37]     primal_lower50  64
    u[37]     primal_lower51  563
    u[37]     primal_lower52  797
    u[37]     primal_lower53  224
    u[37]     primal_lower54  429
    u[37]     primal_lower55  369
    u[37]     primal_lower56  618
    u[37]     primal_lower57  955
    u[37]     primal_lower58  284
    u[37]     primal_lower59  905
    u[37]     primal_lower60  244
    u[37]     primal_lower61  259
    u[37]     primal_lower62  773
    u[37]     primal_lower63  58
    u[37]     primal_lower64  501
    u[37]     primal_lower65  233
    u[37]     primal_lower66  188
    u[37]     primal_lower67  798
    u[37]     primal_lower68  962
    u[37]     primal_lower69  367
    u[37]     primal_lower70  413
    u[37]     primal_lower71  804
    u[37]     primal_lower72  432
    u[37]     primal_lower73  199
    u[37]     primal_lower74  120
    u[37]     primal_lower75  642
    u[37]     primal_lower76  301
    u[37]     primal_lower77  890
    u[37]     primal_lower78  813
    u[37]     primal_lower79  921
    u[37]     primal_lower80  695
    u[37]     primal_lower81  962
    u[37]     primal_lower82  9
    u[37]     primal_lower83  591
    u[37]     primal_lower84  792
    u[37]     primal_lower85  936
    u[37]     primal_lower86  227
    u[37]     primal_lower87  672
    u[37]     primal_lower88  272
    u[37]     primal_lower89  1000
    u[37]     primal_lower90  397
    u[37]     primal_lower91  816
    u[37]     primal_lower92  148
    u[37]     primal_lower93  39
    u[37]     primal_lower94  764
    u[37]     primal_lower95  501
    u[37]     primal_lower96  393
    u[37]     primal_lower97  527
    u[37]     primal_lower98  997
    u[37]     primal_lower99  437
    u[37]     interdiction[37]  1
    u[37]     mccormick1[37]  -1
    u[37]     mccormick3[37]  1
    u[38]     primal_lower0  885
    u[38]     primal_lower1  815
    u[38]     primal_lower2  939
    u[38]     primal_lower3  557
    u[38]     primal_lower4  323
    u[38]     primal_lower5  582
    u[38]     primal_lower6  178
    u[38]     primal_lower7  804
    u[38]     primal_lower8  543
    u[38]     primal_lower9  495
    u[38]     primal_lower10  417
    u[38]     primal_lower11  886
    u[38]     primal_lower12  742
    u[38]     primal_lower13  144
    u[38]     primal_lower14  488
    u[38]     primal_lower15  974
    u[38]     primal_lower16  916
    u[38]     primal_lower17  861
    u[38]     primal_lower18  169
    u[38]     primal_lower19  901
    u[38]     primal_lower20  521
    u[38]     primal_lower21  457
    u[38]     primal_lower22  274
    u[38]     primal_lower23  228
    u[38]     primal_lower24  272
    u[38]     primal_lower25  279
    u[38]     primal_lower26  334
    u[38]     primal_lower27  150
    u[38]     primal_lower28  463
    u[38]     primal_lower29  647
    u[38]     primal_lower30  555
    u[38]     primal_lower31  170
    u[38]     primal_lower32  138
    u[38]     primal_lower33  834
    u[38]     primal_lower34  44
    u[38]     primal_lower35  127
    u[38]     primal_lower36  636
    u[38]     primal_lower37  372
    u[38]     primal_lower38  232
    u[38]     primal_lower39  132
    u[38]     primal_lower40  360
    u[38]     primal_lower41  468
    u[38]     primal_lower42  867
    u[38]     primal_lower43  358
    u[38]     primal_lower44  616
    u[38]     primal_lower45  342
    u[38]     primal_lower46  830
    u[38]     primal_lower47  358
    u[38]     primal_lower48  308
    u[38]     primal_lower49  887
    u[38]     primal_lower50  548
    u[38]     primal_lower51  791
    u[38]     primal_lower52  401
    u[38]     primal_lower53  431
    u[38]     primal_lower54  740
    u[38]     primal_lower55  40
    u[38]     primal_lower56  1
    u[38]     primal_lower57  546
    u[38]     primal_lower58  48
    u[38]     primal_lower59  253
    u[38]     primal_lower60  291
    u[38]     primal_lower61  567
    u[38]     primal_lower62  356
    u[38]     primal_lower63  350
    u[38]     primal_lower64  937
    u[38]     primal_lower65  496
    u[38]     primal_lower66  432
    u[38]     primal_lower67  506
    u[38]     primal_lower68  70
    u[38]     primal_lower69  774
    u[38]     primal_lower70  308
    u[38]     primal_lower71  72
    u[38]     primal_lower72  204
    u[38]     primal_lower73  838
    u[38]     primal_lower74  476
    u[38]     primal_lower75  958
    u[38]     primal_lower76  852
    u[38]     primal_lower77  393
    u[38]     primal_lower78  228
    u[38]     primal_lower79  712
    u[38]     primal_lower80  734
    u[38]     primal_lower81  97
    u[38]     primal_lower82  280
    u[38]     primal_lower83  734
    u[38]     primal_lower84  31
    u[38]     primal_lower85  204
    u[38]     primal_lower86  978
    u[38]     primal_lower87  503
    u[38]     primal_lower88  740
    u[38]     primal_lower89  308
    u[38]     primal_lower90  17
    u[38]     primal_lower91  167
    u[38]     primal_lower92  104
    u[38]     primal_lower93  822
    u[38]     primal_lower94  883
    u[38]     primal_lower95  17
    u[38]     primal_lower96  928
    u[38]     primal_lower97  606
    u[38]     primal_lower98  17
    u[38]     primal_lower99  57
    u[38]     interdiction[38]  1
    u[38]     mccormick1[38]  -1
    u[38]     mccormick3[38]  1
    u[39]     primal_lower0  600
    u[39]     primal_lower1  882
    u[39]     primal_lower2  414
    u[39]     primal_lower3  363
    u[39]     primal_lower4  129
    u[39]     primal_lower5  316
    u[39]     primal_lower6  5
    u[39]     primal_lower7  706
    u[39]     primal_lower8  213
    u[39]     primal_lower9  333
    u[39]     primal_lower10  423
    u[39]     primal_lower11  980
    u[39]     primal_lower12  281
    u[39]     primal_lower13  723
    u[39]     primal_lower14  438
    u[39]     primal_lower15  897
    u[39]     primal_lower16  935
    u[39]     primal_lower17  424
    u[39]     primal_lower18  543
    u[39]     primal_lower19  984
    u[39]     primal_lower20  20
    u[39]     primal_lower21  527
    u[39]     primal_lower22  288
    u[39]     primal_lower23  290
    u[39]     primal_lower24  499
    u[39]     primal_lower25  18
    u[39]     primal_lower26  140
    u[39]     primal_lower27  20
    u[39]     primal_lower28  98
    u[39]     primal_lower29  181
    u[39]     primal_lower30  134
    u[39]     primal_lower31  141
    u[39]     primal_lower32  341
    u[39]     primal_lower33  885
    u[39]     primal_lower34  943
    u[39]     primal_lower35  621
    u[39]     primal_lower36  567
    u[39]     primal_lower37  871
    u[39]     primal_lower38  334
    u[39]     primal_lower39  999
    u[39]     primal_lower40  166
    u[39]     primal_lower41  242
    u[39]     primal_lower42  982
    u[39]     primal_lower43  713
    u[39]     primal_lower44  291
    u[39]     primal_lower45  364
    u[39]     primal_lower46  788
    u[39]     primal_lower47  81
    u[39]     primal_lower48  591
    u[39]     primal_lower49  810
    u[39]     primal_lower50  970
    u[39]     primal_lower51  133
    u[39]     primal_lower52  551
    u[39]     primal_lower53  722
    u[39]     primal_lower54  751
    u[39]     primal_lower55  259
    u[39]     primal_lower56  676
    u[39]     primal_lower57  781
    u[39]     primal_lower58  406
    u[39]     primal_lower59  179
    u[39]     primal_lower60  174
    u[39]     primal_lower61  837
    u[39]     primal_lower62  575
    u[39]     primal_lower63  708
    u[39]     primal_lower64  863
    u[39]     primal_lower65  627
    u[39]     primal_lower66  838
    u[39]     primal_lower67  336
    u[39]     primal_lower68  36
    u[39]     primal_lower69  649
    u[39]     primal_lower70  351
    u[39]     primal_lower71  70
    u[39]     primal_lower72  874
    u[39]     primal_lower73  921
    u[39]     primal_lower74  466
    u[39]     primal_lower75  948
    u[39]     primal_lower76  559
    u[39]     primal_lower77  620
    u[39]     primal_lower78  447
    u[39]     primal_lower79  579
    u[39]     primal_lower80  817
    u[39]     primal_lower81  676
    u[39]     primal_lower82  171
    u[39]     primal_lower83  801
    u[39]     primal_lower84  674
    u[39]     primal_lower85  386
    u[39]     primal_lower86  653
    u[39]     primal_lower87  930
    u[39]     primal_lower88  634
    u[39]     primal_lower89  762
    u[39]     primal_lower90  655
    u[39]     primal_lower91  914
    u[39]     primal_lower92  998
    u[39]     primal_lower93  553
    u[39]     primal_lower94  870
    u[39]     primal_lower95  31
    u[39]     primal_lower96  267
    u[39]     primal_lower97  257
    u[39]     primal_lower98  327
    u[39]     primal_lower99  719
    u[39]     interdiction[39]  1
    u[39]     mccormick1[39]  -1
    u[39]     mccormick3[39]  1
    u[40]     primal_lower0  864
    u[40]     primal_lower1  490
    u[40]     primal_lower2  718
    u[40]     primal_lower3  576
    u[40]     primal_lower4  326
    u[40]     primal_lower5  369
    u[40]     primal_lower6  413
    u[40]     primal_lower7  343
    u[40]     primal_lower8  738
    u[40]     primal_lower9  834
    u[40]     primal_lower10  692
    u[40]     primal_lower11  601
    u[40]     primal_lower12  737
    u[40]     primal_lower13  491
    u[40]     primal_lower14  291
    u[40]     primal_lower15  265
    u[40]     primal_lower16  727
    u[40]     primal_lower17  456
    u[40]     primal_lower18  20
    u[40]     primal_lower19  88
    u[40]     primal_lower20  708
    u[40]     primal_lower21  900
    u[40]     primal_lower22  237
    u[40]     primal_lower23  423
    u[40]     primal_lower24  963
    u[40]     primal_lower25  706
    u[40]     primal_lower26  553
    u[40]     primal_lower27  993
    u[40]     primal_lower28  154
    u[40]     primal_lower29  586
    u[40]     primal_lower30  86
    u[40]     primal_lower31  509
    u[40]     primal_lower32  421
    u[40]     primal_lower33  701
    u[40]     primal_lower34  927
    u[40]     primal_lower35  906
    u[40]     primal_lower36  583
    u[40]     primal_lower37  991
    u[40]     primal_lower38  195
    u[40]     primal_lower39  295
    u[40]     primal_lower40  411
    u[40]     primal_lower41  215
    u[40]     primal_lower42  566
    u[40]     primal_lower43  441
    u[40]     primal_lower44  835
    u[40]     primal_lower45  769
    u[40]     primal_lower46  57
    u[40]     primal_lower47  225
    u[40]     primal_lower48  351
    u[40]     primal_lower49  794
    u[40]     primal_lower50  263
    u[40]     primal_lower51  370
    u[40]     primal_lower52  788
    u[40]     primal_lower53  730
    u[40]     primal_lower54  439
    u[40]     primal_lower55  467
    u[40]     primal_lower56  460
    u[40]     primal_lower57  949
    u[40]     primal_lower58  355
    u[40]     primal_lower59  32
    u[40]     primal_lower60  814
    u[40]     primal_lower61  90
    u[40]     primal_lower62  191
    u[40]     primal_lower63  833
    u[40]     primal_lower64  308
    u[40]     primal_lower65  699
    u[40]     primal_lower66  787
    u[40]     primal_lower67  757
    u[40]     primal_lower68  785
    u[40]     primal_lower69  833
    u[40]     primal_lower70  127
    u[40]     primal_lower71  675
    u[40]     primal_lower72  983
    u[40]     primal_lower73  33
    u[40]     primal_lower74  431
    u[40]     primal_lower75  81
    u[40]     primal_lower76  975
    u[40]     primal_lower77  692
    u[40]     primal_lower78  847
    u[40]     primal_lower79  147
    u[40]     primal_lower80  297
    u[40]     primal_lower81  852
    u[40]     primal_lower82  891
    u[40]     primal_lower83  785
    u[40]     primal_lower84  154
    u[40]     primal_lower85  879
    u[40]     primal_lower86  429
    u[40]     primal_lower87  458
    u[40]     primal_lower88  383
    u[40]     primal_lower89  711
    u[40]     primal_lower90  516
    u[40]     primal_lower91  66
    u[40]     primal_lower92  363
    u[40]     primal_lower93  529
    u[40]     primal_lower94  598
    u[40]     primal_lower95  764
    u[40]     primal_lower96  683
    u[40]     primal_lower97  41
    u[40]     primal_lower98  868
    u[40]     primal_lower99  996
    u[40]     interdiction[40]  1
    u[40]     mccormick1[40]  -1
    u[40]     mccormick3[40]  1
    u[41]     primal_lower0  619
    u[41]     primal_lower1  37
    u[41]     primal_lower2  129
    u[41]     primal_lower3  70
    u[41]     primal_lower4  172
    u[41]     primal_lower5  839
    u[41]     primal_lower6  992
    u[41]     primal_lower7  325
    u[41]     primal_lower8  776
    u[41]     primal_lower9  232
    u[41]     primal_lower10  498
    u[41]     primal_lower11  87
    u[41]     primal_lower12  916
    u[41]     primal_lower13  646
    u[41]     primal_lower14  9
    u[41]     primal_lower15  708
    u[41]     primal_lower16  442
    u[41]     primal_lower17  643
    u[41]     primal_lower18  802
    u[41]     primal_lower19  19
    u[41]     primal_lower20  791
    u[41]     primal_lower21  378
    u[41]     primal_lower22  187
    u[41]     primal_lower23  717
    u[41]     primal_lower24  822
    u[41]     primal_lower25  205
    u[41]     primal_lower26  127
    u[41]     primal_lower27  63
    u[41]     primal_lower28  85
    u[41]     primal_lower29  304
    u[41]     primal_lower30  33
    u[41]     primal_lower31  984
    u[41]     primal_lower32  592
    u[41]     primal_lower33  264
    u[41]     primal_lower34  994
    u[41]     primal_lower35  120
    u[41]     primal_lower36  114
    u[41]     primal_lower37  954
    u[41]     primal_lower38  17
    u[41]     primal_lower39  730
    u[41]     primal_lower40  585
    u[41]     primal_lower41  685
    u[41]     primal_lower42  209
    u[41]     primal_lower43  244
    u[41]     primal_lower44  222
    u[41]     primal_lower45  871
    u[41]     primal_lower46  639
    u[41]     primal_lower47  572
    u[41]     primal_lower48  90
    u[41]     primal_lower49  829
    u[41]     primal_lower50  221
    u[41]     primal_lower51  216
    u[41]     primal_lower52  10
    u[41]     primal_lower53  885
    u[41]     primal_lower54  354
    u[41]     primal_lower55  238
    u[41]     primal_lower56  879
    u[41]     primal_lower57  744
    u[41]     primal_lower58  761
    u[41]     primal_lower59  214
    u[41]     primal_lower60  1
    u[41]     primal_lower61  584
    u[41]     primal_lower62  906
    u[41]     primal_lower63  551
    u[41]     primal_lower64  738
    u[41]     primal_lower65  542
    u[41]     primal_lower66  481
    u[41]     primal_lower67  587
    u[41]     primal_lower68  71
    u[41]     primal_lower69  700
    u[41]     primal_lower70  114
    u[41]     primal_lower71  577
    u[41]     primal_lower72  573
    u[41]     primal_lower73  684
    u[41]     primal_lower74  429
    u[41]     primal_lower75  631
    u[41]     primal_lower76  626
    u[41]     primal_lower77  383
    u[41]     primal_lower78  874
    u[41]     primal_lower79  862
    u[41]     primal_lower80  196
    u[41]     primal_lower81  375
    u[41]     primal_lower82  838
    u[41]     primal_lower83  276
    u[41]     primal_lower84  389
    u[41]     primal_lower85  925
    u[41]     primal_lower86  152
    u[41]     primal_lower87  29
    u[41]     primal_lower88  757
    u[41]     primal_lower89  349
    u[41]     primal_lower90  538
    u[41]     primal_lower91  477
    u[41]     primal_lower92  689
    u[41]     primal_lower93  948
    u[41]     primal_lower94  177
    u[41]     primal_lower95  754
    u[41]     primal_lower96  942
    u[41]     primal_lower97  284
    u[41]     primal_lower98  210
    u[41]     primal_lower99  234
    u[41]     interdiction[41]  1
    u[41]     mccormick1[41]  -1
    u[41]     mccormick3[41]  1
    u[42]     primal_lower0  87
    u[42]     primal_lower1  681
    u[42]     primal_lower2  117
    u[42]     primal_lower3  695
    u[42]     primal_lower4  309
    u[42]     primal_lower5  32
    u[42]     primal_lower6  348
    u[42]     primal_lower7  374
    u[42]     primal_lower8  417
    u[42]     primal_lower9  361
    u[42]     primal_lower10  995
    u[42]     primal_lower11  96
    u[42]     primal_lower12  464
    u[42]     primal_lower13  266
    u[42]     primal_lower14  938
    u[42]     primal_lower15  88
    u[42]     primal_lower16  262
    u[42]     primal_lower17  783
    u[42]     primal_lower18  979
    u[42]     primal_lower19  599
    u[42]     primal_lower20  987
    u[42]     primal_lower21  851
    u[42]     primal_lower22  636
    u[42]     primal_lower23  342
    u[42]     primal_lower24  722
    u[42]     primal_lower25  561
    u[42]     primal_lower26  128
    u[42]     primal_lower27  8
    u[42]     primal_lower28  953
    u[42]     primal_lower29  441
    u[42]     primal_lower30  653
    u[42]     primal_lower31  916
    u[42]     primal_lower32  428
    u[42]     primal_lower33  172
    u[42]     primal_lower34  62
    u[42]     primal_lower35  481
    u[42]     primal_lower36  222
    u[42]     primal_lower37  494
    u[42]     primal_lower38  290
    u[42]     primal_lower39  150
    u[42]     primal_lower40  922
    u[42]     primal_lower41  14
    u[42]     primal_lower42  749
    u[42]     primal_lower43  480
    u[42]     primal_lower44  394
    u[42]     primal_lower45  360
    u[42]     primal_lower46  552
    u[42]     primal_lower47  352
    u[42]     primal_lower48  310
    u[42]     primal_lower49  545
    u[42]     primal_lower50  830
    u[42]     primal_lower51  201
    u[42]     primal_lower52  251
    u[42]     primal_lower53  937
    u[42]     primal_lower54  574
    u[42]     primal_lower55  106
    u[42]     primal_lower56  971
    u[42]     primal_lower57  580
    u[42]     primal_lower58  82
    u[42]     primal_lower59  367
    u[42]     primal_lower60  901
    u[42]     primal_lower61  177
    u[42]     primal_lower62  238
    u[42]     primal_lower63  480
    u[42]     primal_lower64  235
    u[42]     primal_lower65  522
    u[42]     primal_lower66  730
    u[42]     primal_lower67  84
    u[42]     primal_lower68  904
    u[42]     primal_lower69  744
    u[42]     primal_lower70  870
    u[42]     primal_lower71  42
    u[42]     primal_lower72  598
    u[42]     primal_lower73  984
    u[42]     primal_lower74  246
    u[42]     primal_lower75  752
    u[42]     primal_lower76  110
    u[42]     primal_lower77  771
    u[42]     primal_lower78  926
    u[42]     primal_lower79  850
    u[42]     primal_lower80  792
    u[42]     primal_lower81  459
    u[42]     primal_lower82  986
    u[42]     primal_lower83  176
    u[42]     primal_lower84  241
    u[42]     primal_lower85  942
    u[42]     primal_lower86  92
    u[42]     primal_lower87  673
    u[42]     primal_lower88  782
    u[42]     primal_lower89  270
    u[42]     primal_lower90  531
    u[42]     primal_lower91  369
    u[42]     primal_lower92  386
    u[42]     primal_lower93  680
    u[42]     primal_lower94  533
    u[42]     primal_lower95  371
    u[42]     primal_lower96  922
    u[42]     primal_lower97  256
    u[42]     primal_lower98  27
    u[42]     primal_lower99  43
    u[42]     interdiction[42]  1
    u[42]     mccormick1[42]  -1
    u[42]     mccormick3[42]  1
    u[43]     primal_lower0  503
    u[43]     primal_lower1  153
    u[43]     primal_lower2  453
    u[43]     primal_lower3  122
    u[43]     primal_lower4  168
    u[43]     primal_lower5  667
    u[43]     primal_lower6  636
    u[43]     primal_lower7  937
    u[43]     primal_lower8  492
    u[43]     primal_lower9  316
    u[43]     primal_lower10  854
    u[43]     primal_lower11  339
    u[43]     primal_lower12  240
    u[43]     primal_lower13  378
    u[43]     primal_lower14  989
    u[43]     primal_lower15  408
    u[43]     primal_lower16  646
    u[43]     primal_lower17  303
    u[43]     primal_lower18  566
    u[43]     primal_lower19  919
    u[43]     primal_lower20  507
    u[43]     primal_lower21  654
    u[43]     primal_lower22  519
    u[43]     primal_lower23  481
    u[43]     primal_lower24  122
    u[43]     primal_lower25  321
    u[43]     primal_lower26  219
    u[43]     primal_lower27  571
    u[43]     primal_lower28  625
    u[43]     primal_lower29  284
    u[43]     primal_lower30  973
    u[43]     primal_lower31  236
    u[43]     primal_lower32  780
    u[43]     primal_lower33  980
    u[43]     primal_lower34  926
    u[43]     primal_lower35  180
    u[43]     primal_lower36  478
    u[43]     primal_lower37  902
    u[43]     primal_lower38  589
    u[43]     primal_lower39  798
    u[43]     primal_lower40  549
    u[43]     primal_lower41  1
    u[43]     primal_lower42  685
    u[43]     primal_lower43  200
    u[43]     primal_lower44  338
    u[43]     primal_lower45  147
    u[43]     primal_lower46  747
    u[43]     primal_lower47  256
    u[43]     primal_lower48  630
    u[43]     primal_lower49  81
    u[43]     primal_lower50  857
    u[43]     primal_lower51  580
    u[43]     primal_lower52  998
    u[43]     primal_lower53  977
    u[43]     primal_lower54  750
    u[43]     primal_lower55  346
    u[43]     primal_lower56  339
    u[43]     primal_lower57  588
    u[43]     primal_lower58  133
    u[43]     primal_lower59  474
    u[43]     primal_lower60  45
    u[43]     primal_lower61  700
    u[43]     primal_lower62  974
    u[43]     primal_lower63  107
    u[43]     primal_lower64  846
    u[43]     primal_lower65  18
    u[43]     primal_lower66  461
    u[43]     primal_lower67  567
    u[43]     primal_lower68  435
    u[43]     primal_lower69  816
    u[43]     primal_lower70  486
    u[43]     primal_lower71  229
    u[43]     primal_lower72  137
    u[43]     primal_lower73  752
    u[43]     primal_lower74  929
    u[43]     primal_lower75  955
    u[43]     primal_lower76  278
    u[43]     primal_lower77  419
    u[43]     primal_lower78  846
    u[43]     primal_lower79  394
    u[43]     primal_lower80  976
    u[43]     primal_lower81  107
    u[43]     primal_lower82  794
    u[43]     primal_lower83  296
    u[43]     primal_lower84  889
    u[43]     primal_lower85  241
    u[43]     primal_lower86  612
    u[43]     primal_lower87  9
    u[43]     primal_lower88  265
    u[43]     primal_lower89  241
    u[43]     primal_lower90  982
    u[43]     primal_lower91  897
    u[43]     primal_lower92  861
    u[43]     primal_lower93  200
    u[43]     primal_lower94  485
    u[43]     primal_lower95  646
    u[43]     primal_lower96  962
    u[43]     primal_lower97  896
    u[43]     primal_lower98  542
    u[43]     primal_lower99  438
    u[43]     interdiction[43]  1
    u[43]     mccormick1[43]  -1
    u[43]     mccormick3[43]  1
    u[44]     primal_lower0  192
    u[44]     primal_lower1  914
    u[44]     primal_lower2  926
    u[44]     primal_lower3  600
    u[44]     primal_lower4  422
    u[44]     primal_lower5  81
    u[44]     primal_lower6  693
    u[44]     primal_lower7  191
    u[44]     primal_lower8  642
    u[44]     primal_lower9  282
    u[44]     primal_lower10  356
    u[44]     primal_lower11  553
    u[44]     primal_lower12  745
    u[44]     primal_lower13  259
    u[44]     primal_lower14  403
    u[44]     primal_lower15  113
    u[44]     primal_lower16  551
    u[44]     primal_lower17  152
    u[44]     primal_lower18  964
    u[44]     primal_lower19  8
    u[44]     primal_lower20  68
    u[44]     primal_lower21  284
    u[44]     primal_lower22  21
    u[44]     primal_lower23  927
    u[44]     primal_lower24  803
    u[44]     primal_lower25  274
    u[44]     primal_lower26  273
    u[44]     primal_lower27  41
    u[44]     primal_lower28  298
    u[44]     primal_lower29  530
    u[44]     primal_lower30  574
    u[44]     primal_lower31  837
    u[44]     primal_lower32  381
    u[44]     primal_lower33  357
    u[44]     primal_lower34  303
    u[44]     primal_lower35  858
    u[44]     primal_lower36  831
    u[44]     primal_lower37  703
    u[44]     primal_lower38  267
    u[44]     primal_lower39  367
    u[44]     primal_lower40  947
    u[44]     primal_lower41  455
    u[44]     primal_lower42  998
    u[44]     primal_lower43  49
    u[44]     primal_lower44  811
    u[44]     primal_lower45  745
    u[44]     primal_lower46  641
    u[44]     primal_lower47  241
    u[44]     primal_lower48  79
    u[44]     primal_lower49  978
    u[44]     primal_lower50  367
    u[44]     primal_lower51  170
    u[44]     primal_lower52  788
    u[44]     primal_lower53  466
    u[44]     primal_lower54  15
    u[44]     primal_lower55  771
    u[44]     primal_lower56  4
    u[44]     primal_lower57  325
    u[44]     primal_lower58  603
    u[44]     primal_lower59  128
    u[44]     primal_lower60  934
    u[44]     primal_lower61  650
    u[44]     primal_lower62  775
    u[44]     primal_lower63  273
    u[44]     primal_lower64  124
    u[44]     primal_lower65  587
    u[44]     primal_lower66  315
    u[44]     primal_lower67  709
    u[44]     primal_lower68  313
    u[44]     primal_lower69  881
    u[44]     primal_lower70  639
    u[44]     primal_lower71  131
    u[44]     primal_lower72  639
    u[44]     primal_lower73  361
    u[44]     primal_lower74  927
    u[44]     primal_lower75  409
    u[44]     primal_lower76  807
    u[44]     primal_lower77  788
    u[44]     primal_lower78  759
    u[44]     primal_lower79  699
    u[44]     primal_lower80  833
    u[44]     primal_lower81  580
    u[44]     primal_lower82  315
    u[44]     primal_lower83  577
    u[44]     primal_lower84  730
    u[44]     primal_lower85  959
    u[44]     primal_lower86  5
    u[44]     primal_lower87  226
    u[44]     primal_lower88  167
    u[44]     primal_lower89  679
    u[44]     primal_lower90  852
    u[44]     primal_lower91  994
    u[44]     primal_lower92  459
    u[44]     primal_lower93  265
    u[44]     primal_lower94  750
    u[44]     primal_lower95  36
    u[44]     primal_lower96  987
    u[44]     primal_lower97  241
    u[44]     primal_lower98  524
    u[44]     primal_lower99  764
    u[44]     interdiction[44]  1
    u[44]     mccormick1[44]  -1
    u[44]     mccormick3[44]  1
    u[45]     primal_lower0  460
    u[45]     primal_lower1  382
    u[45]     primal_lower2  594
    u[45]     primal_lower3  295
    u[45]     primal_lower4  277
    u[45]     primal_lower5  872
    u[45]     primal_lower6  105
    u[45]     primal_lower7  694
    u[45]     primal_lower8  289
    u[45]     primal_lower9  169
    u[45]     primal_lower10  683
    u[45]     primal_lower11  272
    u[45]     primal_lower12  45
    u[45]     primal_lower13  183
    u[45]     primal_lower14  378
    u[45]     primal_lower15  925
    u[45]     primal_lower16  371
    u[45]     primal_lower17  356
    u[45]     primal_lower18  963
    u[45]     primal_lower19  188
    u[45]     primal_lower20  456
    u[45]     primal_lower21  243
    u[45]     primal_lower22  252
    u[45]     primal_lower23  166
    u[45]     primal_lower24  375
    u[45]     primal_lower25  734
    u[45]     primal_lower26  792
    u[45]     primal_lower27  936
    u[45]     primal_lower28  102
    u[45]     primal_lower29  73
    u[45]     primal_lower30  922
    u[45]     primal_lower31  905
    u[45]     primal_lower32  849
    u[45]     primal_lower33  137
    u[45]     primal_lower34  51
    u[45]     primal_lower35  401
    u[45]     primal_lower36  187
    u[45]     primal_lower37  451
    u[45]     primal_lower38  66
    u[45]     primal_lower39  67
    u[45]     primal_lower40  522
    u[45]     primal_lower41  238
    u[45]     primal_lower42  906
    u[45]     primal_lower43  429
    u[45]     primal_lower44  7
    u[45]     primal_lower45  800
    u[45]     primal_lower46  632
    u[45]     primal_lower47  125
    u[45]     primal_lower48  723
    u[45]     primal_lower49  638
    u[45]     primal_lower50  726
    u[45]     primal_lower51  337
    u[45]     primal_lower52  83
    u[45]     primal_lower53  822
    u[45]     primal_lower54  611
    u[45]     primal_lower55  767
    u[45]     primal_lower56  456
    u[45]     primal_lower57  745
    u[45]     primal_lower58  242
    u[45]     primal_lower59  711
    u[45]     primal_lower60  202
    u[45]     primal_lower61  681
    u[45]     primal_lower62  235
    u[45]     primal_lower63  856
    u[45]     primal_lower64  51
    u[45]     primal_lower65  575
    u[45]     primal_lower66  650
    u[45]     primal_lower67  732
    u[45]     primal_lower68  288
    u[45]     primal_lower69  309
    u[45]     primal_lower70  91
    u[45]     primal_lower71  58
    u[45]     primal_lower72  430
    u[45]     primal_lower73  461
    u[45]     primal_lower74  54
    u[45]     primal_lower75  920
    u[45]     primal_lower76  987
    u[45]     primal_lower77  376
    u[45]     primal_lower78  195
    u[45]     primal_lower79  823
    u[45]     primal_lower80  597
    u[45]     primal_lower81  424
    u[45]     primal_lower82  639
    u[45]     primal_lower83  909
    u[45]     primal_lower84  198
    u[45]     primal_lower85  910
    u[45]     primal_lower86  257
    u[45]     primal_lower87  974
    u[45]     primal_lower88  782
    u[45]     primal_lower89  462
    u[45]     primal_lower90  699
    u[45]     primal_lower91  838
    u[45]     primal_lower92  18
    u[45]     primal_lower93  389
    u[45]     primal_lower94  226
    u[45]     primal_lower95  35
    u[45]     primal_lower96  247
    u[45]     primal_lower97  205
    u[45]     primal_lower98  555
    u[45]     primal_lower99  771
    u[45]     interdiction[45]  1
    u[45]     mccormick1[45]  -1
    u[45]     mccormick3[45]  1
    u[46]     primal_lower0  971
    u[46]     primal_lower1  861
    u[46]     primal_lower2  465
    u[46]     primal_lower3  554
    u[46]     primal_lower4  16
    u[46]     primal_lower5  331
    u[46]     primal_lower6  8
    u[46]     primal_lower7  41
    u[46]     primal_lower8  172
    u[46]     primal_lower9  228
    u[46]     primal_lower10  582
    u[46]     primal_lower11  251
    u[46]     primal_lower12  900
    u[46]     primal_lower13  286
    u[46]     primal_lower14  453
    u[46]     primal_lower15  396
    u[46]     primal_lower16  594
    u[46]     primal_lower17  699
    u[46]     primal_lower18  102
    u[46]     primal_lower19  891
    u[46]     primal_lower20  615
    u[46]     primal_lower21  518
    u[46]     primal_lower22  199
    u[46]     primal_lower23  929
    u[46]     primal_lower24  574
    u[46]     primal_lower25  173
    u[46]     primal_lower26  827
    u[46]     primal_lower27  419
    u[46]     primal_lower28  173
    u[46]     primal_lower29  204
    u[46]     primal_lower30  945
    u[46]     primal_lower31  272
    u[46]     primal_lower32  248
    u[46]     primal_lower33  832
    u[46]     primal_lower34  98
    u[46]     primal_lower35  508
    u[46]     primal_lower36  634
    u[46]     primal_lower37  370
    u[46]     primal_lower38  197
    u[46]     primal_lower39  778
    u[46]     primal_lower40  165
    u[46]     primal_lower41  289
    u[46]     primal_lower42  897
    u[46]     primal_lower43  676
    u[46]     primal_lower44  686
    u[46]     primal_lower45  971
    u[46]     primal_lower46  891
    u[46]     primal_lower47  500
    u[46]     primal_lower48  810
    u[46]     primal_lower49  901
    u[46]     primal_lower50  785
    u[46]     primal_lower51  852
    u[46]     primal_lower52  414
    u[46]     primal_lower53  221
    u[46]     primal_lower54  938
    u[46]     primal_lower55  238
    u[46]     primal_lower56  983
    u[46]     primal_lower57  536
    u[46]     primal_lower58  101
    u[46]     primal_lower59  882
    u[46]     primal_lower60  705
    u[46]     primal_lower61  372
    u[46]     primal_lower62  338
    u[46]     primal_lower63  643
    u[46]     primal_lower64  590
    u[46]     primal_lower65  854
    u[46]     primal_lower66  717
    u[46]     primal_lower67  79
    u[46]     primal_lower68  643
    u[46]     primal_lower69  540
    u[46]     primal_lower70  826
    u[46]     primal_lower71  413
    u[46]     primal_lower72  673
    u[46]     primal_lower73  572
    u[46]     primal_lower74  433
    u[46]     primal_lower75  843
    u[46]     primal_lower76  994
    u[46]     primal_lower77  279
    u[46]     primal_lower78  978
    u[46]     primal_lower79  454
    u[46]     primal_lower80  580
    u[46]     primal_lower81  711
    u[46]     primal_lower82  854
    u[46]     primal_lower83  76
    u[46]     primal_lower84  469
    u[46]     primal_lower85  633
    u[46]     primal_lower86  584
    u[46]     primal_lower87  341
    u[46]     primal_lower88  441
    u[46]     primal_lower89  585
    u[46]     primal_lower90  558
    u[46]     primal_lower91  77
    u[46]     primal_lower92  877
    u[46]     primal_lower93  404
    u[46]     primal_lower94  553
    u[46]     primal_lower95  262
    u[46]     primal_lower96  478
    u[46]     primal_lower97  4
    u[46]     primal_lower98  302
    u[46]     primal_lower99  278
    u[46]     interdiction[46]  1
    u[46]     mccormick1[46]  -1
    u[46]     mccormick3[46]  1
    u[47]     primal_lower0  931
    u[47]     primal_lower1  853
    u[47]     primal_lower2  441
    u[47]     primal_lower3  230
    u[47]     primal_lower4  756
    u[47]     primal_lower5  103
    u[47]     primal_lower6  440
    u[47]     primal_lower7  53
    u[47]     primal_lower8  64
    u[47]     primal_lower9  856
    u[47]     primal_lower10  938
    u[47]     primal_lower11  991
    u[47]     primal_lower12  772
    u[47]     primal_lower13  478
    u[47]     primal_lower14  9
    u[47]     primal_lower15  148
    u[47]     primal_lower16  866
    u[47]     primal_lower17  971
    u[47]     primal_lower18  890
    u[47]     primal_lower19  195
    u[47]     primal_lower20  799
    u[47]     primal_lower21  74
    u[47]     primal_lower22  131
    u[47]     primal_lower23  565
    u[47]     primal_lower24  534
    u[47]     primal_lower25  261
    u[47]     primal_lower26  383
    u[47]     primal_lower27  87
    u[47]     primal_lower28  877
    u[47]     primal_lower29  432
    u[47]     primal_lower30  521
    u[47]     primal_lower31  808
    u[47]     primal_lower32  416
    u[47]     primal_lower33  88
    u[47]     primal_lower34  602
    u[47]     primal_lower35  744
    u[47]     primal_lower36  106
    u[47]     primal_lower37  330
    u[47]     primal_lower38  217
    u[47]     primal_lower39  354
    u[47]     primal_lower40  313
    u[47]     primal_lower41  581
    u[47]     primal_lower42  793
    u[47]     primal_lower43  516
    u[47]     primal_lower44  998
    u[47]     primal_lower45  87
    u[47]     primal_lower46  391
    u[47]     primal_lower47  404
    u[47]     primal_lower48  106
    u[47]     primal_lower49  461
    u[47]     primal_lower50  701
    u[47]     primal_lower51  152
    u[47]     primal_lower52  722
    u[47]     primal_lower53  485
    u[47]     primal_lower54  554
    u[47]     primal_lower55  22
    u[47]     primal_lower56  551
    u[47]     primal_lower57  352
    u[47]     primal_lower58  921
    u[47]     primal_lower59  998
    u[47]     primal_lower60  977
    u[47]     primal_lower61  632
    u[47]     primal_lower62  754
    u[47]     primal_lower63  831
    u[47]     primal_lower64  74
    u[47]     primal_lower65  6
    u[47]     primal_lower66  969
    u[47]     primal_lower67  155
    u[47]     primal_lower68  39
    u[47]     primal_lower69  516
    u[47]     primal_lower70  98
    u[47]     primal_lower71  809
    u[47]     primal_lower72  597
    u[47]     primal_lower73  148
    u[47]     primal_lower74  93
    u[47]     primal_lower75  959
    u[47]     primal_lower76  434
    u[47]     primal_lower77  583
    u[47]     primal_lower78  410
    u[47]     primal_lower79  142
    u[47]     primal_lower80  252
    u[47]     primal_lower81  295
    u[47]     primal_lower82  678
    u[47]     primal_lower83  500
    u[47]     primal_lower84  493
    u[47]     primal_lower85  477
    u[47]     primal_lower86  8
    u[47]     primal_lower87  973
    u[47]     primal_lower88  69
    u[47]     primal_lower89  413
    u[47]     primal_lower90  314
    u[47]     primal_lower91  261
    u[47]     primal_lower92  441
    u[47]     primal_lower93  484
    u[47]     primal_lower94  929
    u[47]     primal_lower95  306
    u[47]     primal_lower96  150
    u[47]     primal_lower97  124
    u[47]     primal_lower98  426
    u[47]     primal_lower99  578
    u[47]     interdiction[47]  1
    u[47]     mccormick1[47]  -1
    u[47]     mccormick3[47]  1
    u[48]     primal_lower0  576
    u[48]     primal_lower1  10
    u[48]     primal_lower2  286
    u[48]     primal_lower3  456
    u[48]     primal_lower4  326
    u[48]     primal_lower5  593
    u[48]     primal_lower6  949
    u[48]     primal_lower7  199
    u[48]     primal_lower8  890
    u[48]     primal_lower9  786
    u[48]     primal_lower10  380
    u[48]     primal_lower11  721
    u[48]     primal_lower12  641
    u[48]     primal_lower13  395
    u[48]     primal_lower14  499
    u[48]     primal_lower15  625
    u[48]     primal_lower16  143
    u[48]     primal_lower17  328
    u[48]     primal_lower18  244
    u[48]     primal_lower19  224
    u[48]     primal_lower20  404
    u[48]     primal_lower21  252
    u[48]     primal_lower22  701
    u[48]     primal_lower23  127
    u[48]     primal_lower24  171
    u[48]     primal_lower25  826
    u[48]     primal_lower26  105
    u[48]     primal_lower27  193
    u[48]     primal_lower28  218
    u[48]     primal_lower29  338
    u[48]     primal_lower30  654
    u[48]     primal_lower31  317
    u[48]     primal_lower32  157
    u[48]     primal_lower33  941
    u[48]     primal_lower34  631
    u[48]     primal_lower35  58
    u[48]     primal_lower36  879
    u[48]     primal_lower37  759
    u[48]     primal_lower38  971
    u[48]     primal_lower39  175
    u[48]     primal_lower40  403
    u[48]     primal_lower41  911
    u[48]     primal_lower42  878
    u[48]     primal_lower43  833
    u[48]     primal_lower44  515
    u[48]     primal_lower45  1
    u[48]     primal_lower46  161
    u[48]     primal_lower47  561
    u[48]     primal_lower48  95
    u[48]     primal_lower49  154
    u[48]     primal_lower50  631
    u[48]     primal_lower51  970
    u[48]     primal_lower52  844
    u[48]     primal_lower53  186
    u[48]     primal_lower54  247
    u[48]     primal_lower55  859
    u[48]     primal_lower56  468
    u[48]     primal_lower57  317
    u[48]     primal_lower58  739
    u[48]     primal_lower59  48
    u[48]     primal_lower60  926
    u[48]     primal_lower61  842
    u[48]     primal_lower62  55
    u[48]     primal_lower63  969
    u[48]     primal_lower64  852
    u[48]     primal_lower65  803
    u[48]     primal_lower66  531
    u[48]     primal_lower67  365
    u[48]     primal_lower68  417
    u[48]     primal_lower69  929
    u[48]     primal_lower70  183
    u[48]     primal_lower71  299
    u[48]     primal_lower72  775
    u[48]     primal_lower73  841
    u[48]     primal_lower74  615
    u[48]     primal_lower75  161
    u[48]     primal_lower76  335
    u[48]     primal_lower77  532
    u[48]     primal_lower78  959
    u[48]     primal_lower79  195
    u[48]     primal_lower80  25
    u[48]     primal_lower81  196
    u[48]     primal_lower82  155
    u[48]     primal_lower83  113
    u[48]     primal_lower84  34
    u[48]     primal_lower85  655
    u[48]     primal_lower86  549
    u[48]     primal_lower87  890
    u[48]     primal_lower88  903
    u[48]     primal_lower89  671
    u[48]     primal_lower90  628
    u[48]     primal_lower91  618
    u[48]     primal_lower92  507
    u[48]     primal_lower93  985
    u[48]     primal_lower94  558
    u[48]     primal_lower95  652
    u[48]     primal_lower96  555
    u[48]     primal_lower97  49
    u[48]     primal_lower98  772
    u[48]     primal_lower99  788
    u[48]     interdiction[48]  1
    u[48]     mccormick1[48]  -1
    u[48]     mccormick3[48]  1
    u[49]     primal_lower0  369
    u[49]     primal_lower1  147
    u[49]     primal_lower2  255
    u[49]     primal_lower3  917
    u[49]     primal_lower4  355
    u[49]     primal_lower5  94
    u[49]     primal_lower6  558
    u[49]     primal_lower7  324
    u[49]     primal_lower8  431
    u[49]     primal_lower9  743
    u[49]     primal_lower10  177
    u[49]     primal_lower11  774
    u[49]     primal_lower12  378
    u[49]     primal_lower13  708
    u[49]     primal_lower14  408
    u[49]     primal_lower15  218
    u[49]     primal_lower16  16
    u[49]     primal_lower17  377
    u[49]     primal_lower18  145
    u[49]     primal_lower19  625
    u[49]     primal_lower20  445
    u[49]     primal_lower21  1
    u[49]     primal_lower22  186
    u[49]     primal_lower23  604
    u[49]     primal_lower24  292
    u[49]     primal_lower25  139
    u[49]     primal_lower26  30
    u[49]     primal_lower27  270
    u[49]     primal_lower28  267
    u[49]     primal_lower29  751
    u[49]     primal_lower30  943
    u[49]     primal_lower31  502
    u[49]     primal_lower32  622
    u[49]     primal_lower33  662
    u[49]     primal_lower34  40
    u[49]     primal_lower35  687
    u[49]     primal_lower36  928
    u[49]     primal_lower37  752
    u[49]     primal_lower38  816
    u[49]     primal_lower39  440
    u[49]     primal_lower40  376
    u[49]     primal_lower41  572
    u[49]     primal_lower42  159
    u[49]     primal_lower43  266
    u[49]     primal_lower44  172
    u[49]     primal_lower45  934
    u[49]     primal_lower46  334
    u[49]     primal_lower47  378
    u[49]     primal_lower48  88
    u[49]     primal_lower49  299
    u[49]     primal_lower50  772
    u[49]     primal_lower51  23
    u[49]     primal_lower52  937
    u[49]     primal_lower53  243
    u[49]     primal_lower54  504
    u[49]     primal_lower55  868
    u[49]     primal_lower56  565
    u[49]     primal_lower57  206
    u[49]     primal_lower58  8
    u[49]     primal_lower59  309
    u[49]     primal_lower60  951
    u[49]     primal_lower61  967
    u[49]     primal_lower62  344
    u[49]     primal_lower63  166
    u[49]     primal_lower64  833
    u[49]     primal_lower65  188
    u[49]     primal_lower66  640
    u[49]     primal_lower67  74
    u[49]     primal_lower68  62
    u[49]     primal_lower69  402
    u[49]     primal_lower70  112
    u[49]     primal_lower71  296
    u[49]     primal_lower72  252
    u[49]     primal_lower73  570
    u[49]     primal_lower74  668
    u[49]     primal_lower75  334
    u[49]     primal_lower76  160
    u[49]     primal_lower77  397
    u[49]     primal_lower78  216
    u[49]     primal_lower79  132
    u[49]     primal_lower80  306
    u[49]     primal_lower81  333
    u[49]     primal_lower82  620
    u[49]     primal_lower83  394
    u[49]     primal_lower84  915
    u[49]     primal_lower85  148
    u[49]     primal_lower86  862
    u[49]     primal_lower87  243
    u[49]     primal_lower88  108
    u[49]     primal_lower89  260
    u[49]     primal_lower90  41
    u[49]     primal_lower91  571
    u[49]     primal_lower92  432
    u[49]     primal_lower93  690
    u[49]     primal_lower94  239
    u[49]     primal_lower95  921
    u[49]     primal_lower96  332
    u[49]     primal_lower97  634
    u[49]     primal_lower98  25
    u[49]     primal_lower99  233
    u[49]     interdiction[49]  1
    u[49]     mccormick1[49]  -1
    u[49]     mccormick3[49]  1
    u[50]     primal_lower0  136
    u[50]     primal_lower1  106
    u[50]     primal_lower2  110
    u[50]     primal_lower3  943
    u[50]     primal_lower4  581
    u[50]     primal_lower5  608
    u[50]     primal_lower6  885
    u[50]     primal_lower7  910
    u[50]     primal_lower8  585
    u[50]     primal_lower9  305
    u[50]     primal_lower10  867
    u[50]     primal_lower11  368
    u[50]     primal_lower12  633
    u[50]     primal_lower13  571
    u[50]     primal_lower14  330
    u[50]     primal_lower15  241
    u[50]     primal_lower16  279
    u[50]     primal_lower17  448
    u[50]     primal_lower18  179
    u[50]     primal_lower19  984
    u[50]     primal_lower20  756
    u[50]     primal_lower21  923
    u[50]     primal_lower22  652
    u[50]     primal_lower23  742
    u[50]     primal_lower24  91
    u[50]     primal_lower25  586
    u[50]     primal_lower26  488
    u[50]     primal_lower27  72
    u[50]     primal_lower28  354
    u[50]     primal_lower29  153
    u[50]     primal_lower30  118
    u[50]     primal_lower31  565
    u[50]     primal_lower32  93
    u[50]     primal_lower33  773
    u[50]     primal_lower34  639
    u[50]     primal_lower35  641
    u[50]     primal_lower36  903
    u[50]     primal_lower37  815
    u[50]     primal_lower38  194
    u[50]     primal_lower39  279
    u[50]     primal_lower40  578
    u[50]     primal_lower41  486
    u[50]     primal_lower42  574
    u[50]     primal_lower43  937
    u[50]     primal_lower44  939
    u[50]     primal_lower45  672
    u[50]     primal_lower46  984
    u[50]     primal_lower47  673
    u[50]     primal_lower48  247
    u[50]     primal_lower49  578
    u[50]     primal_lower50  598
    u[50]     primal_lower51  9
    u[50]     primal_lower52  763
    u[50]     primal_lower53  618
    u[50]     primal_lower54  607
    u[50]     primal_lower55  859
    u[50]     primal_lower56  276
    u[50]     primal_lower57  333
    u[50]     primal_lower58  42
    u[50]     primal_lower59  711
    u[50]     primal_lower60  638
    u[50]     primal_lower61  321
    u[50]     primal_lower62  695
    u[50]     primal_lower63  728
    u[50]     primal_lower64  875
    u[50]     primal_lower65  827
    u[50]     primal_lower66  458
    u[50]     primal_lower67  708
    u[50]     primal_lower68  88
    u[50]     primal_lower69  849
    u[50]     primal_lower70  903
    u[50]     primal_lower71  74
    u[50]     primal_lower72  710
    u[50]     primal_lower73  585
    u[50]     primal_lower74  670
    u[50]     primal_lower75  592
    u[50]     primal_lower76  287
    u[50]     primal_lower77  892
    u[50]     primal_lower78  143
    u[50]     primal_lower79  547
    u[50]     primal_lower80  913
    u[50]     primal_lower81  268
    u[50]     primal_lower82  235
    u[50]     primal_lower83  665
    u[50]     primal_lower84  514
    u[50]     primal_lower85  174
    u[50]     primal_lower86  45
    u[50]     primal_lower87  202
    u[50]     primal_lower88  766
    u[50]     primal_lower89  54
    u[50]     primal_lower90  667
    u[50]     primal_lower91  754
    u[50]     primal_lower92  26
    u[50]     primal_lower93  249
    u[50]     primal_lower94  206
    u[50]     primal_lower95  59
    u[50]     primal_lower96  979
    u[50]     primal_lower97  793
    u[50]     primal_lower98  595
    u[50]     primal_lower99  75
    u[50]     interdiction[50]  1
    u[50]     mccormick1[50]  -1
    u[50]     mccormick3[50]  1
    u[51]     primal_lower0  73
    u[51]     primal_lower1  987
    u[51]     primal_lower2  79
    u[51]     primal_lower3  285
    u[51]     primal_lower4  659
    u[51]     primal_lower5  630
    u[51]     primal_lower6  230
    u[51]     primal_lower7  636
    u[51]     primal_lower8  55
    u[51]     primal_lower9  711
    u[51]     primal_lower10  761
    u[51]     primal_lower11  78
    u[51]     primal_lower12  770
    u[51]     primal_lower13  484
    u[51]     primal_lower14  232
    u[51]     primal_lower15  114
    u[51]     primal_lower16  320
    u[51]     primal_lower17  993
    u[51]     primal_lower18  745
    u[51]     primal_lower19  417
    u[51]     primal_lower20  173
    u[51]     primal_lower21  817
    u[51]     primal_lower22  10
    u[51]     primal_lower23  444
    u[51]     primal_lower24  460
    u[51]     primal_lower25  899
    u[51]     primal_lower26  902
    u[51]     primal_lower27  414
    u[51]     primal_lower28  43
    u[51]     primal_lower29  351
    u[51]     primal_lower30  135
    u[51]     primal_lower31  806
    u[51]     primal_lower32  774
    u[51]     primal_lower33  902
    u[51]     primal_lower34  448
    u[51]     primal_lower35  279
    u[51]     primal_lower36  752
    u[51]     primal_lower37  432
    u[51]     primal_lower38  520
    u[51]     primal_lower39  536
    u[51]     primal_lower40  416
    u[51]     primal_lower41  156
    u[51]     primal_lower42  807
    u[51]     primal_lower43  562
    u[51]     primal_lower44  860
    u[51]     primal_lower45  918
    u[51]     primal_lower46  262
    u[51]     primal_lower47  962
    u[51]     primal_lower48  976
    u[51]     primal_lower49  971
    u[51]     primal_lower50  324
    u[51]     primal_lower51  223
    u[51]     primal_lower52  705
    u[51]     primal_lower53  843
    u[51]     primal_lower54  944
    u[51]     primal_lower55  156
    u[51]     primal_lower56  997
    u[51]     primal_lower57  30
    u[51]     primal_lower58  200
    u[51]     primal_lower59  421
    u[51]     primal_lower60  127
    u[51]     primal_lower61  671
    u[51]     primal_lower62  544
    u[51]     primal_lower63  606
    u[51]     primal_lower64  33
    u[51]     primal_lower65  228
    u[51]     primal_lower66  160
    u[51]     primal_lower67  634
    u[51]     primal_lower68  6
    u[51]     primal_lower69  330
    u[51]     primal_lower70  504
    u[51]     primal_lower71  992
    u[51]     primal_lower72  84
    u[51]     primal_lower73  338
    u[51]     primal_lower74  364
    u[51]     primal_lower75  726
    u[51]     primal_lower76  280
    u[51]     primal_lower77  237
    u[51]     primal_lower78  424
    u[51]     primal_lower79  284
    u[51]     primal_lower80  282
    u[51]     primal_lower81  837
    u[51]     primal_lower82  204
    u[51]     primal_lower83  514
    u[51]     primal_lower84  387
    u[51]     primal_lower85  372
    u[51]     primal_lower86  414
    u[51]     primal_lower87  283
    u[51]     primal_lower88  628
    u[51]     primal_lower89  244
    u[51]     primal_lower90  441
    u[51]     primal_lower91  851
    u[51]     primal_lower92  952
    u[51]     primal_lower93  250
    u[51]     primal_lower94  439
    u[51]     primal_lower95  801
    u[51]     primal_lower96  460
    u[51]     primal_lower97  882
    u[51]     primal_lower98  513
    u[51]     primal_lower99  153
    u[51]     interdiction[51]  1
    u[51]     mccormick1[51]  -1
    u[51]     mccormick3[51]  1
    u[52]     primal_lower0  70
    u[52]     primal_lower1  576
    u[52]     primal_lower2  228
    u[52]     primal_lower3  158
    u[52]     primal_lower4  108
    u[52]     primal_lower5  823
    u[52]     primal_lower6  819
    u[52]     primal_lower7  5
    u[52]     primal_lower8  496
    u[52]     primal_lower9  456
    u[52]     primal_lower10  690
    u[52]     primal_lower11  847
    u[52]     primal_lower12  927
    u[52]     primal_lower13  673
    u[52]     primal_lower14  801
    u[52]     primal_lower15  159
    u[52]     primal_lower16  541
    u[52]     primal_lower17  294
    u[52]     primal_lower18  570
    u[52]     primal_lower19  78
    u[52]     primal_lower20  930
    u[52]     primal_lower21  858
    u[52]     primal_lower22  75
    u[52]     primal_lower23  301
    u[52]     primal_lower24  177
    u[52]     primal_lower25  728
    u[52]     primal_lower26  79
    u[52]     primal_lower27  871
    u[52]     primal_lower28  424
    u[52]     primal_lower29  8
    u[52]     primal_lower30  236
    u[52]     primal_lower31  11
    u[52]     primal_lower32  867
    u[52]     primal_lower33  91
    u[52]     primal_lower34  365
    u[52]     primal_lower35  808
    u[52]     primal_lower36  517
    u[52]     primal_lower37  645
    u[52]     primal_lower38  577
    u[52]     primal_lower39  925
    u[52]     primal_lower40  185
    u[52]     primal_lower41  837
    u[52]     primal_lower42  868
    u[52]     primal_lower43  319
    u[52]     primal_lower44  177
    u[52]     primal_lower45  287
    u[52]     primal_lower46  311
    u[52]     primal_lower47  295
    u[52]     primal_lower48  157
    u[52]     primal_lower49  64
    u[52]     primal_lower50  5
    u[52]     primal_lower51  568
    u[52]     primal_lower52  938
    u[52]     primal_lower53  808
    u[52]     primal_lower54  397
    u[52]     primal_lower55  489
    u[52]     primal_lower56  346
    u[52]     primal_lower57  387
    u[52]     primal_lower58  841
    u[52]     primal_lower59  102
    u[52]     primal_lower60  572
    u[52]     primal_lower61  856
    u[52]     primal_lower62  925
    u[52]     primal_lower63  175
    u[52]     primal_lower64  474
    u[52]     primal_lower65  241
    u[52]     primal_lower66  985
    u[52]     primal_lower67  499
    u[52]     primal_lower68  383
    u[52]     primal_lower69  879
    u[52]     primal_lower70  717
    u[52]     primal_lower71  801
    u[52]     primal_lower72  85
    u[52]     primal_lower73  799
    u[52]     primal_lower74  853
    u[52]     primal_lower75  831
    u[52]     primal_lower76  645
    u[52]     primal_lower77  218
    u[52]     primal_lower78  781
    u[52]     primal_lower79  121
    u[52]     primal_lower80  279
    u[52]     primal_lower81  74
    u[52]     primal_lower82  529
    u[52]     primal_lower83  31
    u[52]     primal_lower84  336
    u[52]     primal_lower85  901
    u[52]     primal_lower86  371
    u[52]     primal_lower87  776
    u[52]     primal_lower88  221
    u[52]     primal_lower89  237
    u[52]     primal_lower90  962
    u[52]     primal_lower91  296
    u[52]     primal_lower92  729
    u[52]     primal_lower93  743
    u[52]     primal_lower94  308
    u[52]     primal_lower95  50
    u[52]     primal_lower96  153
    u[52]     primal_lower97  847
    u[52]     primal_lower98  42
    u[52]     primal_lower99  618
    u[52]     interdiction[52]  1
    u[52]     mccormick1[52]  -1
    u[52]     mccormick3[52]  1
    u[53]     primal_lower0  949
    u[53]     primal_lower1  487
    u[53]     primal_lower2  11
    u[53]     primal_lower3  89
    u[53]     primal_lower4  15
    u[53]     primal_lower5  658
    u[53]     primal_lower6  906
    u[53]     primal_lower7  720
    u[53]     primal_lower8  595
    u[53]     primal_lower9  171
    u[53]     primal_lower10  229
    u[53]     primal_lower11  202
    u[53]     primal_lower12  238
    u[53]     primal_lower13  984
    u[53]     primal_lower14  708
    u[53]     primal_lower15  310
    u[53]     primal_lower16  772
    u[53]     primal_lower17  589
    u[53]     primal_lower18  325
    u[53]     primal_lower19  221
    u[53]     primal_lower20  353
    u[53]     primal_lower21  661
    u[53]     primal_lower22  350
    u[53]     primal_lower23  440
    u[53]     primal_lower24  632
    u[53]     primal_lower25  447
    u[53]     primal_lower26  986
    u[53]     primal_lower27  530
    u[53]     primal_lower28  551
    u[53]     primal_lower29  435
    u[53]     primal_lower30  923
    u[53]     primal_lower31  626
    u[53]     primal_lower32  730
    u[53]     primal_lower33  250
    u[53]     primal_lower34  772
    u[53]     primal_lower35  187
    u[53]     primal_lower36  4
    u[53]     primal_lower37  548
    u[53]     primal_lower38  756
    u[53]     primal_lower39  412
    u[53]     primal_lower40  316
    u[53]     primal_lower41  472
    u[53]     primal_lower42  779
    u[53]     primal_lower43  886
    u[53]     primal_lower44  672
    u[53]     primal_lower45  818
    u[53]     primal_lower46  882
    u[53]     primal_lower47  438
    u[53]     primal_lower48  172
    u[53]     primal_lower49  79
    u[53]     primal_lower50  928
    u[53]     primal_lower51  459
    u[53]     primal_lower52  597
    u[53]     primal_lower53  623
    u[53]     primal_lower54  300
    u[53]     primal_lower55  200
    u[53]     primal_lower56  169
    u[53]     primal_lower57  498
    u[53]     primal_lower58  524
    u[53]     primal_lower59  393
    u[53]     primal_lower60  883
    u[53]     primal_lower61  595
    u[53]     primal_lower62  148
    u[53]     primal_lower63  290
    u[53]     primal_lower64  253
    u[53]     primal_lower65  144
    u[53]     primal_lower66  484
    u[53]     primal_lower67  558
    u[53]     primal_lower68  658
    u[53]     primal_lower69  998
    u[53]     primal_lower70  236
    u[53]     primal_lower71  852
    u[53]     primal_lower72  336
    u[53]     primal_lower73  478
    u[53]     primal_lower74  304
    u[53]     primal_lower75  338
    u[53]     primal_lower76  940
    u[53]     primal_lower77  953
    u[53]     primal_lower78  844
    u[53]     primal_lower79  336
    u[53]     primal_lower80  662
    u[53]     primal_lower81  377
    u[53]     primal_lower82  496
    u[53]     primal_lower83  790
    u[53]     primal_lower84  231
    u[53]     primal_lower85  176
    u[53]     primal_lower86  50
    u[53]     primal_lower87  87
    u[53]     primal_lower88  440
    u[53]     primal_lower89  888
    u[53]     primal_lower90  125
    u[53]     primal_lower91  455
    u[53]     primal_lower92  356
    u[53]     primal_lower93  102
    u[53]     primal_lower94  891
    u[53]     primal_lower95  349
    u[53]     primal_lower96  336
    u[53]     primal_lower97  302
    u[53]     primal_lower98  509
    u[53]     primal_lower99  397
    u[53]     interdiction[53]  1
    u[53]     mccormick1[53]  -1
    u[53]     mccormick3[53]  1
    u[54]     primal_lower0  754
    u[54]     primal_lower1  956
    u[54]     primal_lower2  952
    u[54]     primal_lower3  89
    u[54]     primal_lower4  143
    u[54]     primal_lower5  506
    u[54]     primal_lower6  991
    u[54]     primal_lower7  984
    u[54]     primal_lower8  651
    u[54]     primal_lower9  147
    u[54]     primal_lower10  629
    u[54]     primal_lower11  546
    u[54]     primal_lower12  539
    u[54]     primal_lower13  541
    u[54]     primal_lower14  428
    u[54]     primal_lower15  803
    u[54]     primal_lower16  249
    u[54]     primal_lower17  466
    u[54]     primal_lower18  405
    u[54]     primal_lower19  722
    u[54]     primal_lower20  550
    u[54]     primal_lower21  781
    u[54]     primal_lower22  654
    u[54]     primal_lower23  272
    u[54]     primal_lower24  917
    u[54]     primal_lower25  780
    u[54]     primal_lower26  50
    u[54]     primal_lower27  98
    u[54]     primal_lower28  268
    u[54]     primal_lower29  115
    u[54]     primal_lower30  728
    u[54]     primal_lower31  183
    u[54]     primal_lower32  463
    u[54]     primal_lower33  623
    u[54]     primal_lower34  281
    u[54]     primal_lower35  131
    u[54]     primal_lower36  969
    u[54]     primal_lower37  105
    u[54]     primal_lower38  164
    u[54]     primal_lower39  81
    u[54]     primal_lower40  676
    u[54]     primal_lower41  224
    u[54]     primal_lower42  728
    u[54]     primal_lower43  907
    u[54]     primal_lower44  605
    u[54]     primal_lower45  746
    u[54]     primal_lower46  850
    u[54]     primal_lower47  283
    u[54]     primal_lower48  625
    u[54]     primal_lower49  748
    u[54]     primal_lower50  864
    u[54]     primal_lower51  915
    u[54]     primal_lower52  581
    u[54]     primal_lower53  204
    u[54]     primal_lower54  353
    u[54]     primal_lower55  85
    u[54]     primal_lower56  62
    u[54]     primal_lower57  775
    u[54]     primal_lower58  364
    u[54]     primal_lower59  689
    u[54]     primal_lower60  952
    u[54]     primal_lower61  859
    u[54]     primal_lower62  633
    u[54]     primal_lower63  682
    u[54]     primal_lower64  141
    u[54]     primal_lower65  509
    u[54]     primal_lower66  84
    u[54]     primal_lower67  526
    u[54]     primal_lower68  498
    u[54]     primal_lower69  843
    u[54]     primal_lower70  249
    u[54]     primal_lower71  308
    u[54]     primal_lower72  800
    u[54]     primal_lower73  459
    u[54]     primal_lower74  728
    u[54]     primal_lower75  610
    u[54]     primal_lower76  361
    u[54]     primal_lower77  182
    u[54]     primal_lower78  425
    u[54]     primal_lower79  397
    u[54]     primal_lower80  851
    u[54]     primal_lower81  446
    u[54]     primal_lower82  765
    u[54]     primal_lower83  651
    u[54]     primal_lower84  860
    u[54]     primal_lower85  144
    u[54]     primal_lower86  759
    u[54]     primal_lower87  684
    u[54]     primal_lower88  472
    u[54]     primal_lower89  488
    u[54]     primal_lower90  741
    u[54]     primal_lower91  308
    u[54]     primal_lower92  988
    u[54]     primal_lower93  35
    u[54]     primal_lower94  360
    u[54]     primal_lower95  405
    u[54]     primal_lower96  605
    u[54]     primal_lower97  739
    u[54]     primal_lower98  869
    u[54]     primal_lower99  429
    u[54]     interdiction[54]  1
    u[54]     mccormick1[54]  -1
    u[54]     mccormick3[54]  1
    u[55]     primal_lower0  809
    u[55]     primal_lower1  419
    u[55]     primal_lower2  519
    u[55]     primal_lower3  236
    u[55]     primal_lower4  762
    u[55]     primal_lower5  797
    u[55]     primal_lower6  974
    u[55]     primal_lower7  827
    u[55]     primal_lower8  878
    u[55]     primal_lower9  686
    u[55]     primal_lower10  448
    u[55]     primal_lower11  757
    u[55]     primal_lower12  66
    u[55]     primal_lower13  324
    u[55]     primal_lower14  551
    u[55]     primal_lower15  458
    u[55]     primal_lower16  104
    u[55]     primal_lower17  601
    u[55]     primal_lower18  600
    u[55]     primal_lower19  257
    u[55]     primal_lower20  253
    u[55]     primal_lower21  456
    u[55]     primal_lower22  113
    u[55]     primal_lower23  827
    u[55]     primal_lower24  228
    u[55]     primal_lower25  451
    u[55]     primal_lower26  997
    u[55]     primal_lower27  837
    u[55]     primal_lower28  371
    u[55]     primal_lower29  142
    u[55]     primal_lower30  919
    u[55]     primal_lower31  262
    u[55]     primal_lower32  590
    u[55]     primal_lower33  790
    u[55]     primal_lower34  248
    u[55]     primal_lower35  134
    u[55]     primal_lower36  48
    u[55]     primal_lower37  720
    u[55]     primal_lower38  975
    u[55]     primal_lower39  64
    u[55]     primal_lower40  527
    u[55]     primal_lower41  195
    u[55]     primal_lower42  135
    u[55]     primal_lower43  578
    u[55]     primal_lower44  244
    u[55]     primal_lower45  429
    u[55]     primal_lower46  829
    u[55]     primal_lower47  954
    u[55]     primal_lower48  728
    u[55]     primal_lower49  883
    u[55]     primal_lower50  891
    u[55]     primal_lower51  230
    u[55]     primal_lower52  576
    u[55]     primal_lower53  707
    u[55]     primal_lower54  288
    u[55]     primal_lower55  12
    u[55]     primal_lower56  293
    u[55]     primal_lower57  46
    u[55]     primal_lower58  615
    u[55]     primal_lower59  132
    u[55]     primal_lower60  519
    u[55]     primal_lower61  214
    u[55]     primal_lower62  384
    u[55]     primal_lower63  781
    u[55]     primal_lower64  760
    u[55]     primal_lower65  260
    u[55]     primal_lower66  775
    u[55]     primal_lower67  297
    u[55]     primal_lower68  661
    u[55]     primal_lower69  946
    u[55]     primal_lower70  864
    u[55]     primal_lower71  127
    u[55]     primal_lower72  755
    u[55]     primal_lower73  138
    u[55]     primal_lower74  627
    u[55]     primal_lower75  693
    u[55]     primal_lower76  184
    u[55]     primal_lower77  789
    u[55]     primal_lower78  368
    u[55]     primal_lower79  188
    u[55]     primal_lower80  578
    u[55]     primal_lower81  309
    u[55]     primal_lower82  908
    u[55]     primal_lower83  418
    u[55]     primal_lower84  667
    u[55]     primal_lower85  259
    u[55]     primal_lower86  734
    u[55]     primal_lower87  475
    u[55]     primal_lower88  219
    u[55]     primal_lower89  531
    u[55]     primal_lower90  744
    u[55]     primal_lower91  867
    u[55]     primal_lower92  767
    u[55]     primal_lower93  954
    u[55]     primal_lower94  431
    u[55]     primal_lower95  888
    u[55]     primal_lower96  972
    u[55]     primal_lower97  754
    u[55]     primal_lower98  576
    u[55]     primal_lower99  320
    u[55]     interdiction[55]  1
    u[55]     mccormick1[55]  -1
    u[55]     mccormick3[55]  1
    u[56]     primal_lower0  58
    u[56]     primal_lower1  836
    u[56]     primal_lower2  616
    u[56]     primal_lower3  618
    u[56]     primal_lower4  360
    u[56]     primal_lower5  371
    u[56]     primal_lower6  983
    u[56]     primal_lower7  729
    u[56]     primal_lower8  884
    u[56]     primal_lower9  92
    u[56]     primal_lower10  950
    u[56]     primal_lower11  459
    u[56]     primal_lower12  923
    u[56]     primal_lower13  381
    u[56]     primal_lower14  261
    u[56]     primal_lower15  187
    u[56]     primal_lower16  481
    u[56]     primal_lower17  978
    u[56]     primal_lower18  46
    u[56]     primal_lower19  314
    u[56]     primal_lower20  446
    u[56]     primal_lower21  366
    u[56]     primal_lower22  247
    u[56]     primal_lower23  569
    u[56]     primal_lower24  5
    u[56]     primal_lower25  188
    u[56]     primal_lower26  83
    u[56]     primal_lower27  587
    u[56]     primal_lower28  796
    u[56]     primal_lower29  92
    u[56]     primal_lower30  40
    u[56]     primal_lower31  839
    u[56]     primal_lower32  711
    u[56]     primal_lower33  431
    u[56]     primal_lower34  801
    u[56]     primal_lower35  396
    u[56]     primal_lower36  217
    u[56]     primal_lower37  289
    u[56]     primal_lower38  949
    u[56]     primal_lower39  481
    u[56]     primal_lower40  853
    u[56]     primal_lower41  321
    u[56]     primal_lower42  672
    u[56]     primal_lower43  987
    u[56]     primal_lower44  141
    u[56]     primal_lower45  619
    u[56]     primal_lower46  811
    u[56]     primal_lower47  843
    u[56]     primal_lower48  241
    u[56]     primal_lower49  588
    u[56]     primal_lower50  697
    u[56]     primal_lower51  100
    u[56]     primal_lower52  350
    u[56]     primal_lower53  196
    u[56]     primal_lower54  441
    u[56]     primal_lower55  813
    u[56]     primal_lower56  190
    u[56]     primal_lower57  367
    u[56]     primal_lower58  733
    u[56]     primal_lower59  442
    u[56]     primal_lower60  408
    u[56]     primal_lower61  548
    u[56]     primal_lower62  353
    u[56]     primal_lower63  347
    u[56]     primal_lower64  902
    u[56]     primal_lower65  549
    u[56]     primal_lower66  701
    u[56]     primal_lower67  799
    u[56]     primal_lower68  883
    u[56]     primal_lower69  763
    u[56]     primal_lower70  337
    u[56]     primal_lower71  581
    u[56]     primal_lower72  777
    u[56]     primal_lower73  403
    u[56]     primal_lower74  857
    u[56]     primal_lower75  75
    u[56]     primal_lower76  905
    u[56]     primal_lower77  702
    u[56]     primal_lower78  129
    u[56]     primal_lower79  797
    u[56]     primal_lower80  483
    u[56]     primal_lower81  318
    u[56]     primal_lower82  509
    u[56]     primal_lower83  675
    u[56]     primal_lower84  84
    u[56]     primal_lower85  9
    u[56]     primal_lower86  623
    u[56]     primal_lower87  268
    u[56]     primal_lower88  937
    u[56]     primal_lower89  681
    u[56]     primal_lower90  606
    u[56]     primal_lower91  764
    u[56]     primal_lower92  85
    u[56]     primal_lower93  827
    u[56]     primal_lower94  888
    u[56]     primal_lower95  422
    u[56]     primal_lower96  533
    u[56]     primal_lower97  939
    u[56]     primal_lower98  190
    u[56]     primal_lower99  326
    u[56]     interdiction[56]  1
    u[56]     mccormick1[56]  -1
    u[56]     mccormick3[56]  1
    u[57]     primal_lower0  420
    u[57]     primal_lower1  430
    u[57]     primal_lower2  866
    u[57]     primal_lower3  503
    u[57]     primal_lower4  421
    u[57]     primal_lower5  584
    u[57]     primal_lower6  713
    u[57]     primal_lower7  86
    u[57]     primal_lower8  689
    u[57]     primal_lower9  689
    u[57]     primal_lower10  363
    u[57]     primal_lower11  256
    u[57]     primal_lower12  77
    u[57]     primal_lower13  567
    u[57]     primal_lower14  890
    u[57]     primal_lower15  29
    u[57]     primal_lower16  443
    u[57]     primal_lower17  692
    u[57]     primal_lower18  27
    u[57]     primal_lower19  36
    u[57]     primal_lower20  104
    u[57]     primal_lower21  731
    u[57]     primal_lower22  612
    u[57]     primal_lower23  982
    u[57]     primal_lower24  271
    u[57]     primal_lower25  998
    u[57]     primal_lower26  48
    u[57]     primal_lower27  416
    u[57]     primal_lower28  638
    u[57]     primal_lower29  577
    u[57]     primal_lower30  882
    u[57]     primal_lower31  105
    u[57]     primal_lower32  625
    u[57]     primal_lower33  785
    u[57]     primal_lower34  139
    u[57]     primal_lower35  913
    u[57]     primal_lower36  75
    u[57]     primal_lower37  59
    u[57]     primal_lower38  314
    u[57]     primal_lower39  411
    u[57]     primal_lower40  898
    u[57]     primal_lower41  742
    u[57]     primal_lower42  674
    u[57]     primal_lower43  29
    u[57]     primal_lower44  207
    u[57]     primal_lower45  632
    u[57]     primal_lower46  152
    u[57]     primal_lower47  749
    u[57]     primal_lower48  419
    u[57]     primal_lower49  782
    u[57]     primal_lower50  814
    u[57]     primal_lower51  601
    u[57]     primal_lower52  331
    u[57]     primal_lower53  22
    u[57]     primal_lower54  275
    u[57]     primal_lower55  783
    u[57]     primal_lower56  336
    u[57]     primal_lower57  313
    u[57]     primal_lower58  626
    u[57]     primal_lower59  439
    u[57]     primal_lower60  762
    u[57]     primal_lower61  569
    u[57]     primal_lower62  771
    u[57]     primal_lower63  56
    u[57]     primal_lower64  259
    u[57]     primal_lower65  935
    u[57]     primal_lower66  754
    u[57]     primal_lower67  836
    u[57]     primal_lower68  456
    u[57]     primal_lower69  285
    u[57]     primal_lower70  755
    u[57]     primal_lower71  970
    u[57]     primal_lower72  782
    u[57]     primal_lower73  373
    u[57]     primal_lower74  326
    u[57]     primal_lower75  728
    u[57]     primal_lower76  611
    u[57]     primal_lower77  256
    u[57]     primal_lower78  835
    u[57]     primal_lower79  743
    u[57]     primal_lower80  829
    u[57]     primal_lower81  872
    u[57]     primal_lower82  615
    u[57]     primal_lower83  997
    u[57]     primal_lower84  94
    u[57]     primal_lower85  974
    u[57]     primal_lower86  225
    u[57]     primal_lower87  894
    u[57]     primal_lower88  542
    u[57]     primal_lower89  630
    u[57]     primal_lower90  219
    u[57]     primal_lower91  46
    u[57]     primal_lower92  90
    u[57]     primal_lower93  245
    u[57]     primal_lower94  930
    u[57]     primal_lower95  611
    u[57]     primal_lower96  247
    u[57]     primal_lower97  285
    u[57]     primal_lower98  227
    u[57]     primal_lower99  403
    u[57]     interdiction[57]  1
    u[57]     mccormick1[57]  -1
    u[57]     mccormick3[57]  1
    u[58]     primal_lower0  93
    u[58]     primal_lower1  703
    u[58]     primal_lower2  251
    u[58]     primal_lower3  597
    u[58]     primal_lower4  75
    u[58]     primal_lower5  254
    u[58]     primal_lower6  946
    u[58]     primal_lower7  436
    u[58]     primal_lower8  159
    u[58]     primal_lower9  295
    u[58]     primal_lower10  897
    u[58]     primal_lower11  758
    u[58]     primal_lower12  638
    u[58]     primal_lower13  648
    u[58]     primal_lower14  808
    u[58]     primal_lower15  94
    u[58]     primal_lower16  932
    u[58]     primal_lower17  501
    u[58]     primal_lower18  833
    u[58]     primal_lower19  517
    u[58]     primal_lower20  681
    u[58]     primal_lower21  889
    u[58]     primal_lower22  66
    u[58]     primal_lower23  188
    u[58]     primal_lower24  312
    u[58]     primal_lower25  527
    u[58]     primal_lower26  350
    u[58]     primal_lower27  438
    u[58]     primal_lower28  223
    u[58]     primal_lower29  335
    u[58]     primal_lower30  139
    u[58]     primal_lower31  18
    u[58]     primal_lower32  658
    u[58]     primal_lower33  882
    u[58]     primal_lower34  812
    u[58]     primal_lower35  39
    u[58]     primal_lower36  20
    u[58]     primal_lower37  396
    u[58]     primal_lower38  408
    u[58]     primal_lower39  124
    u[58]     primal_lower40  608
    u[58]     primal_lower41  380
    u[58]     primal_lower42  275
    u[58]     primal_lower43  582
    u[58]     primal_lower44  728
    u[58]     primal_lower45  62
    u[58]     primal_lower46  886
    u[58]     primal_lower47  878
    u[58]     primal_lower48  188
    u[58]     primal_lower49  919
    u[58]     primal_lower50  388
    u[58]     primal_lower51  687
    u[58]     primal_lower52  745
    u[58]     primal_lower53  591
    u[58]     primal_lower54  868
    u[58]     primal_lower55  992
    u[58]     primal_lower56  305
    u[58]     primal_lower57  634
    u[58]     primal_lower58  768
    u[58]     primal_lower59  277
    u[58]     primal_lower60  3
    u[58]     primal_lower61  839
    u[58]     primal_lower62  268
    u[58]     primal_lower63  342
    u[58]     primal_lower64  1
    u[58]     primal_lower65  320
    u[58]     primal_lower66  744
    u[58]     primal_lower67  626
    u[58]     primal_lower68  294
    u[58]     primal_lower69  86
    u[58]     primal_lower70  836
    u[58]     primal_lower71  336
    u[58]     primal_lower72  244
    u[58]     primal_lower73  262
    u[58]     primal_lower74  92
    u[58]     primal_lower75  870
    u[58]     primal_lower76  484
    u[58]     primal_lower77  401
    u[58]     primal_lower78  236
    u[58]     primal_lower79  944
    u[58]     primal_lower80  766
    u[58]     primal_lower81  89
    u[58]     primal_lower82  480
    u[58]     primal_lower83  38
    u[58]     primal_lower84  783
    u[58]     primal_lower85  460
    u[58]     primal_lower86  474
    u[58]     primal_lower87  103
    u[58]     primal_lower88  716
    u[58]     primal_lower89  876
    u[58]     primal_lower90  145
    u[58]     primal_lower91  319
    u[58]     primal_lower92  888
    u[58]     primal_lower93  382
    u[58]     primal_lower94  211
    u[58]     primal_lower95  713
    u[58]     primal_lower96  1000
    u[58]     primal_lower97  782
    u[58]     primal_lower98  497
    u[58]     primal_lower99  921
    u[58]     interdiction[58]  1
    u[58]     mccormick1[58]  -1
    u[58]     mccormick3[58]  1
    u[59]     primal_lower0  715
    u[59]     primal_lower1  21
    u[59]     primal_lower2  193
    u[59]     primal_lower3  751
    u[59]     primal_lower4  781
    u[59]     primal_lower5  8
    u[59]     primal_lower6  432
    u[59]     primal_lower7  14
    u[59]     primal_lower8  241
    u[59]     primal_lower9  65
    u[59]     primal_lower10  315
    u[59]     primal_lower11  816
    u[59]     primal_lower12  196
    u[59]     primal_lower13  206
    u[59]     primal_lower14  306
    u[59]     primal_lower15  292
    u[59]     primal_lower16  434
    u[59]     primal_lower17  963
    u[59]     primal_lower18  83
    u[59]     primal_lower19  499
    u[59]     primal_lower20  887
    u[59]     primal_lower21  795
    u[59]     primal_lower22  428
    u[59]     primal_lower23  782
    u[59]     primal_lower24  342
    u[59]     primal_lower25  429
    u[59]     primal_lower26  712
    u[59]     primal_lower27  720
    u[59]     primal_lower28  285
    u[59]     primal_lower29  833
    u[59]     primal_lower30  873
    u[59]     primal_lower31  256
    u[59]     primal_lower32  744
    u[59]     primal_lower33  680
    u[59]     primal_lower34  706
    u[59]     primal_lower35  353
    u[59]     primal_lower36  466
    u[59]     primal_lower37  26
    u[59]     primal_lower38  938
    u[59]     primal_lower39  506
    u[59]     primal_lower40  666
    u[59]     primal_lower41  502
    u[59]     primal_lower42  561
    u[59]     primal_lower43  148
    u[59]     primal_lower44  110
    u[59]     primal_lower45  288
    u[59]     primal_lower46  688
    u[59]     primal_lower47  356
    u[59]     primal_lower48  514
    u[59]     primal_lower49  37
    u[59]     primal_lower50  694
    u[59]     primal_lower51  449
    u[59]     primal_lower52  147
    u[59]     primal_lower53  789
    u[59]     primal_lower54  890
    u[59]     primal_lower55  950
    u[59]     primal_lower56  887
    u[59]     primal_lower57  72
    u[59]     primal_lower58  738
    u[59]     primal_lower59  951
    u[59]     primal_lower60  449
    u[59]     primal_lower61  713
    u[59]     primal_lower62  2
    u[59]     primal_lower63  288
    u[59]     primal_lower64  899
    u[59]     primal_lower65  30
    u[59]     primal_lower66  714
    u[59]     primal_lower67  908
    u[59]     primal_lower68  720
    u[59]     primal_lower69  324
    u[59]     primal_lower70  290
    u[59]     primal_lower71  714
    u[59]     primal_lower72  614
    u[59]     primal_lower73  340
    u[59]     primal_lower74  78
    u[59]     primal_lower75  896
    u[59]     primal_lower76  74
    u[59]     primal_lower77  103
    u[59]     primal_lower78  770
    u[59]     primal_lower79  414
    u[59]     primal_lower80  396
    u[59]     primal_lower81  343
    u[59]     primal_lower82  606
    u[59]     primal_lower83  652
    u[59]     primal_lower84  893
    u[59]     primal_lower85  390
    u[59]     primal_lower86  312
    u[59]     primal_lower87  373
    u[59]     primal_lower88  966
    u[59]     primal_lower89  726
    u[59]     primal_lower90  899
    u[59]     primal_lower91  829
    u[59]     primal_lower92  242
    u[59]     primal_lower93  52
    u[59]     primal_lower94  121
    u[59]     primal_lower95  883
    u[59]     primal_lower96  782
    u[59]     primal_lower97  652
    u[59]     primal_lower98  107
    u[59]     primal_lower99  243
    u[59]     interdiction[59]  1
    u[59]     mccormick1[59]  -1
    u[59]     mccormick3[59]  1
    u[60]     primal_lower0  918
    u[60]     primal_lower1  288
    u[60]     primal_lower2  356
    u[60]     primal_lower3  21
    u[60]     primal_lower4  835
    u[60]     primal_lower5  158
    u[60]     primal_lower6  795
    u[60]     primal_lower7  540
    u[60]     primal_lower8  727
    u[60]     primal_lower9  175
    u[60]     primal_lower10  137
    u[60]     primal_lower11  454
    u[60]     primal_lower12  399
    u[60]     primal_lower13  497
    u[60]     primal_lower14  992
    u[60]     primal_lower15  111
    u[60]     primal_lower16  349
    u[60]     primal_lower17  134
    u[60]     primal_lower18  177
    u[60]     primal_lower19  182
    u[60]     primal_lower20  210
    u[60]     primal_lower21  57
    u[60]     primal_lower22  538
    u[60]     primal_lower23  980
    u[60]     primal_lower24  457
    u[60]     primal_lower25  56
    u[60]     primal_lower26  14
    u[60]     primal_lower27  990
    u[60]     primal_lower28  832
    u[60]     primal_lower29  575
    u[60]     primal_lower30  612
    u[60]     primal_lower31  811
    u[60]     primal_lower32  203
    u[60]     primal_lower33  155
    u[60]     primal_lower34  557
    u[60]     primal_lower35  615
    u[60]     primal_lower36  821
    u[60]     primal_lower37  541
    u[60]     primal_lower38  704
    u[60]     primal_lower39  709
    u[60]     primal_lower40  712
    u[60]     primal_lower41  636
    u[60]     primal_lower42  236
    u[60]     primal_lower43  167
    u[60]     primal_lower44  33
    u[60]     primal_lower45  694
    u[60]     primal_lower46  510
    u[60]     primal_lower47  839
    u[60]     primal_lower48  285
    u[60]     primal_lower49  976
    u[60]     primal_lower50  316
    u[60]     primal_lower51  519
    u[60]     primal_lower52  665
    u[60]     primal_lower53  528
    u[60]     primal_lower54  829
    u[60]     primal_lower55  529
    u[60]     primal_lower56  610
    u[60]     primal_lower57  291
    u[60]     primal_lower58  992
    u[60]     primal_lower59  765
    u[60]     primal_lower60  452
    u[60]     primal_lower61  951
    u[60]     primal_lower62  181
    u[60]     primal_lower63  806
    u[60]     primal_lower64  305
    u[60]     primal_lower65  937
    u[60]     primal_lower66  992
    u[60]     primal_lower67  826
    u[60]     primal_lower68  318
    u[60]     primal_lower69  623
    u[60]     primal_lower70  317
    u[60]     primal_lower71  568
    u[60]     primal_lower72  228
    u[60]     primal_lower73  575
    u[60]     primal_lower74  124
    u[60]     primal_lower75  526
    u[60]     primal_lower76  661
    u[60]     primal_lower77  618
    u[60]     primal_lower78  829
    u[60]     primal_lower79  785
    u[60]     primal_lower80  943
    u[60]     primal_lower81  930
    u[60]     primal_lower82  801
    u[60]     primal_lower83  503
    u[60]     primal_lower84  16
    u[60]     primal_lower85  436
    u[60]     primal_lower86  571
    u[60]     primal_lower87  120
    u[60]     primal_lower88  364
    u[60]     primal_lower89  892
    u[60]     primal_lower90  977
    u[60]     primal_lower91  432
    u[60]     primal_lower92  464
    u[60]     primal_lower93  783
    u[60]     primal_lower94  540
    u[60]     primal_lower95  313
    u[60]     primal_lower96  361
    u[60]     primal_lower97  983
    u[60]     primal_lower98  105
    u[60]     primal_lower99  457
    u[60]     interdiction[60]  1
    u[60]     mccormick1[60]  -1
    u[60]     mccormick3[60]  1
    u[61]     primal_lower0  4
    u[61]     primal_lower1  278
    u[61]     primal_lower2  282
    u[61]     primal_lower3  743
    u[61]     primal_lower4  245
    u[61]     primal_lower5  464
    u[61]     primal_lower6  105
    u[61]     primal_lower7  86
    u[61]     primal_lower8  505
    u[61]     primal_lower9  961
    u[61]     primal_lower10  435
    u[61]     primal_lower11  24
    u[61]     primal_lower12  181
    u[61]     primal_lower13  367
    u[61]     primal_lower14  826
    u[61]     primal_lower15  741
    u[61]     primal_lower16  307
    u[61]     primal_lower17  372
    u[61]     primal_lower18  91
    u[61]     primal_lower19  668
    u[61]     primal_lower20  792
    u[61]     primal_lower21  11
    u[61]     primal_lower22  20
    u[61]     primal_lower23  158
    u[61]     primal_lower24  423
    u[61]     primal_lower25  966
    u[61]     primal_lower26  8
    u[61]     primal_lower27  952
    u[61]     primal_lower28  574
    u[61]     primal_lower29  673
    u[61]     primal_lower30  698
    u[61]     primal_lower31  601
    u[61]     primal_lower32  785
    u[61]     primal_lower33  753
    u[61]     primal_lower34  619
    u[61]     primal_lower35  641
    u[61]     primal_lower36  931
    u[61]     primal_lower37  259
    u[61]     primal_lower38  58
    u[61]     primal_lower39  371
    u[61]     primal_lower40  26
    u[61]     primal_lower41  518
    u[61]     primal_lower42  466
    u[61]     primal_lower43  429
    u[61]     primal_lower44  7
    u[61]     primal_lower45  104
    u[61]     primal_lower46  128
    u[61]     primal_lower47  173
    u[61]     primal_lower48  139
    u[61]     primal_lower49  262
    u[61]     primal_lower50  110
    u[61]     primal_lower51  345
    u[61]     primal_lower52  563
    u[61]     primal_lower53  438
    u[61]     primal_lower54  499
    u[61]     primal_lower55  503
    u[61]     primal_lower56  208
    u[61]     primal_lower57  281
    u[61]     primal_lower58  514
    u[61]     primal_lower59  263
    u[61]     primal_lower60  346
    u[61]     primal_lower61  313
    u[61]     primal_lower62  659
    u[61]     primal_lower63  32
    u[61]     primal_lower64  915
    u[61]     primal_lower65  623
    u[61]     primal_lower66  970
    u[61]     primal_lower67  852
    u[61]     primal_lower68  464
    u[61]     primal_lower69  725
    u[61]     primal_lower70  11
    u[61]     primal_lower71  210
    u[61]     primal_lower72  398
    u[61]     primal_lower73  949
    u[61]     primal_lower74  806
    u[61]     primal_lower75  224
    u[61]     primal_lower76  251
    u[61]     primal_lower77  424
    u[61]     primal_lower78  907
    u[61]     primal_lower79  775
    u[61]     primal_lower80  765
    u[61]     primal_lower81  848
    u[61]     primal_lower82  647
    u[61]     primal_lower83  45
    u[61]     primal_lower84  678
    u[61]     primal_lower85  142
    u[61]     primal_lower86  257
    u[61]     primal_lower87  678
    u[61]     primal_lower88  966
    u[61]     primal_lower89  990
    u[61]     primal_lower90  403
    u[61]     primal_lower91  150
    u[61]     primal_lower92  498
    u[61]     primal_lower93  141
    u[61]     primal_lower94  106
    u[61]     primal_lower95  571
    u[61]     primal_lower96  391
    u[61]     primal_lower97  629
    u[61]     primal_lower98  827
    u[61]     primal_lower99  531
    u[61]     interdiction[61]  1
    u[61]     mccormick1[61]  -1
    u[61]     mccormick3[61]  1
    u[62]     primal_lower0  585
    u[62]     primal_lower1  947
    u[62]     primal_lower2  343
    u[62]     primal_lower3  704
    u[62]     primal_lower4  390
    u[62]     primal_lower5  609
    u[62]     primal_lower6  638
    u[62]     primal_lower7  623
    u[62]     primal_lower8  450
    u[62]     primal_lower9  26
    u[62]     primal_lower10  628
    u[62]     primal_lower11  89
    u[62]     primal_lower12  850
    u[62]     primal_lower13  876
    u[62]     primal_lower14  787
    u[62]     primal_lower15  98
    u[62]     primal_lower16  112
    u[62]     primal_lower17  817
    u[62]     primal_lower18  252
    u[62]     primal_lower19  425
    u[62]     primal_lower20  781
    u[62]     primal_lower21  588
    u[62]     primal_lower22  989
    u[62]     primal_lower23  807
    u[62]     primal_lower24  172
    u[62]     primal_lower25  763
    u[62]     primal_lower26  385
    u[62]     primal_lower27  961
    u[62]     primal_lower28  691
    u[62]     primal_lower29  594
    u[62]     primal_lower30  503
    u[62]     primal_lower31  998
    u[62]     primal_lower32  62
    u[62]     primal_lower33  974
    u[62]     primal_lower34  712
    u[62]     primal_lower35  122
    u[62]     primal_lower36  568
    u[62]     primal_lower37  872
    u[62]     primal_lower38  659
    u[62]     primal_lower39  480
    u[62]     primal_lower40  139
    u[62]     primal_lower41  207
    u[62]     primal_lower42  839
    u[62]     primal_lower43  522
    u[62]     primal_lower44  644
    u[62]     primal_lower45  209
    u[62]     primal_lower46  545
    u[62]     primal_lower47  946
    u[62]     primal_lower48  216
    u[62]     primal_lower49  211
    u[62]     primal_lower50  775
    u[62]     primal_lower51  602
    u[62]     primal_lower52  76
    u[62]     primal_lower53  275
    u[62]     primal_lower54  888
    u[62]     primal_lower55  236
    u[62]     primal_lower56  341
    u[62]     primal_lower57  278
    u[62]     primal_lower58  907
    u[62]     primal_lower59  640
    u[62]     primal_lower60  567
    u[62]     primal_lower61  242
    u[62]     primal_lower62  944
    u[62]     primal_lower63  465
    u[62]     primal_lower64  932
    u[62]     primal_lower65  300
    u[62]     primal_lower66  923
    u[62]     primal_lower67  853
    u[62]     primal_lower68  249
    u[62]     primal_lower69  170
    u[62]     primal_lower70  936
    u[62]     primal_lower71  859
    u[62]     primal_lower72  951
    u[62]     primal_lower73  746
    u[62]     primal_lower74  223
    u[62]     primal_lower75  249
    u[62]     primal_lower76  568
    u[62]     primal_lower77  653
    u[62]     primal_lower78  160
    u[62]     primal_lower79  260
    u[62]     primal_lower80  554
    u[62]     primal_lower81  877
    u[62]     primal_lower82  740
    u[62]     primal_lower83  354
    u[62]     primal_lower84  307
    u[62]     primal_lower85  575
    u[62]     primal_lower86  742
    u[62]     primal_lower87  643
    u[62]     primal_lower88  431
    u[62]     primal_lower89  967
    u[62]     primal_lower90  644
    u[62]     primal_lower91  707
    u[62]     primal_lower92  795
    u[62]     primal_lower93  34
    u[62]     primal_lower94  255
    u[62]     primal_lower95  884
    u[62]     primal_lower96  124
    u[62]     primal_lower97  362
    u[62]     primal_lower98  260
    u[62]     primal_lower99  492
    u[62]     interdiction[62]  1
    u[62]     mccormick1[62]  -1
    u[62]     mccormick3[62]  1
    u[63]     primal_lower0  804
    u[63]     primal_lower1  182
    u[63]     primal_lower2  810
    u[63]     primal_lower3  103
    u[63]     primal_lower4  173
    u[63]     primal_lower5  888
    u[63]     primal_lower6  297
    u[63]     primal_lower7  726
    u[63]     primal_lower8  905
    u[63]     primal_lower9  369
    u[63]     primal_lower10  947
    u[63]     primal_lower11  952
    u[63]     primal_lower12  157
    u[63]     primal_lower13  527
    u[63]     primal_lower14  666
    u[63]     primal_lower15  389
    u[63]     primal_lower16  755
    u[63]     primal_lower17  892
    u[63]     primal_lower18  611
    u[63]     primal_lower19  348
    u[63]     primal_lower20  696
    u[63]     primal_lower21  363
    u[63]     primal_lower22  84
    u[63]     primal_lower23  814
    u[63]     primal_lower24  167
    u[63]     primal_lower25  574
    u[63]     primal_lower26  136
    u[63]     primal_lower27  24
    u[63]     primal_lower28  70
    u[63]     primal_lower29  153
    u[63]     primal_lower30  514
    u[63]     primal_lower31  593
    u[63]     primal_lower32  553
    u[63]     primal_lower33  609
    u[63]     primal_lower34  819
    u[63]     primal_lower35  401
    u[63]     primal_lower36  395
    u[63]     primal_lower37  251
    u[63]     primal_lower38  738
    u[63]     primal_lower39  683
    u[63]     primal_lower40  978
    u[63]     primal_lower41  622
    u[63]     primal_lower42  162
    u[63]     primal_lower43  837
    u[63]     primal_lower44  631
    u[63]     primal_lower45  80
    u[63]     primal_lower46  824
    u[63]     primal_lower47  357
    u[63]     primal_lower48  859
    u[63]     primal_lower49  102
    u[63]     primal_lower50  838
    u[63]     primal_lower51  377
    u[63]     primal_lower52  411
    u[63]     primal_lower53  678
    u[63]     primal_lower54  915
    u[63]     primal_lower55  135
    u[63]     primal_lower56  312
    u[63]     primal_lower57  257
    u[63]     primal_lower58  978
    u[63]     primal_lower59  127
    u[63]     primal_lower60  746
    u[63]     primal_lower61  353
    u[63]     primal_lower62  355
    u[63]     primal_lower63  752
    u[63]     primal_lower64  907
    u[63]     primal_lower65  431
    u[63]     primal_lower66  202
    u[63]     primal_lower67  180
    u[63]     primal_lower68  400
    u[63]     primal_lower69  333
    u[63]     primal_lower70  475
    u[63]     primal_lower71  594
    u[63]     primal_lower72  326
    u[63]     primal_lower73  45
    u[63]     primal_lower74  566
    u[63]     primal_lower75  688
    u[63]     primal_lower76  755
    u[63]     primal_lower77  968
    u[63]     primal_lower78  155
    u[63]     primal_lower79  303
    u[63]     primal_lower80  637
    u[63]     primal_lower81  184
    u[63]     primal_lower82  935
    u[63]     primal_lower83  517
    u[63]     primal_lower84  870
    u[63]     primal_lower85  622
    u[63]     primal_lower86  761
    u[63]     primal_lower87  246
    u[63]     primal_lower88  582
    u[63]     primal_lower89  78
    u[63]     primal_lower90  531
    u[63]     primal_lower91  838
    u[63]     primal_lower92  290
    u[63]     primal_lower93  269
    u[63]     primal_lower94  722
    u[63]     primal_lower95  603
    u[63]     primal_lower96  223
    u[63]     primal_lower97  109
    u[63]     primal_lower98  499
    u[63]     primal_lower99  523
    u[63]     interdiction[63]  1
    u[63]     mccormick1[63]  -1
    u[63]     mccormick3[63]  1
    u[64]     primal_lower0  469
    u[64]     primal_lower1  583
    u[64]     primal_lower2  931
    u[64]     primal_lower3  828
    u[64]     primal_lower4  522
    u[64]     primal_lower5  493
    u[64]     primal_lower6  162
    u[64]     primal_lower7  75
    u[64]     primal_lower8  246
    u[64]     primal_lower9  854
    u[64]     primal_lower10  520
    u[64]     primal_lower11  677
    u[64]     primal_lower12  966
    u[64]     primal_lower13  400
    u[64]     primal_lower14  695
    u[64]     primal_lower15  622
    u[64]     primal_lower16  188
    u[64]     primal_lower17  605
    u[64]     primal_lower18  872
    u[64]     primal_lower19  133
    u[64]     primal_lower20  921
    u[64]     primal_lower21  600
    u[64]     primal_lower22  105
    u[64]     primal_lower23  139
    u[64]     primal_lower24  776
    u[64]     primal_lower25  519
    u[64]     primal_lower26  621
    u[64]     primal_lower27  725
    u[64]     primal_lower28  231
    u[64]     primal_lower29  302
    u[64]     primal_lower30  43
    u[64]     primal_lower31  458
    u[64]     primal_lower32  346
    u[64]     primal_lower33  306
    u[64]     primal_lower34  748
    u[64]     primal_lower35  910
    u[64]     primal_lower36  300
    u[64]     primal_lower37  444
    u[64]     primal_lower38  575
    u[64]     primal_lower39  732
    u[64]     primal_lower40  127
    u[64]     primal_lower41  971
    u[64]     primal_lower42  955
    u[64]     primal_lower43  334
    u[64]     primal_lower44  144
    u[64]     primal_lower45  661
    u[64]     primal_lower46  597
    u[64]     primal_lower47  70
    u[64]     primal_lower48  244
    u[64]     primal_lower49  383
    u[64]     primal_lower50  187
    u[64]     primal_lower51  574
    u[64]     primal_lower52  624
    u[64]     primal_lower53  935
    u[64]     primal_lower54  156
    u[64]     primal_lower55  648
    u[64]     primal_lower56  825
    u[64]     primal_lower57  146
    u[64]     primal_lower58  863
    u[64]     primal_lower59  452
    u[64]     primal_lower60  179
    u[64]     primal_lower61  526
    u[64]     primal_lower62  428
    u[64]     primal_lower63  69
    u[64]     primal_lower64  480
    u[64]     primal_lower65  184
    u[64]     primal_lower66  943
    u[64]     primal_lower67  297
    u[64]     primal_lower68  29
    u[64]     primal_lower69  542
    u[64]     primal_lower70  596
    u[64]     primal_lower71  647
    u[64]     primal_lower72  435
    u[64]     primal_lower73  566
    u[64]     primal_lower74  11
    u[64]     primal_lower75  221
    u[64]     primal_lower76  876
    u[64]     primal_lower77  953
    u[64]     primal_lower78  84
    u[64]     primal_lower79  320
    u[64]     primal_lower80  86
    u[64]     primal_lower81  697
    u[64]     primal_lower82  544
    u[64]     primal_lower83  750
    u[64]     primal_lower84  7
    u[64]     primal_lower85  707
    u[64]     primal_lower86  794
    u[64]     primal_lower87  383
    u[64]     primal_lower88  147
    u[64]     primal_lower89  499
    u[64]     primal_lower90  176
    u[64]     primal_lower91  71
    u[64]     primal_lower92  959
    u[64]     primal_lower93  478
    u[64]     primal_lower94  491
    u[64]     primal_lower95  960
    u[64]     primal_lower96  952
    u[64]     primal_lower97  750
    u[64]     primal_lower98  688
    u[64]     primal_lower99  72
    u[64]     interdiction[64]  1
    u[64]     mccormick1[64]  -1
    u[64]     mccormick3[64]  1
    u[65]     primal_lower0  229
    u[65]     primal_lower1  271
    u[65]     primal_lower2  155
    u[65]     primal_lower3  337
    u[65]     primal_lower4  471
    u[65]     primal_lower5  730
    u[65]     primal_lower6  994
    u[65]     primal_lower7  64
    u[65]     primal_lower8  115
    u[65]     primal_lower9  827
    u[65]     primal_lower10  493
    u[65]     primal_lower11  538
    u[65]     primal_lower12  406
    u[65]     primal_lower13  296
    u[65]     primal_lower14  788
    u[65]     primal_lower15  406
    u[65]     primal_lower16  188
    u[65]     primal_lower17  469
    u[65]     primal_lower18  637
    u[65]     primal_lower19  917
    u[65]     primal_lower20  761
    u[65]     primal_lower21  237
    u[65]     primal_lower22  838
    u[65]     primal_lower23  24
    u[65]     primal_lower24  152
    u[65]     primal_lower25  95
    u[65]     primal_lower26  114
    u[65]     primal_lower27  562
    u[65]     primal_lower28  271
    u[65]     primal_lower29  731
    u[65]     primal_lower30  363
    u[65]     primal_lower31  570
    u[65]     primal_lower32  538
    u[65]     primal_lower33  506
    u[65]     primal_lower34  612
    u[65]     primal_lower35  891
    u[65]     primal_lower36  116
    u[65]     primal_lower37  308
    u[65]     primal_lower38  660
    u[65]     primal_lower39  404
    u[65]     primal_lower40  500
    u[65]     primal_lower41  32
    u[65]     primal_lower42  907
    u[65]     primal_lower43  254
    u[65]     primal_lower44  360
    u[65]     primal_lower45  530
    u[65]     primal_lower46  898
    u[65]     primal_lower47  966
    u[65]     primal_lower48  556
    u[65]     primal_lower49  791
    u[65]     primal_lower50  752
    u[65]     primal_lower51  259
    u[65]     primal_lower52  61
    u[65]     primal_lower53  455
    u[65]     primal_lower54  476
    u[65]     primal_lower55  160
    u[65]     primal_lower56  577
    u[65]     primal_lower57  314
    u[65]     primal_lower58  892
    u[65]     primal_lower59  945
    u[65]     primal_lower60  499
    u[65]     primal_lower61  43
    u[65]     primal_lower62  748
    u[65]     primal_lower63  866
    u[65]     primal_lower64  549
    u[65]     primal_lower65  272
    u[65]     primal_lower66  708
    u[65]     primal_lower67  886
    u[65]     primal_lower68  810
    u[65]     primal_lower69  390
    u[65]     primal_lower70  404
    u[65]     primal_lower71  500
    u[65]     primal_lower72  920
    u[65]     primal_lower73  846
    u[65]     primal_lower74  640
    u[65]     primal_lower75  594
    u[65]     primal_lower76  916
    u[65]     primal_lower77  17
    u[65]     primal_lower78  4
    u[65]     primal_lower79  256
    u[65]     primal_lower80  838
    u[65]     primal_lower81  953
    u[65]     primal_lower82  632
    u[65]     primal_lower83  870
    u[65]     primal_lower84  383
    u[65]     primal_lower85  264
    u[65]     primal_lower86  970
    u[65]     primal_lower87  911
    u[65]     primal_lower88  32
    u[65]     primal_lower89  376
    u[65]     primal_lower90  109
    u[65]     primal_lower91  999
    u[65]     primal_lower92  196
    u[65]     primal_lower93  174
    u[65]     primal_lower94  219
    u[65]     primal_lower95  365
    u[65]     primal_lower96  464
    u[65]     primal_lower97  582
    u[65]     primal_lower98  213
    u[65]     primal_lower99  477
    u[65]     interdiction[65]  1
    u[65]     mccormick1[65]  -1
    u[65]     mccormick3[65]  1
    u[66]     primal_lower0  582
    u[66]     primal_lower1  584
    u[66]     primal_lower2  700
    u[66]     primal_lower3  5
    u[66]     primal_lower4  803
    u[66]     primal_lower5  166
    u[66]     primal_lower6  699
    u[66]     primal_lower7  724
    u[66]     primal_lower8  79
    u[66]     primal_lower9  967
    u[66]     primal_lower10  193
    u[66]     primal_lower11  758
    u[66]     primal_lower12  255
    u[66]     primal_lower13  825
    u[66]     primal_lower14  584
    u[66]     primal_lower15  143
    u[66]     primal_lower16  229
    u[66]     primal_lower17  326
    u[66]     primal_lower18  113
    u[66]     primal_lower19  6
    u[66]     primal_lower20  970
    u[66]     primal_lower21  313
    u[66]     primal_lower22  954
    u[66]     primal_lower23  940
    u[66]     primal_lower24  657
    u[66]     primal_lower25  400
    u[66]     primal_lower26  46
    u[66]     primal_lower27  814
    u[66]     primal_lower28  520
    u[66]     primal_lower29  87
    u[66]     primal_lower30  948
    u[66]     primal_lower31  51
    u[66]     primal_lower32  339
    u[66]     primal_lower33  35
    u[66]     primal_lower34  173
    u[66]     primal_lower35  111
    u[66]     primal_lower36  861
    u[66]     primal_lower37  317
    u[66]     primal_lower38  600
    u[66]     primal_lower39  605
    u[66]     primal_lower40  344
    u[66]     primal_lower41  420
    u[66]     primal_lower42  788
    u[66]     primal_lower43  671
    u[66]     primal_lower44  833
    u[66]     primal_lower45  686
    u[66]     primal_lower46  518
    u[66]     primal_lower47  911
    u[66]     primal_lower48  301
    u[66]     primal_lower49  976
    u[66]     primal_lower50  76
    u[66]     primal_lower51  983
    u[66]     primal_lower52  345
    u[66]     primal_lower53  184
    u[66]     primal_lower54  429
    u[66]     primal_lower55  313
    u[66]     primal_lower56  74
    u[66]     primal_lower57  675
    u[66]     primal_lower58  992
    u[66]     primal_lower59  885
    u[66]     primal_lower60  300
    u[66]     primal_lower61  887
    u[66]     primal_lower62  381
    u[66]     primal_lower63  846
    u[66]     primal_lower64  9
    u[66]     primal_lower65  49
    u[66]     primal_lower66  256
    u[66]     primal_lower67  130
    u[66]     primal_lower68  774
    u[66]     primal_lower69  871
    u[66]     primal_lower70  301
    u[66]     primal_lower71  384
    u[66]     primal_lower72  684
    u[66]     primal_lower73  583
    u[66]     primal_lower74  60
    u[66]     primal_lower75  806
    u[66]     primal_lower76  645
    u[66]     primal_lower77  394
    u[66]     primal_lower78  669
    u[66]     primal_lower79  81
    u[66]     primal_lower80  423
    u[66]     primal_lower81  754
    u[66]     primal_lower82  137
    u[66]     primal_lower83  943
    u[66]     primal_lower84  384
    u[66]     primal_lower85  548
    u[66]     primal_lower86  747
    u[66]     primal_lower87  64
    u[66]     primal_lower88  356
    u[66]     primal_lower89  284
    u[66]     primal_lower90  49
    u[66]     primal_lower91  240
    u[66]     primal_lower92  240
    u[66]     primal_lower93  519
    u[66]     primal_lower94  828
    u[66]     primal_lower95  425
    u[66]     primal_lower96  913
    u[66]     primal_lower97  31
    u[66]     primal_lower98  561
    u[66]     primal_lower99  249
    u[66]     interdiction[66]  1
    u[66]     mccormick1[66]  -1
    u[66]     mccormick3[66]  1
    u[67]     primal_lower0  576
    u[67]     primal_lower1  106
    u[67]     primal_lower2  310
    u[67]     primal_lower3  643
    u[67]     primal_lower4  481
    u[67]     primal_lower5  300
    u[67]     primal_lower6  293
    u[67]     primal_lower7  970
    u[67]     primal_lower8  141
    u[67]     primal_lower9  629
    u[67]     primal_lower10  335
    u[67]     primal_lower11  580
    u[67]     primal_lower12  353
    u[67]     primal_lower13  651
    u[67]     primal_lower14  334
    u[67]     primal_lower15  761
    u[67]     primal_lower16  255
    u[67]     primal_lower17  16
    u[67]     primal_lower18  999
    u[67]     primal_lower19  944
    u[67]     primal_lower20  644
    u[67]     primal_lower21  959
    u[67]     primal_lower22  464
    u[67]     primal_lower23  466
    u[67]     primal_lower24  755
    u[67]     primal_lower25  834
    u[67]     primal_lower26  372
    u[67]     primal_lower27  828
    u[67]     primal_lower28  338
    u[67]     primal_lower29  533
    u[67]     primal_lower30  590
    u[67]     primal_lower31  469
    u[67]     primal_lower32  821
    u[67]     primal_lower33  605
    u[67]     primal_lower34  15
    u[67]     primal_lower35  13
    u[67]     primal_lower36  143
    u[67]     primal_lower37  743
    u[67]     primal_lower38  238
    u[67]     primal_lower39  407
    u[67]     primal_lower40  534
    u[67]     primal_lower41  850
    u[67]     primal_lower42  238
    u[67]     primal_lower43  785
    u[67]     primal_lower44  203
    u[67]     primal_lower45  916
    u[67]     primal_lower46  636
    u[67]     primal_lower47  633
    u[67]     primal_lower48  607
    u[67]     primal_lower49  330
    u[67]     primal_lower50  506
    u[67]     primal_lower51  109
    u[67]     primal_lower52  559
    u[67]     primal_lower53  994
    u[67]     primal_lower54  295
    u[67]     primal_lower55  155
    u[67]     primal_lower56  476
    u[67]     primal_lower57  845
    u[67]     primal_lower58  582
    u[67]     primal_lower59  971
    u[67]     primal_lower60  342
    u[67]     primal_lower61  333
    u[67]     primal_lower62  879
    u[67]     primal_lower63  500
    u[67]     primal_lower64  439
    u[67]     primal_lower65  835
    u[67]     primal_lower66  150
    u[67]     primal_lower67  824
    u[67]     primal_lower68  780
    u[67]     primal_lower69  241
    u[67]     primal_lower70  63
    u[67]     primal_lower71  142
    u[67]     primal_lower72  362
    u[67]     primal_lower73  225
    u[67]     primal_lower74  586
    u[67]     primal_lower75  196
    u[67]     primal_lower76  727
    u[67]     primal_lower77  324
    u[67]     primal_lower78  15
    u[67]     primal_lower79  811
    u[67]     primal_lower80  73
    u[67]     primal_lower81  692
    u[67]     primal_lower82  339
    u[67]     primal_lower83  9
    u[67]     primal_lower84  210
    u[67]     primal_lower85  362
    u[67]     primal_lower86  421
    u[67]     primal_lower87  914
    u[67]     primal_lower88  138
    u[67]     primal_lower89  754
    u[67]     primal_lower90  487
    u[67]     primal_lower91  594
    u[67]     primal_lower92  70
    u[67]     primal_lower93  753
    u[67]     primal_lower94  862
    u[67]     primal_lower95  55
    u[67]     primal_lower96  155
    u[67]     primal_lower97  753
    u[67]     primal_lower98  55
    u[67]     primal_lower99  263
    u[67]     interdiction[67]  1
    u[67]     mccormick1[67]  -1
    u[67]     mccormick3[67]  1
    u[68]     primal_lower0  205
    u[68]     primal_lower1  727
    u[68]     primal_lower2  91
    u[68]     primal_lower3  117
    u[68]     primal_lower4  107
    u[68]     primal_lower5  310
    u[68]     primal_lower6  970
    u[68]     primal_lower7  116
    u[68]     primal_lower8  335
    u[68]     primal_lower9  663
    u[68]     primal_lower10  529
    u[68]     primal_lower11  126
    u[68]     primal_lower12  398
    u[68]     primal_lower13  456
    u[68]     primal_lower14  824
    u[68]     primal_lower15  670
    u[68]     primal_lower16  844
    u[68]     primal_lower17  405
    u[68]     primal_lower18  9
    u[68]     primal_lower19  493
    u[68]     primal_lower20  945
    u[68]     primal_lower21  953
    u[68]     primal_lower22  954
    u[68]     primal_lower23  900
    u[68]     primal_lower24  416
    u[68]     primal_lower25  359
    u[68]     primal_lower26  638
    u[68]     primal_lower27  662
    u[68]     primal_lower28  943
    u[68]     primal_lower29  647
    u[68]     primal_lower30  731
    u[68]     primal_lower31  74
    u[68]     primal_lower32  10
    u[68]     primal_lower33  986
    u[68]     primal_lower34  196
    u[68]     primal_lower35  631
    u[68]     primal_lower36  492
    u[68]     primal_lower37  796
    u[68]     primal_lower38  592
    u[68]     primal_lower39  484
    u[68]     primal_lower40  568
    u[68]     primal_lower41  236
    u[68]     primal_lower42  435
    u[68]     primal_lower43  438
    u[68]     primal_lower44  784
    u[68]     primal_lower45  974
    u[68]     primal_lower46  326
    u[68]     primal_lower47  590
    u[68]     primal_lower48  852
    u[68]     primal_lower49  247
    u[68]     primal_lower50  132
    u[68]     primal_lower51  343
    u[68]     primal_lower52  89
    u[68]     primal_lower53  839
    u[68]     primal_lower54  644
    u[68]     primal_lower55  944
    u[68]     primal_lower56  57
    u[68]     primal_lower57  570
    u[68]     primal_lower58  656
    u[68]     primal_lower59  237
    u[68]     primal_lower60  939
    u[68]     primal_lower61  319
    u[68]     primal_lower62  300
    u[68]     primal_lower63  254
    u[68]     primal_lower64  881
    u[68]     primal_lower65  904
    u[68]     primal_lower66  664
    u[68]     primal_lower67  954
    u[68]     primal_lower68  438
    u[68]     primal_lower69  926
    u[68]     primal_lower70  220
    u[68]     primal_lower71  704
    u[68]     primal_lower72  468
    u[68]     primal_lower73  30
    u[68]     primal_lower74  572
    u[68]     primal_lower75  662
    u[68]     primal_lower76  60
    u[68]     primal_lower77  881
    u[68]     primal_lower78  740
    u[68]     primal_lower79  552
    u[68]     primal_lower80  622
    u[68]     primal_lower81  793
    u[68]     primal_lower82  456
    u[68]     primal_lower83  830
    u[68]     primal_lower84  959
    u[68]     primal_lower85  220
    u[68]     primal_lower86  354
    u[68]     primal_lower87  151
    u[68]     primal_lower88  628
    u[68]     primal_lower89  844
    u[68]     primal_lower90  105
    u[68]     primal_lower91  695
    u[68]     primal_lower92  384
    u[68]     primal_lower93  294
    u[68]     primal_lower94  763
    u[68]     primal_lower95  433
    u[68]     primal_lower96  200
    u[68]     primal_lower97  262
    u[68]     primal_lower98  681
    u[68]     primal_lower99  329
    u[68]     interdiction[68]  1
    u[68]     mccormick1[68]  -1
    u[68]     mccormick3[68]  1
    u[69]     primal_lower0  883
    u[69]     primal_lower1  645
    u[69]     primal_lower2  57
    u[69]     primal_lower3  286
    u[69]     primal_lower4  892
    u[69]     primal_lower5  455
    u[69]     primal_lower6  984
    u[69]     primal_lower7  901
    u[69]     primal_lower8  96
    u[69]     primal_lower9  744
    u[69]     primal_lower10  378
    u[69]     primal_lower11  167
    u[69]     primal_lower12  252
    u[69]     primal_lower13  646
    u[69]     primal_lower14  417
    u[69]     primal_lower15  588
    u[69]     primal_lower16  698
    u[69]     primal_lower17  947
    u[69]     primal_lower18  706
    u[69]     primal_lower19  3
    u[69]     primal_lower20  551
    u[69]     primal_lower21  666
    u[69]     primal_lower22  419
    u[69]     primal_lower23  53
    u[69]     primal_lower24  86
    u[69]     primal_lower25  909
    u[69]     primal_lower26  239
    u[69]     primal_lower27  935
    u[69]     primal_lower28  277
    u[69]     primal_lower29  296
    u[69]     primal_lower30  457
    u[69]     primal_lower31  424
    u[69]     primal_lower32  1000
    u[69]     primal_lower33  424
    u[69]     primal_lower34  882
    u[69]     primal_lower35  936
    u[69]     primal_lower36  794
    u[69]     primal_lower37  26
    u[69]     primal_lower38  329
    u[69]     primal_lower39  674
    u[69]     primal_lower40  977
    u[69]     primal_lower41  765
    u[69]     primal_lower42  969
    u[69]     primal_lower43  700
    u[69]     primal_lower44  270
    u[69]     primal_lower45  743
    u[69]     primal_lower46  623
    u[69]     primal_lower47  204
    u[69]     primal_lower48  610
    u[69]     primal_lower49  245
    u[69]     primal_lower50  805
    u[69]     primal_lower51  1000
    u[69]     primal_lower52  306
    u[69]     primal_lower53  917
    u[69]     primal_lower54  882
    u[69]     primal_lower55  550
    u[69]     primal_lower56  375
    u[69]     primal_lower57  592
    u[69]     primal_lower58  961
    u[69]     primal_lower59  910
    u[69]     primal_lower60  241
    u[69]     primal_lower61  768
    u[69]     primal_lower62  594
    u[69]     primal_lower63  735
    u[69]     primal_lower64  58
    u[69]     primal_lower65  78
    u[69]     primal_lower66  753
    u[69]     primal_lower67  339
    u[69]     primal_lower68  967
    u[69]     primal_lower69  284
    u[69]     primal_lower70  730
    u[69]     primal_lower71  145
    u[69]     primal_lower72  429
    u[69]     primal_lower73  404
    u[69]     primal_lower74  269
    u[69]     primal_lower75  191
    u[69]     primal_lower76  650
    u[69]     primal_lower77  591
    u[69]     primal_lower78  506
    u[69]     primal_lower79  614
    u[69]     primal_lower80  60
    u[69]     primal_lower81  279
    u[69]     primal_lower82  838
    u[69]     primal_lower83  116
    u[69]     primal_lower84  261
    u[69]     primal_lower85  181
    u[69]     primal_lower86  752
    u[69]     primal_lower87  205
    u[69]     primal_lower88  45
    u[69]     primal_lower89  885
    u[69]     primal_lower90  26
    u[69]     primal_lower91  893
    u[69]     primal_lower92  681
    u[69]     primal_lower93  140
    u[69]     primal_lower94  281
    u[69]     primal_lower95  402
    u[69]     primal_lower96  598
    u[69]     primal_lower97  420
    u[69]     primal_lower98  458
    u[69]     primal_lower99  378
    u[69]     interdiction[69]  1
    u[69]     mccormick1[69]  -1
    u[69]     mccormick3[69]  1
    u[70]     primal_lower0  127
    u[70]     primal_lower1  641
    u[70]     primal_lower2  733
    u[70]     primal_lower3  382
    u[70]     primal_lower4  132
    u[70]     primal_lower5  799
    u[70]     primal_lower6  92
    u[70]     primal_lower7  765
    u[70]     primal_lower8  40
    u[70]     primal_lower9  256
    u[70]     primal_lower10  650
    u[70]     primal_lower11  639
    u[70]     primal_lower12  688
    u[70]     primal_lower13  66
    u[70]     primal_lower14  777
    u[70]     primal_lower15  992
    u[70]     primal_lower16  846
    u[70]     primal_lower17  879
    u[70]     primal_lower18  554
    u[70]     primal_lower19  39
    u[70]     primal_lower20  715
    u[70]     primal_lower21  874
    u[70]     primal_lower22  819
    u[70]     primal_lower23  85
    u[70]     primal_lower24  738
    u[70]     primal_lower25  857
    u[70]     primal_lower26  663
    u[70]     primal_lower27  23
    u[70]     primal_lower28  377
    u[70]     primal_lower29  568
    u[70]     primal_lower30  405
    u[70]     primal_lower31  764
    u[70]     primal_lower32  764
    u[70]     primal_lower33  636
    u[70]     primal_lower34  830
    u[70]     primal_lower35  256
    u[70]     primal_lower36  942
    u[70]     primal_lower37  622
    u[70]     primal_lower38  337
    u[70]     primal_lower39  902
    u[70]     primal_lower40  361
    u[70]     primal_lower41  117
    u[70]     primal_lower42  781
    u[70]     primal_lower43  696
    u[70]     primal_lower44  530
    u[70]     primal_lower45  767
    u[70]     primal_lower46  855
    u[70]     primal_lower47  800
    u[70]     primal_lower48  22
    u[70]     primal_lower49  841
    u[70]     primal_lower50  605
    u[70]     primal_lower51  8
    u[70]     primal_lower52  818
    u[70]     primal_lower53  193
    u[70]     primal_lower54  638
    u[70]     primal_lower55  162
    u[70]     primal_lower56  131
    u[70]     primal_lower57  628
    u[70]     primal_lower58  689
    u[70]     primal_lower59  334
    u[70]     primal_lower60  461
    u[70]     primal_lower61  200
    u[70]     primal_lower62  414
    u[70]     primal_lower63  623
    u[70]     primal_lower64  82
    u[70]     primal_lower65  210
    u[70]     primal_lower66  81
    u[70]     primal_lower67  331
    u[70]     primal_lower68  303
    u[70]     primal_lower69  288
    u[70]     primal_lower70  254
    u[70]     primal_lower71  417
    u[70]     primal_lower72  69
    u[70]     primal_lower73  72
    u[70]     primal_lower74  221
    u[70]     primal_lower75  839
    u[70]     primal_lower76  894
    u[70]     primal_lower77  331
    u[70]     primal_lower78  974
    u[70]     primal_lower79  722
    u[70]     primal_lower80  816
    u[70]     primal_lower81  971
    u[70]     primal_lower82  194
    u[70]     primal_lower83  104
    u[70]     primal_lower84  577
    u[70]     primal_lower85  589
    u[70]     primal_lower86  220
    u[70]     primal_lower87  289
    u[70]     primal_lower88  749
    u[70]     primal_lower89  157
    u[70]     primal_lower90  802
    u[70]     primal_lower91  121
    u[70]     primal_lower92  121
    u[70]     primal_lower93  304
    u[70]     primal_lower94  885
    u[70]     primal_lower95  658
    u[70]     primal_lower96  50
    u[70]     primal_lower97  936
    u[70]     primal_lower98  138
    u[70]     primal_lower99  714
    u[70]     interdiction[70]  1
    u[70]     mccormick1[70]  -1
    u[70]     mccormick3[70]  1
    u[71]     primal_lower0  703
    u[71]     primal_lower1  625
    u[71]     primal_lower2  845
    u[71]     primal_lower3  898
    u[71]     primal_lower4  416
    u[71]     primal_lower5  587
    u[71]     primal_lower6  100
    u[71]     primal_lower7  577
    u[71]     primal_lower8  60
    u[71]     primal_lower9  428
    u[71]     primal_lower10  862
    u[71]     primal_lower11  299
    u[71]     primal_lower12  152
    u[71]     primal_lower13  450
    u[71]     primal_lower14  661
    u[71]     primal_lower15  16
    u[71]     primal_lower16  654
    u[71]     primal_lower17  751
    u[71]     primal_lower18  934
    u[71]     primal_lower19  583
    u[71]     primal_lower20  91
    u[71]     primal_lower21  134
    u[71]     primal_lower22  111
    u[71]     primal_lower23  593
    u[71]     primal_lower24  450
    u[71]     primal_lower25  473
    u[71]     primal_lower26  587
    u[71]     primal_lower27  195
    u[71]     primal_lower28  217
    u[71]     primal_lower29  940
    u[71]     primal_lower30  877
    u[71]     primal_lower31  796
    u[71]     primal_lower32  188
    u[71]     primal_lower33  580
    u[71]     primal_lower34  110
    u[71]     primal_lower35  140
    u[71]     primal_lower36  78
    u[71]     primal_lower37  110
    u[71]     primal_lower38  765
    u[71]     primal_lower39  774
    u[71]     primal_lower40  613
    u[71]     primal_lower41  257
    u[71]     primal_lower42  877
    u[71]     primal_lower43  72
    u[71]     primal_lower44  178
    u[71]     primal_lower45  115
    u[71]     primal_lower46  995
    u[71]     primal_lower47  712
    u[71]     primal_lower48  686
    u[71]     primal_lower49  417
    u[71]     primal_lower50  153
    u[71]     primal_lower51  276
    u[71]     primal_lower52  574
    u[71]     primal_lower53  841
    u[71]     primal_lower54  62
    u[71]     primal_lower55  162
    u[71]     primal_lower56  35
    u[71]     primal_lower57  812
    u[71]     primal_lower58  949
    u[71]     primal_lower59  690
    u[71]     primal_lower60  317
    u[71]     primal_lower61  820
    u[71]     primal_lower62  566
    u[71]     primal_lower63  435
    u[71]     primal_lower64  286
    u[71]     primal_lower65  42
    u[71]     primal_lower66  37
    u[71]     primal_lower67  791
    u[71]     primal_lower68  907
    u[71]     primal_lower69  136
    u[71]     primal_lower70  230
    u[71]     primal_lower71  949
    u[71]     primal_lower72  377
    u[71]     primal_lower73  624
    u[71]     primal_lower74  593
    u[71]     primal_lower75  963
    u[71]     primal_lower76  894
    u[71]     primal_lower77  499
    u[71]     primal_lower78  470
    u[71]     primal_lower79  10
    u[71]     primal_lower80  360
    u[71]     primal_lower81  531
    u[71]     primal_lower82  146
    u[71]     primal_lower83  256
    u[71]     primal_lower84  417
    u[71]     primal_lower85  137
    u[71]     primal_lower86  948
    u[71]     primal_lower87  353
    u[71]     primal_lower88  865
    u[71]     primal_lower89  921
    u[71]     primal_lower90  574
    u[71]     primal_lower91  401
    u[71]     primal_lower92  765
    u[71]     primal_lower93  288
    u[71]     primal_lower94  909
    u[71]     primal_lower95  542
    u[71]     primal_lower96  362
    u[71]     primal_lower97  712
    u[71]     primal_lower98  590
    u[71]     primal_lower99  390
    u[71]     interdiction[71]  1
    u[71]     mccormick1[71]  -1
    u[71]     mccormick3[71]  1
    u[72]     primal_lower0  991
    u[72]     primal_lower1  913
    u[72]     primal_lower2  277
    u[72]     primal_lower3  503
    u[72]     primal_lower4  853
    u[72]     primal_lower5  720
    u[72]     primal_lower6  852
    u[72]     primal_lower7  326
    u[72]     primal_lower8  241
    u[72]     primal_lower9  233
    u[72]     primal_lower10  99
    u[72]     primal_lower11  128
    u[72]     primal_lower12  40
    u[72]     primal_lower13  394
    u[72]     primal_lower14  138
    u[72]     primal_lower15  16
    u[72]     primal_lower16  990
    u[72]     primal_lower17  63
    u[72]     primal_lower18  227
    u[72]     primal_lower19  295
    u[72]     primal_lower20  115
    u[72]     primal_lower21  315
    u[72]     primal_lower22  236
    u[72]     primal_lower23  78
    u[72]     primal_lower24  802
    u[72]     primal_lower25  577
    u[72]     primal_lower26  432
    u[72]     primal_lower27  240
    u[72]     primal_lower28  817
    u[72]     primal_lower29  745
    u[72]     primal_lower30  285
    u[72]     primal_lower31  252
    u[72]     primal_lower32  612
    u[72]     primal_lower33  820
    u[72]     primal_lower34  542
    u[72]     primal_lower35  633
    u[72]     primal_lower36  518
    u[72]     primal_lower37  86
    u[72]     primal_lower38  394
    u[72]     primal_lower39  374
    u[72]     primal_lower40  986
    u[72]     primal_lower41  470
    u[72]     primal_lower42  453
    u[72]     primal_lower43  104
    u[72]     primal_lower44  354
    u[72]     primal_lower45  328
    u[72]     primal_lower46  440
    u[72]     primal_lower47  128
    u[72]     primal_lower48  350
    u[72]     primal_lower49  513
    u[72]     primal_lower50  790
    u[72]     primal_lower51  249
    u[72]     primal_lower52  747
    u[72]     primal_lower53  545
    u[72]     primal_lower54  766
    u[72]     primal_lower55  330
    u[72]     primal_lower56  931
    u[72]     primal_lower57  108
    u[72]     primal_lower58  26
    u[72]     primal_lower59  823
    u[72]     primal_lower60  253
    u[72]     primal_lower61  649
    u[72]     primal_lower62  374
    u[72]     primal_lower63  640
    u[72]     primal_lower64  779
    u[72]     primal_lower65  922
    u[72]     primal_lower66  890
    u[72]     primal_lower67  300
    u[72]     primal_lower68  848
    u[72]     primal_lower69  592
    u[72]     primal_lower70  78
    u[72]     primal_lower71  378
    u[72]     primal_lower72  686
    u[72]     primal_lower73  848
    u[72]     primal_lower74  558
    u[72]     primal_lower75  264
    u[72]     primal_lower76  534
    u[72]     primal_lower77  395
    u[72]     primal_lower78  958
    u[72]     primal_lower79  586
    u[72]     primal_lower80  680
    u[72]     primal_lower81  635
    u[72]     primal_lower82  186
    u[72]     primal_lower83  256
    u[72]     primal_lower84  617
    u[72]     primal_lower85  454
    u[72]     primal_lower86  420
    u[72]     primal_lower87  545
    u[72]     primal_lower88  422
    u[72]     primal_lower89  110
    u[72]     primal_lower90  171
    u[72]     primal_lower91  385
    u[72]     primal_lower92  146
    u[72]     primal_lower93  944
    u[72]     primal_lower94  605
    u[72]     primal_lower95  75
    u[72]     primal_lower96  466
    u[72]     primal_lower97  608
    u[72]     primal_lower98  499
    u[72]     primal_lower99  435
    u[72]     interdiction[72]  1
    u[72]     mccormick1[72]  -1
    u[72]     mccormick3[72]  1
    u[73]     primal_lower0  888
    u[73]     primal_lower1  882
    u[73]     primal_lower2  110
    u[73]     primal_lower3  836
    u[73]     primal_lower4  66
    u[73]     primal_lower5  365
    u[73]     primal_lower6  29
    u[73]     primal_lower7  499
    u[73]     primal_lower8  790
    u[73]     primal_lower9  334
    u[73]     primal_lower10  200
    u[73]     primal_lower11  989
    u[73]     primal_lower12  465
    u[73]     primal_lower13  275
    u[73]     primal_lower14  535
    u[73]     primal_lower15  873
    u[73]     primal_lower16  703
    u[73]     primal_lower17  712
    u[73]     primal_lower18  616
    u[73]     primal_lower19  80
    u[73]     primal_lower20  820
    u[73]     primal_lower21  696
    u[73]     primal_lower22  905
    u[73]     primal_lower23  75
    u[73]     primal_lower24  643
    u[73]     primal_lower25  90
    u[73]     primal_lower26  437
    u[73]     primal_lower27  941
    u[73]     primal_lower28  346
    u[73]     primal_lower29  718
    u[73]     primal_lower30  118
    u[73]     primal_lower31  205
    u[73]     primal_lower32  989
    u[73]     primal_lower33  909
    u[73]     primal_lower34  503
    u[73]     primal_lower35  470
    u[73]     primal_lower36  471
    u[73]     primal_lower37  303
    u[73]     primal_lower38  999
    u[73]     primal_lower39  463
    u[73]     primal_lower40  215
    u[73]     primal_lower41  851
    u[73]     primal_lower42  998
    u[73]     primal_lower43  385
    u[73]     primal_lower44  787
    u[73]     primal_lower45  589
    u[73]     primal_lower46  381
    u[73]     primal_lower47  929
    u[73]     primal_lower48  303
    u[73]     primal_lower49  490
    u[73]     primal_lower50  827
    u[73]     primal_lower51  934
    u[73]     primal_lower52  304
    u[73]     primal_lower53  914
    u[73]     primal_lower54  295
    u[73]     primal_lower55  715
    u[73]     primal_lower56  980
    u[73]     primal_lower57  997
    u[73]     primal_lower58  719
    u[73]     primal_lower59  820
    u[73]     primal_lower60  622
    u[73]     primal_lower61  286
    u[73]     primal_lower62  303
    u[73]     primal_lower63  437
    u[73]     primal_lower64  424
    u[73]     primal_lower65  835
    u[73]     primal_lower66  495
    u[73]     primal_lower67  161
    u[73]     primal_lower68  509
    u[73]     primal_lower69  833
    u[73]     primal_lower70  327
    u[73]     primal_lower71  111
    u[73]     primal_lower72  923
    u[73]     primal_lower73  897
    u[73]     primal_lower74  3
    u[73]     primal_lower75  293
    u[73]     primal_lower76  967
    u[73]     primal_lower77  60
    u[73]     primal_lower78  351
    u[73]     primal_lower79  763
    u[73]     primal_lower80  529
    u[73]     primal_lower81  220
    u[73]     primal_lower82  795
    u[73]     primal_lower83  985
    u[73]     primal_lower84  706
    u[73]     primal_lower85  707
    u[73]     primal_lower86  317
    u[73]     primal_lower87  522
    u[73]     primal_lower88  715
    u[73]     primal_lower89  203
    u[73]     primal_lower90  856
    u[73]     primal_lower91  202
    u[73]     primal_lower92  23
    u[73]     primal_lower93  49
    u[73]     primal_lower94  566
    u[73]     primal_lower95  664
    u[73]     primal_lower96  235
    u[73]     primal_lower97  857
    u[73]     primal_lower98  688
    u[73]     primal_lower99  920
    u[73]     interdiction[73]  1
    u[73]     mccormick1[73]  -1
    u[73]     mccormick3[73]  1
    u[74]     primal_lower0  33
    u[74]     primal_lower1  723
    u[74]     primal_lower2  495
    u[74]     primal_lower3  720
    u[74]     primal_lower4  598
    u[74]     primal_lower5  625
    u[74]     primal_lower6  446
    u[74]     primal_lower7  823
    u[74]     primal_lower8  610
    u[74]     primal_lower9  242
    u[74]     primal_lower10  740
    u[74]     primal_lower11  393
    u[74]     primal_lower12  722
    u[74]     primal_lower13  300
    u[74]     primal_lower14  707
    u[74]     primal_lower15  546
    u[74]     primal_lower16  584
    u[74]     primal_lower17  529
    u[74]     primal_lower18  180
    u[74]     primal_lower19  481
    u[74]     primal_lower20  453
    u[74]     primal_lower21  196
    u[74]     primal_lower22  733
    u[74]     primal_lower23  511
    u[74]     primal_lower24  596
    u[74]     primal_lower25  227
    u[74]     primal_lower26  785
    u[74]     primal_lower27  617
    u[74]     primal_lower28  683
    u[74]     primal_lower29  738
    u[74]     primal_lower30  919
    u[74]     primal_lower31  878
    u[74]     primal_lower32  654
    u[74]     primal_lower33  590
    u[74]     primal_lower34  400
    u[74]     primal_lower35  418
    u[74]     primal_lower36  864
    u[74]     primal_lower37  888
    u[74]     primal_lower38  459
    u[74]     primal_lower39  280
    u[74]     primal_lower40  915
    u[74]     primal_lower41  831
    u[74]     primal_lower42  183
    u[74]     primal_lower43  82
    u[74]     primal_lower44  196
    u[74]     primal_lower45  305
    u[74]     primal_lower46  97
    u[74]     primal_lower47  418
    u[74]     primal_lower48  368
    u[74]     primal_lower49  51
    u[74]     primal_lower50  639
    u[74]     primal_lower51  610
    u[74]     primal_lower52  660
    u[74]     primal_lower53  691
    u[74]     primal_lower54  832
    u[74]     primal_lower55  404
    u[74]     primal_lower56  893
    u[74]     primal_lower57  30
    u[74]     primal_lower58  59
    u[74]     primal_lower59  576
    u[74]     primal_lower60  967
    u[74]     primal_lower61  450
    u[74]     primal_lower62  848
    u[74]     primal_lower63  809
    u[74]     primal_lower64  324
    u[74]     primal_lower65  884
    u[74]     primal_lower66  75
    u[74]     primal_lower67  485
    u[74]     primal_lower68  529
    u[74]     primal_lower69  18
    u[74]     primal_lower70  712
    u[74]     primal_lower71  923
    u[74]     primal_lower72  543
    u[74]     primal_lower73  50
    u[74]     primal_lower74  351
    u[74]     primal_lower75  913
    u[74]     primal_lower76  712
    u[74]     primal_lower77  93
    u[74]     primal_lower78  88
    u[74]     primal_lower79  460
    u[74]     primal_lower80  546
    u[74]     primal_lower81  421
    u[74]     primal_lower82  724
    u[74]     primal_lower83  842
    u[74]     primal_lower84  515
    u[74]     primal_lower85  991
    u[74]     primal_lower86  78
    u[74]     primal_lower87  427
    u[74]     primal_lower88  447
    u[74]     primal_lower89  399
    u[74]     primal_lower90  412
    u[74]     primal_lower91  987
    u[74]     primal_lower92  747
    u[74]     primal_lower93  474
    u[74]     primal_lower94  695
    u[74]     primal_lower95  796
    u[74]     primal_lower96  140
    u[74]     primal_lower97  258
    u[74]     primal_lower98  348
    u[74]     primal_lower99  156
    u[74]     interdiction[74]  1
    u[74]     mccormick1[74]  -1
    u[74]     mccormick3[74]  1
    u[75]     primal_lower0  626
    u[75]     primal_lower1  748
    u[75]     primal_lower2  112
    u[75]     primal_lower3  221
    u[75]     primal_lower4  891
    u[75]     primal_lower5  822
    u[75]     primal_lower6  215
    u[75]     primal_lower7  940
    u[75]     primal_lower8  799
    u[75]     primal_lower9  743
    u[75]     primal_lower10  97
    u[75]     primal_lower11  838
    u[75]     primal_lower12  283
    u[75]     primal_lower13  613
    u[75]     primal_lower14  840
    u[75]     primal_lower15  763
    u[75]     primal_lower16  225
    u[75]     primal_lower17  722
    u[75]     primal_lower18  465
    u[75]     primal_lower19  186
    u[75]     primal_lower20  166
    u[75]     primal_lower21  337
    u[75]     primal_lower22  826
    u[75]     primal_lower23  884
    u[75]     primal_lower24  293
    u[75]     primal_lower25  500
    u[75]     primal_lower26  326
    u[75]     primal_lower27  726
    u[75]     primal_lower28  372
    u[75]     primal_lower29  743
    u[75]     primal_lower30  240
    u[75]     primal_lower31  79
    u[75]     primal_lower32  615
    u[75]     primal_lower33  591
    u[75]     primal_lower34  825
    u[75]     primal_lower35  311
    u[75]     primal_lower36  241
    u[75]     primal_lower37  529
    u[75]     primal_lower38  816
    u[75]     primal_lower39  617
    u[75]     primal_lower40  1000
    u[75]     primal_lower41  460
    u[75]     primal_lower42  904
    u[75]     primal_lower43  987
    u[75]     primal_lower44  749
    u[75]     primal_lower45  438
    u[75]     primal_lower46  78
    u[75]     primal_lower47  347
    u[75]     primal_lower48  921
    u[75]     primal_lower49  100
    u[75]     primal_lower50  828
    u[75]     primal_lower51  903
    u[75]     primal_lower52  777
    u[75]     primal_lower53  812
    u[75]     primal_lower54  25
    u[75]     primal_lower55  61
    u[75]     primal_lower56  934
    u[75]     primal_lower57  591
    u[75]     primal_lower58  928
    u[75]     primal_lower59  93
    u[75]     primal_lower60  288
    u[75]     primal_lower61  551
    u[75]     primal_lower62  561
    u[75]     primal_lower63  214
    u[75]     primal_lower64  593
    u[75]     primal_lower65  117
    u[75]     primal_lower66  976
    u[75]     primal_lower67  330
    u[75]     primal_lower68  46
    u[75]     primal_lower69  723
    u[75]     primal_lower70  345
    u[75]     primal_lower71  336
    u[75]     primal_lower72  212
    u[75]     primal_lower73  635
    u[75]     primal_lower74  572
    u[75]     primal_lower75  934
    u[75]     primal_lower76  369
    u[75]     primal_lower77  286
    u[75]     primal_lower78  601
    u[75]     primal_lower79  53
    u[75]     primal_lower80  595
    u[75]     primal_lower81  798
    u[75]     primal_lower82  701
    u[75]     primal_lower83  603
    u[75]     primal_lower84  476
    u[75]     primal_lower85  92
    u[75]     primal_lower86  39
    u[75]     primal_lower87  948
    u[75]     primal_lower88  52
    u[75]     primal_lower89  604
    u[75]     primal_lower90  81
    u[75]     primal_lower91  36
    u[75]     primal_lower92  136
    u[75]     primal_lower93  155
    u[75]     primal_lower94  768
    u[75]     primal_lower95  601
    u[75]     primal_lower96  197
    u[75]     primal_lower97  843
    u[75]     primal_lower98  913
    u[75]     primal_lower99  401
    u[75]     interdiction[75]  1
    u[75]     mccormick1[75]  -1
    u[75]     mccormick3[75]  1
    u[76]     primal_lower0  516
    u[76]     primal_lower1  598
    u[76]     primal_lower2  50
    u[76]     primal_lower3  195
    u[76]     primal_lower4  505
    u[76]     primal_lower5  388
    u[76]     primal_lower6  649
    u[76]     primal_lower7  466
    u[76]     primal_lower8  205
    u[76]     primal_lower9  53
    u[76]     primal_lower10  519
    u[76]     primal_lower11  884
    u[76]     primal_lower12  253
    u[76]     primal_lower13  255
    u[76]     primal_lower14  518
    u[76]     primal_lower15  357
    u[76]     primal_lower16  107
    u[76]     primal_lower17  732
    u[76]     primal_lower18  751
    u[76]     primal_lower19  188
    u[76]     primal_lower20  408
    u[76]     primal_lower21  831
    u[76]     primal_lower22  568
    u[76]     primal_lower23  506
    u[76]     primal_lower24  807
    u[76]     primal_lower25  158
    u[76]     primal_lower26  36
    u[76]     primal_lower27  620
    u[76]     primal_lower28  134
    u[76]     primal_lower29  645
    u[76]     primal_lower30  914
    u[76]     primal_lower31  457
    u[76]     primal_lower32  857
    u[76]     primal_lower33  1
    u[76]     primal_lower34  99
    u[76]     primal_lower35  901
    u[76]     primal_lower36  371
    u[76]     primal_lower37  291
    u[76]     primal_lower38  230
    u[76]     primal_lower39  459
    u[76]     primal_lower40  846
    u[76]     primal_lower41  370
    u[76]     primal_lower42  146
    u[76]     primal_lower43  421
    u[76]     primal_lower44  975
    u[76]     primal_lower45  524
    u[76]     primal_lower46  140
    u[76]     primal_lower47  93
    u[76]     primal_lower48  635
    u[76]     primal_lower49  86
    u[76]     primal_lower50  442
    u[76]     primal_lower51  197
    u[76]     primal_lower52  639
    u[76]     primal_lower53  630
    u[76]     primal_lower54  579
    u[76]     primal_lower55  479
    u[76]     primal_lower56  216
    u[76]     primal_lower57  945
    u[76]     primal_lower58  718
    u[76]     primal_lower59  147
    u[76]     primal_lower60  154
    u[76]     primal_lower61  229
    u[76]     primal_lower62  339
    u[76]     primal_lower63  236
    u[76]     primal_lower64  287
    u[76]     primal_lower65  695
    u[76]     primal_lower66  318
    u[76]     primal_lower67  456
    u[76]     primal_lower68  748
    u[76]     primal_lower69  69
    u[76]     primal_lower70  67
    u[76]     primal_lower71  494
    u[76]     primal_lower72  154
    u[76]     primal_lower73  429
    u[76]     primal_lower74  858
    u[76]     primal_lower75  156
    u[76]     primal_lower76  411
    u[76]     primal_lower77  416
    u[76]     primal_lower78  979
    u[76]     primal_lower79  735
    u[76]     primal_lower80  197
    u[76]     primal_lower81  936
    u[76]     primal_lower82  751
    u[76]     primal_lower83  557
    u[76]     primal_lower84  726
    u[76]     primal_lower85  162
    u[76]     primal_lower86  25
    u[76]     primal_lower87  30
    u[76]     primal_lower88  698
    u[76]     primal_lower89  618
    u[76]     primal_lower90  159
    u[76]     primal_lower91  334
    u[76]     primal_lower92  790
    u[76]     primal_lower93  237
    u[76]     primal_lower94  450
    u[76]     primal_lower95  687
    u[76]     primal_lower96  119
    u[76]     primal_lower97  445
    u[76]     primal_lower98  679
    u[76]     primal_lower99  31
    u[76]     interdiction[76]  1
    u[76]     mccormick1[76]  -1
    u[76]     mccormick3[76]  1
    u[77]     primal_lower0  948
    u[77]     primal_lower1  110
    u[77]     primal_lower2  938
    u[77]     primal_lower3  984
    u[77]     primal_lower4  526
    u[77]     primal_lower5  937
    u[77]     primal_lower6  289
    u[77]     primal_lower7  935
    u[77]     primal_lower8  618
    u[77]     primal_lower9  322
    u[77]     primal_lower10  772
    u[77]     primal_lower11  729
    u[77]     primal_lower12  269
    u[77]     primal_lower13  311
    u[77]     primal_lower14  491
    u[77]     primal_lower15  101
    u[77]     primal_lower16  363
    u[77]     primal_lower17  236
    u[77]     primal_lower18  572
    u[77]     primal_lower19  836
    u[77]     primal_lower20  536
    u[77]     primal_lower21  780
    u[77]     primal_lower22  85
    u[77]     primal_lower23  607
    u[77]     primal_lower24  631
    u[77]     primal_lower25  750
    u[77]     primal_lower26  465
    u[77]     primal_lower27  641
    u[77]     primal_lower28  542
    u[77]     primal_lower29  466
    u[77]     primal_lower30  578
    u[77]     primal_lower31  593
    u[77]     primal_lower32  849
    u[77]     primal_lower33  969
    u[77]     primal_lower34  715
    u[77]     primal_lower35  650
    u[77]     primal_lower36  35
    u[77]     primal_lower37  195
    u[77]     primal_lower38  35
    u[77]     primal_lower39  179
    u[77]     primal_lower40  219
    u[77]     primal_lower41  399
    u[77]     primal_lower42  266
    u[77]     primal_lower43  13
    u[77]     primal_lower44  119
    u[77]     primal_lower45  145
    u[77]     primal_lower46  777
    u[77]     primal_lower47  253
    u[77]     primal_lower48  907
    u[77]     primal_lower49  598
    u[77]     primal_lower50  671
    u[77]     primal_lower51  994
    u[77]     primal_lower52  516
    u[77]     primal_lower53  694
    u[77]     primal_lower54  427
    u[77]     primal_lower55  463
    u[77]     primal_lower56  408
    u[77]     primal_lower57  9
    u[77]     primal_lower58  315
    u[77]     primal_lower59  464
    u[77]     primal_lower60  10
    u[77]     primal_lower61  866
    u[77]     primal_lower62  283
    u[77]     primal_lower63  201
    u[77]     primal_lower64  644
    u[77]     primal_lower65  823
    u[77]     primal_lower66  747
    u[77]     primal_lower67  629
    u[77]     primal_lower68  457
    u[77]     primal_lower69  109
    u[77]     primal_lower70  243
    u[77]     primal_lower71  539
    u[77]     primal_lower72  39
    u[77]     primal_lower73  973
    u[77]     primal_lower74  79
    u[77]     primal_lower75  769
    u[77]     primal_lower76  659
    u[77]     primal_lower77  832
    u[77]     primal_lower78  211
    u[77]     primal_lower79  847
    u[77]     primal_lower80  733
    u[77]     primal_lower81  720
    u[77]     primal_lower82  703
    u[77]     primal_lower83  821
    u[77]     primal_lower84  342
    u[77]     primal_lower85  719
    u[77]     primal_lower86  649
    u[77]     primal_lower87  774
    u[77]     primal_lower88  375
    u[77]     primal_lower89  735
    u[77]     primal_lower90  828
    u[77]     primal_lower91  198
    u[77]     primal_lower92  427
    u[77]     primal_lower93  765
    u[77]     primal_lower94  386
    u[77]     primal_lower95  868
    u[77]     primal_lower96  191
    u[77]     primal_lower97  725
    u[77]     primal_lower98  188
    u[77]     primal_lower99  804
    u[77]     interdiction[77]  1
    u[77]     mccormick1[77]  -1
    u[77]     mccormick3[77]  1
    u[78]     primal_lower0  410
    u[78]     primal_lower1  28
    u[78]     primal_lower2  472
    u[78]     primal_lower3  961
    u[78]     primal_lower4  999
    u[78]     primal_lower5  362
    u[78]     primal_lower6  991
    u[78]     primal_lower7  760
    u[78]     primal_lower8  403
    u[78]     primal_lower9  339
    u[78]     primal_lower10  877
    u[78]     primal_lower11  546
    u[78]     primal_lower12  291
    u[78]     primal_lower13  453
    u[78]     primal_lower14  452
    u[78]     primal_lower15  355
    u[78]     primal_lower16  385
    u[78]     primal_lower17  378
    u[78]     primal_lower18  349
    u[78]     primal_lower19  634
    u[78]     primal_lower20  782
    u[78]     primal_lower21  437
    u[78]     primal_lower22  246
    u[78]     primal_lower23  216
    u[78]     primal_lower24  861
    u[78]     primal_lower25  620
    u[78]     primal_lower26  370
    u[78]     primal_lower27  938
    u[78]     primal_lower28  716
    u[78]     primal_lower29  715
    u[78]     primal_lower30  320
    u[78]     primal_lower31  319
    u[78]     primal_lower32  879
    u[78]     primal_lower33  7
    u[78]     primal_lower34  129
    u[78]     primal_lower35  899
    u[78]     primal_lower36  401
    u[78]     primal_lower37  713
    u[78]     primal_lower38  452
    u[78]     primal_lower39  33
    u[78]     primal_lower40  636
    u[78]     primal_lower41  136
    u[78]     primal_lower42  264
    u[78]     primal_lower43  835
    u[78]     primal_lower44  21
    u[78]     primal_lower45  250
    u[78]     primal_lower46  850
    u[78]     primal_lower47  579
    u[78]     primal_lower48  921
    u[78]     primal_lower49  268
    u[78]     primal_lower50  488
    u[78]     primal_lower51  251
    u[78]     primal_lower52  965
    u[78]     primal_lower53  44
    u[78]     primal_lower54  953
    u[78]     primal_lower55  909
    u[78]     primal_lower56  574
    u[78]     primal_lower57  751
    u[78]     primal_lower58  60
    u[78]     primal_lower59  281
    u[78]     primal_lower60  560
    u[78]     primal_lower61  795
    u[78]     primal_lower62  49
    u[78]     primal_lower63  290
    u[78]     primal_lower64  141
    u[78]     primal_lower65  125
    u[78]     primal_lower66  108
    u[78]     primal_lower67  590
    u[78]     primal_lower68  834
    u[78]     primal_lower69  451
    u[78]     primal_lower70  657
    u[78]     primal_lower71  572
    u[78]     primal_lower72  920
    u[78]     primal_lower73  875
    u[78]     primal_lower74  208
    u[78]     primal_lower75  690
    u[78]     primal_lower76  913
    u[78]     primal_lower77  662
    u[78]     primal_lower78  993
    u[78]     primal_lower79  909
    u[78]     primal_lower80  955
    u[78]     primal_lower81  782
    u[78]     primal_lower82  117
    u[78]     primal_lower83  643
    u[78]     primal_lower84  436
    u[78]     primal_lower85  248
    u[78]     primal_lower86  39
    u[78]     primal_lower87  36
    u[78]     primal_lower88  888
    u[78]     primal_lower89  408
    u[78]     primal_lower90  245
    u[78]     primal_lower91  180
    u[78]     primal_lower92  476
    u[78]     primal_lower93  555
    u[78]     primal_lower94  472
    u[78]     primal_lower95  749
    u[78]     primal_lower96  445
    u[78]     primal_lower97  571
    u[78]     primal_lower98  421
    u[78]     primal_lower99  469
    u[78]     interdiction[78]  1
    u[78]     mccormick1[78]  -1
    u[78]     mccormick3[78]  1
    u[79]     primal_lower0  764
    u[79]     primal_lower1  350
    u[79]     primal_lower2  818
    u[79]     primal_lower3  919
    u[79]     primal_lower4  821
    u[79]     primal_lower5  664
    u[79]     primal_lower6  633
    u[79]     primal_lower7  694
    u[79]     primal_lower8  929
    u[79]     primal_lower9  785
    u[79]     primal_lower10  147
    u[79]     primal_lower11  800
    u[79]     primal_lower12  813
    u[79]     primal_lower13  391
    u[79]     primal_lower14  450
    u[79]     primal_lower15  389
    u[79]     primal_lower16  867
    u[79]     primal_lower17  228
    u[79]     primal_lower18  395
    u[79]     primal_lower19  452
    u[79]     primal_lower20  936
    u[79]     primal_lower21  523
    u[79]     primal_lower22  524
    u[79]     primal_lower23  934
    u[79]     primal_lower24  23
    u[79]     primal_lower25  606
    u[79]     primal_lower26  1000
    u[79]     primal_lower27  280
    u[79]     primal_lower28  630
    u[79]     primal_lower29  249
    u[79]     primal_lower30  450
    u[79]     primal_lower31  553
    u[79]     primal_lower32  33
    u[79]     primal_lower33  441
    u[79]     primal_lower34  195
    u[79]     primal_lower35  433
    u[79]     primal_lower36  187
    u[79]     primal_lower37  643
    u[79]     primal_lower38  738
    u[79]     primal_lower39  27
    u[79]     primal_lower40  754
    u[79]     primal_lower41  846
    u[79]     primal_lower42  330
    u[79]     primal_lower43  173
    u[79]     primal_lower44  535
    u[79]     primal_lower45  752
    u[79]     primal_lower46  936
    u[79]     primal_lower47  397
    u[79]     primal_lower48  267
    u[79]     primal_lower49  190
    u[79]     primal_lower50  262
    u[79]     primal_lower51  433
    u[79]     primal_lower52  467
    u[79]     primal_lower53  286
    u[79]     primal_lower54  259
    u[79]     primal_lower55  63
    u[79]     primal_lower56  736
    u[79]     primal_lower57  201
    u[79]     primal_lower58  842
    u[79]     primal_lower59  519
    u[79]     primal_lower60  730
    u[79]     primal_lower61  505
    u[79]     primal_lower62  923
    u[79]     primal_lower63  960
    u[79]     primal_lower64  851
    u[79]     primal_lower65  415
    u[79]     primal_lower66  146
    u[79]     primal_lower67  948
    u[79]     primal_lower68  360
    u[79]     primal_lower69  677
    u[79]     primal_lower70  363
    u[79]     primal_lower71  42
    u[79]     primal_lower72  686
    u[79]     primal_lower73  469
    u[79]     primal_lower74  598
    u[79]     primal_lower75  48
    u[79]     primal_lower76  315
    u[79]     primal_lower77  976
    u[79]     primal_lower78  395
    u[79]     primal_lower79  191
    u[79]     primal_lower80  349
    u[79]     primal_lower81  408
    u[79]     primal_lower82  567
    u[79]     primal_lower83  613
    u[79]     primal_lower84  406
    u[79]     primal_lower85  830
    u[79]     primal_lower86  353
    u[79]     primal_lower87  902
    u[79]     primal_lower88  206
    u[79]     primal_lower89  246
    u[79]     primal_lower90  579
    u[79]     primal_lower91  502
    u[79]     primal_lower92  938
    u[79]     primal_lower93  917
    u[79]     primal_lower94  610
    u[79]     primal_lower95  851
    u[79]     primal_lower96  735
    u[79]     primal_lower97  869
    u[79]     primal_lower98  899
    u[79]     primal_lower99  259
    u[79]     interdiction[79]  1
    u[79]     mccormick1[79]  -1
    u[79]     mccormick3[79]  1
    u[80]     primal_lower0  23
    u[80]     primal_lower1  841
    u[80]     primal_lower2  237
    u[80]     primal_lower3  550
    u[80]     primal_lower4  492
    u[80]     primal_lower5  591
    u[80]     primal_lower6  684
    u[80]     primal_lower7  685
    u[80]     primal_lower8  928
    u[80]     primal_lower9  400
    u[80]     primal_lower10  194
    u[80]     primal_lower11  279
    u[80]     primal_lower12  672
    u[80]     primal_lower13  778
    u[80]     primal_lower14  73
    u[80]     primal_lower15  960
    u[80]     primal_lower16  438
    u[80]     primal_lower17  367
    u[80]     primal_lower18  834
    u[80]     primal_lower19  711
    u[80]     primal_lower20  827
    u[80]     primal_lower21  762
    u[80]     primal_lower22  635
    u[80]     primal_lower23  469
    u[80]     primal_lower24  498
    u[80]     primal_lower25  881
    u[80]     primal_lower26  607
    u[80]     primal_lower27  831
    u[80]     primal_lower28  569
    u[80]     primal_lower29  512
    u[80]     primal_lower30  125
    u[80]     primal_lower31  284
    u[80]     primal_lower32  404
    u[80]     primal_lower33  36
    u[80]     primal_lower34  438
    u[80]     primal_lower35  576
    u[80]     primal_lower36  662
    u[80]     primal_lower37  726
    u[80]     primal_lower38  17
    u[80]     primal_lower39  622
    u[80]     primal_lower40  313
    u[80]     primal_lower41  117
    u[80]     primal_lower42  437
    u[80]     primal_lower43  704
    u[80]     primal_lower44  26
    u[80]     primal_lower45  943
    u[80]     primal_lower46  663
    u[80]     primal_lower47  416
    u[80]     primal_lower48  190
    u[80]     primal_lower49  697
    u[80]     primal_lower50  13
    u[80]     primal_lower51  48
    u[80]     primal_lower52  226
    u[80]     primal_lower53  985
    u[80]     primal_lower54  846
    u[80]     primal_lower55  826
    u[80]     primal_lower56  971
    u[80]     primal_lower57  852
    u[80]     primal_lower58  945
    u[80]     primal_lower59  838
    u[80]     primal_lower60  429
    u[80]     primal_lower61  632
    u[80]     primal_lower62  790
    u[80]     primal_lower63  223
    u[80]     primal_lower64  874
    u[80]     primal_lower65  498
    u[80]     primal_lower66  481
    u[80]     primal_lower67  427
    u[80]     primal_lower68  575
    u[80]     primal_lower69  856
    u[80]     primal_lower70  822
    u[80]     primal_lower71  553
    u[80]     primal_lower72  445
    u[80]     primal_lower73  488
    u[80]     primal_lower74  453
    u[80]     primal_lower75  399
    u[80]     primal_lower76  62
    u[80]     primal_lower77  395
    u[80]     primal_lower78  230
    u[80]     primal_lower79  306
    u[80]     primal_lower80  160
    u[80]     primal_lower81  411
    u[80]     primal_lower82  210
    u[80]     primal_lower83  648
    u[80]     primal_lower84  481
    u[80]     primal_lower85  685
    u[80]     primal_lower86  644
    u[80]     primal_lower87  593
    u[80]     primal_lower88  157
    u[80]     primal_lower89  365
    u[80]     primal_lower90  130
    u[80]     primal_lower91  713
    u[80]     primal_lower92  257
    u[80]     primal_lower93  672
    u[80]     primal_lower94  397
    u[80]     primal_lower95  250
    u[80]     primal_lower96  682
    u[80]     primal_lower97  208
    u[80]     primal_lower98  10
    u[80]     primal_lower99  610
    u[80]     interdiction[80]  1
    u[80]     mccormick1[80]  -1
    u[80]     mccormick3[80]  1
    u[81]     primal_lower0  247
    u[81]     primal_lower1  49
    u[81]     primal_lower2  909
    u[81]     primal_lower3  778
    u[81]     primal_lower4  16
    u[81]     primal_lower5  763
    u[81]     primal_lower6  652
    u[81]     primal_lower7  105
    u[81]     primal_lower8  268
    u[81]     primal_lower9  228
    u[81]     primal_lower10  830
    u[81]     primal_lower11  19
    u[81]     primal_lower12  96
    u[81]     primal_lower13  402
    u[81]     primal_lower14  429
    u[81]     primal_lower15  488
    u[81]     primal_lower16  982
    u[81]     primal_lower17  519
    u[81]     primal_lower18  398
    u[81]     primal_lower19  471
    u[81]     primal_lower20  723
    u[81]     primal_lower21  230
    u[81]     primal_lower22  527
    u[81]     primal_lower23  41
    u[81]     primal_lower24  714
    u[81]     primal_lower25  321
    u[81]     primal_lower26  203
    u[81]     primal_lower27  851
    u[81]     primal_lower28  945
    u[81]     primal_lower29  68
    u[81]     primal_lower30  989
    u[81]     primal_lower31  940
    u[81]     primal_lower32  844
    u[81]     primal_lower33  988
    u[81]     primal_lower34  22
    u[81]     primal_lower35  380
    u[81]     primal_lower36  710
    u[81]     primal_lower37  614
    u[81]     primal_lower38  29
    u[81]     primal_lower39  358
    u[81]     primal_lower40  837
    u[81]     primal_lower41  753
    u[81]     primal_lower42  485
    u[81]     primal_lower43  952
    u[81]     primal_lower44  42
    u[81]     primal_lower45  51
    u[81]     primal_lower46  523
    u[81]     primal_lower47  168
    u[81]     primal_lower48  758
    u[81]     primal_lower49  753
    u[81]     primal_lower50  769
    u[81]     primal_lower51  892
    u[81]     primal_lower52  406
    u[81]     primal_lower53  385
    u[81]     primal_lower54  526
    u[81]     primal_lower55  978
    u[81]     primal_lower56  899
    u[81]     primal_lower57  900
    u[81]     primal_lower58  141
    u[81]     primal_lower59  90
    u[81]     primal_lower60  341
    u[81]     primal_lower61  860
    u[81]     primal_lower62  998
    u[81]     primal_lower63  811
    u[81]     primal_lower64  70
    u[81]     primal_lower65  762
    u[81]     primal_lower66  797
    u[81]     primal_lower67  799
    u[81]     primal_lower68  435
    u[81]     primal_lower69  504
    u[81]     primal_lower70  414
    u[81]     primal_lower71  533
    u[81]     primal_lower72  969
    u[81]     primal_lower73  728
    u[81]     primal_lower74  601
    u[81]     primal_lower75  643
    u[81]     primal_lower76  902
    u[81]     primal_lower77  915
    u[81]     primal_lower78  182
    u[81]     primal_lower79  690
    u[81]     primal_lower80  904
    u[81]     primal_lower81  131
    u[81]     primal_lower82  770
    u[81]     primal_lower83  312
    u[81]     primal_lower84  777
    u[81]     primal_lower85  113
    u[81]     primal_lower86  620
    u[81]     primal_lower87  889
    u[81]     primal_lower88  305
    u[81]     primal_lower89  585
    u[81]     primal_lower90  486
    u[81]     primal_lower91  281
    u[81]     primal_lower92  157
    u[81]     primal_lower93  24
    u[81]     primal_lower94  773
    u[81]     primal_lower95  678
    u[81]     primal_lower96  410
    u[81]     primal_lower97  920
    u[81]     primal_lower98  342
    u[81]     primal_lower99  158
    u[81]     interdiction[81]  1
    u[81]     mccormick1[81]  -1
    u[81]     mccormick3[81]  1
    u[82]     primal_lower0  924
    u[82]     primal_lower1  622
    u[82]     primal_lower2  722
    u[82]     primal_lower3  427
    u[82]     primal_lower4  737
    u[82]     primal_lower5  540
    u[82]     primal_lower6  49
    u[82]     primal_lower7  970
    u[82]     primal_lower8  157
    u[82]     primal_lower9  357
    u[82]     primal_lower10  607
    u[82]     primal_lower11  500
    u[82]     primal_lower12  309
    u[82]     primal_lower13  471
    u[82]     primal_lower14  30
    u[82]     primal_lower15  853
    u[82]     primal_lower16  875
    u[82]     primal_lower17  100
    u[82]     primal_lower18  359
    u[82]     primal_lower19  44
    u[82]     primal_lower20  688
    u[82]     primal_lower21  783
    u[82]     primal_lower22  336
    u[82]     primal_lower23  842
    u[82]     primal_lower24  71
    u[82]     primal_lower25  894
    u[82]     primal_lower26  548
    u[82]     primal_lower27  588
    u[82]     primal_lower28  174
    u[82]     primal_lower29  365
    u[82]     primal_lower30  594
    u[82]     primal_lower31  545
    u[82]     primal_lower32  441
    u[82]     primal_lower33  97
    u[82]     primal_lower34  155
    u[82]     primal_lower35  885
    u[82]     primal_lower36  19
    u[82]     primal_lower37  739
    u[82]     primal_lower38  526
    u[82]     primal_lower39  819
    u[82]     primal_lower40  6
    u[82]     primal_lower41  906
    u[82]     primal_lower42  538
    u[82]     primal_lower43  621
    u[82]     primal_lower44  807
    u[82]     primal_lower45  476
    u[82]     primal_lower46  972
    u[82]     primal_lower47  245
    u[82]     primal_lower48  819
    u[82]     primal_lower49  254
    u[82]     primal_lower50  954
    u[82]     primal_lower51  141
    u[82]     primal_lower52  855
    u[82]     primal_lower53  966
    u[82]     primal_lower54  771
    u[82]     primal_lower55  87
    u[82]     primal_lower56  1000
    u[82]     primal_lower57  585
    u[82]     primal_lower58  862
    u[82]     primal_lower59  947
    u[82]     primal_lower60  378
    u[82]     primal_lower61  341
    u[82]     primal_lower62  35
    u[82]     primal_lower63  956
    u[82]     primal_lower64  807
    u[82]     primal_lower65  199
    u[82]     primal_lower66  606
    u[82]     primal_lower67  240
    u[82]     primal_lower68  260
    u[82]     primal_lower69  53
    u[82]     primal_lower70  403
    u[82]     primal_lower71  374
    u[82]     primal_lower72  602
    u[82]     primal_lower73  653
    u[82]     primal_lower74  834
    u[82]     primal_lower75  596
    u[82]     primal_lower76  611
    u[82]     primal_lower77  704
    u[82]     primal_lower78  139
    u[82]     primal_lower79  383
    u[82]     primal_lower80  773
    u[82]     primal_lower81  40
    u[82]     primal_lower82  495
    u[82]     primal_lower83  157
    u[82]     primal_lower84  422
    u[82]     primal_lower85  106
    u[82]     primal_lower86  585
    u[82]     primal_lower87  206
    u[82]     primal_lower88  130
    u[82]     primal_lower89  938
    u[82]     primal_lower90  943
    u[82]     primal_lower91  366
    u[82]     primal_lower92  550
    u[82]     primal_lower93  477
    u[82]     primal_lower94  154
    u[82]     primal_lower95  231
    u[82]     primal_lower96  767
    u[82]     primal_lower97  45
    u[82]     primal_lower98  919
    u[82]     primal_lower99  439
    u[82]     interdiction[82]  1
    u[82]     mccormick1[82]  -1
    u[82]     mccormick3[82]  1
    u[83]     primal_lower0  699
    u[83]     primal_lower1  573
    u[83]     primal_lower2  961
    u[83]     primal_lower3  782
    u[83]     primal_lower4  948
    u[83]     primal_lower5  623
    u[83]     primal_lower6  600
    u[83]     primal_lower7  93
    u[83]     primal_lower8  264
    u[83]     primal_lower9  328
    u[83]     primal_lower10  402
    u[83]     primal_lower11  991
    u[83]     primal_lower12  524
    u[83]     primal_lower13  6
    u[83]     primal_lower14  273
    u[83]     primal_lower15  404
    u[83]     primal_lower16  442
    u[83]     primal_lower17  19
    u[83]     primal_lower18  666
    u[83]     primal_lower19  227
    u[83]     primal_lower20  263
    u[83]     primal_lower21  586
    u[83]     primal_lower22  531
    u[83]     primal_lower23  501
    u[83]     primal_lower24  814
    u[83]     primal_lower25  741
    u[83]     primal_lower26  39
    u[83]     primal_lower27  711
    u[83]     primal_lower28  397
    u[83]     primal_lower29  896
    u[83]     primal_lower30  569
    u[83]     primal_lower31  632
    u[83]     primal_lower32  104
    u[83]     primal_lower33  192
    u[83]     primal_lower34  538
    u[83]     primal_lower35  768
    u[83]     primal_lower36  306
    u[83]     primal_lower37  50
    u[83]     primal_lower38  721
    u[83]     primal_lower39  122
    u[83]     primal_lower40  345
    u[83]     primal_lower41  5
    u[83]     primal_lower42  849
    u[83]     primal_lower43  836
    u[83]     primal_lower44  638
    u[83]     primal_lower45  119
    u[83]     primal_lower46  703
    u[83]     primal_lower47  148
    u[83]     primal_lower48  130
    u[83]     primal_lower49  189
    u[83]     primal_lower50  837
    u[83]     primal_lower51  848
    u[83]     primal_lower52  378
    u[83]     primal_lower53  733
    u[83]     primal_lower54  842
    u[83]     primal_lower55  622
    u[83]     primal_lower56  599
    u[83]     primal_lower57  720
    u[83]     primal_lower58  529
    u[83]     primal_lower59  150
    u[83]     primal_lower60  673
    u[83]     primal_lower61  448
    u[83]     primal_lower62  986
    u[83]     primal_lower63  503
    u[83]     primal_lower64  786
    u[83]     primal_lower65  926
    u[83]     primal_lower66  577
    u[83]     primal_lower67  971
    u[83]     primal_lower68  127
    u[83]     primal_lower69  300
    u[83]     primal_lower70  10
    u[83]     primal_lower71  689
    u[83]     primal_lower72  893
    u[83]     primal_lower73  228
    u[83]     primal_lower74  85
    u[83]     primal_lower75  895
    u[83]     primal_lower76  226
    u[83]     primal_lower77  319
    u[83]     primal_lower78  250
    u[83]     primal_lower79  118
    u[83]     primal_lower80  516
    u[83]     primal_lower81  783
    u[83]     primal_lower82  30
    u[83]     primal_lower83  60
    u[83]     primal_lower84  677
    u[83]     primal_lower85  221
    u[83]     primal_lower86  400
    u[83]     primal_lower87  5
    u[83]     primal_lower88  189
    u[83]     primal_lower89  509
    u[83]     primal_lower90  562
    u[83]     primal_lower91  493
    u[83]     primal_lower92  777
    u[83]     primal_lower93  892
    u[83]     primal_lower94  697
    u[83]     primal_lower95  306
    u[83]     primal_lower96  302
    u[83]     primal_lower97  732
    u[83]     primal_lower98  978
    u[83]     primal_lower99  74
    u[83]     interdiction[83]  1
    u[83]     mccormick1[83]  -1
    u[83]     mccormick3[83]  1
    u[84]     primal_lower0  383
    u[84]     primal_lower1  913
    u[84]     primal_lower2  757
    u[84]     primal_lower3  326
    u[84]     primal_lower4  180
    u[84]     primal_lower5  847
    u[84]     primal_lower6  68
    u[84]     primal_lower7  589
    u[84]     primal_lower8  104
    u[84]     primal_lower9  528
    u[84]     primal_lower10  906
    u[84]     primal_lower11  463
    u[84]     primal_lower12  704
    u[84]     primal_lower13  602
    u[84]     primal_lower14  681
    u[84]     primal_lower15  912
    u[84]     primal_lower16  758
    u[84]     primal_lower17  887
    u[84]     primal_lower18  178
    u[84]     primal_lower19  679
    u[84]     primal_lower20  91
    u[84]     primal_lower21  250
    u[84]     primal_lower22  195
    u[84]     primal_lower23  301
    u[84]     primal_lower24  370
    u[84]     primal_lower25  833
    u[84]     primal_lower26  423
    u[84]     primal_lower27  95
    u[84]     primal_lower28  105
    u[84]     primal_lower29  544
    u[84]     primal_lower30  669
    u[84]     primal_lower31  836
    u[84]     primal_lower32  748
    u[84]     primal_lower33  932
    u[84]     primal_lower34  582
    u[84]     primal_lower35  512
    u[84]     primal_lower36  966
    u[84]     primal_lower37  142
    u[84]     primal_lower38  665
    u[84]     primal_lower39  782
    u[84]     primal_lower40  105
    u[84]     primal_lower41  77
    u[84]     primal_lower42  21
    u[84]     primal_lower43  696
    u[84]     primal_lower44  418
    u[84]     primal_lower45  71
    u[84]     primal_lower46  407
    u[84]     primal_lower47  864
    u[84]     primal_lower48  662
    u[84]     primal_lower49  345
    u[84]     primal_lower50  213
    u[84]     primal_lower51  360
    u[84]     primal_lower52  666
    u[84]     primal_lower53  961
    u[84]     primal_lower54  214
    u[84]     primal_lower55  826
    u[84]     primal_lower56  339
    u[84]     primal_lower57  724
    u[84]     primal_lower58  201
    u[84]     primal_lower59  462
    u[84]     primal_lower60  285
    u[84]     primal_lower61  296
    u[84]     primal_lower62  486
    u[84]     primal_lower63  215
    u[84]     primal_lower64  802
    u[84]     primal_lower65  546
    u[84]     primal_lower66  289
    u[84]     primal_lower67  379
    u[84]     primal_lower68  431
    u[84]     primal_lower69  816
    u[84]     primal_lower70  214
    u[84]     primal_lower71  113
    u[84]     primal_lower72  357
    u[84]     primal_lower73  608
    u[84]     primal_lower74  725
    u[84]     primal_lower75  63
    u[84]     primal_lower76  246
    u[84]     primal_lower77  267
    u[84]     primal_lower78  798
    u[84]     primal_lower79  938
    u[84]     primal_lower80  608
    u[84]     primal_lower81  827
    u[84]     primal_lower82  242
    u[84]     primal_lower83  1000
    u[84]     primal_lower84  521
    u[84]     primal_lower85  941
    u[84]     primal_lower86  252
    u[84]     primal_lower87  33
    u[84]     primal_lower88  885
    u[84]     primal_lower89  357
    u[84]     primal_lower90  274
    u[84]     primal_lower91  577
    u[84]     primal_lower92  201
    u[84]     primal_lower93  560
    u[84]     primal_lower94  341
    u[84]     primal_lower95  770
    u[84]     primal_lower96  298
    u[84]     primal_lower97  288
    u[84]     primal_lower98  186
    u[84]     primal_lower99  370
    u[84]     interdiction[84]  1
    u[84]     mccormick1[84]  -1
    u[84]     mccormick3[84]  1
    u[85]     primal_lower0  35
    u[85]     primal_lower1  253
    u[85]     primal_lower2  889
    u[85]     primal_lower3  934
    u[85]     primal_lower4  476
    u[85]     primal_lower5  7
    u[85]     primal_lower6  552
    u[85]     primal_lower7  685
    u[85]     primal_lower8  288
    u[85]     primal_lower9  352
    u[85]     primal_lower10  234
    u[85]     primal_lower11  991
    u[85]     primal_lower12  260
    u[85]     primal_lower13  334
    u[85]     primal_lower14  729
    u[85]     primal_lower15  636
    u[85]     primal_lower16  442
    u[85]     primal_lower17  563
    u[85]     primal_lower18  346
    u[85]     primal_lower19  867
    u[85]     primal_lower20  975
    u[85]     primal_lower21  234
    u[85]     primal_lower22  107
    u[85]     primal_lower23  933
    u[85]     primal_lower24  126
    u[85]     primal_lower25  917
    u[85]     primal_lower26  951
    u[85]     primal_lower27  151
    u[85]     primal_lower28  165
    u[85]     primal_lower29  352
    u[85]     primal_lower30  697
    u[85]     primal_lower31  792
    u[85]     primal_lower32  1000
    u[85]     primal_lower33  800
    u[85]     primal_lower34  978
    u[85]     primal_lower35  640
    u[85]     primal_lower36  346
    u[85]     primal_lower37  530
    u[85]     primal_lower38  473
    u[85]     primal_lower39  490
    u[85]     primal_lower40  57
    u[85]     primal_lower41  909
    u[85]     primal_lower42  473
    u[85]     primal_lower43  532
    u[85]     primal_lower44  958
    u[85]     primal_lower45  223
    u[85]     primal_lower46  687
    u[85]     primal_lower47  276
    u[85]     primal_lower48  786
    u[85]     primal_lower49  717
    u[85]     primal_lower50  541
    u[85]     primal_lower51  288
    u[85]     primal_lower52  970
    u[85]     primal_lower53  285
    u[85]     primal_lower54  274
    u[85]     primal_lower55  758
    u[85]     primal_lower56  303
    u[85]     primal_lower57  688
    u[85]     primal_lower58  569
    u[85]     primal_lower59  950
    u[85]     primal_lower60  937
    u[85]     primal_lower61  80
    u[85]     primal_lower62  986
    u[85]     primal_lower63  255
    u[85]     primal_lower64  722
    u[85]     primal_lower65  646
    u[85]     primal_lower66  105
    u[85]     primal_lower67  747
    u[85]     primal_lower68  735
    u[85]     primal_lower69  788
    u[85]     primal_lower70  346
    u[85]     primal_lower71  841
    u[85]     primal_lower72  21
    u[85]     primal_lower73  76
    u[85]     primal_lower74  181
    u[85]     primal_lower75  839
    u[85]     primal_lower76  714
    u[85]     primal_lower77  559
    u[85]     primal_lower78  138
    u[85]     primal_lower79  998
    u[85]     primal_lower80  356
    u[85]     primal_lower81  167
    u[85]     primal_lower82  350
    u[85]     primal_lower83  572
    u[85]     primal_lower84  365
    u[85]     primal_lower85  221
    u[85]     primal_lower86  264
    u[85]     primal_lower87  37
    u[85]     primal_lower88  453
    u[85]     primal_lower89  877
    u[85]     primal_lower90  138
    u[85]     primal_lower91  869
    u[85]     primal_lower92  113
    u[85]     primal_lower93  124
    u[85]     primal_lower94  889
    u[85]     primal_lower95  610
    u[85]     primal_lower96  846
    u[85]     primal_lower97  332
    u[85]     primal_lower98  410
    u[85]     primal_lower99  394
    u[85]     interdiction[85]  1
    u[85]     mccormick1[85]  -1
    u[85]     mccormick3[85]  1
    u[86]     primal_lower0  169
    u[86]     primal_lower1  587
    u[86]     primal_lower2  191
    u[86]     primal_lower3  408
    u[86]     primal_lower4  134
    u[86]     primal_lower5  553
    u[86]     primal_lower6  254
    u[86]     primal_lower7  455
    u[86]     primal_lower8  954
    u[86]     primal_lower9  226
    u[86]     primal_lower10  580
    u[86]     primal_lower11  73
    u[86]     primal_lower12  306
    u[86]     primal_lower13  404
    u[86]     primal_lower14  779
    u[86]     primal_lower15  626
    u[86]     primal_lower16  632
    u[86]     primal_lower17  385
    u[86]     primal_lower18  788
    u[86]     primal_lower19  777
    u[86]     primal_lower20  541
    u[86]     primal_lower21  708
    u[86]     primal_lower22  269
    u[86]     primal_lower23  231
    u[86]     primal_lower24  228
    u[86]     primal_lower25  899
    u[86]     primal_lower26  193
    u[86]     primal_lower27  593
    u[86]     primal_lower28  923
    u[86]     primal_lower29  34
    u[86]     primal_lower30  407
    u[86]     primal_lower31  846
    u[86]     primal_lower32  86
    u[86]     primal_lower33  350
    u[86]     primal_lower34  840
    u[86]     primal_lower35  986
    u[86]     primal_lower36  456
    u[86]     primal_lower37  352
    u[86]     primal_lower38  803
    u[86]     primal_lower39  360
    u[86]     primal_lower40  315
    u[86]     primal_lower41  175
    u[86]     primal_lower42  735
    u[86]     primal_lower43  642
    u[86]     primal_lower44  876
    u[86]     primal_lower45  801
    u[86]     primal_lower46  721
    u[86]     primal_lower47  490
    u[86]     primal_lower48  40
    u[86]     primal_lower49  499
    u[86]     primal_lower50  303
    u[86]     primal_lower51  106
    u[86]     primal_lower52  972
    u[86]     primal_lower53  363
    u[86]     primal_lower54  368
    u[86]     primal_lower55  660
    u[86]     primal_lower56  301
    u[86]     primal_lower57  678
    u[86]     primal_lower58  3
    u[86]     primal_lower59  976
    u[86]     primal_lower60  855
    u[86]     primal_lower61  722
    u[86]     primal_lower62  760
    u[86]     primal_lower63  761
    u[86]     primal_lower64  876
    u[86]     primal_lower65  436
    u[86]     primal_lower66  11
    u[86]     primal_lower67  237
    u[86]     primal_lower68  273
    u[86]     primal_lower69  610
    u[86]     primal_lower70  608
    u[86]     primal_lower71  571
    u[86]     primal_lower72  207
    u[86]     primal_lower73  210
    u[86]     primal_lower74  591
    u[86]     primal_lower75  553
    u[86]     primal_lower76  256
    u[86]     primal_lower77  253
    u[86]     primal_lower78  256
    u[86]     primal_lower79  644
    u[86]     primal_lower80  266
    u[86]     primal_lower81  197
    u[86]     primal_lower82  844
    u[86]     primal_lower83  482
    u[86]     primal_lower84  363
    u[86]     primal_lower85  423
    u[86]     primal_lower86  462
    u[86]     primal_lower87  483
    u[86]     primal_lower88  911
    u[86]     primal_lower89  127
    u[86]     primal_lower90  196
    u[86]     primal_lower91  227
    u[86]     primal_lower92  723
    u[86]     primal_lower93  962
    u[86]     primal_lower94  911
    u[86]     primal_lower95  156
    u[86]     primal_lower96  812
    u[86]     primal_lower97  850
    u[86]     primal_lower98  940
    u[86]     primal_lower99  132
    u[86]     interdiction[86]  1
    u[86]     mccormick1[86]  -1
    u[86]     mccormick3[86]  1
    u[87]     primal_lower0  325
    u[87]     primal_lower1  967
    u[87]     primal_lower2  931
    u[87]     primal_lower3  785
    u[87]     primal_lower4  823
    u[87]     primal_lower5  594
    u[87]     primal_lower6  666
    u[87]     primal_lower7  728
    u[87]     primal_lower8  651
    u[87]     primal_lower9  195
    u[87]     primal_lower10  165
    u[87]     primal_lower11  770
    u[87]     primal_lower12  446
    u[87]     primal_lower13  560
    u[87]     primal_lower14  84
    u[87]     primal_lower15  294
    u[87]     primal_lower16  404
    u[87]     primal_lower17  157
    u[87]     primal_lower18  845
    u[87]     primal_lower19  445
    u[87]     primal_lower20  833
    u[87]     primal_lower21  877
    u[87]     primal_lower22  118
    u[87]     primal_lower23  288
    u[87]     primal_lower24  48
    u[87]     primal_lower25  359
    u[87]     primal_lower26  898
    u[87]     primal_lower27  474
    u[87]     primal_lower28  943
    u[87]     primal_lower29  827
    u[87]     primal_lower30  379
    u[87]     primal_lower31  818
    u[87]     primal_lower32  98
    u[87]     primal_lower33  938
    u[87]     primal_lower34  732
    u[87]     primal_lower35  979
    u[87]     primal_lower36  692
    u[87]     primal_lower37  84
    u[87]     primal_lower38  260
    u[87]     primal_lower39  380
    u[87]     primal_lower40  212
    u[87]     primal_lower41  640
    u[87]     primal_lower42  443
    u[87]     primal_lower43  782
    u[87]     primal_lower44  664
    u[87]     primal_lower45  50
    u[87]     primal_lower46  154
    u[87]     primal_lower47  638
    u[87]     primal_lower48  300
    u[87]     primal_lower49  871
    u[87]     primal_lower50  16
    u[87]     primal_lower51  67
    u[87]     primal_lower52  989
    u[87]     primal_lower53  903
    u[87]     primal_lower54  148
    u[87]     primal_lower55  64
    u[87]     primal_lower56  521
    u[87]     primal_lower57  610
    u[87]     primal_lower58  156
    u[87]     primal_lower59  625
    u[87]     primal_lower60  419
    u[87]     primal_lower61  483
    u[87]     primal_lower62  780
    u[87]     primal_lower63  786
    u[87]     primal_lower64  717
    u[87]     primal_lower65  880
    u[87]     primal_lower66  804
    u[87]     primal_lower67  6
    u[87]     primal_lower68  722
    u[87]     primal_lower69  318
    u[87]     primal_lower70  196
    u[87]     primal_lower71  444
    u[87]     primal_lower72  824
    u[87]     primal_lower73  94
    u[87]     primal_lower74  984
    u[87]     primal_lower75  674
    u[87]     primal_lower76  348
    u[87]     primal_lower77  273
    u[87]     primal_lower78  996
    u[87]     primal_lower79  984
    u[87]     primal_lower80  998
    u[87]     primal_lower81  569
    u[87]     primal_lower82  608
    u[87]     primal_lower83  982
    u[87]     primal_lower84  103
    u[87]     primal_lower85  704
    u[87]     primal_lower86  410
    u[87]     primal_lower87  815
    u[87]     primal_lower88  248
    u[87]     primal_lower89  448
    u[87]     primal_lower90  469
    u[87]     primal_lower91  39
    u[87]     primal_lower92  172
    u[87]     primal_lower93  342
    u[87]     primal_lower94  891
    u[87]     primal_lower95  237
    u[87]     primal_lower96  96
    u[87]     primal_lower97  334
    u[87]     primal_lower98  357
    u[87]     primal_lower99  341
    u[87]     interdiction[87]  1
    u[87]     mccormick1[87]  -1
    u[87]     mccormick3[87]  1
    u[88]     primal_lower0  123
    u[88]     primal_lower1  989
    u[88]     primal_lower2  289
    u[88]     primal_lower3  123
    u[88]     primal_lower4  33
    u[88]     primal_lower5  476
    u[88]     primal_lower6  80
    u[88]     primal_lower7  386
    u[88]     primal_lower8  437
    u[88]     primal_lower9  253
    u[88]     primal_lower10  255
    u[88]     primal_lower11  756
    u[88]     primal_lower12  4
    u[88]     primal_lower13  918
    u[88]     primal_lower14  54
    u[88]     primal_lower15  236
    u[88]     primal_lower16  42
    u[88]     primal_lower17  435
    u[88]     primal_lower18  207
    u[88]     primal_lower19  347
    u[88]     primal_lower20  599
    u[88]     primal_lower21  815
    u[88]     primal_lower22  192
    u[88]     primal_lower23  642
    u[88]     primal_lower24  374
    u[88]     primal_lower25  581
    u[88]     primal_lower26  788
    u[88]     primal_lower27  860
    u[88]     primal_lower28  517
    u[88]     primal_lower29  757
    u[88]     primal_lower30  665
    u[88]     primal_lower31  584
    u[88]     primal_lower32  160
    u[88]     primal_lower33  896
    u[88]     primal_lower34  490
    u[88]     primal_lower35  909
    u[88]     primal_lower36  474
    u[88]     primal_lower37  698
    u[88]     primal_lower38  974
    u[88]     primal_lower39  954
    u[88]     primal_lower40  134
    u[88]     primal_lower41  490
    u[88]     primal_lower42  865
    u[88]     primal_lower43  876
    u[88]     primal_lower44  558
    u[88]     primal_lower45  628
    u[88]     primal_lower46  492
    u[88]     primal_lower47  236
    u[88]     primal_lower48  82
    u[88]     primal_lower49  757
    u[88]     primal_lower50  418
    u[88]     primal_lower51  229
    u[88]     primal_lower52  895
    u[88]     primal_lower53  773
    u[88]     primal_lower54  578
    u[88]     primal_lower55  694
    u[88]     primal_lower56  95
    u[88]     primal_lower57  72
    u[88]     primal_lower58  366
    u[88]     primal_lower59  99
    u[88]     primal_lower60  417
    u[88]     primal_lower61  901
    u[88]     primal_lower62  714
    u[88]     primal_lower63  124
    u[88]     primal_lower64  79
    u[88]     primal_lower65  606
    u[88]     primal_lower66  126
    u[88]     primal_lower67  432
    u[88]     primal_lower68  788
    u[88]     primal_lower69  612
    u[88]     primal_lower70  514
    u[88]     primal_lower71  750
    u[88]     primal_lower72  578
    u[88]     primal_lower73  36
    u[88]     primal_lower74  522
    u[88]     primal_lower75  636
    u[88]     primal_lower76  610
    u[88]     primal_lower77  447
    u[88]     primal_lower78  106
    u[88]     primal_lower79  190
    u[88]     primal_lower80  596
    u[88]     primal_lower81  719
    u[88]     primal_lower82  238
    u[88]     primal_lower83  580
    u[88]     primal_lower84  797
    u[88]     primal_lower85  690
    u[88]     primal_lower86  256
    u[88]     primal_lower87  781
    u[88]     primal_lower88  418
    u[88]     primal_lower89  234
    u[88]     primal_lower90  151
    u[88]     primal_lower91  661
    u[88]     primal_lower92  718
    u[88]     primal_lower93  20
    u[88]     primal_lower94  185
    u[88]     primal_lower95  263
    u[88]     primal_lower96  550
    u[88]     primal_lower97  116
    u[88]     primal_lower98  151
    u[88]     primal_lower99  719
    u[88]     interdiction[88]  1
    u[88]     mccormick1[88]  -1
    u[88]     mccormick3[88]  1
    u[89]     primal_lower0  716
    u[89]     primal_lower1  350
    u[89]     primal_lower2  546
    u[89]     primal_lower3  560
    u[89]     primal_lower4  974
    u[89]     primal_lower5  385
    u[89]     primal_lower6  513
    u[89]     primal_lower7  959
    u[89]     primal_lower8  10
    u[89]     primal_lower9  850
    u[89]     primal_lower10  28
    u[89]     primal_lower11  745
    u[89]     primal_lower12  469
    u[89]     primal_lower13  335
    u[89]     primal_lower14  427
    u[89]     primal_lower15  733
    u[89]     primal_lower16  659
    u[89]     primal_lower17  740
    u[89]     primal_lower18  412
    u[89]     primal_lower19  140
    u[89]     primal_lower20  944
    u[89]     primal_lower21  36
    u[89]     primal_lower22  45
    u[89]     primal_lower23  679
    u[89]     primal_lower24  215
    u[89]     primal_lower25  526
    u[89]     primal_lower26  857
    u[89]     primal_lower27  513
    u[89]     primal_lower28  750
    u[89]     primal_lower29  202
    u[89]     primal_lower30  18
    u[89]     primal_lower31  417
    u[89]     primal_lower32  217
    u[89]     primal_lower33  241
    u[89]     primal_lower34  851
    u[89]     primal_lower35  626
    u[89]     primal_lower36  747
    u[89]     primal_lower37  115
    u[89]     primal_lower38  403
    u[89]     primal_lower39  395
    u[89]     primal_lower40  275
    u[89]     primal_lower41  399
    u[89]     primal_lower42  714
    u[89]     primal_lower43  829
    u[89]     primal_lower44  303
    u[89]     primal_lower45  473
    u[89]     primal_lower46  657
    u[89]     primal_lower47  117
    u[89]     primal_lower48  147
    u[89]     primal_lower49  694
    u[89]     primal_lower50  999
    u[89]     primal_lower51  522
    u[89]     primal_lower52  860
    u[89]     primal_lower53  294
    u[89]     primal_lower54  267
    u[89]     primal_lower55  455
    u[89]     primal_lower56  280
    u[89]     primal_lower57  337
    u[89]     primal_lower58  507
    u[89]     primal_lower59  488
    u[89]     primal_lower60  426
    u[89]     primal_lower61  34
    u[89]     primal_lower62  619
    u[89]     primal_lower63  769
    u[89]     primal_lower64  132
    u[89]     primal_lower65  407
    u[89]     primal_lower66  171
    u[89]     primal_lower67  789
    u[89]     primal_lower68  881
    u[89]     primal_lower69  189
    u[89]     primal_lower70  891
    u[89]     primal_lower71  3
    u[89]     primal_lower72  639
    u[89]     primal_lower73  941
    u[89]     primal_lower74  207
    u[89]     primal_lower75  969
    u[89]     primal_lower76  819
    u[89]     primal_lower77  152
    u[89]     primal_lower78  435
    u[89]     primal_lower79  183
    u[89]     primal_lower80  597
    u[89]     primal_lower81  288
    u[89]     primal_lower82  487
    u[89]     primal_lower83  213
    u[89]     primal_lower84  894
    u[89]     primal_lower85  119
    u[89]     primal_lower86  73
    u[89]     primal_lower87  566
    u[89]     primal_lower88  199
    u[89]     primal_lower89  655
    u[89]     primal_lower90  764
    u[89]     primal_lower91  646
    u[89]     primal_lower92  819
    u[89]     primal_lower93  693
    u[89]     primal_lower94  850
    u[89]     primal_lower95  252
    u[89]     primal_lower96  415
    u[89]     primal_lower97  645
    u[89]     primal_lower98  772
    u[89]     primal_lower99  460
    u[89]     interdiction[89]  1
    u[89]     mccormick1[89]  -1
    u[89]     mccormick3[89]  1
    u[90]     primal_lower0  126
    u[90]     primal_lower1  536
    u[90]     primal_lower2  924
    u[90]     primal_lower3  997
    u[90]     primal_lower4  763
    u[90]     primal_lower5  414
    u[90]     primal_lower6  595
    u[90]     primal_lower7  972
    u[90]     primal_lower8  551
    u[90]     primal_lower9  95
    u[90]     primal_lower10  265
    u[90]     primal_lower11  974
    u[90]     primal_lower12  991
    u[90]     primal_lower13  921
    u[90]     primal_lower14  320
    u[90]     primal_lower15  567
    u[90]     primal_lower16  269
    u[90]     primal_lower17  582
    u[90]     primal_lower18  569
    u[90]     primal_lower19  798
    u[90]     primal_lower20  242
    u[90]     primal_lower21  745
    u[90]     primal_lower22  826
    u[90]     primal_lower23  380
    u[90]     primal_lower24  449
    u[90]     primal_lower25  1000
    u[90]     primal_lower26  486
    u[90]     primal_lower27  174
    u[90]     primal_lower28  936
    u[90]     primal_lower29  455
    u[90]     primal_lower30  540
    u[90]     primal_lower31  899
    u[90]     primal_lower32  195
    u[90]     primal_lower33  483
    u[90]     primal_lower34  173
    u[90]     primal_lower35  79
    u[90]     primal_lower36  285
    u[90]     primal_lower37  949
    u[90]     primal_lower38  504
    u[90]     primal_lower39  989
    u[90]     primal_lower40  872
    u[90]     primal_lower41  900
    u[90]     primal_lower42  844
    u[90]     primal_lower43  199
    u[90]     primal_lower44  161
    u[90]     primal_lower45  894
    u[90]     primal_lower46  246
    u[90]     primal_lower47  119
    u[90]     primal_lower48  973
    u[90]     primal_lower49  728
    u[90]     primal_lower50  740
    u[90]     primal_lower51  287
    u[90]     primal_lower52  689
    u[90]     primal_lower53  184
    u[90]     primal_lower54  197
    u[90]     primal_lower55  953
    u[90]     primal_lower56  346
    u[90]     primal_lower57  275
    u[90]     primal_lower58  240
    u[90]     primal_lower59  797
    u[90]     primal_lower60  852
    u[90]     primal_lower61  999
    u[90]     primal_lower62  949
    u[90]     primal_lower63  190
    u[90]     primal_lower64  801
    u[90]     primal_lower65  553
    u[90]     primal_lower66  488
    u[90]     primal_lower67  466
    u[90]     primal_lower68  286
    u[90]     primal_lower69  631
    u[90]     primal_lower70  437
    u[90]     primal_lower71  160
    u[90]     primal_lower72  300
    u[90]     primal_lower73  447
    u[90]     primal_lower74  308
    u[90]     primal_lower75  158
    u[90]     primal_lower76  269
    u[90]     primal_lower77  266
    u[90]     primal_lower78  61
    u[90]     primal_lower79  209
    u[90]     primal_lower80  855
    u[90]     primal_lower81  370
    u[90]     primal_lower82  289
    u[90]     primal_lower83  199
    u[90]     primal_lower84  696
    u[90]     primal_lower85  924
    u[90]     primal_lower86  283
    u[90]     primal_lower87  48
    u[90]     primal_lower88  700
    u[90]     primal_lower89  692
    u[90]     primal_lower90  497
    u[90]     primal_lower91  360
    u[90]     primal_lower92  720
    u[90]     primal_lower93  143
    u[90]     primal_lower94  932
    u[90]     primal_lower95  721
    u[90]     primal_lower96  849
    u[90]     primal_lower97  47
    u[90]     primal_lower98  97
    u[90]     primal_lower99  601
    u[90]     interdiction[90]  1
    u[90]     mccormick1[90]  -1
    u[90]     mccormick3[90]  1
    u[91]     primal_lower0  310
    u[91]     primal_lower1  560
    u[91]     primal_lower2  604
    u[91]     primal_lower3  265
    u[91]     primal_lower4  223
    u[91]     primal_lower5  802
    u[91]     primal_lower6  627
    u[91]     primal_lower7  984
    u[91]     primal_lower8  3
    u[91]     primal_lower9  299
    u[91]     primal_lower10  341
    u[91]     primal_lower11  146
    u[91]     primal_lower12  759
    u[91]     primal_lower13  753
    u[91]     primal_lower14  444
    u[91]     primal_lower15  623
    u[91]     primal_lower16  37
    u[91]     primal_lower17  790
    u[91]     primal_lower18  45
    u[91]     primal_lower19  278
    u[91]     primal_lower20  962
    u[91]     primal_lower21  437
    u[91]     primal_lower22  222
    u[91]     primal_lower23  8
    u[91]     primal_lower24  705
    u[91]     primal_lower25  472
    u[91]     primal_lower26  90
    u[91]     primal_lower27  682
    u[91]     primal_lower28  408
    u[91]     primal_lower29  595
    u[91]     primal_lower30  716
    u[91]     primal_lower31  723
    u[91]     primal_lower32  563
    u[91]     primal_lower33  747
    u[91]     primal_lower34  461
    u[91]     primal_lower35  811
    u[91]     primal_lower36  317
    u[91]     primal_lower37  589
    u[91]     primal_lower38  476
    u[91]     primal_lower39  813
    u[91]     primal_lower40  68
    u[91]     primal_lower41  480
    u[91]     primal_lower42  892
    u[91]     primal_lower43  759
    u[91]     primal_lower44  57
    u[91]     primal_lower45  330
    u[91]     primal_lower46  746
    u[91]     primal_lower47  727
    u[91]     primal_lower48  5
    u[91]     primal_lower49  136
    u[91]     primal_lower50  576
    u[91]     primal_lower51  363
    u[91]     primal_lower52  949
    u[91]     primal_lower53  968
    u[91]     primal_lower54  37
    u[91]     primal_lower55  329
    u[91]     primal_lower56  90
    u[91]     primal_lower57  59
    u[91]     primal_lower58  348
    u[91]     primal_lower59  193
    u[91]     primal_lower60  844
    u[91]     primal_lower61  747
    u[91]     primal_lower62  693
    u[91]     primal_lower63  898
    u[91]     primal_lower64  829
    u[91]     primal_lower65  201
    u[91]     primal_lower66  852
    u[91]     primal_lower67  566
    u[91]     primal_lower68  202
    u[91]     primal_lower69  631
    u[91]     primal_lower70  933
    u[91]     primal_lower71  500
    u[91]     primal_lower72  608
    u[91]     primal_lower73  503
    u[91]     primal_lower74  720
    u[91]     primal_lower75  946
    u[91]     primal_lower76  589
    u[91]     primal_lower77  282
    u[91]     primal_lower78  117
    u[91]     primal_lower79  33
    u[91]     primal_lower80  447
    u[91]     primal_lower81  10
    u[91]     primal_lower82  577
    u[91]     primal_lower83  727
    u[91]     primal_lower84  640
    u[91]     primal_lower85  592
    u[91]     primal_lower86  867
    u[91]     primal_lower87  808
    u[91]     primal_lower88  960
    u[91]     primal_lower89  344
    u[91]     primal_lower90  309
    u[91]     primal_lower91  96
    u[91]     primal_lower92  148
    u[91]     primal_lower93  495
    u[91]     primal_lower94  404
    u[91]     primal_lower95  957
    u[91]     primal_lower96  129
    u[91]     primal_lower97  439
    u[91]     primal_lower98  781
    u[91]     primal_lower99  933
    u[91]     interdiction[91]  1
    u[91]     mccormick1[91]  -1
    u[91]     mccormick3[91]  1
    u[92]     primal_lower0  94
    u[92]     primal_lower1  656
    u[92]     primal_lower2  228
    u[92]     primal_lower3  621
    u[92]     primal_lower4  659
    u[92]     primal_lower5  678
    u[92]     primal_lower6  251
    u[92]     primal_lower7  316
    u[92]     primal_lower8  903
    u[92]     primal_lower9  951
    u[92]     primal_lower10  849
    u[92]     primal_lower11  726
    u[92]     primal_lower12  583
    u[92]     primal_lower13  993
    u[92]     primal_lower14  768
    u[92]     primal_lower15  47
    u[92]     primal_lower16  909
    u[92]     primal_lower17  606
    u[92]     primal_lower18  425
    u[92]     primal_lower19  182
    u[92]     primal_lower20  626
    u[92]     primal_lower21  17
    u[92]     primal_lower22  106
    u[92]     primal_lower23  484
    u[92]     primal_lower24  225
    u[92]     primal_lower25  376
    u[92]     primal_lower26  406
    u[92]     primal_lower27  366
    u[92]     primal_lower28  688
    u[92]     primal_lower29  495
    u[92]     primal_lower30  396
    u[92]     primal_lower31  707
    u[92]     primal_lower32  235
    u[92]     primal_lower33  395
    u[92]     primal_lower34  869
    u[92]     primal_lower35  975
    u[92]     primal_lower36  997
    u[92]     primal_lower37  373
    u[92]     primal_lower38  904
    u[92]     primal_lower39  797
    u[92]     primal_lower40  928
    u[92]     primal_lower41  988
    u[92]     primal_lower42  684
    u[92]     primal_lower43  615
    u[92]     primal_lower44  361
    u[92]     primal_lower45  174
    u[92]     primal_lower46  654
    u[92]     primal_lower47  271
    u[92]     primal_lower48  317
    u[92]     primal_lower49  144
    u[92]     primal_lower50  372
    u[92]     primal_lower51  127
    u[92]     primal_lower52  57
    u[92]     primal_lower53  280
    u[92]     primal_lower54  437
    u[92]     primal_lower55  865
    u[92]     primal_lower56  218
    u[92]     primal_lower57  347
    u[92]     primal_lower58  800
    u[92]     primal_lower59  493
    u[92]     primal_lower60  84
    u[92]     primal_lower61  639
    u[92]     primal_lower62  445
    u[92]     primal_lower63  998
    u[92]     primal_lower64  913
    u[92]     primal_lower65  225
    u[92]     primal_lower66  840
    u[92]     primal_lower67  866
    u[92]     primal_lower68  526
    u[92]     primal_lower69  759
    u[92]     primal_lower70  949
    u[92]     primal_lower71  64
    u[92]     primal_lower72  628
    u[92]     primal_lower73  559
    u[92]     primal_lower74  756
    u[92]     primal_lower75  414
    u[92]     primal_lower76  861
    u[92]     primal_lower77  570
    u[92]     primal_lower78  245
    u[92]     primal_lower79  153
    u[92]     primal_lower80  255
    u[92]     primal_lower81  18
    u[92]     primal_lower82  169
    u[92]     primal_lower83  239
    u[92]     primal_lower84  616
    u[92]     primal_lower85  852
    u[92]     primal_lower86  523
    u[92]     primal_lower87  120
    u[92]     primal_lower88  876
    u[92]     primal_lower89  700
    u[92]     primal_lower90  753
    u[92]     primal_lower91  176
    u[92]     primal_lower92  896
    u[92]     primal_lower93  159
    u[92]     primal_lower94  564
    u[92]     primal_lower95  449
    u[92]     primal_lower96  745
    u[92]     primal_lower97  543
    u[92]     primal_lower98  225
    u[92]     primal_lower99  385
    u[92]     interdiction[92]  1
    u[92]     mccormick1[92]  -1
    u[92]     mccormick3[92]  1
    u[93]     primal_lower0  833
    u[93]     primal_lower1  395
    u[93]     primal_lower2  943
    u[93]     primal_lower3  820
    u[93]     primal_lower4  354
    u[93]     primal_lower5  829
    u[93]     primal_lower6  406
    u[93]     primal_lower7  611
    u[93]     primal_lower8  374
    u[93]     primal_lower9  462
    u[93]     primal_lower10  608
    u[93]     primal_lower11  133
    u[93]     primal_lower12  778
    u[93]     primal_lower13  572
    u[93]     primal_lower14  487
    u[93]     primal_lower15  58
    u[93]     primal_lower16  968
    u[93]     primal_lower17  313
    u[93]     primal_lower18  280
    u[93]     primal_lower19  425
    u[93]     primal_lower20  805
    u[93]     primal_lower21  504
    u[93]     primal_lower22  369
    u[93]     primal_lower23  875
    u[93]     primal_lower24  900
    u[93]     primal_lower25  483
    u[93]     primal_lower26  357
    u[93]     primal_lower27  245
    u[93]     primal_lower28  187
    u[93]     primal_lower29  438
    u[93]     primal_lower30  415
    u[93]     primal_lower31  838
    u[93]     primal_lower32  446
    u[93]     primal_lower33  374
    u[93]     primal_lower34  512
    u[93]     primal_lower35  342
    u[93]     primal_lower36  264
    u[93]     primal_lower37  592
    u[93]     primal_lower38  263
    u[93]     primal_lower39  624
    u[93]     primal_lower40  279
    u[93]     primal_lower41  915
    u[93]     primal_lower42  951
    u[93]     primal_lower43  962
    u[93]     primal_lower44  980
    u[93]     primal_lower45  789
    u[93]     primal_lower46  533
    u[93]     primal_lower47  26
    u[93]     primal_lower48  472
    u[93]     primal_lower49  203
    u[93]     primal_lower50  811
    u[93]     primal_lower51  470
    u[93]     primal_lower52  784
    u[93]     primal_lower53  139
    u[93]     primal_lower54  848
    u[93]     primal_lower55  988
    u[93]     primal_lower56  589
    u[93]     primal_lower57  70
    u[93]     primal_lower58  999
    u[93]     primal_lower59  700
    u[93]     primal_lower60  271
    u[93]     primal_lower61  286
    u[93]     primal_lower62  64
    u[93]     primal_lower63  597
    u[93]     primal_lower64  624
    u[93]     primal_lower65  52
    u[93]     primal_lower66  967
    u[93]     primal_lower67  177
    u[93]     primal_lower68  61
    u[93]     primal_lower69  642
    u[93]     primal_lower70  776
    u[93]     primal_lower71  919
    u[93]     primal_lower72  851
    u[93]     primal_lower73  266
    u[93]     primal_lower74  347
    u[93]     primal_lower75  413
    u[93]     primal_lower76  304
    u[93]     primal_lower77  589
    u[93]     primal_lower78  368
    u[93]     primal_lower79  980
    u[93]     primal_lower80  650
    u[93]     primal_lower81  237
    u[93]     primal_lower82  364
    u[93]     primal_lower83  226
    u[93]     primal_lower84  979
    u[93]     primal_lower85  259
    u[93]     primal_lower86  142
    u[93]     primal_lower87  11
    u[93]     primal_lower88  19
    u[93]     primal_lower89  947
    u[93]     primal_lower90  1000
    u[93]     primal_lower91  435
    u[93]     primal_lower92  231
    u[93]     primal_lower93  370
    u[93]     primal_lower94  559
    u[93]     primal_lower95  456
    u[93]     primal_lower96  76
    u[93]     primal_lower97  498
    u[93]     primal_lower98  48
    u[93]     primal_lower99  296
    u[93]     interdiction[93]  1
    u[93]     mccormick1[93]  -1
    u[93]     mccormick3[93]  1
    u[94]     primal_lower0  129
    u[94]     primal_lower1  555
    u[94]     primal_lower2  503
    u[94]     primal_lower3  953
    u[94]     primal_lower4  951
    u[94]     primal_lower5  722
    u[94]     primal_lower6  902
    u[94]     primal_lower7  56
    u[94]     primal_lower8  699
    u[94]     primal_lower9  571
    u[94]     primal_lower10  613
    u[94]     primal_lower11  666
    u[94]     primal_lower12  2
    u[94]     primal_lower13  772
    u[94]     primal_lower14  244
    u[94]     primal_lower15  226
    u[94]     primal_lower16  696
    u[94]     primal_lower17  569
    u[94]     primal_lower18  293
    u[94]     primal_lower19  25
    u[94]     primal_lower20  61
    u[94]     primal_lower21  541
    u[94]     primal_lower22  126
    u[94]     primal_lower23  104
    u[94]     primal_lower24  52
    u[94]     primal_lower25  699
    u[94]     primal_lower26  122
    u[94]     primal_lower27  314
    u[94]     primal_lower28  163
    u[94]     primal_lower29  419
    u[94]     primal_lower30  71
    u[94]     primal_lower31  558
    u[94]     primal_lower32  974
    u[94]     primal_lower33  878
    u[94]     primal_lower34  128
    u[94]     primal_lower35  483
    u[94]     primal_lower36  632
    u[94]     primal_lower37  160
    u[94]     primal_lower38  460
    u[94]     primal_lower39  712
    u[94]     primal_lower40  612
    u[94]     primal_lower41  528
    u[94]     primal_lower42  847
    u[94]     primal_lower43  354
    u[94]     primal_lower44  420
    u[94]     primal_lower45  490
    u[94]     primal_lower46  26
    u[94]     primal_lower47  546
    u[94]     primal_lower48  672
    u[94]     primal_lower49  83
    u[94]     primal_lower50  752
    u[94]     primal_lower51  459
    u[94]     primal_lower52  397
    u[94]     primal_lower53  443
    u[94]     primal_lower54  560
    u[94]     primal_lower55  988
    u[94]     primal_lower56  429
    u[94]     primal_lower57  502
    u[94]     primal_lower58  172
    u[94]     primal_lower59  225
    u[94]     primal_lower60  399
    u[94]     primal_lower61  715
    u[94]     primal_lower62  792
    u[94]     primal_lower63  986
    u[94]     primal_lower64  421
    u[94]     primal_lower65  484
    u[94]     primal_lower66  780
    u[94]     primal_lower67  382
    u[94]     primal_lower68  634
    u[94]     primal_lower69  554
    u[94]     primal_lower70  160
    u[94]     primal_lower71  724
    u[94]     primal_lower72  32
    u[94]     primal_lower73  266
    u[94]     primal_lower74  896
    u[94]     primal_lower75  826
    u[94]     primal_lower76  512
    u[94]     primal_lower77  229
    u[94]     primal_lower78  264
    u[94]     primal_lower79  828
    u[94]     primal_lower80  314
    u[94]     primal_lower81  525
    u[94]     primal_lower82  588
    u[94]     primal_lower83  466
    u[94]     primal_lower84  787
    u[94]     primal_lower85  40
    u[94]     primal_lower86  758
    u[94]     primal_lower87  115
    u[94]     primal_lower88  224
    u[94]     primal_lower89  968
    u[94]     primal_lower90  293
    u[94]     primal_lower91  947
    u[94]     primal_lower92  276
    u[94]     primal_lower93  506
    u[94]     primal_lower94  391
    u[94]     primal_lower95  453
    u[94]     primal_lower96  876
    u[94]     primal_lower97  338
    u[94]     primal_lower98  445
    u[94]     primal_lower99  877
    u[94]     interdiction[94]  1
    u[94]     mccormick1[94]  -1
    u[94]     mccormick3[94]  1
    u[95]     primal_lower0  878
    u[95]     primal_lower1  864
    u[95]     primal_lower2  92
    u[95]     primal_lower3  762
    u[95]     primal_lower4  288
    u[95]     primal_lower5  539
    u[95]     primal_lower6  611
    u[95]     primal_lower7  553
    u[95]     primal_lower8  316
    u[95]     primal_lower9  300
    u[95]     primal_lower10  734
    u[95]     primal_lower11  363
    u[95]     primal_lower12  695
    u[95]     primal_lower13  217
    u[95]     primal_lower14  877
    u[95]     primal_lower15  951
    u[95]     primal_lower16  605
    u[95]     primal_lower17  526
    u[95]     primal_lower18  166
    u[95]     primal_lower19  758
    u[95]     primal_lower20  754
    u[95]     primal_lower21  558
    u[95]     primal_lower22  279
    u[95]     primal_lower23  649
    u[95]     primal_lower24  681
    u[95]     primal_lower25  536
    u[95]     primal_lower26  667
    u[95]     primal_lower27  411
    u[95]     primal_lower28  592
    u[95]     primal_lower29  756
    u[95]     primal_lower30  492
    u[95]     primal_lower31  187
    u[95]     primal_lower32  459
    u[95]     primal_lower33  531
    u[95]     primal_lower34  461
    u[95]     primal_lower35  500
    u[95]     primal_lower36  141
    u[95]     primal_lower37  293
    u[95]     primal_lower38  37
    u[95]     primal_lower39  325
    u[95]     primal_lower40  629
    u[95]     primal_lower41  1
    u[95]     primal_lower42  596
    u[95]     primal_lower43  767
    u[95]     primal_lower44  249
    u[95]     primal_lower45  187
    u[95]     primal_lower46  979
    u[95]     primal_lower47  95
    u[95]     primal_lower48  501
    u[95]     primal_lower49  160
    u[95]     primal_lower50  409
    u[95]     primal_lower51  452
    u[95]     primal_lower52  286
    u[95]     primal_lower53  80
    u[95]     primal_lower54  133
    u[95]     primal_lower55  361
    u[95]     primal_lower56  226
    u[95]     primal_lower57  515
    u[95]     primal_lower58  373
    u[95]     primal_lower59  882
    u[95]     primal_lower60  252
    u[95]     primal_lower61  556
    u[95]     primal_lower62  69
    u[95]     primal_lower63  99
    u[95]     primal_lower64  366
    u[95]     primal_lower65  113
    u[95]     primal_lower66  173
    u[95]     primal_lower67  23
    u[95]     primal_lower68  883
    u[95]     primal_lower69  935
    u[95]     primal_lower70  453
    u[95]     primal_lower71  661
    u[95]     primal_lower72  249
    u[95]     primal_lower73  119
    u[95]     primal_lower74  521
    u[95]     primal_lower75  651
    u[95]     primal_lower76  501
    u[95]     primal_lower77  402
    u[95]     primal_lower78  925
    u[95]     primal_lower79  657
    u[95]     primal_lower80  127
    u[95]     primal_lower81  514
    u[95]     primal_lower82  529
    u[95]     primal_lower83  231
    u[95]     primal_lower84  200
    u[95]     primal_lower85  313
    u[95]     primal_lower86  867
    u[95]     primal_lower87  32
    u[95]     primal_lower88  233
    u[95]     primal_lower89  881
    u[95]     primal_lower90  894
    u[95]     primal_lower91  232
    u[95]     primal_lower92  421
    u[95]     primal_lower93  79
    u[95]     primal_lower94  308
    u[95]     primal_lower95  446
    u[95]     primal_lower96  633
    u[95]     primal_lower97  967
    u[95]     primal_lower98  382
    u[95]     primal_lower99  518
    u[95]     interdiction[95]  1
    u[95]     mccormick1[95]  -1
    u[95]     mccormick3[95]  1
    u[96]     primal_lower0  218
    u[96]     primal_lower1  164
    u[96]     primal_lower2  456
    u[96]     primal_lower3  626
    u[96]     primal_lower4  904
    u[96]     primal_lower5  939
    u[96]     primal_lower6  631
    u[96]     primal_lower7  729
    u[96]     primal_lower8  932
    u[96]     primal_lower9  84
    u[96]     primal_lower10  742
    u[96]     primal_lower11  499
    u[96]     primal_lower12  507
    u[96]     primal_lower13  445
    u[96]     primal_lower14  589
    u[96]     primal_lower15  275
    u[96]     primal_lower16  281
    u[96]     primal_lower17  90
    u[96]     primal_lower18  606
    u[96]     primal_lower19  714
    u[96]     primal_lower20  310
    u[96]     primal_lower21  374
    u[96]     primal_lower22  175
    u[96]     primal_lower23  433
    u[96]     primal_lower24  637
    u[96]     primal_lower25  244
    u[96]     primal_lower26  715
    u[96]     primal_lower27  227
    u[96]     primal_lower28  644
    u[96]     primal_lower29  300
    u[96]     primal_lower30  392
    u[96]     primal_lower31  559
    u[96]     primal_lower32  695
    u[96]     primal_lower33  159
    u[96]     primal_lower34  561
    u[96]     primal_lower35  660
    u[96]     primal_lower36  185
    u[96]     primal_lower37  713
    u[96]     primal_lower38  501
    u[96]     primal_lower39  449
    u[96]     primal_lower40  77
    u[96]     primal_lower41  305
    u[96]     primal_lower42  384
    u[96]     primal_lower43  163
    u[96]     primal_lower44  309
    u[96]     primal_lower45  67
    u[96]     primal_lower46  27
    u[96]     primal_lower47  467
    u[96]     primal_lower48  345
    u[96]     primal_lower49  124
    u[96]     primal_lower50  769
    u[96]     primal_lower51  172
    u[96]     primal_lower52  382
    u[96]     primal_lower53  628
    u[96]     primal_lower54  17
    u[96]     primal_lower55  773
    u[96]     primal_lower56  150
    u[96]     primal_lower57  863
    u[96]     primal_lower58  165
    u[96]     primal_lower59  762
    u[96]     primal_lower60  496
    u[96]     primal_lower61  404
    u[96]     primal_lower62  681
    u[96]     primal_lower63  339
    u[96]     primal_lower64  854
    u[96]     primal_lower65  301
    u[96]     primal_lower66  485
    u[96]     primal_lower67  455
    u[96]     primal_lower68  195
    u[96]     primal_lower69  859
    u[96]     primal_lower70  9
    u[96]     primal_lower71  365
    u[96]     primal_lower72  777
    u[96]     primal_lower73  627
    u[96]     primal_lower74  657
    u[96]     primal_lower75  979
    u[96]     primal_lower76  201
    u[96]     primal_lower77  38
    u[96]     primal_lower78  809
    u[96]     primal_lower79  813
    u[96]     primal_lower80  819
    u[96]     primal_lower81  942
    u[96]     primal_lower82  125
    u[96]     primal_lower83  795
    u[96]     primal_lower84  916
    u[96]     primal_lower85  705
    u[96]     primal_lower86  903
    u[96]     primal_lower87  860
    u[96]     primal_lower88  969
    u[96]     primal_lower89  121
    u[96]     primal_lower90  886
    u[96]     primal_lower91  988
    u[96]     primal_lower92  21
    u[96]     primal_lower93  947
    u[96]     primal_lower94  784
    u[96]     primal_lower95  206
    u[96]     primal_lower96  77
    u[96]     primal_lower97  499
    u[96]     primal_lower98  86
    u[96]     primal_lower99  622
    u[96]     interdiction[96]  1
    u[96]     mccormick1[96]  -1
    u[96]     mccormick3[96]  1
    u[97]     primal_lower0  690
    u[97]     primal_lower1  868
    u[97]     primal_lower2  16
    u[97]     primal_lower3  285
    u[97]     primal_lower4  771
    u[97]     primal_lower5  286
    u[97]     primal_lower6  615
    u[97]     primal_lower7  452
    u[97]     primal_lower8  103
    u[97]     primal_lower9  367
    u[97]     primal_lower10  425
    u[97]     primal_lower11  742
    u[97]     primal_lower12  203
    u[97]     primal_lower13  773
    u[97]     primal_lower14  416
    u[97]     primal_lower15  627
    u[97]     primal_lower16  953
    u[97]     primal_lower17  186
    u[97]     primal_lower18  569
    u[97]     primal_lower19  402
    u[97]     primal_lower20  550
    u[97]     primal_lower21  785
    u[97]     primal_lower22  522
    u[97]     primal_lower23  988
    u[97]     primal_lower24  117
    u[97]     primal_lower25  436
    u[97]     primal_lower26  774
    u[97]     primal_lower27  678
    u[97]     primal_lower28  500
    u[97]     primal_lower29  879
    u[97]     primal_lower30  432
    u[97]     primal_lower31  15
    u[97]     primal_lower32  511
    u[97]     primal_lower33  319
    u[97]     primal_lower34  521
    u[97]     primal_lower35  271
    u[97]     primal_lower36  961
    u[97]     primal_lower37  361
    u[97]     primal_lower38  40
    u[97]     primal_lower39  513
    u[97]     primal_lower40  400
    u[97]     primal_lower41  492
    u[97]     primal_lower42  592
    u[97]     primal_lower43  955
    u[97]     primal_lower44  741
    u[97]     primal_lower45  782
    u[97]     primal_lower46  734
    u[97]     primal_lower47  699
    u[97]     primal_lower48  649
    u[97]     primal_lower49  372
    u[97]     primal_lower50  372
    u[97]     primal_lower51  543
    u[97]     primal_lower52  777
    u[97]     primal_lower53  436
    u[97]     primal_lower54  377
    u[97]     primal_lower55  877
    u[97]     primal_lower56  942
    u[97]     primal_lower57  143
    u[97]     primal_lower58  312
    u[97]     primal_lower59  917
    u[97]     primal_lower60  384
    u[97]     primal_lower61  407
    u[97]     primal_lower62  721
    u[97]     primal_lower63  710
    u[97]     primal_lower64  881
    u[97]     primal_lower65  293
    u[97]     primal_lower66  40
    u[97]     primal_lower67  994
    u[97]     primal_lower68  766
    u[97]     primal_lower69  851
    u[97]     primal_lower70  241
    u[97]     primal_lower71  112
    u[97]     primal_lower72  76
    u[97]     primal_lower73  315
    u[97]     primal_lower74  500
    u[97]     primal_lower75  678
    u[97]     primal_lower76  601
    u[97]     primal_lower77  558
    u[97]     primal_lower78  25
    u[97]     primal_lower79  669
    u[97]     primal_lower80  787
    u[97]     primal_lower81  422
    u[97]     primal_lower82  757
    u[97]     primal_lower83  523
    u[97]     primal_lower84  772
    u[97]     primal_lower85  780
    u[97]     primal_lower86  951
    u[97]     primal_lower87  12
    u[97]     primal_lower88  772
    u[97]     primal_lower89  964
    u[97]     primal_lower90  793
    u[97]     primal_lower91  724
    u[97]     primal_lower92  312
    u[97]     primal_lower93  995
    u[97]     primal_lower94  56
    u[97]     primal_lower95  17
    u[97]     primal_lower96  237
    u[97]     primal_lower97  211
    u[97]     primal_lower98  313
    u[97]     primal_lower99  929
    u[97]     interdiction[97]  1
    u[97]     mccormick1[97]  -1
    u[97]     mccormick3[97]  1
    u[98]     primal_lower0  829
    u[98]     primal_lower1  791
    u[98]     primal_lower2  291
    u[98]     primal_lower3  549
    u[98]     primal_lower4  395
    u[98]     primal_lower5  390
    u[98]     primal_lower6  210
    u[98]     primal_lower7  132
    u[98]     primal_lower8  119
    u[98]     primal_lower9  143
    u[98]     primal_lower10  105
    u[98]     primal_lower11  390
    u[98]     primal_lower12  590
    u[98]     primal_lower13  32
    u[98]     primal_lower14  600
    u[98]     primal_lower15  502
    u[98]     primal_lower16  476
    u[98]     primal_lower17  117
    u[98]     primal_lower18  129
    u[98]     primal_lower19  501
    u[98]     primal_lower20  393
    u[98]     primal_lower21  953
    u[98]     primal_lower22  410
    u[98]     primal_lower23  836
    u[98]     primal_lower24  808
    u[98]     primal_lower25  279
    u[98]     primal_lower26  54
    u[98]     primal_lower27  878
    u[98]     primal_lower28  887
    u[98]     primal_lower29  127
    u[98]     primal_lower30  83
    u[98]     primal_lower31  778
    u[98]     primal_lower32  418
    u[98]     primal_lower33  570
    u[98]     primal_lower34  12
    u[98]     primal_lower35  151
    u[98]     primal_lower36  132
    u[98]     primal_lower37  268
    u[98]     primal_lower38  752
    u[98]     primal_lower39  228
    u[98]     primal_lower40  768
    u[98]     primal_lower41  772
    u[98]     primal_lower42  627
    u[98]     primal_lower43  382
    u[98]     primal_lower44  120
    u[98]     primal_lower45  262
    u[98]     primal_lower46  662
    u[98]     primal_lower47  518
    u[98]     primal_lower48  468
    u[98]     primal_lower49  559
    u[98]     primal_lower50  132
    u[98]     primal_lower51  375
    u[98]     primal_lower52  689
    u[98]     primal_lower53  335
    u[98]     primal_lower54  892
    u[98]     primal_lower55  872
    u[98]     primal_lower56  881
    u[98]     primal_lower57  186
    u[98]     primal_lower58  576
    u[98]     primal_lower59  597
    u[98]     primal_lower60  731
    u[98]     primal_lower61  7
    u[98]     primal_lower62  140
    u[98]     primal_lower63  366
    u[98]     primal_lower64  137
    u[98]     primal_lower65  688
    u[98]     primal_lower66  408
    u[98]     primal_lower67  586
    u[98]     primal_lower68  486
    u[98]     primal_lower69  878
    u[98]     primal_lower70  492
    u[98]     primal_lower71  320
    u[98]     primal_lower72  956
    u[98]     primal_lower73  838
    u[98]     primal_lower74  172
    u[98]     primal_lower75  678
    u[98]     primal_lower76  916
    u[98]     primal_lower77  305
    u[98]     primal_lower78  236
    u[98]     primal_lower79  856
    u[98]     primal_lower80  406
    u[98]     primal_lower81  857
    u[98]     primal_lower82  480
    u[98]     primal_lower83  62
    u[98]     primal_lower84  455
    u[98]     primal_lower85  116
    u[98]     primal_lower86  986
    u[98]     primal_lower87  647
    u[98]     primal_lower88  820
    u[98]     primal_lower89  828
    u[98]     primal_lower90  529
    u[98]     primal_lower91  415
    u[98]     primal_lower92  552
    u[98]     primal_lower93  366
    u[98]     primal_lower94  99
    u[98]     primal_lower95  361
    u[98]     primal_lower96  824
    u[98]     primal_lower97  854
    u[98]     primal_lower98  201
    u[98]     primal_lower99  809
    u[98]     interdiction[98]  1
    u[98]     mccormick1[98]  -1
    u[98]     mccormick3[98]  1
    u[99]     primal_lower0  557
    u[99]     primal_lower1  567
    u[99]     primal_lower2  147
    u[99]     primal_lower3  833
    u[99]     primal_lower4  391
    u[99]     primal_lower5  978
    u[99]     primal_lower6  346
    u[99]     primal_lower7  680
    u[99]     primal_lower8  227
    u[99]     primal_lower9  859
    u[99]     primal_lower10  213
    u[99]     primal_lower11  346
    u[99]     primal_lower12  374
    u[99]     primal_lower13  800
    u[99]     primal_lower14  204
    u[99]     primal_lower15  790
    u[99]     primal_lower16  236
    u[99]     primal_lower17  509
    u[99]     primal_lower18  189
    u[99]     primal_lower19  733
    u[99]     primal_lower20  337
    u[99]     primal_lower21  877
    u[99]     primal_lower22  686
    u[99]     primal_lower23  24
    u[99]     primal_lower24  280
    u[99]     primal_lower25  695
    u[99]     primal_lower26  194
    u[99]     primal_lower27  402
    u[99]     primal_lower28  263
    u[99]     primal_lower29  883
    u[99]     primal_lower30  651
    u[99]     primal_lower31  498
    u[99]     primal_lower32  458
    u[99]     primal_lower33  546
    u[99]     primal_lower34  940
    u[99]     primal_lower35  195
    u[99]     primal_lower36  36
    u[99]     primal_lower37  596
    u[99]     primal_lower38  388
    u[99]     primal_lower39  244
    u[99]     primal_lower40  876
    u[99]     primal_lower41  80
    u[99]     primal_lower42  331
    u[99]     primal_lower43  646
    u[99]     primal_lower44  368
    u[99]     primal_lower45  922
    u[99]     primal_lower46  202
    u[99]     primal_lower47  870
    u[99]     primal_lower48  788
    u[99]     primal_lower49  167
    u[99]     primal_lower50  248
    u[99]     primal_lower51  635
    u[99]     primal_lower52  597
    u[99]     primal_lower53  191
    u[99]     primal_lower54  396
    u[99]     primal_lower55  456
    u[99]     primal_lower56  513
    u[99]     primal_lower57  546
    u[99]     primal_lower58  244
    u[99]     primal_lower59  793
    u[99]     primal_lower60  587
    u[99]     primal_lower61  651
    u[99]     primal_lower62  660
    u[99]     primal_lower63  674
    u[99]     primal_lower64  589
    u[99]     primal_lower65  416
    u[99]     primal_lower66  356
    u[99]     primal_lower67  414
    u[99]     primal_lower68  954
    u[99]     primal_lower69  102
    u[99]     primal_lower70  124
    u[99]     primal_lower71  892
    u[99]     primal_lower72  312
    u[99]     primal_lower73  542
    u[99]     primal_lower74  808
    u[99]     primal_lower75  426
    u[99]     primal_lower76  940
    u[99]     primal_lower77  609
    u[99]     primal_lower78  668
    u[99]     primal_lower79  808
    u[99]     primal_lower80  174
    u[99]     primal_lower81  657
    u[99]     primal_lower82  32
    u[99]     primal_lower83  718
    u[99]     primal_lower84  679
    u[99]     primal_lower85  520
    u[99]     primal_lower86  802
    u[99]     primal_lower87  31
    u[99]     primal_lower88  232
    u[99]     primal_lower89  976
    u[99]     primal_lower90  37
    u[99]     primal_lower91  551
    u[99]     primal_lower92  844
    u[99]     primal_lower93  78
    u[99]     primal_lower94  563
    u[99]     primal_lower95  341
    u[99]     primal_lower96  416
    u[99]     primal_lower97  654
    u[99]     primal_lower98  133
    u[99]     primal_lower99  285
    u[99]     interdiction[99]  1
    u[99]     mccormick1[99]  -1
    u[99]     mccormick3[99]  1
    z[0]      primal_upper  90
    z[0]      mccormick1[0]  1
    z[0]      mccormick2[0]  1
    z[0]      mccormick3[0]  -1
    z[1]      primal_upper  97
    z[1]      mccormick1[1]  1
    z[1]      mccormick2[1]  1
    z[1]      mccormick3[1]  -1
    z[2]      primal_upper  42
    z[2]      mccormick1[2]  1
    z[2]      mccormick2[2]  1
    z[2]      mccormick3[2]  -1
    z[3]      primal_upper  47
    z[3]      mccormick1[3]  1
    z[3]      mccormick2[3]  1
    z[3]      mccormick3[3]  -1
    z[4]      primal_upper  2
    z[4]      mccormick1[4]  1
    z[4]      mccormick2[4]  1
    z[4]      mccormick3[4]  -1
    z[5]      primal_upper  38
    z[5]      mccormick1[5]  1
    z[5]      mccormick2[5]  1
    z[5]      mccormick3[5]  -1
    z[6]      primal_upper  8
    z[6]      mccormick1[6]  1
    z[6]      mccormick2[6]  1
    z[6]      mccormick3[6]  -1
    z[7]      primal_upper  63
    z[7]      mccormick1[7]  1
    z[7]      mccormick2[7]  1
    z[7]      mccormick3[7]  -1
    z[8]      primal_upper  2
    z[8]      mccormick1[8]  1
    z[8]      mccormick2[8]  1
    z[8]      mccormick3[8]  -1
    z[9]      primal_upper  7
    z[9]      mccormick1[9]  1
    z[9]      mccormick2[9]  1
    z[9]      mccormick3[9]  -1
    z[10]     primal_upper  35
    z[10]     mccormick1[10]  1
    z[10]     mccormick2[10]  1
    z[10]     mccormick3[10]  -1
    z[11]     primal_upper  66
    z[11]     mccormick1[11]  1
    z[11]     mccormick2[11]  1
    z[11]     mccormick3[11]  -1
    z[12]     primal_upper  78
    z[12]     mccormick1[12]  1
    z[12]     mccormick2[12]  1
    z[12]     mccormick3[12]  -1
    z[13]     primal_upper  14
    z[13]     mccormick1[13]  1
    z[13]     mccormick2[13]  1
    z[13]     mccormick3[13]  -1
    z[14]     primal_upper  99
    z[14]     mccormick1[14]  1
    z[14]     mccormick2[14]  1
    z[14]     mccormick3[14]  -1
    z[15]     primal_upper  82
    z[15]     mccormick1[15]  1
    z[15]     mccormick2[15]  1
    z[15]     mccormick3[15]  -1
    z[16]     primal_upper  74
    z[16]     mccormick1[16]  1
    z[16]     mccormick2[16]  1
    z[16]     mccormick3[16]  -1
    z[17]     primal_upper  7
    z[17]     mccormick1[17]  1
    z[17]     mccormick2[17]  1
    z[17]     mccormick3[17]  -1
    z[18]     primal_upper  84
    z[18]     mccormick1[18]  1
    z[18]     mccormick2[18]  1
    z[18]     mccormick3[18]  -1
    z[19]     primal_upper  75
    z[19]     mccormick1[19]  1
    z[19]     mccormick2[19]  1
    z[19]     mccormick3[19]  -1
    z[20]     primal_upper  87
    z[20]     mccormick1[20]  1
    z[20]     mccormick2[20]  1
    z[20]     mccormick3[20]  -1
    z[21]     primal_upper  36
    z[21]     mccormick1[21]  1
    z[21]     mccormick2[21]  1
    z[21]     mccormick3[21]  -1
    z[22]     primal_upper  26
    z[22]     mccormick1[22]  1
    z[22]     mccormick2[22]  1
    z[22]     mccormick3[22]  -1
    z[23]     mccormick1[23]  1
    z[23]     mccormick2[23]  1
    z[23]     mccormick3[23]  -1
    z[24]     primal_upper  83
    z[24]     mccormick1[24]  1
    z[24]     mccormick2[24]  1
    z[24]     mccormick3[24]  -1
    z[25]     primal_upper  42
    z[25]     mccormick1[25]  1
    z[25]     mccormick2[25]  1
    z[25]     mccormick3[25]  -1
    z[26]     primal_upper  76
    z[26]     mccormick1[26]  1
    z[26]     mccormick2[26]  1
    z[26]     mccormick3[26]  -1
    z[27]     primal_upper  32
    z[27]     mccormick1[27]  1
    z[27]     mccormick2[27]  1
    z[27]     mccormick3[27]  -1
    z[28]     primal_upper  51
    z[28]     mccormick1[28]  1
    z[28]     mccormick2[28]  1
    z[28]     mccormick3[28]  -1
    z[29]     primal_upper  36
    z[29]     mccormick1[29]  1
    z[29]     mccormick2[29]  1
    z[29]     mccormick3[29]  -1
    z[30]     primal_upper  19
    z[30]     mccormick1[30]  1
    z[30]     mccormick2[30]  1
    z[30]     mccormick3[30]  -1
    z[31]     primal_upper  95
    z[31]     mccormick1[31]  1
    z[31]     mccormick2[31]  1
    z[31]     mccormick3[31]  -1
    z[32]     primal_upper  61
    z[32]     mccormick1[32]  1
    z[32]     mccormick2[32]  1
    z[32]     mccormick3[32]  -1
    z[33]     primal_upper  95
    z[33]     mccormick1[33]  1
    z[33]     mccormick2[33]  1
    z[33]     mccormick3[33]  -1
    z[34]     primal_upper  13
    z[34]     mccormick1[34]  1
    z[34]     mccormick2[34]  1
    z[34]     mccormick3[34]  -1
    z[35]     primal_upper  62
    z[35]     mccormick1[35]  1
    z[35]     mccormick2[35]  1
    z[35]     mccormick3[35]  -1
    z[36]     primal_upper  18
    z[36]     mccormick1[36]  1
    z[36]     mccormick2[36]  1
    z[36]     mccormick3[36]  -1
    z[37]     primal_upper  37
    z[37]     mccormick1[37]  1
    z[37]     mccormick2[37]  1
    z[37]     mccormick3[37]  -1
    z[38]     primal_upper  92
    z[38]     mccormick1[38]  1
    z[38]     mccormick2[38]  1
    z[38]     mccormick3[38]  -1
    z[39]     primal_upper  4
    z[39]     mccormick1[39]  1
    z[39]     mccormick2[39]  1
    z[39]     mccormick3[39]  -1
    z[40]     primal_upper  21
    z[40]     mccormick1[40]  1
    z[40]     mccormick2[40]  1
    z[40]     mccormick3[40]  -1
    z[41]     primal_upper  94
    z[41]     mccormick1[41]  1
    z[41]     mccormick2[41]  1
    z[41]     mccormick3[41]  -1
    z[42]     primal_upper  9
    z[42]     mccormick1[42]  1
    z[42]     mccormick2[42]  1
    z[42]     mccormick3[42]  -1
    z[43]     primal_upper  43
    z[43]     mccormick1[43]  1
    z[43]     mccormick2[43]  1
    z[43]     mccormick3[43]  -1
    z[44]     primal_upper  66
    z[44]     mccormick1[44]  1
    z[44]     mccormick2[44]  1
    z[44]     mccormick3[44]  -1
    z[45]     primal_upper  59
    z[45]     mccormick1[45]  1
    z[45]     mccormick2[45]  1
    z[45]     mccormick3[45]  -1
    z[46]     primal_upper  79
    z[46]     mccormick1[46]  1
    z[46]     mccormick2[46]  1
    z[46]     mccormick3[46]  -1
    z[47]     primal_upper  28
    z[47]     mccormick1[47]  1
    z[47]     mccormick2[47]  1
    z[47]     mccormick3[47]  -1
    z[48]     primal_upper  75
    z[48]     mccormick1[48]  1
    z[48]     mccormick2[48]  1
    z[48]     mccormick3[48]  -1
    z[49]     primal_upper  55
    z[49]     mccormick1[49]  1
    z[49]     mccormick2[49]  1
    z[49]     mccormick3[49]  -1
    z[50]     primal_upper  92
    z[50]     mccormick1[50]  1
    z[50]     mccormick2[50]  1
    z[50]     mccormick3[50]  -1
    z[51]     primal_upper  32
    z[51]     mccormick1[51]  1
    z[51]     mccormick2[51]  1
    z[51]     mccormick3[51]  -1
    z[52]     primal_upper  42
    z[52]     mccormick1[52]  1
    z[52]     mccormick2[52]  1
    z[52]     mccormick3[52]  -1
    z[53]     primal_upper  11
    z[53]     mccormick1[53]  1
    z[53]     mccormick2[53]  1
    z[53]     mccormick3[53]  -1
    z[54]     primal_upper  48
    z[54]     mccormick1[54]  1
    z[54]     mccormick2[54]  1
    z[54]     mccormick3[54]  -1
    z[55]     primal_upper  84
    z[55]     mccormick1[55]  1
    z[55]     mccormick2[55]  1
    z[55]     mccormick3[55]  -1
    z[56]     primal_upper  48
    z[56]     mccormick1[56]  1
    z[56]     mccormick2[56]  1
    z[56]     mccormick3[56]  -1
    z[57]     primal_upper  55
    z[57]     mccormick1[57]  1
    z[57]     mccormick2[57]  1
    z[57]     mccormick3[57]  -1
    z[58]     primal_upper  10
    z[58]     mccormick1[58]  1
    z[58]     mccormick2[58]  1
    z[58]     mccormick3[58]  -1
    z[59]     primal_upper  57
    z[59]     mccormick1[59]  1
    z[59]     mccormick2[59]  1
    z[59]     mccormick3[59]  -1
    z[60]     primal_upper  18
    z[60]     mccormick1[60]  1
    z[60]     mccormick2[60]  1
    z[60]     mccormick3[60]  -1
    z[61]     primal_upper  82
    z[61]     mccormick1[61]  1
    z[61]     mccormick2[61]  1
    z[61]     mccormick3[61]  -1
    z[62]     primal_upper  4
    z[62]     mccormick1[62]  1
    z[62]     mccormick2[62]  1
    z[62]     mccormick3[62]  -1
    z[63]     primal_upper  77
    z[63]     mccormick1[63]  1
    z[63]     mccormick2[63]  1
    z[63]     mccormick3[63]  -1
    z[64]     primal_upper  85
    z[64]     mccormick1[64]  1
    z[64]     mccormick2[64]  1
    z[64]     mccormick3[64]  -1
    z[65]     primal_upper  87
    z[65]     mccormick1[65]  1
    z[65]     mccormick2[65]  1
    z[65]     mccormick3[65]  -1
    z[66]     primal_upper  25
    z[66]     mccormick1[66]  1
    z[66]     mccormick2[66]  1
    z[66]     mccormick3[66]  -1
    z[67]     primal_upper  52
    z[67]     mccormick1[67]  1
    z[67]     mccormick2[67]  1
    z[67]     mccormick3[67]  -1
    z[68]     primal_upper  82
    z[68]     mccormick1[68]  1
    z[68]     mccormick2[68]  1
    z[68]     mccormick3[68]  -1
    z[69]     primal_upper  26
    z[69]     mccormick1[69]  1
    z[69]     mccormick2[69]  1
    z[69]     mccormick3[69]  -1
    z[70]     primal_upper  82
    z[70]     mccormick1[70]  1
    z[70]     mccormick2[70]  1
    z[70]     mccormick3[70]  -1
    z[71]     primal_upper  65
    z[71]     mccormick1[71]  1
    z[71]     mccormick2[71]  1
    z[71]     mccormick3[71]  -1
    z[72]     primal_upper  79
    z[72]     mccormick1[72]  1
    z[72]     mccormick2[72]  1
    z[72]     mccormick3[72]  -1
    z[73]     primal_upper  6
    z[73]     mccormick1[73]  1
    z[73]     mccormick2[73]  1
    z[73]     mccormick3[73]  -1
    z[74]     primal_upper  39
    z[74]     mccormick1[74]  1
    z[74]     mccormick2[74]  1
    z[74]     mccormick3[74]  -1
    z[75]     primal_upper  37
    z[75]     mccormick1[75]  1
    z[75]     mccormick2[75]  1
    z[75]     mccormick3[75]  -1
    z[76]     primal_upper  66
    z[76]     mccormick1[76]  1
    z[76]     mccormick2[76]  1
    z[76]     mccormick3[76]  -1
    z[77]     primal_upper  70
    z[77]     mccormick1[77]  1
    z[77]     mccormick2[77]  1
    z[77]     mccormick3[77]  -1
    z[78]     primal_upper  14
    z[78]     mccormick1[78]  1
    z[78]     mccormick2[78]  1
    z[78]     mccormick3[78]  -1
    z[79]     primal_upper  38
    z[79]     mccormick1[79]  1
    z[79]     mccormick2[79]  1
    z[79]     mccormick3[79]  -1
    z[80]     primal_upper  11
    z[80]     mccormick1[80]  1
    z[80]     mccormick2[80]  1
    z[80]     mccormick3[80]  -1
    z[81]     primal_upper  8
    z[81]     mccormick1[81]  1
    z[81]     mccormick2[81]  1
    z[81]     mccormick3[81]  -1
    z[82]     primal_upper  76
    z[82]     mccormick1[82]  1
    z[82]     mccormick2[82]  1
    z[82]     mccormick3[82]  -1
    z[83]     primal_upper  85
    z[83]     mccormick1[83]  1
    z[83]     mccormick2[83]  1
    z[83]     mccormick3[83]  -1
    z[84]     primal_upper  66
    z[84]     mccormick1[84]  1
    z[84]     mccormick2[84]  1
    z[84]     mccormick3[84]  -1
    z[85]     primal_upper  19
    z[85]     mccormick1[85]  1
    z[85]     mccormick2[85]  1
    z[85]     mccormick3[85]  -1
    z[86]     primal_upper  54
    z[86]     mccormick1[86]  1
    z[86]     mccormick2[86]  1
    z[86]     mccormick3[86]  -1
    z[87]     primal_upper  12
    z[87]     mccormick1[87]  1
    z[87]     mccormick2[87]  1
    z[87]     mccormick3[87]  -1
    z[88]     primal_upper  67
    z[88]     mccormick1[88]  1
    z[88]     mccormick2[88]  1
    z[88]     mccormick3[88]  -1
    z[89]     primal_upper  63
    z[89]     mccormick1[89]  1
    z[89]     mccormick2[89]  1
    z[89]     mccormick3[89]  -1
    z[90]     primal_upper  1
    z[90]     mccormick1[90]  1
    z[90]     mccormick2[90]  1
    z[90]     mccormick3[90]  -1
    z[91]     primal_upper  2
    z[91]     mccormick1[91]  1
    z[91]     mccormick2[91]  1
    z[91]     mccormick3[91]  -1
    z[92]     primal_upper  65
    z[92]     mccormick1[92]  1
    z[92]     mccormick2[92]  1
    z[92]     mccormick3[92]  -1
    z[93]     primal_upper  36
    z[93]     mccormick1[93]  1
    z[93]     mccormick2[93]  1
    z[93]     mccormick3[93]  -1
    z[94]     primal_upper  42
    z[94]     mccormick1[94]  1
    z[94]     mccormick2[94]  1
    z[94]     mccormick3[94]  -1
    z[95]     primal_upper  58
    z[95]     mccormick1[95]  1
    z[95]     mccormick2[95]  1
    z[95]     mccormick3[95]  -1
    z[96]     primal_upper  14
    z[96]     mccormick1[96]  1
    z[96]     mccormick2[96]  1
    z[96]     mccormick3[96]  -1
    z[97]     primal_upper  22
    z[97]     mccormick1[97]  1
    z[97]     mccormick2[97]  1
    z[97]     mccormick3[97]  -1
    z[98]     primal_upper  31
    z[98]     mccormick1[98]  1
    z[98]     mccormick2[98]  1
    z[98]     mccormick3[98]  -1
    z[99]     primal_upper  68
    z[99]     mccormick1[99]  1
    z[99]     mccormick2[99]  1
    z[99]     mccormick3[99]  -1
    MARKER    'MARKER'                 'INTEND'
RHS
    RHS1      primal_upper  12035
    RHS1      primal_lower0  24657
    RHS1      primal_lower1  993
    RHS1      primal_lower2  12250
    RHS1      primal_lower3  27123
    RHS1      primal_lower4  24047
    RHS1      primal_lower5  26085
    RHS1      primal_lower6  12841
    RHS1      primal_lower7  996
    RHS1      primal_lower8  959
    RHS1      primal_lower9  11625
    RHS1      primal_lower10  12847
    RHS1      primal_lower11  991
    RHS1      primal_lower12  25159
    RHS1      primal_lower13  12251
    RHS1      primal_lower14  24345
    RHS1      primal_lower15  23635
    RHS1      primal_lower16  25055
    RHS1      primal_lower17  12514
    RHS1      primal_lower18  12083
    RHS1      primal_lower19  11576
    RHS1      primal_lower20  13036
    RHS1      primal_lower21  12659
    RHS1      primal_lower22  989
    RHS1      primal_lower23  12130
    RHS1      primal_lower24  11983
    RHS1      primal_lower25  13240
    RHS1      primal_lower26  10334
    RHS1      primal_lower27  998
    RHS1      primal_lower28  11958
    RHS1      primal_lower29  1000
    RHS1      primal_lower30  26977
    RHS1      primal_lower31  13285
    RHS1      primal_lower32  12763
    RHS1      primal_lower33  13903
    RHS1      primal_lower34  24331
    RHS1      primal_lower35  24287
    RHS1      primal_lower36  11805
    RHS1      primal_lower37  12055
    RHS1      primal_lower38  12084
    RHS1      primal_lower39  999
    RHS1      primal_lower40  23997
    RHS1      primal_lower41  24405
    RHS1      primal_lower42  998
    RHS1      primal_lower43  12797
    RHS1      primal_lower44  22903
    RHS1      primal_lower45  974
    RHS1      primal_lower46  27109
    RHS1      primal_lower47  12477
    RHS1      primal_lower48  23811
    RHS1      primal_lower49  12472
    RHS1      primal_lower50  13704
    RHS1      primal_lower51  1000
    RHS1      primal_lower52  13775
    RHS1      primal_lower53  28457
    RHS1      primal_lower54  25303
    RHS1      primal_lower55  12761
    RHS1      primal_lower56  11868
    RHS1      primal_lower57  997
    RHS1      primal_lower58  13256
    RHS1      primal_lower59  24919
    RHS1      primal_lower60  12394
    RHS1      primal_lower61  26623
    RHS1      primal_lower62  12613
    RHS1      primal_lower63  27245
    RHS1      primal_lower64  12617
    RHS1      primal_lower65  24491
    RHS1      primal_lower66  992
    RHS1      primal_lower67  13022
    RHS1      primal_lower68  967
    RHS1      primal_lower69  12995
    RHS1      primal_lower70  977
    RHS1      primal_lower71  11992
    RHS1      primal_lower72  13102
    RHS1      primal_lower73  13195
    RHS1      primal_lower74  25425
    RHS1      primal_lower75  988
    RHS1      primal_lower76  13715
    RHS1      primal_lower77  26085
    RHS1      primal_lower78  25255
    RHS1      primal_lower79  26547
    RHS1      primal_lower80  27827
    RHS1      primal_lower81  12750
    RHS1      primal_lower82  986
    RHS1      primal_lower83  1000
    RHS1      primal_lower84  12856
    RHS1      primal_lower85  996
    RHS1      primal_lower86  986
    RHS1      primal_lower87  974
    RHS1      primal_lower88  983
    RHS1      primal_lower89  1000
    RHS1      primal_lower90  25127
    RHS1      primal_lower91  12754
    RHS1      primal_lower92  998
    RHS1      primal_lower93  995
    RHS1      primal_lower94  26349
    RHS1      primal_lower95  960
    RHS1      primal_lower96  12051
    RHS1      primal_lower97  13175
    RHS1      primal_lower98  10871
    RHS1      primal_lower99  21747
    RHS1      interdiction[0]  1
    RHS1      interdiction[1]  1
    RHS1      interdiction[2]  1
    RHS1      interdiction[3]  1
    RHS1      interdiction[4]  1
    RHS1      interdiction[5]  1
    RHS1      interdiction[6]  1
    RHS1      interdiction[7]  1
    RHS1      interdiction[8]  1
    RHS1      interdiction[9]  1
    RHS1      interdiction[10]  1
    RHS1      interdiction[11]  1
    RHS1      interdiction[12]  1
    RHS1      interdiction[13]  1
    RHS1      interdiction[14]  1
    RHS1      interdiction[15]  1
    RHS1      interdiction[16]  1
    RHS1      interdiction[17]  1
    RHS1      interdiction[18]  1
    RHS1      interdiction[19]  1
    RHS1      interdiction[20]  1
    RHS1      interdiction[21]  1
    RHS1      interdiction[22]  1
    RHS1      interdiction[23]  1
    RHS1      interdiction[24]  1
    RHS1      interdiction[25]  1
    RHS1      interdiction[26]  1
    RHS1      interdiction[27]  1
    RHS1      interdiction[28]  1
    RHS1      interdiction[29]  1
    RHS1      interdiction[30]  1
    RHS1      interdiction[31]  1
    RHS1      interdiction[32]  1
    RHS1      interdiction[33]  1
    RHS1      interdiction[34]  1
    RHS1      interdiction[35]  1
    RHS1      interdiction[36]  1
    RHS1      interdiction[37]  1
    RHS1      interdiction[38]  1
    RHS1      interdiction[39]  1
    RHS1      interdiction[40]  1
    RHS1      interdiction[41]  1
    RHS1      interdiction[42]  1
    RHS1      interdiction[43]  1
    RHS1      interdiction[44]  1
    RHS1      interdiction[45]  1
    RHS1      interdiction[46]  1
    RHS1      interdiction[47]  1
    RHS1      interdiction[48]  1
    RHS1      interdiction[49]  1
    RHS1      interdiction[50]  1
    RHS1      interdiction[51]  1
    RHS1      interdiction[52]  1
    RHS1      interdiction[53]  1
    RHS1      interdiction[54]  1
    RHS1      interdiction[55]  1
    RHS1      interdiction[56]  1
    RHS1      interdiction[57]  1
    RHS1      interdiction[58]  1
    RHS1      interdiction[59]  1
    RHS1      interdiction[60]  1
    RHS1      interdiction[61]  1
    RHS1      interdiction[62]  1
    RHS1      interdiction[63]  1
    RHS1      interdiction[64]  1
    RHS1      interdiction[65]  1
    RHS1      interdiction[66]  1
    RHS1      interdiction[67]  1
    RHS1      interdiction[68]  1
    RHS1      interdiction[69]  1
    RHS1      interdiction[70]  1
    RHS1      interdiction[71]  1
    RHS1      interdiction[72]  1
    RHS1      interdiction[73]  1
    RHS1      interdiction[74]  1
    RHS1      interdiction[75]  1
    RHS1      interdiction[76]  1
    RHS1      interdiction[77]  1
    RHS1      interdiction[78]  1
    RHS1      interdiction[79]  1
    RHS1      interdiction[80]  1
    RHS1      interdiction[81]  1
    RHS1      interdiction[82]  1
    RHS1      interdiction[83]  1
    RHS1      interdiction[84]  1
    RHS1      interdiction[85]  1
    RHS1      interdiction[86]  1
    RHS1      interdiction[87]  1
    RHS1      interdiction[88]  1
    RHS1      interdiction[89]  1
    RHS1      interdiction[90]  1
    RHS1      interdiction[91]  1
    RHS1      interdiction[92]  1
    RHS1      interdiction[93]  1
    RHS1      interdiction[94]  1
    RHS1      interdiction[95]  1
    RHS1      interdiction[96]  1
    RHS1      interdiction[97]  1
    RHS1      interdiction[98]  1
    RHS1      interdiction[99]  1
    RHS1      mccormick3[0]  1
    RHS1      mccormick3[1]  1
    RHS1      mccormick3[2]  1
    RHS1      mccormick3[3]  1
    RHS1      mccormick3[4]  1
    RHS1      mccormick3[5]  1
    RHS1      mccormick3[6]  1
    RHS1      mccormick3[7]  1
    RHS1      mccormick3[8]  1
    RHS1      mccormick3[9]  1
    RHS1      mccormick3[10]  1
    RHS1      mccormick3[11]  1
    RHS1      mccormick3[12]  1
    RHS1      mccormick3[13]  1
    RHS1      mccormick3[14]  1
    RHS1      mccormick3[15]  1
    RHS1      mccormick3[16]  1
    RHS1      mccormick3[17]  1
    RHS1      mccormick3[18]  1
    RHS1      mccormick3[19]  1
    RHS1      mccormick3[20]  1
    RHS1      mccormick3[21]  1
    RHS1      mccormick3[22]  1
    RHS1      mccormick3[23]  1
    RHS1      mccormick3[24]  1
    RHS1      mccormick3[25]  1
    RHS1      mccormick3[26]  1
    RHS1      mccormick3[27]  1
    RHS1      mccormick3[28]  1
    RHS1      mccormick3[29]  1
    RHS1      mccormick3[30]  1
    RHS1      mccormick3[31]  1
    RHS1      mccormick3[32]  1
    RHS1      mccormick3[33]  1
    RHS1      mccormick3[34]  1
    RHS1      mccormick3[35]  1
    RHS1      mccormick3[36]  1
    RHS1      mccormick3[37]  1
    RHS1      mccormick3[38]  1
    RHS1      mccormick3[39]  1
    RHS1      mccormick3[40]  1
    RHS1      mccormick3[41]  1
    RHS1      mccormick3[42]  1
    RHS1      mccormick3[43]  1
    RHS1      mccormick3[44]  1
    RHS1      mccormick3[45]  1
    RHS1      mccormick3[46]  1
    RHS1      mccormick3[47]  1
    RHS1      mccormick3[48]  1
    RHS1      mccormick3[49]  1
    RHS1      mccormick3[50]  1
    RHS1      mccormick3[51]  1
    RHS1      mccormick3[52]  1
    RHS1      mccormick3[53]  1
    RHS1      mccormick3[54]  1
    RHS1      mccormick3[55]  1
    RHS1      mccormick3[56]  1
    RHS1      mccormick3[57]  1
    RHS1      mccormick3[58]  1
    RHS1      mccormick3[59]  1
    RHS1      mccormick3[60]  1
    RHS1      mccormick3[61]  1
    RHS1      mccormick3[62]  1
    RHS1      mccormick3[63]  1
    RHS1      mccormick3[64]  1
    RHS1      mccormick3[65]  1
    RHS1      mccormick3[66]  1
    RHS1      mccormick3[67]  1
    RHS1      mccormick3[68]  1
    RHS1      mccormick3[69]  1
    RHS1      mccormick3[70]  1
    RHS1      mccormick3[71]  1
    RHS1      mccormick3[72]  1
    RHS1      mccormick3[73]  1
    RHS1      mccormick3[74]  1
    RHS1      mccormick3[75]  1
    RHS1      mccormick3[76]  1
    RHS1      mccormick3[77]  1
    RHS1      mccormick3[78]  1
    RHS1      mccormick3[79]  1
    RHS1      mccormick3[80]  1
    RHS1      mccormick3[81]  1
    RHS1      mccormick3[82]  1
    RHS1      mccormick3[83]  1
    RHS1      mccormick3[84]  1
    RHS1      mccormick3[85]  1
    RHS1      mccormick3[86]  1
    RHS1      mccormick3[87]  1
    RHS1      mccormick3[88]  1
    RHS1      mccormick3[89]  1
    RHS1      mccormick3[90]  1
    RHS1      mccormick3[91]  1
    RHS1      mccormick3[92]  1
    RHS1      mccormick3[93]  1
    RHS1      mccormick3[94]  1
    RHS1      mccormick3[95]  1
    RHS1      mccormick3[96]  1
    RHS1      mccormick3[97]  1
    RHS1      mccormick3[98]  1
    RHS1      mccormick3[99]  1
BOUNDS
 BV BND1      x[0]    
 BV BND1      x[1]    
 BV BND1      x[2]    
 BV BND1      x[3]    
 BV BND1      x[4]    
 BV BND1      x[5]    
 BV BND1      x[6]    
 BV BND1      x[7]    
 BV BND1      x[8]    
 BV BND1      x[9]    
 BV BND1      x[10]   
 BV BND1      x[11]   
 BV BND1      x[12]   
 BV BND1      x[13]   
 BV BND1      x[14]   
 BV BND1      x[15]   
 BV BND1      x[16]   
 BV BND1      x[17]   
 BV BND1      x[18]   
 BV BND1      x[19]   
 BV BND1      x[20]   
 BV BND1      x[21]   
 BV BND1      x[22]   
 BV BND1      x[23]   
 BV BND1      x[24]   
 BV BND1      x[25]   
 BV BND1      x[26]   
 BV BND1      x[27]   
 BV BND1      x[28]   
 BV BND1      x[29]   
 BV BND1      x[30]   
 BV BND1      x[31]   
 BV BND1      x[32]   
 BV BND1      x[33]   
 BV BND1      x[34]   
 BV BND1      x[35]   
 BV BND1      x[36]   
 BV BND1      x[37]   
 BV BND1      x[38]   
 BV BND1      x[39]   
 BV BND1      x[40]   
 BV BND1      x[41]   
 BV BND1      x[42]   
 BV BND1      x[43]   
 BV BND1      x[44]   
 BV BND1      x[45]   
 BV BND1      x[46]   
 BV BND1      x[47]   
 BV BND1      x[48]   
 BV BND1      x[49]   
 BV BND1      x[50]   
 BV BND1      x[51]   
 BV BND1      x[52]   
 BV BND1      x[53]   
 BV BND1      x[54]   
 BV BND1      x[55]   
 BV BND1      x[56]   
 BV BND1      x[57]   
 BV BND1      x[58]   
 BV BND1      x[59]   
 BV BND1      x[60]   
 BV BND1      x[61]   
 BV BND1      x[62]   
 BV BND1      x[63]   
 BV BND1      x[64]   
 BV BND1      x[65]   
 BV BND1      x[66]   
 BV BND1      x[67]   
 BV BND1      x[68]   
 BV BND1      x[69]   
 BV BND1      x[70]   
 BV BND1      x[71]   
 BV BND1      x[72]   
 BV BND1      x[73]   
 BV BND1      x[74]   
 BV BND1      x[75]   
 BV BND1      x[76]   
 BV BND1      x[77]   
 BV BND1      x[78]   
 BV BND1      x[79]   
 BV BND1      x[80]   
 BV BND1      x[81]   
 BV BND1      x[82]   
 BV BND1      x[83]   
 BV BND1      x[84]   
 BV BND1      x[85]   
 BV BND1      x[86]   
 BV BND1      x[87]   
 BV BND1      x[88]   
 BV BND1      x[89]   
 BV BND1      x[90]   
 BV BND1      x[91]   
 BV BND1      x[92]   
 BV BND1      x[93]   
 BV BND1      x[94]   
 BV BND1      x[95]   
 BV BND1      x[96]   
 BV BND1      x[97]   
 BV BND1      x[98]   
 BV BND1      x[99]   
 BV BND1      y[0]    
 BV BND1      y[1]    
 BV BND1      y[2]    
 BV BND1      y[3]    
 BV BND1      y[4]    
 BV BND1      y[5]    
 BV BND1      y[6]    
 BV BND1      y[7]    
 BV BND1      y[8]    
 BV BND1      y[9]    
 BV BND1      y[10]   
 BV BND1      y[11]   
 BV BND1      y[12]   
 BV BND1      y[13]   
 BV BND1      y[14]   
 BV BND1      y[15]   
 BV BND1      y[16]   
 BV BND1      y[17]   
 BV BND1      y[18]   
 BV BND1      y[19]   
 BV BND1      y[20]   
 BV BND1      y[21]   
 BV BND1      y[22]   
 BV BND1      y[23]   
 BV BND1      y[24]   
 BV BND1      y[25]   
 BV BND1      y[26]   
 BV BND1      y[27]   
 BV BND1      y[28]   
 BV BND1      y[29]   
 BV BND1      y[30]   
 BV BND1      y[31]   
 BV BND1      y[32]   
 BV BND1      y[33]   
 BV BND1      y[34]   
 BV BND1      y[35]   
 BV BND1      y[36]   
 BV BND1      y[37]   
 BV BND1      y[38]   
 BV BND1      y[39]   
 BV BND1      y[40]   
 BV BND1      y[41]   
 BV BND1      y[42]   
 BV BND1      y[43]   
 BV BND1      y[44]   
 BV BND1      y[45]   
 BV BND1      y[46]   
 BV BND1      y[47]   
 BV BND1      y[48]   
 BV BND1      y[49]   
 BV BND1      y[50]   
 BV BND1      y[51]   
 BV BND1      y[52]   
 BV BND1      y[53]   
 BV BND1      y[54]   
 BV BND1      y[55]   
 BV BND1      y[56]   
 BV BND1      y[57]   
 BV BND1      y[58]   
 BV BND1      y[59]   
 BV BND1      y[60]   
 BV BND1      y[61]   
 BV BND1      y[62]   
 BV BND1      y[63]   
 BV BND1      y[64]   
 BV BND1      y[65]   
 BV BND1      y[66]   
 BV BND1      y[67]   
 BV BND1      y[68]   
 BV BND1      y[69]   
 BV BND1      y[70]   
 BV BND1      y[71]   
 BV BND1      y[72]   
 BV BND1      y[73]   
 BV BND1      y[74]   
 BV BND1      y[75]   
 BV BND1      y[76]   
 BV BND1      y[77]   
 BV BND1      y[78]   
 BV BND1      y[79]   
 BV BND1      y[80]   
 BV BND1      y[81]   
 BV BND1      y[82]   
 BV BND1      y[83]   
 BV BND1      y[84]   
 BV BND1      y[85]   
 BV BND1      y[86]   
 BV BND1      y[87]   
 BV BND1      y[88]   
 BV BND1      y[89]   
 BV BND1      y[90]   
 BV BND1      y[91]   
 BV BND1      y[92]   
 BV BND1      y[93]   
 BV BND1      y[94]   
 BV BND1      y[95]   
 BV BND1      y[96]   
 BV BND1      y[97]   
 BV BND1      y[98]   
 BV BND1      y[99]   
 BV BND1      u[0]    
 BV BND1      u[1]    
 BV BND1      u[2]    
 BV BND1      u[3]    
 BV BND1      u[4]    
 BV BND1      u[5]    
 BV BND1      u[6]    
 BV BND1      u[7]    
 BV BND1      u[8]    
 BV BND1      u[9]    
 BV BND1      u[10]   
 BV BND1      u[11]   
 BV BND1      u[12]   
 BV BND1      u[13]   
 BV BND1      u[14]   
 BV BND1      u[15]   
 BV BND1      u[16]   
 BV BND1      u[17]   
 BV BND1      u[18]   
 BV BND1      u[19]   
 BV BND1      u[20]   
 BV BND1      u[21]   
 BV BND1      u[22]   
 BV BND1      u[23]   
 BV BND1      u[24]   
 BV BND1      u[25]   
 BV BND1      u[26]   
 BV BND1      u[27]   
 BV BND1      u[28]   
 BV BND1      u[29]   
 BV BND1      u[30]   
 BV BND1      u[31]   
 BV BND1      u[32]   
 BV BND1      u[33]   
 BV BND1      u[34]   
 BV BND1      u[35]   
 BV BND1      u[36]   
 BV BND1      u[37]   
 BV BND1      u[38]   
 BV BND1      u[39]   
 BV BND1      u[40]   
 BV BND1      u[41]   
 BV BND1      u[42]   
 BV BND1      u[43]   
 BV BND1      u[44]   
 BV BND1      u[45]   
 BV BND1      u[46]   
 BV BND1      u[47]   
 BV BND1      u[48]   
 BV BND1      u[49]   
 BV BND1      u[50]   
 BV BND1      u[51]   
 BV BND1      u[52]   
 BV BND1      u[53]   
 BV BND1      u[54]   
 BV BND1      u[55]   
 BV BND1      u[56]   
 BV BND1      u[57]   
 BV BND1      u[58]   
 BV BND1      u[59]   
 BV BND1      u[60]   
 BV BND1      u[61]   
 BV BND1      u[62]   
 BV BND1      u[63]   
 BV BND1      u[64]   
 BV BND1      u[65]   
 BV BND1      u[66]   
 BV BND1      u[67]   
 BV BND1      u[68]   
 BV BND1      u[69]   
 BV BND1      u[70]   
 BV BND1      u[71]   
 BV BND1      u[72]   
 BV BND1      u[73]   
 BV BND1      u[74]   
 BV BND1      u[75]   
 BV BND1      u[76]   
 BV BND1      u[77]   
 BV BND1      u[78]   
 BV BND1      u[79]   
 BV BND1      u[80]   
 BV BND1      u[81]   
 BV BND1      u[82]   
 BV BND1      u[83]   
 BV BND1      u[84]   
 BV BND1      u[85]   
 BV BND1      u[86]   
 BV BND1      u[87]   
 BV BND1      u[88]   
 BV BND1      u[89]   
 BV BND1      u[90]   
 BV BND1      u[91]   
 BV BND1      u[92]   
 BV BND1      u[93]   
 BV BND1      u[94]   
 BV BND1      u[95]   
 BV BND1      u[96]   
 BV BND1      u[97]   
 BV BND1      u[98]   
 BV BND1      u[99]   
 BV BND1      z[0]    
 BV BND1      z[1]    
 BV BND1      z[2]    
 BV BND1      z[3]    
 BV BND1      z[4]    
 BV BND1      z[5]    
 BV BND1      z[6]    
 BV BND1      z[7]    
 BV BND1      z[8]    
 BV BND1      z[9]    
 BV BND1      z[10]   
 BV BND1      z[11]   
 BV BND1      z[12]   
 BV BND1      z[13]   
 BV BND1      z[14]   
 BV BND1      z[15]   
 BV BND1      z[16]   
 BV BND1      z[17]   
 BV BND1      z[18]   
 BV BND1      z[19]   
 BV BND1      z[20]   
 BV BND1      z[21]   
 BV BND1      z[22]   
 BV BND1      z[23]   
 BV BND1      z[24]   
 BV BND1      z[25]   
 BV BND1      z[26]   
 BV BND1      z[27]   
 BV BND1      z[28]   
 BV BND1      z[29]   
 BV BND1      z[30]   
 BV BND1      z[31]   
 BV BND1      z[32]   
 BV BND1      z[33]   
 BV BND1      z[34]   
 BV BND1      z[35]   
 BV BND1      z[36]   
 BV BND1      z[37]   
 BV BND1      z[38]   
 BV BND1      z[39]   
 BV BND1      z[40]   
 BV BND1      z[41]   
 BV BND1      z[42]   
 BV BND1      z[43]   
 BV BND1      z[44]   
 BV BND1      z[45]   
 BV BND1      z[46]   
 BV BND1      z[47]   
 BV BND1      z[48]   
 BV BND1      z[49]   
 BV BND1      z[50]   
 BV BND1      z[51]   
 BV BND1      z[52]   
 BV BND1      z[53]   
 BV BND1      z[54]   
 BV BND1      z[55]   
 BV BND1      z[56]   
 BV BND1      z[57]   
 BV BND1      z[58]   
 BV BND1      z[59]   
 BV BND1      z[60]   
 BV BND1      z[61]   
 BV BND1      z[62]   
 BV BND1      z[63]   
 BV BND1      z[64]   
 BV BND1      z[65]   
 BV BND1      z[66]   
 BV BND1      z[67]   
 BV BND1      z[68]   
 BV BND1      z[69]   
 BV BND1      z[70]   
 BV BND1      z[71]   
 BV BND1      z[72]   
 BV BND1      z[73]   
 BV BND1      z[74]   
 BV BND1      z[75]   
 BV BND1      z[76]   
 BV BND1      z[77]   
 BV BND1      z[78]   
 BV BND1      z[79]   
 BV BND1      z[80]   
 BV BND1      z[81]   
 BV BND1      z[82]   
 BV BND1      z[83]   
 BV BND1      z[84]   
 BV BND1      z[85]   
 BV BND1      z[86]   
 BV BND1      z[87]   
 BV BND1      z[88]   
 BV BND1      z[89]   
 BV BND1      z[90]   
 BV BND1      z[91]   
 BV BND1      z[92]   
 BV BND1      z[93]   
 BV BND1      z[94]   
 BV BND1      z[95]   
 BV BND1      z[96]   
 BV BND1      z[97]   
 BV BND1      z[98]   
 BV BND1      z[99]   
ENDATA
