\ Model knapsack_40_100_5
\ LP format - for model browsing. Use MPS format to capture full model detail.
\ Signature: 0xba60f4f0ca1d3fbc
Minimize
  10 x[0] + 10 x[1] + 10 x[2] + 10 x[3] + 10 x[4] + 10 x[5] + 10 x[6]
   + 10 x[7] + 10 x[8] + 10 x[9] + 10 x[10] + 10 x[11] + 10 x[12]
   + 10 x[13] + 10 x[14] + 10 x[15] + 10 x[16] + 10 x[17] + 10 x[18]
   + 10 x[19] + 10 x[20] + 10 x[21] + 10 x[22] + 10 x[23] + 10 x[24]
   + 10 x[25] + 10 x[26] + 10 x[27] + 10 x[28] + 10 x[29] + 10 x[30]
   + 10 x[31] + 10 x[32] + 10 x[33] + 10 x[34] + 10 x[35] + 10 x[36]
   + 10 x[37] + 10 x[38] + 10 x[39] - 379 y[0] - 471 y[1] - 821 y[2]
   - 309 y[3] - 294 y[4] - 834 y[5] - 46 y[6] - 364 y[7] - 51 y[8]
   - 611 y[9] - 676 y[10] - 692 y[11] - 600 y[12] - 539 y[13] - 284 y[14]
   - 677 y[15] - 859 y[16] - 555 y[17] - 647 y[18] - 482 y[19] - 230 y[20]
   - 72 y[21] - 929 y[22] - 745 y[23] - 974 y[24] - 831 y[25] - 765 y[26]
   - 256 y[27] - 703 y[28] - 137 y[29] - 522 y[30] - 881 y[31] - 81 y[32]
   - 488 y[33] - 744 y[34] - 918 y[35] - 342 y[36] - 584 y[37] - 123 y[38]
   - 388 y[39]
Subject To
 primal_upper: 686 y[0] + 599 y[1] + 937 y[2] + 822 y[3] + 419 y[4]
   + 132 y[5] + 676 y[6] + 838 y[7] + 532 y[8] + 429 y[9] + 994 y[10]
   + 446 y[11] + 619 y[12] + 743 y[13] + 419 y[14] + 423 y[15] + 316 y[16]
   + 323 y[17] + 840 y[18] + 89 y[19] + 844 y[20] + 378 y[21] + 211 y[22]
   + 713 y[23] + 523 y[24] + 891 y[25] + 225 y[26] + 226 y[27] + 660 y[28]
   + 442 y[29] + 144 y[30] + 430 y[31] + 226 y[32] + 672 y[33] + 203 y[34]
   + 580 y[35] + 763 y[36] + 463 y[37] + 283 y[38] + 73 y[39] + 69 z[0]
   + 60 z[1] + 94 z[2] + 82 z[3] + 42 z[4] + 13 z[5] + 68 z[6] + 84 z[7]
   + 53 z[8] + 43 z[9] + 99 z[10] + 45 z[11] + 62 z[12] + 74 z[13]
   + 42 z[14] + 42 z[15] + 32 z[16] + 32 z[17] + 84 z[18] + 9 z[19]
   + 84 z[20] + 38 z[21] + 21 z[22] + 71 z[23] + 52 z[24] + 89 z[25]
   + 22 z[26] + 23 z[27] + 66 z[28] + 44 z[29] + 14 z[30] + 43 z[31]
   + 23 z[32] + 67 z[33] + 20 z[34] + 58 z[35] + 76 z[36] + 46 z[37]
   + 28 z[38] + 7 z[39] <= 3372
 primal_lower0: 506 u[0] + 379 u[1] + 173 u[2] + 170 u[3] + 831 u[4]
   + 640 u[5] + 232 u[6] + 306 u[7] + 24 u[8] + 761 u[9] + 198 u[10]
   + 634 u[11] + 719 u[12] + 91 u[13] + 983 u[14] + 227 u[15] + 240 u[16]
   + 351 u[17] + 700 u[18] + 645 u[19] + 536 u[20] + 38 u[21] + 191 u[22]
   + 525 u[23] + 879 u[24] + 503 u[25] + 741 u[26] + 286 u[27] + 944 u[28]
   + 694 u[29] + 692 u[30] + 202 u[31] + 422 u[32] + 356 u[33] + 391 u[34]
   + 120 u[35] + 767 u[36] + 987 u[37] + 375 u[38] + 533 u[39] <= 9496
 primal_lower1: 632 u[0] + 185 u[1] + 139 u[2] + 64 u[3] + 637 u[4]
   + 286 u[5] + 590 u[6] + 304 u[7] + 878 u[8] + 239 u[9] + 780 u[10]
   + 792 u[11] + 413 u[12] + 337 u[13] + 29 u[14] + 521 u[15] + 142 u[16]
   + 357 u[17] + 202 u[18] + 579 u[19] + 902 u[20] + 468 u[21] + 893 u[22]
   + 547 u[23] + 533 u[24] + 693 u[25] + 435 u[26] + 516 u[27] + 62 u[28]
   + 972 u[29] + 554 u[30] + 720 u[31] + 844 u[32] + 946 u[33] + 813 u[34]
   + 838 u[35] + 741 u[36] + 809 u[37] + 885 u[38] + 819 u[39] <= 972
 primal_lower2: 603 u[0] + 940 u[1] + 142 u[2] + 75 u[3] + 48 u[4]
   + 177 u[5] + 537 u[6] + 723 u[7] + 89 u[8] + 818 u[9] + 815 u[10]
   + 939 u[11] + 656 u[12] + 892 u[13] + 272 u[14] + 812 u[15] + 153 u[16]
   + 384 u[17] + 109 u[18] + 854 u[19] + 673 u[20] + 991 u[21] + 520 u[22]
   + 934 u[23] + 376 u[24] + 896 u[25] + 22 u[26] + 607 u[27] + 521 u[28]
   + 319 u[29] + 349 u[30] + 11 u[31] + 327 u[32] + 309 u[33] + 392 u[34]
   + 201 u[35] + 520 u[36] + 996 u[37] + 720 u[38] + 502 u[39] <= 3370
 primal_lower3: 51 u[0] + 671 u[1] + 93 u[2] + 350 u[3] + 839 u[4]
   + 261 u[5] + 776 u[6] + 127 u[7] + 488 u[8] + 453 u[9] + 591 u[10]
   + 638 u[11] + 623 u[12] + 255 u[13] + 192 u[14] + 688 u[15] + 688 u[16]
   + 163 u[17] + 268 u[18] + 521 u[19] + 448 u[20] + 611 u[21] + 127 u[22]
   + 834 u[23] + 816 u[24] + 867 u[25] + 493 u[26] + 891 u[27] + 201 u[28]
   + 938 u[29] + 621 u[30] + 295 u[31] + 751 u[32] + 176 u[33] + 271 u[34]
   + 548 u[35] + 375 u[36] + 960 u[37] + 791 u[38] + 98 u[39] <= 9924
 primal_lower4: 239 u[0] + 624 u[1] + 186 u[2] + 823 u[3] + 708 u[4]
   + 829 u[5] + 573 u[6] + 919 u[7] + 13 u[8] + 942 u[9] + 459 u[10]
   + 951 u[11] + 580 u[12] + 560 u[13] + 476 u[14] + 568 u[15] + 805 u[16]
   + 900 u[17] + 49 u[18] + 570 u[19] + 205 u[20] + 675 u[21] + 860 u[22]
   + 970 u[23] + 892 u[24] + 436 u[25] + 706 u[26] + 691 u[27] + 21 u[28]
   + 587 u[29] + 569 u[30] + 271 u[31] + 275 u[32] + 97 u[33] + 12 u[34]
   + 797 u[35] + 204 u[36] + 536 u[37] + 764 u[38] + 658 u[39] <= 14666
 primal_lower5: 246 u[0] + 962 u[1] + 384 u[2] + u[3] + 530 u[4] + 440 u[5]
   + 867 u[6] + 474 u[7] + 787 u[8] + 312 u[9] + 994 u[10] + 313 u[11]
   + 994 u[12] + 274 u[13] + 899 u[14] + 611 u[15] + 347 u[16] + 150 u[17]
   + 231 u[18] + 788 u[19] + 435 u[20] + 878 u[21] + 42 u[22] + 741 u[23]
   + 435 u[24] + 918 u[25] + 88 u[26] + 230 u[27] + 612 u[28] + 693 u[29]
   + 648 u[30] + 498 u[31] + 874 u[32] + 579 u[33] + 242 u[34] + 767 u[35]
   + 426 u[36] + 283 u[37] + 986 u[38] + 317 u[39] <= 994
 primal_lower6: 879 u[0] + 824 u[1] + 618 u[2] + 407 u[3] + 876 u[4]
   + 997 u[5] + 253 u[6] + 63 u[7] + 45 u[8] + 182 u[9] + 643 u[10]
   + 663 u[11] + 860 u[12] + 360 u[13] + 996 u[14] + 256 u[15] + 221 u[16]
   + 156 u[17] + 273 u[18] + 554 u[19] + 821 u[20] + 419 u[21] + 420 u[22]
   + 714 u[23] + 548 u[24] + 868 u[25] + 282 u[26] + 227 u[27] + 373 u[28]
   + 491 u[29] + 433 u[30] + 271 u[31] + 275 u[32] + 553 u[33] + 188 u[34]
   + 5 u[35] + 220 u[36] + 552 u[37] + 12 u[38] + 682 u[39] <= 9240
 primal_lower7: 465 u[0] + 909 u[1] + 555 u[2] + 140 u[3] + 197 u[4]
   + 307 u[5] + 582 u[6] + 333 u[7] + 286 u[8] + 515 u[9] + 957 u[10]
   + 604 u[11] + 173 u[12] + 221 u[13] + 766 u[14] + 94 u[15] + 398 u[16]
   + 337 u[17] + 474 u[18] + 615 u[19] + 622 u[20] + 681 u[21] + 517 u[22]
   + 72 u[23] + 606 u[24] + 825 u[25] + 147 u[26] + 201 u[27] + 279 u[28]
   + 392 u[29] + 787 u[30] + 589 u[31] + 285 u[32] + 838 u[33] + 757 u[34]
   + 130 u[35] + 541 u[36] + 46 u[37] + 21 u[38] + 176 u[39] <= 5813
 primal_lower8: 315 u[0] + 188 u[1] + 110 u[2] + 251 u[3] + 552 u[4]
   + 361 u[5] + 97 u[6] + 355 u[7] + 945 u[8] + 778 u[9] + 143 u[10]
   + 907 u[11] + 616 u[12] + 84 u[13] + 368 u[14] + 820 u[15] + 529 u[16]
   + 288 u[17] + 157 u[18] + 782 u[19] + 985 u[20] + 911 u[21] + 176 u[22]
   + 318 u[23] + 952 u[24] + 272 u[25] + 358 u[26] + 303 u[27] + 361 u[28]
   + 167 u[29] + 341 u[30] + 811 u[31] + 287 u[32] + 669 u[33] + 688 u[34]
   + 33 u[35] + 664 u[36] + 556 u[37] + 312 u[38] + 806 u[39] <= 985
 primal_lower9: 326 u[0] + 671 u[1] + 25 u[2] + 286 u[3] + 835 u[4]
   + 76 u[5] + 364 u[6] + 822 u[7] + 364 u[8] + 405 u[9] + 290 u[10]
   + 126 u[11] + 523 u[12] + 647 u[13] + 947 u[14] + 231 u[15] + 108 u[16]
   + 651 u[17] + 624 u[18] + 545 u[19] + 580 u[20] + 682 u[21] + 115 u[22]
   + 249 u[23] + 699 u[24] + 467 u[25] + 97 u[26] + 538 u[27] + 4 u[28]
   + 370 u[29] + 112 u[30] + 198 u[31] + 106 u[32] + 560 u[33] + 739 u[34]
   + 484 u[35] + 115 u[36] + 495 u[37] + 843 u[38] + 193 u[39] <= 2752
 primal_lower10: 924 u[0] + 797 u[1] + 351 u[2] + 140 u[3] + 433 u[4]
   + 426 u[5] + 426 u[6] + 988 u[7] + 418 u[8] + 675 u[9] + 216 u[10]
   + 932 u[11] + 273 u[12] + 197 u[13] + 377 u[14] + 349 u[15] + 554 u[16]
   + 697 u[17] + 726 u[18] + 263 u[19] + 922 u[20] + 848 u[21] + 937 u[22]
   + 919 u[23] + 193 u[24] + 209 u[25] + 215 u[26] + 568 u[27] + 642 u[28]
   + 904 u[29] + 302 u[30] + 844 u[31] + 944 u[32] + 502 u[33] + 217 u[34]
   + 626 u[35] + 345 u[36] + 581 u[37] + 833 u[38] + 535 u[39] <= 11124
 primal_lower11: 349 u[0] + 121 u[1] + 295 u[2] + 728 u[3] + u[4]
   + 359 u[5] + 402 u[6] + 889 u[7] + 674 u[8] + 783 u[9] + 329 u[10]
   + 920 u[11] + 393 u[12] + 321 u[13] + 138 u[14] + 362 u[15] + 314 u[16]
   + 333 u[17] + 94 u[18] + 283 u[19] + 850 u[20] + 997 u[21] + 505 u[22]
   + 108 u[23] + 802 u[24] + 949 u[25] + 783 u[26] + 981 u[27] + 963 u[28]
   + 756 u[29] + 607 u[30] + 761 u[31] + 41 u[32] + 722 u[33] + 553 u[34]
   + 830 u[35] + 361 u[36] + 602 u[37] + 481 u[38] + 420 u[39] <= 3526
 primal_lower12: 862 u[0] + 682 u[1] + 552 u[2] + 289 u[3] + 994 u[4]
   + 584 u[5] + 491 u[6] + 18 u[7] + 51 u[8] + 128 u[9] + 986 u[10]
   + 761 u[11] + 226 u[12] + 498 u[13] + 643 u[14] + 515 u[15] + 219 u[16]
   + 406 u[17] + 823 u[18] + 884 u[19] + 283 u[20] + 494 u[21] + 482 u[22]
   + 605 u[23] + 531 u[24] + 998 u[25] + 536 u[26] + 790 u[27] + 532 u[28]
   + 45 u[29] + 768 u[30] + 770 u[31] + 186 u[32] + 483 u[33] + 770 u[34]
   + 751 u[35] + 466 u[36] + 739 u[37] + 122 u[38] + 213 u[39] <= 3529
 primal_lower13: 485 u[0] + 313 u[1] + 351 u[2] + 568 u[3] + 49 u[4]
   + 639 u[5] + 650 u[6] + 993 u[7] + 482 u[8] + 431 u[9] + 665 u[10]
   + 736 u[11] + 777 u[12] + 193 u[13] + 202 u[14] + 850 u[15] + 10 u[16]
   + 437 u[17] + 550 u[18] + 323 u[19] + 210 u[20] + 797 u[21] + 497 u[22]
   + 572 u[23] + 474 u[24] + 285 u[25] + 719 u[26] + 485 u[27] + 459 u[28]
   + 84 u[29] + 159 u[30] + u[31] + 953 u[32] + 890 u[33] + 433 u[34]
   + 878 u[35] + 417 u[36] + 634 u[37] + 321 u[38] + 244 u[39] <= 9608
 primal_lower14: 49 u[0] + 965 u[1] + 579 u[2] + 668 u[3] + 861 u[4]
   + 579 u[5] + 670 u[6] + 765 u[7] + 910 u[8] + 851 u[9] + 501 u[10]
   + 348 u[11] + 253 u[12] + 493 u[13] + 974 u[14] + 406 u[15] + 982 u[16]
   + 353 u[17] + 946 u[18] + 151 u[19] + 590 u[20] + 673 u[21] + 173 u[22]
   + 112 u[23] + 766 u[24] + 409 u[25] + 707 u[26] + 225 u[27] + 479 u[28]
   + 152 u[29] + 443 u[30] + 157 u[31] + 717 u[32] + 70 u[33] + 13 u[34]
   + 706 u[35] + 813 u[36] + 86 u[37] + 53 u[38] + 640 u[39] <= 3381
 primal_lower15: 95 u[0] + 568 u[1] + 10 u[2] + 231 u[3] + 916 u[4]
   + 173 u[5] + 45 u[6] + 519 u[7] + 133 u[8] + 678 u[9] + 843 u[10]
   + 207 u[11] + 404 u[12] + 896 u[13] + 388 u[14] + 560 u[15] + 245 u[16]
   + 76 u[17] + 289 u[18] + 738 u[19] + 61 u[20] + 331 u[21] + 828 u[22]
   + 970 u[23] + 188 u[24] + 148 u[25] + 634 u[26] + 483 u[27] + 653 u[28]
   + 971 u[29] + 921 u[30] + 327 u[31] + 651 u[32] + 313 u[33] + 644 u[34]
   + 973 u[35] + 52 u[36] + 968 u[37] + 876 u[38] + 570 u[39] <= 9788
 primal_lower16: 879 u[0] + 784 u[1] + 914 u[2] + 7 u[3] + 188 u[4]
   + 429 u[5] + 21 u[6] + 871 u[7] + 85 u[8] + 814 u[9] + 587 u[10]
   + 511 u[11] + 60 u[12] + 856 u[13] + 932 u[14] + 816 u[15] + 861 u[16]
   + 300 u[17] + 385 u[18] + 498 u[19] + 765 u[20] + 795 u[21] + 452 u[22]
   + 242 u[23] + 28 u[24] + 844 u[25] + 450 u[26] + 307 u[27] + 765 u[28]
   + 643 u[29] + 633 u[30] + 999 u[31] + 363 u[32] + 337 u[33] + 316 u[34]
   + 965 u[35] + 732 u[36] + 648 u[37] + 212 u[38] + 18 u[39] <= 14208
 primal_lower17: 478 u[0] + 818 u[1] + 736 u[2] + 545 u[3] + 178 u[4]
   + 992 u[5] + 987 u[6] + 330 u[7] + 59 u[8] + 864 u[9] + 890 u[10]
   + 561 u[11] + 130 u[12] + 274 u[13] + 83 u[14] + 323 u[15] + 971 u[16]
   + 846 u[17] + 159 u[18] + 116 u[19] + 995 u[20] + 254 u[21] + 754 u[22]
   + 789 u[23] + 3 u[24] + 502 u[25] + 880 u[26] + 166 u[27] + 836 u[28]
   + 93 u[29] + 912 u[30] + 498 u[31] + 570 u[32] + 163 u[33] + 802 u[34]
   + 439 u[35] + 962 u[36] + 251 u[37] + 762 u[38] + 261 u[39] <= 10616
 primal_lower18: 181 u[0] + 569 u[1] + 135 u[2] + 896 u[3] + 633 u[4]
   + 991 u[5] + 762 u[6] + 825 u[7] + 698 u[8] + 695 u[9] + 185 u[10]
   + 56 u[11] + 937 u[12] + 57 u[13] + 938 u[14] + 450 u[15] + 930 u[16]
   + 269 u[17] + 230 u[18] + 507 u[19] + 394 u[20] + 965 u[21] + 113 u[22]
   + 84 u[23] + 34 u[24] + 973 u[25] + 327 u[26] + 597 u[27] + 347 u[28]
   + 844 u[29] + 23 u[30] + 9 u[31] + 953 u[32] + 898 u[33] + 457 u[34]
   + 734 u[35] + 393 u[36] + 18 u[37] + 641 u[38] + 876 u[39] <= 10312
 primal_lower19: 360 u[0] + 924 u[1] + 162 u[2] + 667 u[3] + 60 u[4]
   + 162 u[5] + 61 u[6] + 572 u[7] + 893 u[8] + 466 u[9] + 644 u[10]
   + 459 u[11] + 612 u[12] + 468 u[13] + 69 u[14] + 61 u[15] + 773 u[16]
   + 832 u[17] + 553 u[18] + 734 u[19] + 965 u[20] + 720 u[21] + 260 u[22]
   + 255 u[23] + 277 u[24] + 528 u[25] + 146 u[26] + 688 u[27] + 214 u[28]
   + 903 u[29] + 194 u[30] + 36 u[31] + 340 u[32] + 309 u[33] + 548 u[34]
   + 305 u[35] + 700 u[36] + 669 u[37] + 148 u[38] + 231 u[39] <= 5989
 primal_lower20: 895 u[0] + 563 u[1] + 177 u[2] + 826 u[3] + 427 u[4]
   + 457 u[5] + 36 u[6] + 35 u[7] + 140 u[8] + 881 u[9] + 571 u[10]
   + 450 u[11] + 459 u[12] + 947 u[13] + 364 u[14] + 668 u[15] + 244 u[16]
   + 783 u[17] + 560 u[18] + 709 u[19] + 836 u[20] + 479 u[21] + 435 u[22]
   + 166 u[23] + 916 u[24] + 183 u[25] + 497 u[26] + 407 u[27] + 685 u[28]
   + 806 u[29] + 241 u[30] + 747 u[31] + 675 u[32] + 404 u[33] + 907 u[34]
   + 56 u[35] + 851 u[36] + 20 u[37] + 11 u[38] + 78 u[39] <= 6530
 primal_lower21: 623 u[0] + 155 u[1] + 193 u[2] + 122 u[3] + 419 u[4]
   + 585 u[5] + 348 u[6] + 451 u[7] + 332 u[8] + 265 u[9] + 35 u[10]
   + 274 u[11] + 811 u[12] + 107 u[13] + 700 u[14] + 716 u[15] + 580 u[16]
   + 511 u[17] + 600 u[18] + 29 u[19] + 716 u[20] + 487 u[21] + 171 u[22]
   + 622 u[23] + 556 u[24] + 271 u[25] + 297 u[26] + 511 u[27] + 269 u[28]
   + 422 u[29] + 809 u[30] + 955 u[31] + 59 u[32] + 804 u[33] + 179 u[34]
   + 824 u[35] + 995 u[36] + 844 u[37] + 315 u[38] + 910 u[39] <= 12581
 primal_lower22: 311 u[0] + 235 u[1] + 473 u[2] + 850 u[3] + 739 u[4]
   + 345 u[5] + 708 u[6] + 139 u[7] + 948 u[8] + 761 u[9] + 723 u[10]
   + 514 u[11] + 259 u[12] + 547 u[13] + 620 u[14] + 772 u[15] + 620 u[16]
   + 519 u[17] + 496 u[18] + 245 u[19] + 92 u[20] + 695 u[21] + 323 u[22]
   + 862 u[23] + 924 u[24] + 863 u[25] + 137 u[26] + 575 u[27] + 885 u[28]
   + 902 u[29] + 817 u[30] + 643 u[31] + 243 u[32] + 596 u[33] + 579 u[34]
   + 880 u[35] + 115 u[36] + 364 u[37] + 691 u[38] + 182 u[39] <= 3698
 primal_lower23: 707 u[0] + 463 u[1] + 77 u[2] + 238 u[3] + 319 u[4]
   + 333 u[5] + 80 u[6] + 199 u[7] + 600 u[8] + 549 u[9] + 303 u[10]
   + 294 u[11] + 655 u[12] + 479 u[13] + 184 u[14] + 488 u[15] + 24 u[16]
   + 299 u[17] + 276 u[18] + 825 u[19] + 896 u[20] + 171 u[21] + 71 u[22]
   + 586 u[23] + 736 u[24] + 59 u[25] + 565 u[26] + 731 u[27] + 297 u[28]
   + 842 u[29] + 29 u[30] + 663 u[31] + 39 u[32] + 520 u[33] + 703 u[34]
   + 916 u[35] + 15 u[36] + 408 u[37] + 271 u[38] + 746 u[39] <= 8328
 primal_lower24: 112 u[0] + 300 u[1] + 450 u[2] + 435 u[3] + 404 u[4]
   + 234 u[5] + 173 u[6] + 684 u[7] + 533 u[8] + 522 u[9] + 276 u[10]
   + 915 u[11] + 348 u[12] + 500 u[13] + 413 u[14] + 845 u[15] + 381 u[16]
   + 248 u[17] + u[18] + 798 u[19] + 141 u[20] + 928 u[21] + 532 u[22]
   + 847 u[23] + 877 u[24] + 680 u[25] + 330 u[26] + 176 u[27] + 422 u[28]
   + 919 u[29] + 634 u[30] + 892 u[31] + 948 u[32] + 957 u[33] + 220 u[34]
   + 745 u[35] + 260 u[36] + 581 u[37] + 412 u[38] + 575 u[39] <= 6882
 primal_lower25: 196 u[0] + 584 u[1] + 238 u[2] + 551 u[3] + 560 u[4]
   + 422 u[5] + 313 u[6] + 1000 u[7] + 9 u[8] + 502 u[9] + 208 u[10]
   + 911 u[11] + 568 u[12] + 896 u[13] + u[14] + 617 u[15] + 681 u[16]
   + 380 u[17] + 77 u[18] + 26 u[19] + 281 u[20] + 900 u[21] + 800 u[22]
   + 187 u[23] + 793 u[24] + 84 u[25] + 158 u[26] + 260 u[27] + 426 u[28]
   + 259 u[29] + 606 u[30] + 16 u[31] + 776 u[32] + 281 u[33] + 472 u[34]
   + 789 u[35] + 504 u[36] + 697 u[37] + 96 u[38] + 563 u[39] <= 5896
 primal_lower26: 864 u[0] + 537 u[1] + 107 u[2] + 760 u[3] + 573 u[4]
   + 238 u[5] + 238 u[6] + 312 u[7] + 814 u[8] + 639 u[9] + 508 u[10]
   + 696 u[11] + 629 u[12] + 513 u[13] + 613 u[14] + 209 u[15] + 558 u[16]
   + 141 u[17] + 842 u[18] + 539 u[19] + 630 u[20] + 236 u[21] + 989 u[22]
   + 667 u[23] + 133 u[24] + 517 u[25] + 787 u[26] + 916 u[27] + 78 u[28]
   + 572 u[29] + 250 u[30] + 720 u[31] + 628 u[32] + 738 u[33] + 429 u[34]
   + 678 u[35] + 325 u[36] + 257 u[37] + 957 u[38] + 859 u[39] <= 989
 primal_lower27: 140 u[0] + 248 u[1] + 558 u[2] + 655 u[3] + 600 u[4]
   + 14 u[5] + 945 u[6] + 592 u[7] + 145 u[8] + 742 u[9] + 376 u[10]
   + 671 u[11] + 232 u[12] + 440 u[13] + 473 u[14] + 729 u[15] + 721 u[16]
   + 180 u[17] + 701 u[18] + 762 u[19] + 777 u[20] + 604 u[21] + 800 u[22]
   + 971 u[23] + 121 u[24] + 548 u[25] + 6 u[26] + 972 u[27] + 506 u[28]
   + 283 u[29] + 422 u[30] + 592 u[31] + 32 u[32] + 913 u[33] + 32 u[34]
   + 829 u[35] + 272 u[36] + 913 u[37] + 384 u[38] + 707 u[39] <= 10304
 primal_lower28: 473 u[0] + 658 u[1] + 492 u[2] + 745 u[3] + 230 u[4]
   + 583 u[5] + 959 u[6] + 161 u[7] + 87 u[8] + 592 u[9] + 749 u[10]
   + 41 u[11] + 598 u[12] + 210 u[13] + 974 u[14] + 834 u[15] + 655 u[16]
   + 686 u[17] + 403 u[18] + 900 u[19] + 87 u[20] + 317 u[21] + 566 u[22]
   + 676 u[23] + 910 u[24] + 646 u[25] + 268 u[26] + 653 u[27] + 967 u[28]
   + 61 u[29] + 835 u[30] + 833 u[31] + 765 u[32] + 267 u[33] + 94 u[34]
   + 295 u[35] + 894 u[36] + 602 u[37] + 614 u[38] + 12 u[39] <= 10696
 primal_lower29: 342 u[0] + 706 u[1] + 360 u[2] + 345 u[3] + 962 u[4]
   + 744 u[5] + 171 u[6] + 690 u[7] + 819 u[8] + 1000 u[9] + 858 u[10]
   + 129 u[11] + 482 u[12] + 530 u[13] + 555 u[14] + 227 u[15] + 931 u[16]
   + 798 u[17] + 295 u[18] + 196 u[19] + 411 u[20] + 246 u[21] + 410 u[22]
   + 781 u[23] + 163 u[24] + 94 u[25] + 552 u[26] + 278 u[27] + 132 u[28]
   + 101 u[29] + 128 u[30] + 794 u[31] + 658 u[32] + 571 u[33] + 802 u[34]
   + 991 u[35] + 178 u[36] + 835 u[37] + 18 u[38] + 677 u[39] <= 13306
 primal_lower30: 758 u[0] + 154 u[1] + 720 u[2] + 857 u[3] + 818 u[4]
   + 688 u[5] + 747 u[6] + 914 u[7] + 531 u[8] + 816 u[9] + 482 u[10]
   + 921 u[11] + 130 u[12] + 890 u[13] + 139 u[14] + 939 u[15] + 555 u[16]
   + 502 u[17] + 111 u[18] + 836 u[19] + 659 u[20] + 862 u[21] + 370 u[22]
   + 477 u[23] + 163 u[24] + 654 u[25] + 624 u[26] + 598 u[27] + 524 u[28]
   + 333 u[29] + 40 u[30] + 842 u[31] + 330 u[32] + 131 u[33] + 490 u[34]
   + 247 u[35] + 666 u[36] + 123 u[37] + 882 u[38] + 309 u[39] <= 10916
 primal_lower31: 222 u[0] + 418 u[1] + 656 u[2] + 633 u[3] + 578 u[4]
   + 640 u[5] + 611 u[6] + 226 u[7] + 411 u[8] + 152 u[9] + 690 u[10]
   + 81 u[11] + 322 u[12] + 786 u[13] + 115 u[14] + 707 u[15] + 427 u[16]
   + 78 u[17] + 847 u[18] + 428 u[19] + 547 u[20] + 190 u[21] + 578 u[22]
   + 261 u[23] + 547 u[24] + 422 u[25] + 664 u[26] + 670 u[27] + 188 u[28]
   + 925 u[29] + 800 u[30] + 2 u[31] + 498 u[32] + 403 u[33] + 426 u[34]
   + 847 u[35] + 114 u[36] + 899 u[37] + 562 u[38] + 285 u[39] <= 925
 primal_lower32: 34 u[0] + 843 u[1] + 525 u[2] + 402 u[3] + 295 u[4]
   + 376 u[5] + 936 u[6] + 322 u[7] + 840 u[8] + 665 u[9] + 518 u[10]
   + 962 u[11] + 39 u[12] + 427 u[13] + 703 u[14] + 211 u[15] + 552 u[16]
   + 39 u[17] + 308 u[18] + 101 u[19] + 712 u[20] + 398 u[21] + 439 u[22]
   + 61 u[23] + 775 u[24] + 759 u[25] + 69 u[26] + 350 u[27] + 400 u[28]
   + 550 u[29] + 924 u[30] + 298 u[31] + 46 u[32] + 420 u[33] + 63 u[34]
   + 648 u[35] + 351 u[36] + 83 u[37] + 815 u[38] + 629 u[39] <= 2981
 primal_lower33: 499 u[0] + 884 u[1] + 558 u[2] + 339 u[3] + 960 u[4]
   + 993 u[5] + 761 u[6] + 643 u[7] + 601 u[8] + 194 u[9] + 423 u[10]
   + 459 u[11] + 880 u[12] + 172 u[13] + 56 u[14] + 508 u[15] + 201 u[16]
   + 760 u[17] + 501 u[18] + 438 u[19] + 321 u[20] + 687 u[21] + 448 u[22]
   + 742 u[23] + 408 u[24] + 720 u[25] + 902 u[26] + 967 u[27] + 321 u[28]
   + 703 u[29] + 253 u[30] + 699 u[31] + 231 u[32] + 629 u[33] + 568 u[34]
   + 873 u[35] + 312 u[36] + 604 u[37] + 816 u[38] + 358 u[39] <= 7464
 primal_lower34: 50 u[0] + 787 u[1] + 357 u[2] + 146 u[3] + 815 u[4]
   + 256 u[5] + 648 u[6] + 482 u[7] + 408 u[8] + 41 u[9] + 462 u[10]
   + 210 u[11] + 319 u[12] + 179 u[13] + 31 u[14] + 787 u[15] + 40 u[16]
   + 687 u[17] + 460 u[18] + 653 u[19] + 432 u[20] + 254 u[21] + 215 u[22]
   + 277 u[23] + 719 u[24] + 495 u[25] + 837 u[26] + 918 u[27] + 152 u[28]
   + 390 u[29] + 28 u[30] + 746 u[31] + 158 u[32] + 508 u[33] + 943 u[34]
   + 680 u[35] + 415 u[36] + 747 u[37] + 551 u[38] + 13 u[39] <= 5765
 primal_lower35: 164 u[0] + 469 u[1] + 887 u[2] + 308 u[3] + 257 u[4]
   + 458 u[5] + 874 u[6] + 556 u[7] + 482 u[8] + 315 u[9] + 1000 u[10]
   + 996 u[11] + 425 u[12] + 101 u[13] + 913 u[14] + 581 u[15] + 946 u[16]
   + 89 u[17] + 870 u[18] + 967 u[19] + 690 u[20] + 768 u[21] + 777 u[22]
   + 855 u[23] + 161 u[24] + 937 u[25] + 911 u[26] + 632 u[27] + 754 u[28]
   + 312 u[29] + 750 u[30] + 668 u[31] + 56 u[32] + 758 u[33] + 985 u[34]
   + 234 u[35] + 97 u[36] + 717 u[37] + 377 u[38] + 975 u[39] <= 8024
 primal_lower36: 668 u[0] + 613 u[1] + 447 u[2] + 684 u[3] + 33 u[4]
   + 146 u[5] + 418 u[6] + 204 u[7] + 18 u[8] + 123 u[9] + 736 u[10]
   + 556 u[11] + 225 u[12] + 997 u[13] + 521 u[14] + 437 u[15] + 90 u[16]
   + 545 u[17] + 22 u[18] + 767 u[19] + 986 u[20] + 232 u[21] + 297 u[22]
   + 527 u[23] + 177 u[24] + 817 u[25] + 575 u[26] + 984 u[27] + 594 u[28]
   + 456 u[29] + 798 u[30] + 924 u[31] + 8 u[32] + 470 u[33] + 633 u[34]
   + 218 u[35] + 145 u[36] + 677 u[37] + 401 u[38] + 703 u[39] <= 3145
 primal_lower37: 203 u[0] + 604 u[1] + 742 u[2] + 283 u[3] + 800 u[4]
   + 417 u[5] + 481 u[6] + 899 u[7] + 561 u[8] + 58 u[9] + 887 u[10]
   + 851 u[11] + 792 u[12] + 804 u[13] + 672 u[14] + 508 u[15] + 129 u[16]
   + 264 u[17] + 397 u[18] + 166 u[19] + 937 u[20] + 31 u[21] + 864 u[22]
   + 646 u[23] + 304 u[24] + 832 u[25] + 390 u[26] + 159 u[27] + 73 u[28]
   + 815 u[29] + 213 u[30] + 907 u[31] + 167 u[32] + 573 u[33] + 808 u[34]
   + 841 u[35] + 352 u[36] + 68 u[37] + 960 u[38] + 926 u[39] <= 3564
 primal_lower38: 45 u[0] + 289 u[1] + 327 u[2] + 176 u[3] + 785 u[4]
   + 951 u[5] + 722 u[6] + 641 u[7] + 298 u[8] + 199 u[9] + 209 u[10]
   + 440 u[11] + 113 u[12] + 105 u[13] + 162 u[14] + 34 u[15] + 714 u[16]
   + 629 u[17] + 230 u[18] + 427 u[19] + 874 u[20] + 893 u[21] + 337 u[22]
   + 204 u[23] + 386 u[24] + 109 u[25] + 655 u[26] + 565 u[27] + 27 u[28]
   + 220 u[29] + 927 u[30] + 609 u[31] + 9 u[32] + 714 u[33] + 945 u[34]
   + 942 u[35] + 841 u[36] + 714 u[37] + 217 u[38] + 108 u[39] <= 951
 primal_lower39: 991 u[0] + 763 u[1] + 793 u[2] + 82 u[3] + 3 u[4]
   + 889 u[5] + 668 u[6] + 323 u[7] + 228 u[8] + u[9] + 19 u[10]
   + 690 u[11] + 899 u[12] + 139 u[13] + 948 u[14] + 500 u[15] + 132 u[16]
   + 319 u[17] + 632 u[18] + 877 u[19] + 68 u[20] + 263 u[21] + 699 u[22]
   + 294 u[23] + 980 u[24] + 695 u[25] + 553 u[26] + 223 u[27] + 813 u[28]
   + 734 u[29] + 993 u[30] + 971 u[31] + 267 u[32] + 244 u[33] + 323 u[34]
   + 80 u[35] + 675 u[36] + 532 u[37] + 851 u[38] + 574 u[39] <= 10364
 primal_lower40: 705 u[0] + 253 u[1] + 987 u[2] + 516 u[3] + 629 u[4]
   + 243 u[5] + 502 u[6] + 989 u[7] + 686 u[8] + 987 u[9] + 853 u[10]
   + 468 u[11] + 365 u[12] + 277 u[13] + 366 u[14] + 182 u[15] + 110 u[16]
   + 577 u[17] + 666 u[18] + 87 u[19] + 14 u[20] + 817 u[21] + 501 u[22]
   + 128 u[23] + 526 u[24] + 457 u[25] + 147 u[26] + 721 u[27] + 175 u[28]
   + 64 u[29] + 475 u[30] + 909 u[31] + 901 u[32] + 814 u[33] + 501 u[34]
   + 242 u[35] + 501 u[36] + 206 u[37] + 637 u[38] + 384 u[39] <= 3261
 primal_lower41: 827 u[0] + 63 u[1] + 357 u[2] + 990 u[3] + 415 u[4]
   + 845 u[5] + 112 u[6] + 511 u[7] + 536 u[8] + 357 u[9] + 639 u[10]
   + 878 u[11] + 543 u[12] + 47 u[13] + 416 u[14] + 32 u[15] + 928 u[16]
   + 931 u[17] + 204 u[18] + 577 u[19] + 976 u[20] + 835 u[21] + 519 u[22]
   + 34 u[23] + 704 u[24] + 683 u[25] + 85 u[26] + 683 u[27] + 641 u[28]
   + 818 u[29] + 925 u[30] + 263 u[31] + 495 u[32] + 480 u[33] + 215 u[34]
   + 892 u[35] + 31 u[36] + 672 u[37] + 623 u[38] + 234 u[39] <= 14010
 primal_lower42: 547 u[0] + 767 u[1] + 77 u[2] + 78 u[3] + 463 u[4]
   + 525 u[5] + 776 u[6] + 119 u[7] + 24 u[8] + 965 u[9] + 911 u[10]
   + 670 u[11] + 343 u[12] + 935 u[13] + 616 u[14] + 48 u[15] + 704 u[16]
   + 131 u[17] + 140 u[18] + 105 u[19] + 368 u[20] + 851 u[21] + 679 u[22]
   + 626 u[23] + 872 u[24] + 747 u[25] + 173 u[26] + 171 u[27] + 753 u[28]
   + 234 u[29] + 597 u[30] + 191 u[31] + 647 u[32] + 728 u[33] + 207 u[34]
   + 316 u[35] + 623 u[36] + 704 u[37] + 303 u[38] + 658 u[39] <= 3232
 primal_lower43: 797 u[0] + 494 u[1] + 848 u[2] + 965 u[3] + 522 u[4]
   + 67 u[5] + 91 u[6] + 445 u[7] + 83 u[8] + 44 u[9] + 385 u[10]
   + 237 u[11] + 178 u[12] + 566 u[13] + 858 u[14] + 838 u[15] + 395 u[16]
   + 890 u[17] + 503 u[18] + 624 u[19] + 803 u[20] + 113 u[21] + 218 u[22]
   + 224 u[23] + 882 u[24] + 970 u[25] + 464 u[26] + 321 u[27] + 91 u[28]
   + 361 u[29] + 607 u[30] + 245 u[31] + 345 u[32] + 183 u[33] + 474 u[34]
   + 27 u[35] + 546 u[36] + 478 u[37] + 394 u[38] + 248 u[39] <= 2970
 primal_lower44: 659 u[0] + 220 u[1] + 318 u[2] + 979 u[3] + 184 u[4]
   + 817 u[5] + 841 u[6] + 179 u[7] + 17 u[8] + 146 u[9] + 871 u[10]
   + 91 u[11] + 16 u[12] + 508 u[13] + 184 u[14] + 436 u[15] + 345 u[16]
   + 144 u[17] + 501 u[18] + 190 u[19] + 913 u[20] + 751 u[21] + 408 u[22]
   + 214 u[23] + 656 u[24] + 576 u[25] + 758 u[26] + 191 u[27] + 249 u[28]
   + 871 u[29] + 373 u[30] + 475 u[31] + 399 u[32] + 829 u[33] + 552 u[34]
   + 937 u[35] + 936 u[36] + 420 u[37] + 104 u[38] + 70 u[39] <= 6109
 primal_lower45: 34 u[0] + 22 u[1] + 780 u[2] + 597 u[3] + 702 u[4]
   + 308 u[5] + 823 u[6] + 494 u[7] + 511 u[8] + 924 u[9] + 782 u[10]
   + 517 u[11] + 966 u[12] + 22 u[13] + 695 u[14] + 943 u[15] + 215 u[16]
   + 74 u[17] + 179 u[18] + 48 u[19] + 791 u[20] + 378 u[21] + 934 u[22]
   + 601 u[23] + 271 u[24] + 794 u[25] + 492 u[26] + 242 u[27] + 984 u[28]
   + 737 u[29] + 572 u[30] + 798 u[31] + 518 u[32] + 551 u[33] + 686 u[34]
   + 867 u[35] + 38 u[36] + 223 u[37] + 646 u[38] + 865 u[39] <= 10812
 primal_lower46: 17 u[0] + 922 u[1] + 532 u[2] + 9 u[3] + 326 u[4]
   + 583 u[5] + 743 u[6] + 225 u[7] + 295 u[8] + 352 u[9] + 597 u[10]
   + 649 u[11] + 454 u[12] + 66 u[13] + 670 u[14] + 74 u[15] + 231 u[16]
   + 894 u[17] + 819 u[18] + 508 u[19] + 87 u[20] + 181 u[21] + 598 u[22]
   + 372 u[23] + 398 u[24] + 758 u[25] + 76 u[26] + 85 u[27] + 391 u[28]
   + 397 u[29] + 107 u[30] + 265 u[31] + 621 u[32] + 219 u[33] + 406 u[34]
   + 367 u[35] + 550 u[36] + 922 u[37] + 382 u[38] + 964 u[39] <= 2852
 primal_lower47: 18 u[0] + 582 u[1] + 524 u[2] + 893 u[3] + 894 u[4]
   + 836 u[5] + 775 u[6] + 182 u[7] + 279 u[8] + 700 u[9] + 198 u[10]
   + 613 u[11] + 606 u[12] + 902 u[13] + 967 u[14] + 391 u[15] + 127 u[16]
   + 146 u[17] + 507 u[18] + 672 u[19] + 903 u[20] + 938 u[21] + 774 u[22]
   + 121 u[23] + 487 u[24] + 202 u[25] + 164 u[26] + 210 u[27] + 632 u[28]
   + 81 u[29] + 36 u[30] + 158 u[31] + 318 u[32] + 255 u[33] + 750 u[34]
   + 667 u[35] + 734 u[36] + 887 u[37] + 614 u[38] + 385 u[39] <= 3354
 primal_lower48: 648 u[0] + 913 u[1] + 875 u[2] + 1000 u[3] + 413 u[4]
   + 606 u[5] + 710 u[6] + 648 u[7] + 462 u[8] + 503 u[9] + 388 u[10]
   + 16 u[11] + 69 u[12] + 729 u[13] + 653 u[14] + 905 u[15] + 486 u[16]
   + 733 u[17] + 562 u[18] + 563 u[19] + 774 u[20] + 612 u[21] + 37 u[22]
   + 139 u[23] + 213 u[24] + 45 u[25] + 955 u[26] + 948 u[27] + 790 u[28]
   + 732 u[29] + 218 u[30] + 392 u[31] + 996 u[32] + 450 u[33] + 613 u[34]
   + 822 u[35] + 645 u[36] + 25 u[37] + 733 u[38] + 355 u[39] <= 7458
 primal_lower49: 237 u[0] + 30 u[1] + 488 u[2] + 125 u[3] + 186 u[4]
   + 875 u[5] + 595 u[6] + 845 u[7] + 307 u[8] + 588 u[9] + 921 u[10]
   + 837 u[11] + 546 u[12] + 478 u[13] + 298 u[14] + 238 u[15] + 443 u[16]
   + 970 u[17] + 887 u[18] + 864 u[19] + 491 u[20] + 809 u[21] + 130 u[22]
   + 312 u[23] + 434 u[24] + 690 u[25] + 368 u[26] + 433 u[27] + 491 u[28]
   + 649 u[29] + 903 u[30] + 861 u[31] + 585 u[32] + 71 u[33] + 314 u[34]
   + 595 u[35] + 274 u[36] + 382 u[37] + 682 u[38] + 776 u[39] <= 7002
 primal_lower50: 340 u[0] + 213 u[1] + 767 u[2] + 308 u[3] + 665 u[4]
   + 674 u[5] + 498 u[6] + 580 u[7] + 826 u[8] + 219 u[9] + 784 u[10]
   + 548 u[11] + 513 u[12] + 5 u[13] + 457 u[14] + 501 u[15] + 682 u[16]
   + 769 u[17] + 166 u[18] + 359 u[19] + 610 u[20] + 184 u[21] + 129 u[22]
   + 7 u[23] + 433 u[24] + 793 u[25] + 447 u[26] + 96 u[27] + 442 u[28]
   + 432 u[29] + 470 u[30] + 700 u[31] + 80 u[32] + 750 u[33] + 417 u[34]
   + 842 u[35] + 665 u[36] + 957 u[37] + 137 u[38] + 23 u[39] <= 957
 primal_lower51: 664 u[0] + 137 u[1] + 763 u[2] + 248 u[3] + 21 u[4]
   + 6 u[5] + 198 u[6] + 640 u[7] + 62 u[8] + 375 u[9] + 252 u[10]
   + 816 u[11] + 669 u[12] + 561 u[13] + 269 u[14] + 945 u[15] + 494 u[16]
   + 853 u[17] + 818 u[18] + 747 u[19] + 958 u[20] + 796 u[21] + 853 u[22]
   + 483 u[23] + 365 u[24] + 949 u[25] + 515 u[26] + 260 u[27] + 350 u[28]
   + 668 u[29] + 146 u[30] + 264 u[31] + 868 u[32] + 18 u[33] + 757 u[34]
   + 838 u[35] + 301 u[36] + 105 u[37] + 805 u[38] + 499 u[39] <= 3389
 primal_lower52: 260 u[0] + 125 u[1] + 223 u[2] + 124 u[3] + 433 u[4]
   + 914 u[5] + 610 u[6] + 804 u[7] + 274 u[8] + 915 u[9] + 32 u[10]
   + 932 u[11] + 337 u[12] + 965 u[13] + 641 u[14] + 757 u[15] + 266 u[16]
   + 857 u[17] + 574 u[18] + 711 u[19] + 34 u[20] + 512 u[21] + 457 u[22]
   + 775 u[23] + 929 u[24] + 281 u[25] + 695 u[26] + 992 u[27] + 874 u[28]
   + 592 u[29] + 134 u[30] + 620 u[31] + 824 u[32] + 590 u[33] + 585 u[34]
   + 386 u[35] + 673 u[36] + 997 u[37] + 713 u[38] + 95 u[39] <= 3752
 primal_lower53: 780 u[0] + 152 u[1] + 214 u[2] + 983 u[3] + 192 u[4]
   + 974 u[5] + 601 u[6] + 840 u[7] + 625 u[8] + 894 u[9] + 920 u[10]
   + 167 u[11] + 960 u[12] + 752 u[13] + 753 u[14] + 25 u[15] + 337 u[16]
   + 916 u[17] + 541 u[18] + 250 u[19] + 769 u[20] + 652 u[21] + 80 u[22]
   + 635 u[23] + 489 u[24] + 860 u[25] + 534 u[26] + 948 u[27] + 42 u[28]
   + 771 u[29] + 78 u[30] + 472 u[31] + 688 u[32] + 209 u[33] + 864 u[34]
   + 389 u[35] + 664 u[36] + 865 u[37] + 264 u[38] + 451 u[39] <= 7533
 primal_lower54: 501 u[0] + 894 u[1] + 80 u[2] + 197 u[3] + 394 u[4]
   + 403 u[5] + 611 u[6] + 485 u[7] + 243 u[8] + 852 u[9] + 873 u[10]
   + 117 u[11] + 778 u[12] + 614 u[13] + 122 u[14] + 742 u[15] + 251 u[16]
   + 66 u[17] + 599 u[18] + 472 u[19] + 707 u[20] + 697 u[21] + 10 u[22]
   + 720 u[23] + 50 u[24] + 890 u[25] + 136 u[26] + 41 u[27] + 427 u[28]
   + 337 u[29] + 943 u[30] + 565 u[31] + 801 u[32] + 431 u[33] + 578 u[34]
   + 163 u[35] + 698 u[36] + 814 u[37] + 210 u[38] + 392 u[39] <= 6301
 primal_lower55: 480 u[0] + 129 u[1] + 931 u[2] + 120 u[3] + 901 u[4]
   + 158 u[5] + 62 u[6] + 504 u[7] + 878 u[8] + 999 u[9] + 996 u[10]
   + 920 u[11] + 485 u[12] + 841 u[13] + 173 u[14] + 41 u[15] + 806 u[16]
   + 661 u[17] + 186 u[18] + 915 u[19] + 598 u[20] + 412 u[21] + 773 u[22]
   + 131 u[23] + 941 u[24] + 357 u[25] + 531 u[26] + 60 u[27] + 798 u[28]
   + 140 u[29] + 666 u[30] + 568 u[31] + 820 u[32] + 266 u[33] + 125 u[34]
   + 358 u[35] + 893 u[36] + 729 u[37] + 405 u[38] + 851 u[39] <= 3601
 primal_lower56: 218 u[0] + 19 u[1] + 789 u[2] + 858 u[3] + 239 u[4]
   + 208 u[5] + 296 u[6] + 194 u[7] + 992 u[8] + 865 u[9] + 718 u[10]
   + 42 u[11] + 399 u[12] + 547 u[13] + 239 u[14] + 627 u[15] + 608 u[16]
   + 15 u[17] + 76 u[18] + 901 u[19] + 8 u[20] + 654 u[21] + 951 u[22]
   + 93 u[23] + 7 u[24] + 423 u[25] + 589 u[26] + 694 u[27] + 568 u[28]
   + 518 u[29] + 100 u[30] + 882 u[31] + 126 u[32] + 764 u[33] + 399 u[34]
   + 472 u[35] + 719 u[36] + 347 u[37] + 703 u[38] + 653 u[39] <= 3086
 primal_lower57: 892 u[0] + 413 u[1] + 375 u[2] + 236 u[3] + 457 u[4]
   + 562 u[5] + 82 u[6] + 12 u[7] + 970 u[8] + 219 u[9] + 496 u[10]
   + 316 u[11] + 305 u[12] + 397 u[13] + 105 u[14] + 93 u[15] + 42 u[16]
   + 777 u[17] + 86 u[18] + 711 u[19] + 650 u[20] + 8 u[21] + 905 u[22]
   + 519 u[23] + 289 u[24] + u[25] + 983 u[26] + 1000 u[27] + 154 u[28]
   + 576 u[29] + 494 u[30] + 956 u[31] + 264 u[32] + 166 u[33] + 881 u[34]
   + 874 u[35] + 489 u[36] + 773 u[37] + 569 u[38] + 375 u[39] <= 6157
 primal_lower58: 102 u[0] + 738 u[1] + 776 u[2] + 81 u[3] + 106 u[4]
   + 992 u[5] + 115 u[6] + 338 u[7] + 555 u[8] + 416 u[9] + 242 u[10]
   + 385 u[11] + 642 u[12] + 210 u[13] + 563 u[14] + 91 u[15] + 803 u[16]
   + 542 u[17] + 143 u[18] + 180 u[19] + 355 u[20] + 278 u[21] + 386 u[22]
   + 61 u[23] + 923 u[24] + 366 u[25] + 480 u[26] + 878 u[27] + 628 u[28]
   + 637 u[29] + 496 u[30] + 858 u[31] + 26 u[32] + 203 u[33] + 362 u[34]
   + 407 u[35] + 314 u[36] + 827 u[37] + 610 u[38] + 661 u[39] <= 5925
 primal_lower59: 29 u[0] + 766 u[1] + 136 u[2] + 213 u[3] + 434 u[4]
   + 371 u[5] + 499 u[6] + 989 u[7] + 643 u[8] + 660 u[9] + u[10]
   + 949 u[11] + 466 u[12] + 614 u[13] + 906 u[14] + 942 u[15] + 963 u[16]
   + 618 u[17] + 551 u[18] + 656 u[19] + 563 u[20] + 89 u[21] + 666 u[22]
   + 80 u[23] + 650 u[24] + 866 u[25] + 824 u[26] + 297 u[27] + 315 u[28]
   + 625 u[29] + 535 u[30] + 901 u[31] + 937 u[32] + 399 u[33] + 826 u[34]
   + 267 u[35] + 666 u[36] + 502 u[37] + 178 u[38] + 856 u[39] <= 14965
 primal_lower60: 100 u[0] + 845 u[1] + 967 u[2] + 476 u[3] + 841 u[4]
   + 858 u[5] + 210 u[6] + 412 u[7] + 794 u[8] + 587 u[9] + 360 u[10]
   + 388 u[11] + 369 u[12] + 661 u[13] + 937 u[14] + 901 u[15] + 698 u[16]
   + 721 u[17] + 366 u[18] + 887 u[19] + 706 u[20] + 792 u[21] + 801 u[22]
   + 623 u[23] + 881 u[24] + 89 u[25] + 871 u[26] + 664 u[27] + 946 u[28]
   + 40 u[29] + 366 u[30] + 804 u[31] + 136 u[32] + 238 u[33] + 881 u[34]
   + 354 u[35] + 57 u[36] + 541 u[37] + 753 u[38] + 671 u[39] <= 11796
 primal_lower61: 304 u[0] + 297 u[1] + 491 u[2] + 240 u[3] + 693 u[4]
   + 606 u[5] + 646 u[6] + 400 u[7] + 134 u[8] + 247 u[9] + 380 u[10]
   + 568 u[11] + 149 u[12] + 857 u[13] + 725 u[14] + 193 u[15] + 742 u[16]
   + 253 u[17] + 154 u[18] + 483 u[19] + 518 u[20] + 724 u[21] + 445 u[22]
   + 755 u[23] + 693 u[24] + 357 u[25] + 259 u[26] + 876 u[27] + 94 u[28]
   + 724 u[29] + 210 u[30] + 184 u[31] + 764 u[32] + 66 u[33] + 253 u[34]
   + 814 u[35] + 829 u[36] + 217 u[37] + 253 u[38] + 859 u[39] <= 3076
 primal_lower62: 805 u[0] + 689 u[1] + 823 u[2] + 944 u[3] + 273 u[4]
   + 375 u[5] + 394 u[6] + 281 u[7] + 306 u[8] + 391 u[9] + 729 u[10]
   + 320 u[11] + 169 u[12] + 257 u[13] + 194 u[14] + 802 u[15] + 562 u[16]
   + 533 u[17] + 542 u[18] + 707 u[19] + 722 u[20] + 877 u[21] + 41 u[22]
   + 540 u[23] + 698 u[24] + 573 u[25] + 247 u[26] + 213 u[27] + 923 u[28]
   + 980 u[29] + 23 u[30] + 441 u[31] + 153 u[32] + 986 u[33] + 729 u[34]
   + 222 u[35] + 745 u[36] + 394 u[37] + 33 u[38] + 92 u[39] <= 3288
 primal_lower63: 665 u[0] + 890 u[1] + 292 u[2] + 737 u[3] + 750 u[4]
   + 655 u[5] + 999 u[6] + 193 u[7] + 295 u[8] + 200 u[9] + 701 u[10]
   + 337 u[11] + 494 u[12] + 2 u[13] + 894 u[14] + 794 u[15] + 447 u[16]
   + 974 u[17] + 219 u[18] + 268 u[19] + 807 u[20] + 821 u[21] + 278 u[22]
   + 252 u[23] + 614 u[24] + 406 u[25] + 844 u[26] + 141 u[27] + 223 u[28]
   + 669 u[29] + 219 u[30] + 393 u[31] + 917 u[32] + 355 u[33] + 222 u[34]
   + 999 u[35] + 774 u[36] + 546 u[37] + 806 u[38] + 820 u[39] <= 10956
 primal_lower64: 338 u[0] + 510 u[1] + 924 u[2] + 221 u[3] + 230 u[4]
   + 124 u[5] + 919 u[6] + 958 u[7] + 703 u[8] + 940 u[9] + 678 u[10]
   + 941 u[11] + 246 u[12] + 174 u[13] + 783 u[14] + 391 u[15] + 47 u[16]
   + 578 u[17] + 3 u[18] + 616 u[19] + 847 u[20] + 138 u[21] + 814 u[22]
   + 481 u[23] + 943 u[24] + 202 u[25] + 476 u[26] + 298 u[27] + 888 u[28]
   + 601 u[29] + 492 u[30] + 750 u[31] + 278 u[32] + 599 u[33] + 382 u[34]
   + 595 u[35] + 926 u[36] + 679 u[37] + 758 u[38] + 425 u[39] <= 10948
 primal_lower65: 783 u[0] + 691 u[1] + 521 u[2] + 818 u[3] + 899 u[4]
   + 281 u[5] + 348 u[6] + 355 u[7] + 404 u[8] + 121 u[9] + 291 u[10]
   + 74 u[11] + 339 u[12] + 203 u[13] + 580 u[14] + 524 u[15] + 588 u[16]
   + 311 u[17] + 112 u[18] + 293 u[19] + 804 u[20] + 87 u[21] + 331 u[22]
   + 574 u[23] + 372 u[24] + 367 u[25] + 337 u[26] + 863 u[27] + 213 u[28]
   + 542 u[29] + 793 u[30] + 811 u[31] + 795 u[32] + 908 u[33] + 355 u[34]
   + 272 u[35] + 747 u[36] + 652 u[37] + 843 u[38] + 142 u[39] <= 9672
 primal_lower66: 565 u[0] + 774 u[1] + 72 u[2] + 885 u[3] + 698 u[4]
   + 451 u[5] + 875 u[6] + 141 u[7] + 331 u[8] + 108 u[9] + 97 u[10]
   + 981 u[11] + 202 u[12] + 846 u[13] + 466 u[14] + 566 u[15] + 939 u[16]
   + 98 u[17] + 407 u[18] + 184 u[19] + 643 u[20] + 553 u[21] + 298 u[22]
   + 752 u[23] + 98 u[24] + 834 u[25] + 584 u[26] + 649 u[27] + 443 u[28]
   + 177 u[29] + 543 u[30] + 277 u[31] + 961 u[32] + 703 u[33] + 154 u[34]
   + 459 u[35] + 682 u[36] + 342 u[37] + 594 u[38] + 312 u[39] <= 981
 primal_lower67: 902 u[0] + 271 u[1] + 297 u[2] + 710 u[3] + 147 u[4]
   + 852 u[5] + 540 u[6] + 86 u[7] + 356 u[8] + 285 u[9] + 82 u[10]
   + 46 u[11] + 763 u[12] + 415 u[13] + 51 u[14] + 727 u[15] + 292 u[16]
   + 755 u[17] + 400 u[18] + 481 u[19] + 276 u[20] + 386 u[21] + 75 u[22]
   + 889 u[23] + 267 u[24] + 979 u[25] + 97 u[26] + 770 u[27] + 932 u[28]
   + 562 u[29] + 88 u[30] + 830 u[31] + 154 u[32] + 904 u[33] + 299 u[34]
   + 276 u[35] + 939 u[36] + 255 u[37] + 787 u[38] + 345 u[39] <= 6189
 primal_lower68: 724 u[0] + 760 u[1] + 302 u[2] + 551 u[3] + 56 u[4]
   + 310 u[5] + 137 u[6] + 984 u[7] + 473 u[8] + 558 u[9] + 696 u[10]
   + 919 u[11] + 784 u[12] + 576 u[13] + 825 u[14] + 769 u[15] + 737 u[16]
   + 620 u[17] + 997 u[18] + 874 u[19] + 473 u[20] + 364 u[21] + 64 u[22]
   + 611 u[23] + 793 u[24] + 772 u[25] + 294 u[26] + 924 u[27] + 698 u[28]
   + 203 u[29] + 902 u[30] + 80 u[31] + 448 u[32] + 137 u[33] + 664 u[34]
   + 533 u[35] + 296 u[36] + 913 u[37] + 720 u[38] + 603 u[39] <= 11572
 primal_lower69: 341 u[0] + 209 u[1] + 903 u[2] + 712 u[3] + 313 u[4]
   + 543 u[5] + 970 u[6] + 649 u[7] + 986 u[8] + 703 u[9] + 993 u[10]
   + 864 u[11] + 217 u[12] + 73 u[13] + 298 u[14] + 330 u[15] + 610 u[16]
   + 341 u[17] + 198 u[18] + 923 u[19] + 322 u[20] + 293 u[21] + 489 u[22]
   + 620 u[23] + 874 u[24] + 733 u[25] + 631 u[26] + 229 u[27] + 467 u[28]
   + 668 u[29] + 463 u[30] + 705 u[31] + 849 u[32] + 986 u[33] + 193 u[34]
   + 438 u[35] + 649 u[36] + 362 u[37] + 585 u[38] + 164 u[39] <= 7298
 primal_lower70: 640 u[0] + 769 u[1] + 507 u[2] + 936 u[3] + 581 u[4]
   + 710 u[5] + 270 u[6] + 328 u[7] + 358 u[8] + 7 u[9] + 804 u[10]
   + 728 u[11] + 765 u[12] + 857 u[13] + 341 u[14] + 921 u[15] + 294 u[16]
   + 541 u[17] + 154 u[18] + 331 u[19] + 526 u[20] + 740 u[21] + 957 u[22]
   + 667 u[23] + 781 u[24] + 309 u[25] + 835 u[26] + 500 u[27] + 918 u[28]
   + 964 u[29] + 106 u[30] + 72 u[31] + 716 u[32] + 354 u[33] + 861 u[34]
   + 62 u[35] + 149 u[36] + 73 u[37] + 349 u[38] + 139 u[39] <= 10460
 primal_lower71: 535 u[0] + 896 u[1] + 42 u[2] + 799 u[3] + 444 u[4]
   + 589 u[5] + 717 u[6] + 159 u[7] + 189 u[8] + 966 u[9] + 467 u[10]
   + 679 u[11] + 212 u[12] + 664 u[13] + 468 u[14] + 520 u[15] + 269 u[16]
   + 572 u[17] + 385 u[18] + 298 u[19] + 733 u[20] + 115 u[21] + 212 u[22]
   + 402 u[23] + 868 u[24] + 36 u[25] + 146 u[26] + 619 u[27] + 469 u[28]
   + 683 u[29] + 665 u[30] + 447 u[31] + 131 u[32] + 377 u[33] + 884 u[34]
   + 357 u[35] + 452 u[36] + 416 u[37] + 828 u[38] + 282 u[39] <= 12661
 primal_lower72: 88 u[0] + 441 u[1] + 283 u[2] + 432 u[3] + 389 u[4]
   + 894 u[5] + 110 u[6] + 848 u[7] + 174 u[8] + 695 u[9] + 12 u[10]
   + 656 u[11] + 461 u[12] + 449 u[13] + 485 u[14] + 937 u[15] + 182 u[16]
   + 645 u[17] + 170 u[18] + 635 u[19] + 942 u[20] + 932 u[21] + 813 u[22]
   + 243 u[23] + 269 u[24] + 365 u[25] + 459 u[26] + 404 u[27] + 622 u[28]
   + 396 u[29] + 210 u[30] + 592 u[31] + 44 u[32] + 418 u[33] + 45 u[34]
   + 398 u[35] + 173 u[36] + 273 u[37] + 733 u[38] + 587 u[39] <= 8952
 primal_lower73: 157 u[0] + 678 u[1] + 24 u[2] + 357 u[3] + 994 u[4]
   + 763 u[5] + 3 u[6] + 165 u[7] + 843 u[8] + 596 u[9] + 673 u[10]
   + 813 u[11] + 834 u[12] + 454 u[13] + 698 u[14] + 982 u[15] + 43 u[16]
   + 226 u[17] + 23 u[18] + 608 u[19] + 635 u[20] + 689 u[21] + 818 u[22]
   + 488 u[23] + 666 u[24] + 490 u[25] + 808 u[26] + 33 u[27] + 147 u[28]
   + 617 u[29] + 47 u[30] + 325 u[31] + 705 u[32] + 47 u[33] + 602 u[34]
   + 731 u[35] + 138 u[36] + 798 u[37] + 402 u[38] + 936 u[39] <= 13370
 primal_lower74: 162 u[0] + 822 u[1] + 740 u[2] + 405 u[3] + 454 u[4]
   + 676 u[5] + 167 u[6] + 78 u[7] + 487 u[8] + 660 u[9] + 478 u[10]
   + 477 u[11] + 326 u[12] + 302 u[13] + 663 u[14] + 351 u[15] + 79 u[16]
   + 146 u[17] + 499 u[18] + 960 u[19] + 191 u[20] + 258 u[21] + 574 u[22]
   + 457 u[23] + 871 u[24] + 394 u[25] + 164 u[26] + 538 u[27] + 200 u[28]
   + 713 u[29] + 740 u[30] + 486 u[31] + 926 u[32] + 455 u[33] + 230 u[34]
   + 19 u[35] + 174 u[36] + 799 u[37] + 518 u[38] + 665 u[39] <= 960
 primal_lower75: 158 u[0] + 623 u[1] + 441 u[2] + 686 u[3] + 179 u[4]
   + 116 u[5] + 580 u[6] + 606 u[7] + 724 u[8] + 469 u[9] + 506 u[10]
   + 606 u[11] + 987 u[12] + 823 u[13] + 347 u[14] + 343 u[15] + 932 u[16]
   + 499 u[17] + 240 u[18] + 945 u[19] + 148 u[20] + 258 u[21] + 147 u[22]
   + 961 u[23] + 899 u[24] + 443 u[25] + 273 u[26] + 690 u[27] + 788 u[28]
   + 450 u[29] + 96 u[30] + 446 u[31] + 122 u[32] + 720 u[33] + 395 u[34]
   + 28 u[35] + 99 u[36] + 47 u[37] + 899 u[38] + 553 u[39] <= 3212
 primal_lower76: 941 u[0] + 473 u[1] + 207 u[2] + 704 u[3] + 833 u[4]
   + 15 u[5] + 906 u[6] + 313 u[7] + 234 u[8] + 39 u[9] + 873 u[10]
   + 280 u[11] + 721 u[12] + 841 u[13] + 762 u[14] + 434 u[15] + 986 u[16]
   + 277 u[17] + 22 u[18] + 771 u[19] + 266 u[20] + 557 u[21] + 433 u[22]
   + 156 u[23] + 314 u[24] + 389 u[25] + 551 u[26] + 781 u[27] + 643 u[28]
   + 596 u[29] + 687 u[30] + 649 u[31] + 201 u[32] + 962 u[33] + 993 u[34]
   + 846 u[35] + 249 u[36] + 26 u[37] + 353 u[38] + 956 u[39] <= 993
 primal_lower77: 476 u[0] + 813 u[1] + 111 u[2] + 148 u[3] + 457 u[4]
   + 130 u[5] + 338 u[6] + 116 u[7] + 426 u[8] + 979 u[9] + 456 u[10]
   + 388 u[11] + 521 u[12] + 853 u[13] + 417 u[14] + 989 u[15] + 522 u[16]
   + 337 u[17] + 414 u[18] + 159 u[19] + 10 u[20] + 696 u[21] + 753 u[22]
   + 95 u[23] + 369 u[24] + 513 u[25] + 823 u[26] + 544 u[27] + 962 u[28]
   + 840 u[29] + 462 u[30] + 716 u[31] + 144 u[32] + 502 u[33] + 569 u[34]
   + 938 u[35] + 881 u[36] + 245 u[37] + 249 u[38] + 695 u[39] <= 3342
 primal_lower78: 898 u[0] + 742 u[1] + 972 u[2] + 685 u[3] + 854 u[4]
   + 76 u[5] + 783 u[6] + 118 u[7] + 919 u[8] + 236 u[9] + 998 u[10]
   + 901 u[11] + 334 u[12] + 878 u[13] + 727 u[14] + 335 u[15] + 191 u[16]
   + 242 u[17] + 179 u[18] + 160 u[19] + 271 u[20] + 306 u[21] + 158 u[22]
   + 913 u[23] + 815 u[24] + 122 u[25] + 820 u[26] + 210 u[27] + 472 u[28]
   + 305 u[29] + 284 u[30] + 206 u[31] + 382 u[32] + 367 u[33] + 366 u[34]
   + 75 u[35] + 294 u[36] + 919 u[37] + 222 u[38] + 905 u[39] <= 998
 primal_lower79: 788 u[0] + 797 u[1] + 711 u[2] + 276 u[3] + 217 u[4]
   + 202 u[5] + 770 u[6] + 940 u[7] + 210 u[8] + 819 u[9] + 352 u[10]
   + 404 u[11] + 633 u[12] + 205 u[13] + 673 u[14] + 885 u[15] + 114 u[16]
   + 993 u[17] + 14 u[18] + 383 u[19] + 202 u[20] + 560 u[21] + 105 u[22]
   + 463 u[23] + 769 u[24] + 825 u[25] + 199 u[26] + 312 u[27] + 554 u[28]
   + 736 u[29] + 670 u[30] + 876 u[31] + 200 u[32] + 654 u[33] + 641 u[34]
   + 298 u[35] + 705 u[36] + 885 u[37] + 249 u[38] + 231 u[39] <= 10260
 primal_lower80: 203 u[0] + 716 u[1] + 670 u[2] + 811 u[3] + 800 u[4]
   + 441 u[5] + 449 u[6] + 491 u[7] + 785 u[8] + 66 u[9] + 55 u[10]
   + 947 u[11] + 800 u[12] + 364 u[13] + 496 u[14] + 140 u[15] + 537 u[16]
   + 608 u[17] + 549 u[18] + 206 u[19] + 609 u[20] + 751 u[21] + 376 u[22]
   + 390 u[23] + 720 u[24] + 240 u[25] + 702 u[26] + 599 u[27] + 689 u[28]
   + 23 u[29] + 365 u[30] + 643 u[31] + 527 u[32] + 317 u[33] + 40 u[34]
   + 961 u[35] + 496 u[36] + 788 u[37] + 120 u[38] + 14 u[39] <= 9752
 primal_lower81: 249 u[0] + 42 u[1] + 524 u[2] + 657 u[3] + 118 u[4]
   + 455 u[5] + 383 u[6] + 153 u[7] + 815 u[8] + 528 u[9] + 77 u[10]
   + 321 u[11] + 542 u[12] + 618 u[13] + 782 u[14] + 810 u[15] + 351 u[16]
   + 478 u[17] + 755 u[18] + 788 u[19] + 95 u[20] + 973 u[21] + 822 u[22]
   + 700 u[23] + 494 u[24] + 870 u[25] + 460 u[26] + 789 u[27] + 31 u[28]
   + 317 u[29] + 835 u[30] + 193 u[31] + 125 u[32] + 843 u[33] + 630 u[34]
   + 839 u[35] + 350 u[36] + 850 u[37] + 966 u[38] + 44 u[39] <= 973
 primal_lower82: 438 u[0] + 650 u[1] + 904 u[2] + 553 u[3] + 650 u[4]
   + 536 u[5] + 11 u[6] + 274 u[7] + 507 u[8] + 592 u[9] + 722 u[10]
   + 113 u[11] + 362 u[12] + 738 u[13] + 963 u[14] + 915 u[15] + 379 u[16]
   + 670 u[17] + 871 u[18] + 924 u[19] + 75 u[20] + 150 u[21] + 170 u[22]
   + 109 u[23] + 651 u[24] + 318 u[25] + 392 u[26] + 262 u[27] + 52 u[28]
   + 461 u[29] + 664 u[30] + 978 u[31] + 10 u[32] + 659 u[33] + 554 u[34]
   + 599 u[35] + 58 u[36] + 187 u[37] + 482 u[38] + 557 u[39] <= 6386
 primal_lower83: 235 u[0] + 516 u[1] + 582 u[2] + 227 u[3] + 40 u[4]
   + 57 u[5] + 81 u[6] + 155 u[7] + 329 u[8] + 970 u[9] + 111 u[10]
   + 835 u[11] + 920 u[12] + 596 u[13] + 440 u[14] + 980 u[15] + 185 u[16]
   + 560 u[17] + 309 u[18] + 462 u[19] + 273 u[20] + 383 u[21] + 952 u[22]
   + 598 u[23] + 632 u[24] + 376 u[25] + 502 u[26] + 15 u[27] + 985 u[28]
   + 23 u[29] + 837 u[30] + 187 u[31] + 911 u[32] + 285 u[33] + 360 u[34]
   + 473 u[35] + 128 u[36] + 652 u[37] + 392 u[38] + 838 u[39] <= 9196
 primal_lower84: 403 u[0] + 52 u[1] + 942 u[2] + 467 u[3] + 464 u[4]
   + 33 u[5] + 889 u[6] + 459 u[7] + 137 u[8] + 802 u[9] + 727 u[10]
   + 571 u[11] + 8 u[12] + 524 u[13] + 472 u[14] + 452 u[15] + 161 u[16]
   + 232 u[17] + 77 u[18] + 750 u[19] + 521 u[20] + 311 u[21] + 200 u[22]
   + 966 u[23] + 528 u[24] + 520 u[25] + 374 u[26] + 615 u[27] + 209 u[28]
   + 359 u[29] + 61 u[30] + 251 u[31] + 47 u[32] + 285 u[33] + 48 u[34]
   + 385 u[35] + 576 u[36] + 972 u[37] + 704 u[38] + 566 u[39] <= 8560
 primal_lower85: 304 u[0] + 188 u[1] + 346 u[2] + 851 u[3] + 588 u[4]
   + 202 u[5] + 237 u[6] + 44 u[7] + 909 u[8] + 514 u[9] + 4 u[10]
   + 75 u[11] + 108 u[12] + 108 u[13] + 37 u[14] + 221 u[15] + 277 u[16]
   + 992 u[17] + 153 u[18] + 446 u[19] + 469 u[20] + 544 u[21] + 860 u[22]
   + 887 u[23] + 661 u[24] + 512 u[25] + 626 u[26] + 336 u[27] + 878 u[28]
   + 831 u[29] + 706 u[30] + 452 u[31] + 652 u[32] + 941 u[33] + 724 u[34]
   + 769 u[35] + 20 u[36] + 285 u[37] + 956 u[38] + 335 u[39] <= 9524
 primal_lower86: 518 u[0] + 354 u[1] + 568 u[2] + 113 u[3] + 594 u[4]
   + 920 u[5] + 723 u[6] + 298 u[7] + 427 u[8] + 864 u[9] + 810 u[10]
   + 361 u[11] + 466 u[12] + 970 u[13] + 395 u[14] + 315 u[15] + 411 u[16]
   + 30 u[17] + 95 u[18] + 980 u[19] + 539 u[20] + 958 u[21] + 970 u[22]
   + 629 u[23] + 731 u[24] + 190 u[25] + 896 u[26] + 342 u[27] + 636 u[28]
   + 309 u[29] + 720 u[30] + 794 u[31] + 922 u[32] + 355 u[33] + 562 u[34]
   + 7 u[35] + 954 u[36] + 3 u[37] + 962 u[38] + 669 u[39] <= 11180
 primal_lower87: 502 u[0] + 319 u[1] + 425 u[2] + 54 u[3] + 467 u[4]
   + 252 u[5] + 108 u[6] + 430 u[7] + 972 u[8] + 269 u[9] + 242 u[10]
   + 166 u[11] + 507 u[12] + 895 u[13] + 787 u[14] + 319 u[15] + 588 u[16]
   + 883 u[17] + 616 u[18] + 329 u[19] + 708 u[20] + 394 u[21] + 483 u[22]
   + 97 u[23] + 267 u[24] + 563 u[25] + 441 u[26] + 410 u[27] + 508 u[28]
   + 770 u[29] + 704 u[30] + 198 u[31] + 178 u[32] + 344 u[33] + 499 u[34]
   + 308 u[35] + 891 u[36] + 663 u[37] + 787 u[38] + 993 u[39] <= 3222
 primal_lower88: 891 u[0] + 967 u[1] + 525 u[2] + 326 u[3] + 727 u[4]
   + 773 u[5] + 744 u[6] + 487 u[7] + 256 u[8] + 773 u[9] + 391 u[10]
   + 846 u[11] + 111 u[12] + 567 u[13] + 872 u[14] + 176 u[15] + 696 u[16]
   + 771 u[17] + 620 u[18] + 289 u[19] + 424 u[20] + 947 u[21] + 535 u[22]
   + 202 u[23] + 192 u[24] + 507 u[25] + 109 u[26] + 395 u[27] + 449 u[28]
   + 378 u[29] + 133 u[30] + 743 u[31] + 983 u[32] + 288 u[33] + 583 u[34]
   + 564 u[35] + 663 u[36] + 264 u[37] + 775 u[38] + 490 u[39] <= 983
 primal_lower89: 990 u[0] + 490 u[1] + 80 u[2] + 961 u[3] + 810 u[4]
   + 632 u[5] + 563 u[6] + 162 u[7] + 683 u[8] + 960 u[9] + 682 u[10]
   + 697 u[11] + 978 u[12] + 730 u[13] + 363 u[14] + 995 u[15] + 563 u[16]
   + 894 u[17] + 655 u[18] + 308 u[19] + 179 u[20] + 910 u[21] + 322 u[22]
   + 941 u[23] + 699 u[24] + 646 u[25] + 392 u[26] + 214 u[27] + 956 u[28]
   + 165 u[29] + 184 u[30] + 538 u[31] + 354 u[32] + 291 u[33] + 506 u[34]
   + 95 u[35] + 922 u[36] + 115 u[37] + 234 u[38] + 533 u[39] <= 11196
 primal_lower90: 989 u[0] + 721 u[1] + 943 u[2] + 880 u[3] + 137 u[4]
   + 783 u[5] + 122 u[6] + 849 u[7] + 282 u[8] + 71 u[9] + 513 u[10]
   + 240 u[11] + 977 u[12] + 145 u[13] + 378 u[14] + 706 u[15] + 394 u[16]
   + 381 u[17] + 966 u[18] + 107 u[19] + 314 u[20] + 973 u[21] + 561 u[22]
   + 516 u[23] + 578 u[24] + 357 u[25] + 671 u[26] + 549 u[27] + 307 u[28]
   + 588 u[29] + 751 u[30] + 913 u[31] + 161 u[32] + 130 u[33] + 633 u[34]
   + 942 u[35] + 121 u[36] + 218 u[37] + 705 u[38] + 588 u[39] <= 989
 primal_lower91: 615 u[0] + 555 u[1] + 297 u[2] + 498 u[3] + 987 u[4]
   + 665 u[5] + 804 u[6] + 171 u[7] + 524 u[8] + 289 u[9] + 675 u[10]
   + 482 u[11] + 227 u[12] + 179 u[13] + 244 u[14] + 196 u[15] + 148 u[16]
   + 279 u[17] + 368 u[18] + 221 u[19] + 548 u[20] + 847 u[21] + 675 u[22]
   + 358 u[23] + 612 u[24] + 511 u[25] + 641 u[26] + 519 u[27] + 405 u[28]
   + 494 u[29] + 873 u[30] + 715 u[31] + 603 u[32] + 716 u[33] + 51 u[34]
   + 744 u[35] + 555 u[36] + 124 u[37] + 819 u[38] + 262 u[39] <= 9748
 primal_lower92: 270 u[0] + 2 u[1] + 536 u[2] + 329 u[3] + 962 u[4]
   + 832 u[5] + 267 u[6] + 874 u[7] + 635 u[8] + 512 u[9] + 746 u[10]
   + 201 u[11] + 130 u[12] + 130 u[13] + 83 u[14] + 491 u[15] + 867 u[16]
   + 502 u[17] + 135 u[18] + 972 u[19] + 299 u[20] + 958 u[21] + 698 u[22]
   + 677 u[23] + 163 u[24] + 270 u[25] + 880 u[26] + 446 u[27] + 636 u[28]
   + 469 u[29] + 928 u[30] + 186 u[31] + 338 u[32] + 771 u[33] + 306 u[34]
   + 47 u[35] + 978 u[36] + 531 u[37] + 322 u[38] + 445 u[39] <= 978
 primal_lower93: 999 u[0] + 707 u[1] + 401 u[2] + 282 u[3] + 579 u[4]
   + 297 u[5] + 380 u[6] + 275 u[7] + 868 u[8] + 401 u[9] + 795 u[10]
   + 2 u[11] + 619 u[12] + 59 u[13] + 508 u[14] + 412 u[15] + 460 u[16]
   + 287 u[17] + 528 u[18] + 597 u[19] + 820 u[20] + 791 u[21] + 387 u[22]
   + 286 u[23] + 844 u[24] + 383 u[25] + 489 u[26] + 543 u[27] + 285 u[28]
   + 358 u[29] + 49 u[30] + 211 u[31] + 171 u[32] + 436 u[33] + 883 u[34]
   + 648 u[35] + 43 u[36] + 684 u[37] + 803 u[38] + 270 u[39] <= 999
 primal_lower94: 275 u[0] + 591 u[1] + 69 u[2] + 422 u[3] + 599 u[4]
   + 117 u[5] + 96 u[6] + 615 u[7] + 824 u[8] + 765 u[9] + 623 u[10]
   + 726 u[11] + 823 u[12] + 527 u[13] + 232 u[14] + 856 u[15] + 528 u[16]
   + 59 u[17] + 692 u[18] + 297 u[19] + 968 u[20] + 219 u[21] + 287 u[22]
   + 66 u[23] + 16 u[24] + 355 u[25] + 749 u[26] + 163 u[27] + 329 u[28]
   + 338 u[29] + 133 u[30] + 663 u[31] + 119 u[32] + 488 u[33] + 487 u[34]
   + 452 u[35] + 743 u[36] + 240 u[37] + 95 u[38] + 450 u[39] <= 8548
 primal_lower95: 51 u[0] + 591 u[1] + 493 u[2] + 550 u[3] + 463 u[4]
   + 125 u[5] + 120 u[6] + 551 u[7] + 760 u[8] + 717 u[9] + 479 u[10]
   + 526 u[11] + 23 u[12] + 247 u[13] + 680 u[14] + 616 u[15] + 968 u[16]
   + 259 u[17] + 492 u[18] + 217 u[19] + 144 u[20] + 363 u[21] + 383 u[22]
   + 82 u[23] + 160 u[24] + 435 u[25] + 21 u[26] + 51 u[27] + 985 u[28]
   + 434 u[29] + 21 u[30] + 751 u[31] + 927 u[32] + 744 u[33] + 719 u[34]
   + 276 u[35] + 591 u[36] + 344 u[37] + 191 u[38] + 962 u[39] <= 2918
 primal_lower96: 66 u[0] + 883 u[1] + 901 u[2] + 274 u[3] + 479 u[4]
   + 240 u[5] + 528 u[6] + 122 u[7] + 616 u[8] + 841 u[9] + 630 u[10]
   + 978 u[11] + 543 u[12] + 923 u[13] + 655 u[14] + 755 u[15] + 232 u[16]
   + 71 u[17] + 468 u[18] + 117 u[19] + 736 u[20] + 998 u[21] + 183 u[22]
   + 221 u[23] + 583 u[24] + 159 u[25] + 885 u[26] + 814 u[27] + 512 u[28]
   + 542 u[29] + 444 u[30] + 194 u[31] + 910 u[32] + 508 u[33] + 447 u[34]
   + 392 u[35] + 599 u[36] + 843 u[37] + 935 u[38] + 253 u[39] <= 10740
 primal_lower97: 719 u[0] + 936 u[1] + 202 u[2] + 271 u[3] + 188 u[4]
   + 325 u[5] + 549 u[6] + 119 u[7] + 677 u[8] + 806 u[9] + 971 u[10]
   + 559 u[11] + 804 u[12] + 936 u[13] + 68 u[14] + 792 u[15] + 645 u[16]
   + 588 u[17] + 393 u[18] + 866 u[19] + 653 u[20] + 779 u[21] + 868 u[22]
   + 554 u[23] + 244 u[24] + 604 u[25] + 778 u[26] + 611 u[27] + 421 u[28]
   + 723 u[29] + 889 u[30] + 335 u[31] + 523 u[32] + 441 u[33] + 196 u[34]
   + 685 u[35] + 28 u[36] + 704 u[37] + 788 u[38] + 882 u[39] <= 3853
 primal_lower98: 251 u[0] + 863 u[1] + 301 u[2] + 134 u[3] + 879 u[4]
   + 133 u[5] + 168 u[6] + 871 u[7] + 312 u[8] + 525 u[9] + 39 u[10]
   + 182 u[11] + 607 u[12] + 303 u[13] + 840 u[14] + 1000 u[15] + 216 u[16]
   + 811 u[17] + 268 u[18] + 289 u[19] + 936 u[20] + 555 u[21] + 55 u[22]
   + 58 u[23] + 256 u[24] + 955 u[25] + 397 u[26] + 483 u[27] + 705 u[28]
   + 554 u[29] + 421 u[30] + 783 u[31] + 567 u[32] + 88 u[33] + 559 u[34]
   + 812 u[35] + 951 u[36] + 512 u[37] + 655 u[38] + 418 u[39] <= 3285
 primal_lower99: 712 u[0] + 668 u[1] + 194 u[2] + 547 u[3] + 124 u[4]
   + 562 u[5] + 509 u[6] + 76 u[7] + 189 u[8] + 818 u[9] + 708 u[10]
   + 531 u[11] + 604 u[12] + 188 u[13] + 165 u[14] + 829 u[15] + 429 u[16]
   + 456 u[17] + 281 u[18] + 990 u[19] + 925 u[20] + 920 u[21] + 500 u[22]
   + 967 u[23] + 341 u[24] + 808 u[25] + 514 u[26] + 200 u[27] + 582 u[28]
   + 551 u[29] + 122 u[30] + 676 u[31] + 268 u[32] + 109 u[33] + 580 u[34]
   + 409 u[35] + 364 u[36] + 973 u[37] + 596 u[38] + 423 u[39] <= 6802
 interdiction[0]: x[0] + u[0] <= 1
 interdiction[1]: x[1] + u[1] <= 1
 interdiction[2]: x[2] + u[2] <= 1
 interdiction[3]: x[3] + u[3] <= 1
 interdiction[4]: x[4] + u[4] <= 1
 interdiction[5]: x[5] + u[5] <= 1
 interdiction[6]: x[6] + u[6] <= 1
 interdiction[7]: x[7] + u[7] <= 1
 interdiction[8]: x[8] + u[8] <= 1
 interdiction[9]: x[9] + u[9] <= 1
 interdiction[10]: x[10] + u[10] <= 1
 interdiction[11]: x[11] + u[11] <= 1
 interdiction[12]: x[12] + u[12] <= 1
 interdiction[13]: x[13] + u[13] <= 1
 interdiction[14]: x[14] + u[14] <= 1
 interdiction[15]: x[15] + u[15] <= 1
 interdiction[16]: x[16] + u[16] <= 1
 interdiction[17]: x[17] + u[17] <= 1
 interdiction[18]: x[18] + u[18] <= 1
 interdiction[19]: x[19] + u[19] <= 1
 interdiction[20]: x[20] + u[20] <= 1
 interdiction[21]: x[21] + u[21] <= 1
 interdiction[22]: x[22] + u[22] <= 1
 interdiction[23]: x[23] + u[23] <= 1
 interdiction[24]: x[24] + u[24] <= 1
 interdiction[25]: x[25] + u[25] <= 1
 interdiction[26]: x[26] + u[26] <= 1
 interdiction[27]: x[27] + u[27] <= 1
 interdiction[28]: x[28] + u[28] <= 1
 interdiction[29]: x[29] + u[29] <= 1
 interdiction[30]: x[30] + u[30] <= 1
 interdiction[31]: x[31] + u[31] <= 1
 interdiction[32]: x[32] + u[32] <= 1
 interdiction[33]: x[33] + u[33] <= 1
 interdiction[34]: x[34] + u[34] <= 1
 interdiction[35]: x[35] + u[35] <= 1
 interdiction[36]: x[36] + u[36] <= 1
 interdiction[37]: x[37] + u[37] <= 1
 interdiction[38]: x[38] + u[38] <= 1
 interdiction[39]: x[39] + u[39] <= 1
 mccormick1[0]: - u[0] + z[0] <= 0
 mccormick1[1]: - u[1] + z[1] <= 0
 mccormick1[2]: - u[2] + z[2] <= 0
 mccormick1[3]: - u[3] + z[3] <= 0
 mccormick1[4]: - u[4] + z[4] <= 0
 mccormick1[5]: - u[5] + z[5] <= 0
 mccormick1[6]: - u[6] + z[6] <= 0
 mccormick1[7]: - u[7] + z[7] <= 0
 mccormick1[8]: - u[8] + z[8] <= 0
 mccormick1[9]: - u[9] + z[9] <= 0
 mccormick1[10]: - u[10] + z[10] <= 0
 mccormick1[11]: - u[11] + z[11] <= 0
 mccormick1[12]: - u[12] + z[12] <= 0
 mccormick1[13]: - u[13] + z[13] <= 0
 mccormick1[14]: - u[14] + z[14] <= 0
 mccormick1[15]: - u[15] + z[15] <= 0
 mccormick1[16]: - u[16] + z[16] <= 0
 mccormick1[17]: - u[17] + z[17] <= 0
 mccormick1[18]: - u[18] + z[18] <= 0
 mccormick1[19]: - u[19] + z[19] <= 0
 mccormick1[20]: - u[20] + z[20] <= 0
 mccormick1[21]: - u[21] + z[21] <= 0
 mccormick1[22]: - u[22] + z[22] <= 0
 mccormick1[23]: - u[23] + z[23] <= 0
 mccormick1[24]: - u[24] + z[24] <= 0
 mccormick1[25]: - u[25] + z[25] <= 0
 mccormick1[26]: - u[26] + z[26] <= 0
 mccormick1[27]: - u[27] + z[27] <= 0
 mccormick1[28]: - u[28] + z[28] <= 0
 mccormick1[29]: - u[29] + z[29] <= 0
 mccormick1[30]: - u[30] + z[30] <= 0
 mccormick1[31]: - u[31] + z[31] <= 0
 mccormick1[32]: - u[32] + z[32] <= 0
 mccormick1[33]: - u[33] + z[33] <= 0
 mccormick1[34]: - u[34] + z[34] <= 0
 mccormick1[35]: - u[35] + z[35] <= 0
 mccormick1[36]: - u[36] + z[36] <= 0
 mccormick1[37]: - u[37] + z[37] <= 0
 mccormick1[38]: - u[38] + z[38] <= 0
 mccormick1[39]: - u[39] + z[39] <= 0
 mccormick2[0]: - y[0] + z[0] <= 0
 mccormick2[1]: - y[1] + z[1] <= 0
 mccormick2[2]: - y[2] + z[2] <= 0
 mccormick2[3]: - y[3] + z[3] <= 0
 mccormick2[4]: - y[4] + z[4] <= 0
 mccormick2[5]: - y[5] + z[5] <= 0
 mccormick2[6]: - y[6] + z[6] <= 0
 mccormick2[7]: - y[7] + z[7] <= 0
 mccormick2[8]: - y[8] + z[8] <= 0
 mccormick2[9]: - y[9] + z[9] <= 0
 mccormick2[10]: - y[10] + z[10] <= 0
 mccormick2[11]: - y[11] + z[11] <= 0
 mccormick2[12]: - y[12] + z[12] <= 0
 mccormick2[13]: - y[13] + z[13] <= 0
 mccormick2[14]: - y[14] + z[14] <= 0
 mccormick2[15]: - y[15] + z[15] <= 0
 mccormick2[16]: - y[16] + z[16] <= 0
 mccormick2[17]: - y[17] + z[17] <= 0
 mccormick2[18]: - y[18] + z[18] <= 0
 mccormick2[19]: - y[19] + z[19] <= 0
 mccormick2[20]: - y[20] + z[20] <= 0
 mccormick2[21]: - y[21] + z[21] <= 0
 mccormick2[22]: - y[22] + z[22] <= 0
 mccormick2[23]: - y[23] + z[23] <= 0
 mccormick2[24]: - y[24] + z[24] <= 0
 mccormick2[25]: - y[25] + z[25] <= 0
 mccormick2[26]: - y[26] + z[26] <= 0
 mccormick2[27]: - y[27] + z[27] <= 0
 mccormick2[28]: - y[28] + z[28] <= 0
 mccormick2[29]: - y[29] + z[29] <= 0
 mccormick2[30]: - y[30] + z[30] <= 0
 mccormick2[31]: - y[31] + z[31] <= 0
 mccormick2[32]: - y[32] + z[32] <= 0
 mccormick2[33]: - y[33] + z[33] <= 0
 mccormick2[34]: - y[34] + z[34] <= 0
 mccormick2[35]: - y[35] + z[35] <= 0
 mccormick2[36]: - y[36] + z[36] <= 0
 mccormick2[37]: - y[37] + z[37] <= 0
 mccormick2[38]: - y[38] + z[38] <= 0
 mccormick2[39]: - y[39] + z[39] <= 0
 mccormick3[0]: y[0] + u[0] - z[0] <= 1
 mccormick3[1]: y[1] + u[1] - z[1] <= 1
 mccormick3[2]: y[2] + u[2] - z[2] <= 1
 mccormick3[3]: y[3] + u[3] - z[3] <= 1
 mccormick3[4]: y[4] + u[4] - z[4] <= 1
 mccormick3[5]: y[5] + u[5] - z[5] <= 1
 mccormick3[6]: y[6] + u[6] - z[6] <= 1
 mccormick3[7]: y[7] + u[7] - z[7] <= 1
 mccormick3[8]: y[8] + u[8] - z[8] <= 1
 mccormick3[9]: y[9] + u[9] - z[9] <= 1
 mccormick3[10]: y[10] + u[10] - z[10] <= 1
 mccormick3[11]: y[11] + u[11] - z[11] <= 1
 mccormick3[12]: y[12] + u[12] - z[12] <= 1
 mccormick3[13]: y[13] + u[13] - z[13] <= 1
 mccormick3[14]: y[14] + u[14] - z[14] <= 1
 mccormick3[15]: y[15] + u[15] - z[15] <= 1
 mccormick3[16]: y[16] + u[16] - z[16] <= 1
 mccormick3[17]: y[17] + u[17] - z[17] <= 1
 mccormick3[18]: y[18] + u[18] - z[18] <= 1
 mccormick3[19]: y[19] + u[19] - z[19] <= 1
 mccormick3[20]: y[20] + u[20] - z[20] <= 1
 mccormick3[21]: y[21] + u[21] - z[21] <= 1
 mccormick3[22]: y[22] + u[22] - z[22] <= 1
 mccormick3[23]: y[23] + u[23] - z[23] <= 1
 mccormick3[24]: y[24] + u[24] - z[24] <= 1
 mccormick3[25]: y[25] + u[25] - z[25] <= 1
 mccormick3[26]: y[26] + u[26] - z[26] <= 1
 mccormick3[27]: y[27] + u[27] - z[27] <= 1
 mccormick3[28]: y[28] + u[28] - z[28] <= 1
 mccormick3[29]: y[29] + u[29] - z[29] <= 1
 mccormick3[30]: y[30] + u[30] - z[30] <= 1
 mccormick3[31]: y[31] + u[31] - z[31] <= 1
 mccormick3[32]: y[32] + u[32] - z[32] <= 1
 mccormick3[33]: y[33] + u[33] - z[33] <= 1
 mccormick3[34]: y[34] + u[34] - z[34] <= 1
 mccormick3[35]: y[35] + u[35] - z[35] <= 1
 mccormick3[36]: y[36] + u[36] - z[36] <= 1
 mccormick3[37]: y[37] + u[37] - z[37] <= 1
 mccormick3[38]: y[38] + u[38] - z[38] <= 1
 mccormick3[39]: y[39] + u[39] - z[39] <= 1
Bounds
Binaries
 x[0] x[1] x[2] x[3] x[4] x[5] x[6] x[7] x[8] x[9] x[10] x[11] x[12] x[13]
 x[14] x[15] x[16] x[17] x[18] x[19] x[20] x[21] x[22] x[23] x[24] x[25]
 x[26] x[27] x[28] x[29] x[30] x[31] x[32] x[33] x[34] x[35] x[36] x[37]
 x[38] x[39] y[0] y[1] y[2] y[3] y[4] y[5] y[6] y[7] y[8] y[9] y[10] y[11]
 y[12] y[13] y[14] y[15] y[16] y[17] y[18] y[19] y[20] y[21] y[22] y[23]
 y[24] y[25] y[26] y[27] y[28] y[29] y[30] y[31] y[32] y[33] y[34] y[35]
 y[36] y[37] y[38] y[39] u[0] u[1] u[2] u[3] u[4] u[5] u[6] u[7] u[8] u[9]
 u[10] u[11] u[12] u[13] u[14] u[15] u[16] u[17] u[18] u[19] u[20] u[21]
 u[22] u[23] u[24] u[25] u[26] u[27] u[28] u[29] u[30] u[31] u[32] u[33]
 u[34] u[35] u[36] u[37] u[38] u[39] z[0] z[1] z[2] z[3] z[4] z[5] z[6]
 z[7] z[8] z[9] z[10] z[11] z[12] z[13] z[14] z[15] z[16] z[17] z[18] z[19]
 z[20] z[21] z[22] z[23] z[24] z[25] z[26] z[27] z[28] z[29] z[30] z[31]
 z[32] z[33] z[34] z[35] z[36] z[37] z[38] z[39]
End
