* Signature: 0xaabe24bfadf940f4
NAME knapsack_100_100_2
ROWS
 N  OBJ
 L  primal_upper
 L  primal_lower0
 L  primal_lower1
 L  primal_lower2
 L  primal_lower3
 L  primal_lower4
 L  primal_lower5
 L  primal_lower6
 L  primal_lower7
 L  primal_lower8
 L  primal_lower9
 L  primal_lower10
 L  primal_lower11
 L  primal_lower12
 L  primal_lower13
 L  primal_lower14
 L  primal_lower15
 L  primal_lower16
 L  primal_lower17
 L  primal_lower18
 L  primal_lower19
 L  primal_lower20
 L  primal_lower21
 L  primal_lower22
 L  primal_lower23
 L  primal_lower24
 L  primal_lower25
 L  primal_lower26
 L  primal_lower27
 L  primal_lower28
 L  primal_lower29
 L  primal_lower30
 L  primal_lower31
 L  primal_lower32
 L  primal_lower33
 L  primal_lower34
 L  primal_lower35
 L  primal_lower36
 L  primal_lower37
 L  primal_lower38
 L  primal_lower39
 L  primal_lower40
 L  primal_lower41
 L  primal_lower42
 L  primal_lower43
 L  primal_lower44
 L  primal_lower45
 L  primal_lower46
 L  primal_lower47
 L  primal_lower48
 L  primal_lower49
 L  primal_lower50
 L  primal_lower51
 L  primal_lower52
 L  primal_lower53
 L  primal_lower54
 L  primal_lower55
 L  primal_lower56
 L  primal_lower57
 L  primal_lower58
 L  primal_lower59
 L  primal_lower60
 L  primal_lower61
 L  primal_lower62
 L  primal_lower63
 L  primal_lower64
 L  primal_lower65
 L  primal_lower66
 L  primal_lower67
 L  primal_lower68
 L  primal_lower69
 L  primal_lower70
 L  primal_lower71
 L  primal_lower72
 L  primal_lower73
 L  primal_lower74
 L  primal_lower75
 L  primal_lower76
 L  primal_lower77
 L  primal_lower78
 L  primal_lower79
 L  primal_lower80
 L  primal_lower81
 L  primal_lower82
 L  primal_lower83
 L  primal_lower84
 L  primal_lower85
 L  primal_lower86
 L  primal_lower87
 L  primal_lower88
 L  primal_lower89
 L  primal_lower90
 L  primal_lower91
 L  primal_lower92
 L  primal_lower93
 L  primal_lower94
 L  primal_lower95
 L  primal_lower96
 L  primal_lower97
 L  primal_lower98
 L  primal_lower99
 L  interdiction[0]
 L  interdiction[1]
 L  interdiction[2]
 L  interdiction[3]
 L  interdiction[4]
 L  interdiction[5]
 L  interdiction[6]
 L  interdiction[7]
 L  interdiction[8]
 L  interdiction[9]
 L  interdiction[10]
 L  interdiction[11]
 L  interdiction[12]
 L  interdiction[13]
 L  interdiction[14]
 L  interdiction[15]
 L  interdiction[16]
 L  interdiction[17]
 L  interdiction[18]
 L  interdiction[19]
 L  interdiction[20]
 L  interdiction[21]
 L  interdiction[22]
 L  interdiction[23]
 L  interdiction[24]
 L  interdiction[25]
 L  interdiction[26]
 L  interdiction[27]
 L  interdiction[28]
 L  interdiction[29]
 L  interdiction[30]
 L  interdiction[31]
 L  interdiction[32]
 L  interdiction[33]
 L  interdiction[34]
 L  interdiction[35]
 L  interdiction[36]
 L  interdiction[37]
 L  interdiction[38]
 L  interdiction[39]
 L  interdiction[40]
 L  interdiction[41]
 L  interdiction[42]
 L  interdiction[43]
 L  interdiction[44]
 L  interdiction[45]
 L  interdiction[46]
 L  interdiction[47]
 L  interdiction[48]
 L  interdiction[49]
 L  interdiction[50]
 L  interdiction[51]
 L  interdiction[52]
 L  interdiction[53]
 L  interdiction[54]
 L  interdiction[55]
 L  interdiction[56]
 L  interdiction[57]
 L  interdiction[58]
 L  interdiction[59]
 L  interdiction[60]
 L  interdiction[61]
 L  interdiction[62]
 L  interdiction[63]
 L  interdiction[64]
 L  interdiction[65]
 L  interdiction[66]
 L  interdiction[67]
 L  interdiction[68]
 L  interdiction[69]
 L  interdiction[70]
 L  interdiction[71]
 L  interdiction[72]
 L  interdiction[73]
 L  interdiction[74]
 L  interdiction[75]
 L  interdiction[76]
 L  interdiction[77]
 L  interdiction[78]
 L  interdiction[79]
 L  interdiction[80]
 L  interdiction[81]
 L  interdiction[82]
 L  interdiction[83]
 L  interdiction[84]
 L  interdiction[85]
 L  interdiction[86]
 L  interdiction[87]
 L  interdiction[88]
 L  interdiction[89]
 L  interdiction[90]
 L  interdiction[91]
 L  interdiction[92]
 L  interdiction[93]
 L  interdiction[94]
 L  interdiction[95]
 L  interdiction[96]
 L  interdiction[97]
 L  interdiction[98]
 L  interdiction[99]
 L  mccormick1[0]
 L  mccormick1[1]
 L  mccormick1[2]
 L  mccormick1[3]
 L  mccormick1[4]
 L  mccormick1[5]
 L  mccormick1[6]
 L  mccormick1[7]
 L  mccormick1[8]
 L  mccormick1[9]
 L  mccormick1[10]
 L  mccormick1[11]
 L  mccormick1[12]
 L  mccormick1[13]
 L  mccormick1[14]
 L  mccormick1[15]
 L  mccormick1[16]
 L  mccormick1[17]
 L  mccormick1[18]
 L  mccormick1[19]
 L  mccormick1[20]
 L  mccormick1[21]
 L  mccormick1[22]
 L  mccormick1[23]
 L  mccormick1[24]
 L  mccormick1[25]
 L  mccormick1[26]
 L  mccormick1[27]
 L  mccormick1[28]
 L  mccormick1[29]
 L  mccormick1[30]
 L  mccormick1[31]
 L  mccormick1[32]
 L  mccormick1[33]
 L  mccormick1[34]
 L  mccormick1[35]
 L  mccormick1[36]
 L  mccormick1[37]
 L  mccormick1[38]
 L  mccormick1[39]
 L  mccormick1[40]
 L  mccormick1[41]
 L  mccormick1[42]
 L  mccormick1[43]
 L  mccormick1[44]
 L  mccormick1[45]
 L  mccormick1[46]
 L  mccormick1[47]
 L  mccormick1[48]
 L  mccormick1[49]
 L  mccormick1[50]
 L  mccormick1[51]
 L  mccormick1[52]
 L  mccormick1[53]
 L  mccormick1[54]
 L  mccormick1[55]
 L  mccormick1[56]
 L  mccormick1[57]
 L  mccormick1[58]
 L  mccormick1[59]
 L  mccormick1[60]
 L  mccormick1[61]
 L  mccormick1[62]
 L  mccormick1[63]
 L  mccormick1[64]
 L  mccormick1[65]
 L  mccormick1[66]
 L  mccormick1[67]
 L  mccormick1[68]
 L  mccormick1[69]
 L  mccormick1[70]
 L  mccormick1[71]
 L  mccormick1[72]
 L  mccormick1[73]
 L  mccormick1[74]
 L  mccormick1[75]
 L  mccormick1[76]
 L  mccormick1[77]
 L  mccormick1[78]
 L  mccormick1[79]
 L  mccormick1[80]
 L  mccormick1[81]
 L  mccormick1[82]
 L  mccormick1[83]
 L  mccormick1[84]
 L  mccormick1[85]
 L  mccormick1[86]
 L  mccormick1[87]
 L  mccormick1[88]
 L  mccormick1[89]
 L  mccormick1[90]
 L  mccormick1[91]
 L  mccormick1[92]
 L  mccormick1[93]
 L  mccormick1[94]
 L  mccormick1[95]
 L  mccormick1[96]
 L  mccormick1[97]
 L  mccormick1[98]
 L  mccormick1[99]
 L  mccormick2[0]
 L  mccormick2[1]
 L  mccormick2[2]
 L  mccormick2[3]
 L  mccormick2[4]
 L  mccormick2[5]
 L  mccormick2[6]
 L  mccormick2[7]
 L  mccormick2[8]
 L  mccormick2[9]
 L  mccormick2[10]
 L  mccormick2[11]
 L  mccormick2[12]
 L  mccormick2[13]
 L  mccormick2[14]
 L  mccormick2[15]
 L  mccormick2[16]
 L  mccormick2[17]
 L  mccormick2[18]
 L  mccormick2[19]
 L  mccormick2[20]
 L  mccormick2[21]
 L  mccormick2[22]
 L  mccormick2[23]
 L  mccormick2[24]
 L  mccormick2[25]
 L  mccormick2[26]
 L  mccormick2[27]
 L  mccormick2[28]
 L  mccormick2[29]
 L  mccormick2[30]
 L  mccormick2[31]
 L  mccormick2[32]
 L  mccormick2[33]
 L  mccormick2[34]
 L  mccormick2[35]
 L  mccormick2[36]
 L  mccormick2[37]
 L  mccormick2[38]
 L  mccormick2[39]
 L  mccormick2[40]
 L  mccormick2[41]
 L  mccormick2[42]
 L  mccormick2[43]
 L  mccormick2[44]
 L  mccormick2[45]
 L  mccormick2[46]
 L  mccormick2[47]
 L  mccormick2[48]
 L  mccormick2[49]
 L  mccormick2[50]
 L  mccormick2[51]
 L  mccormick2[52]
 L  mccormick2[53]
 L  mccormick2[54]
 L  mccormick2[55]
 L  mccormick2[56]
 L  mccormick2[57]
 L  mccormick2[58]
 L  mccormick2[59]
 L  mccormick2[60]
 L  mccormick2[61]
 L  mccormick2[62]
 L  mccormick2[63]
 L  mccormick2[64]
 L  mccormick2[65]
 L  mccormick2[66]
 L  mccormick2[67]
 L  mccormick2[68]
 L  mccormick2[69]
 L  mccormick2[70]
 L  mccormick2[71]
 L  mccormick2[72]
 L  mccormick2[73]
 L  mccormick2[74]
 L  mccormick2[75]
 L  mccormick2[76]
 L  mccormick2[77]
 L  mccormick2[78]
 L  mccormick2[79]
 L  mccormick2[80]
 L  mccormick2[81]
 L  mccormick2[82]
 L  mccormick2[83]
 L  mccormick2[84]
 L  mccormick2[85]
 L  mccormick2[86]
 L  mccormick2[87]
 L  mccormick2[88]
 L  mccormick2[89]
 L  mccormick2[90]
 L  mccormick2[91]
 L  mccormick2[92]
 L  mccormick2[93]
 L  mccormick2[94]
 L  mccormick2[95]
 L  mccormick2[96]
 L  mccormick2[97]
 L  mccormick2[98]
 L  mccormick2[99]
 L  mccormick3[0]
 L  mccormick3[1]
 L  mccormick3[2]
 L  mccormick3[3]
 L  mccormick3[4]
 L  mccormick3[5]
 L  mccormick3[6]
 L  mccormick3[7]
 L  mccormick3[8]
 L  mccormick3[9]
 L  mccormick3[10]
 L  mccormick3[11]
 L  mccormick3[12]
 L  mccormick3[13]
 L  mccormick3[14]
 L  mccormick3[15]
 L  mccormick3[16]
 L  mccormick3[17]
 L  mccormick3[18]
 L  mccormick3[19]
 L  mccormick3[20]
 L  mccormick3[21]
 L  mccormick3[22]
 L  mccormick3[23]
 L  mccormick3[24]
 L  mccormick3[25]
 L  mccormick3[26]
 L  mccormick3[27]
 L  mccormick3[28]
 L  mccormick3[29]
 L  mccormick3[30]
 L  mccormick3[31]
 L  mccormick3[32]
 L  mccormick3[33]
 L  mccormick3[34]
 L  mccormick3[35]
 L  mccormick3[36]
 L  mccormick3[37]
 L  mccormick3[38]
 L  mccormick3[39]
 L  mccormick3[40]
 L  mccormick3[41]
 L  mccormick3[42]
 L  mccormick3[43]
 L  mccormick3[44]
 L  mccormick3[45]
 L  mccormick3[46]
 L  mccormick3[47]
 L  mccormick3[48]
 L  mccormick3[49]
 L  mccormick3[50]
 L  mccormick3[51]
 L  mccormick3[52]
 L  mccormick3[53]
 L  mccormick3[54]
 L  mccormick3[55]
 L  mccormick3[56]
 L  mccormick3[57]
 L  mccormick3[58]
 L  mccormick3[59]
 L  mccormick3[60]
 L  mccormick3[61]
 L  mccormick3[62]
 L  mccormick3[63]
 L  mccormick3[64]
 L  mccormick3[65]
 L  mccormick3[66]
 L  mccormick3[67]
 L  mccormick3[68]
 L  mccormick3[69]
 L  mccormick3[70]
 L  mccormick3[71]
 L  mccormick3[72]
 L  mccormick3[73]
 L  mccormick3[74]
 L  mccormick3[75]
 L  mccormick3[76]
 L  mccormick3[77]
 L  mccormick3[78]
 L  mccormick3[79]
 L  mccormick3[80]
 L  mccormick3[81]
 L  mccormick3[82]
 L  mccormick3[83]
 L  mccormick3[84]
 L  mccormick3[85]
 L  mccormick3[86]
 L  mccormick3[87]
 L  mccormick3[88]
 L  mccormick3[89]
 L  mccormick3[90]
 L  mccormick3[91]
 L  mccormick3[92]
 L  mccormick3[93]
 L  mccormick3[94]
 L  mccormick3[95]
 L  mccormick3[96]
 L  mccormick3[97]
 L  mccormick3[98]
 L  mccormick3[99]
COLUMNS
    MARKER    'MARKER'                 'INTORG'
    x[0]      OBJ       10
    x[0]      interdiction[0]  1
    x[1]      OBJ       10
    x[1]      interdiction[1]  1
    x[2]      OBJ       10
    x[2]      interdiction[2]  1
    x[3]      OBJ       10
    x[3]      interdiction[3]  1
    x[4]      OBJ       10
    x[4]      interdiction[4]  1
    x[5]      OBJ       10
    x[5]      interdiction[5]  1
    x[6]      OBJ       10
    x[6]      interdiction[6]  1
    x[7]      OBJ       10
    x[7]      interdiction[7]  1
    x[8]      OBJ       10
    x[8]      interdiction[8]  1
    x[9]      OBJ       10
    x[9]      interdiction[9]  1
    x[10]     OBJ       10
    x[10]     interdiction[10]  1
    x[11]     OBJ       10
    x[11]     interdiction[11]  1
    x[12]     OBJ       10
    x[12]     interdiction[12]  1
    x[13]     OBJ       10
    x[13]     interdiction[13]  1
    x[14]     OBJ       10
    x[14]     interdiction[14]  1
    x[15]     OBJ       10
    x[15]     interdiction[15]  1
    x[16]     OBJ       10
    x[16]     interdiction[16]  1
    x[17]     OBJ       10
    x[17]     interdiction[17]  1
    x[18]     OBJ       10
    x[18]     interdiction[18]  1
    x[19]     OBJ       10
    x[19]     interdiction[19]  1
    x[20]     OBJ       10
    x[20]     interdiction[20]  1
    x[21]     OBJ       10
    x[21]     interdiction[21]  1
    x[22]     OBJ       10
    x[22]     interdiction[22]  1
    x[23]     OBJ       10
    x[23]     interdiction[23]  1
    x[24]     OBJ       10
    x[24]     interdiction[24]  1
    x[25]     OBJ       10
    x[25]     interdiction[25]  1
    x[26]     OBJ       10
    x[26]     interdiction[26]  1
    x[27]     OBJ       10
    x[27]     interdiction[27]  1
    x[28]     OBJ       10
    x[28]     interdiction[28]  1
    x[29]     OBJ       10
    x[29]     interdiction[29]  1
    x[30]     OBJ       10
    x[30]     interdiction[30]  1
    x[31]     OBJ       10
    x[31]     interdiction[31]  1
    x[32]     OBJ       10
    x[32]     interdiction[32]  1
    x[33]     OBJ       10
    x[33]     interdiction[33]  1
    x[34]     OBJ       10
    x[34]     interdiction[34]  1
    x[35]     OBJ       10
    x[35]     interdiction[35]  1
    x[36]     OBJ       10
    x[36]     interdiction[36]  1
    x[37]     OBJ       10
    x[37]     interdiction[37]  1
    x[38]     OBJ       10
    x[38]     interdiction[38]  1
    x[39]     OBJ       10
    x[39]     interdiction[39]  1
    x[40]     OBJ       10
    x[40]     interdiction[40]  1
    x[41]     OBJ       10
    x[41]     interdiction[41]  1
    x[42]     OBJ       10
    x[42]     interdiction[42]  1
    x[43]     OBJ       10
    x[43]     interdiction[43]  1
    x[44]     OBJ       10
    x[44]     interdiction[44]  1
    x[45]     OBJ       10
    x[45]     interdiction[45]  1
    x[46]     OBJ       10
    x[46]     interdiction[46]  1
    x[47]     OBJ       10
    x[47]     interdiction[47]  1
    x[48]     OBJ       10
    x[48]     interdiction[48]  1
    x[49]     OBJ       10
    x[49]     interdiction[49]  1
    x[50]     OBJ       10
    x[50]     interdiction[50]  1
    x[51]     OBJ       10
    x[51]     interdiction[51]  1
    x[52]     OBJ       10
    x[52]     interdiction[52]  1
    x[53]     OBJ       10
    x[53]     interdiction[53]  1
    x[54]     OBJ       10
    x[54]     interdiction[54]  1
    x[55]     OBJ       10
    x[55]     interdiction[55]  1
    x[56]     OBJ       10
    x[56]     interdiction[56]  1
    x[57]     OBJ       10
    x[57]     interdiction[57]  1
    x[58]     OBJ       10
    x[58]     interdiction[58]  1
    x[59]     OBJ       10
    x[59]     interdiction[59]  1
    x[60]     OBJ       10
    x[60]     interdiction[60]  1
    x[61]     OBJ       10
    x[61]     interdiction[61]  1
    x[62]     OBJ       10
    x[62]     interdiction[62]  1
    x[63]     OBJ       10
    x[63]     interdiction[63]  1
    x[64]     OBJ       10
    x[64]     interdiction[64]  1
    x[65]     OBJ       10
    x[65]     interdiction[65]  1
    x[66]     OBJ       10
    x[66]     interdiction[66]  1
    x[67]     OBJ       10
    x[67]     interdiction[67]  1
    x[68]     OBJ       10
    x[68]     interdiction[68]  1
    x[69]     OBJ       10
    x[69]     interdiction[69]  1
    x[70]     OBJ       10
    x[70]     interdiction[70]  1
    x[71]     OBJ       10
    x[71]     interdiction[71]  1
    x[72]     OBJ       10
    x[72]     interdiction[72]  1
    x[73]     OBJ       10
    x[73]     interdiction[73]  1
    x[74]     OBJ       10
    x[74]     interdiction[74]  1
    x[75]     OBJ       10
    x[75]     interdiction[75]  1
    x[76]     OBJ       10
    x[76]     interdiction[76]  1
    x[77]     OBJ       10
    x[77]     interdiction[77]  1
    x[78]     OBJ       10
    x[78]     interdiction[78]  1
    x[79]     OBJ       10
    x[79]     interdiction[79]  1
    x[80]     OBJ       10
    x[80]     interdiction[80]  1
    x[81]     OBJ       10
    x[81]     interdiction[81]  1
    x[82]     OBJ       10
    x[82]     interdiction[82]  1
    x[83]     OBJ       10
    x[83]     interdiction[83]  1
    x[84]     OBJ       10
    x[84]     interdiction[84]  1
    x[85]     OBJ       10
    x[85]     interdiction[85]  1
    x[86]     OBJ       10
    x[86]     interdiction[86]  1
    x[87]     OBJ       10
    x[87]     interdiction[87]  1
    x[88]     OBJ       10
    x[88]     interdiction[88]  1
    x[89]     OBJ       10
    x[89]     interdiction[89]  1
    x[90]     OBJ       10
    x[90]     interdiction[90]  1
    x[91]     OBJ       10
    x[91]     interdiction[91]  1
    x[92]     OBJ       10
    x[92]     interdiction[92]  1
    x[93]     OBJ       10
    x[93]     interdiction[93]  1
    x[94]     OBJ       10
    x[94]     interdiction[94]  1
    x[95]     OBJ       10
    x[95]     interdiction[95]  1
    x[96]     OBJ       10
    x[96]     interdiction[96]  1
    x[97]     OBJ       10
    x[97]     interdiction[97]  1
    x[98]     OBJ       10
    x[98]     interdiction[98]  1
    x[99]     OBJ       10
    x[99]     interdiction[99]  1
    y[0]      OBJ       -907
    y[0]      primal_upper  249
    y[0]      mccormick2[0]  -1
    y[0]      mccormick3[0]  1
    y[1]      OBJ       -972
    y[1]      primal_upper  37
    y[1]      mccormick2[1]  -1
    y[1]      mccormick3[1]  1
    y[2]      OBJ       -21
    y[2]      primal_upper  819
    y[2]      mccormick2[2]  -1
    y[2]      mccormick3[2]  1
    y[3]      OBJ       -873
    y[3]      primal_upper  388
    y[3]      mccormick2[3]  -1
    y[3]      mccormick3[3]  1
    y[4]      OBJ       -55
    y[4]      primal_upper  213
    y[4]      mccormick2[4]  -1
    y[4]      mccormick3[4]  1
    y[5]      OBJ       -774
    y[5]      primal_upper  907
    y[5]      mccormick2[5]  -1
    y[5]      mccormick3[5]  1
    y[6]      OBJ       -455
    y[6]      primal_upper  182
    y[6]      mccormick2[6]  -1
    y[6]      mccormick3[6]  1
    y[7]      OBJ       -553
    y[7]      primal_upper  525
    y[7]      mccormick2[7]  -1
    y[7]      mccormick3[7]  1
    y[8]      OBJ       -820
    y[8]      primal_upper  806
    y[8]      mccormick2[8]  -1
    y[8]      mccormick3[8]  1
    y[9]      OBJ       -112
    y[9]      primal_upper  755
    y[9]      mccormick2[9]  -1
    y[9]      mccormick3[9]  1
    y[10]     OBJ       -292
    y[10]     primal_upper  61
    y[10]     mccormick2[10]  -1
    y[10]     mccormick3[10]  1
    y[11]     OBJ       -104
    y[11]     primal_upper  836
    y[11]     mccormick2[11]  -1
    y[11]     mccormick3[11]  1
    y[12]     OBJ       -32
    y[12]     primal_upper  445
    y[12]     mccormick2[12]  -1
    y[12]     mccormick3[12]  1
    y[13]     OBJ       -871
    y[13]     primal_upper  597
    y[13]     mccormick2[13]  -1
    y[13]     mccormick3[13]  1
    y[14]     OBJ       -956
    y[14]     primal_upper  382
    y[14]     mccormick2[14]  -1
    y[14]     mccormick3[14]  1
    y[15]     OBJ       -617
    y[15]     primal_upper  718
    y[15]     mccormick2[15]  -1
    y[15]     mccormick3[15]  1
    y[16]     OBJ       -443
    y[16]     primal_upper  558
    y[16]     mccormick2[16]  -1
    y[16]     mccormick3[16]  1
    y[17]     OBJ       -535
    y[17]     primal_upper  489
    y[17]     mccormick2[17]  -1
    y[17]     mccormick3[17]  1
    y[18]     OBJ       -960
    y[18]     primal_upper  210
    y[18]     mccormick2[18]  -1
    y[18]     mccormick3[18]  1
    y[19]     OBJ       -359
    y[19]     primal_upper  903
    y[19]     mccormick2[19]  -1
    y[19]     mccormick3[19]  1
    y[20]     OBJ       -479
    y[20]     primal_upper  694
    y[20]     mccormick2[20]  -1
    y[20]     mccormick3[20]  1
    y[21]     OBJ       -548
    y[21]     primal_upper  521
    y[21]     mccormick2[21]  -1
    y[21]     mccormick3[21]  1
    y[22]     OBJ       -977
    y[22]     primal_upper  453
    y[22]     mccormick2[22]  -1
    y[22]     mccormick3[22]  1
    y[23]     OBJ       -685
    y[23]     primal_upper  416
    y[23]     mccormick2[23]  -1
    y[23]     mccormick3[23]  1
    y[24]     OBJ       -238
    y[24]     primal_upper  486
    y[24]     mccormick2[24]  -1
    y[24]     mccormick3[24]  1
    y[25]     OBJ       -172
    y[25]     primal_upper  689
    y[25]     mccormick2[25]  -1
    y[25]     mccormick3[25]  1
    y[26]     OBJ       -445
    y[26]     primal_upper  91
    y[26]     mccormick2[26]  -1
    y[26]     mccormick3[26]  1
    y[27]     OBJ       -101
    y[27]     primal_upper  529
    y[27]     mccormick2[27]  -1
    y[27]     mccormick3[27]  1
    y[28]     OBJ       -559
    y[28]     primal_upper  991
    y[28]     mccormick2[28]  -1
    y[28]     mccormick3[28]  1
    y[29]     OBJ       -958
    y[29]     primal_upper  128
    y[29]     mccormick2[29]  -1
    y[29]     mccormick3[29]  1
    y[30]     OBJ       -922
    y[30]     primal_upper  787
    y[30]     mccormick2[30]  -1
    y[30]     mccormick3[30]  1
    y[31]     OBJ       -989
    y[31]     primal_upper  301
    y[31]     mccormick2[31]  -1
    y[31]     mccormick3[31]  1
    y[32]     OBJ       -737
    y[32]     primal_upper  789
    y[32]     mccormick2[32]  -1
    y[32]     mccormick3[32]  1
    y[33]     OBJ       -476
    y[33]     primal_upper  702
    y[33]     mccormick2[33]  -1
    y[33]     mccormick3[33]  1
    y[34]     OBJ       -761
    y[34]     primal_upper  661
    y[34]     mccormick2[34]  -1
    y[34]     mccormick3[34]  1
    y[35]     OBJ       -578
    y[35]     primal_upper  50
    y[35]     mccormick2[35]  -1
    y[35]     mccormick3[35]  1
    y[36]     OBJ       -374
    y[36]     primal_upper  45
    y[36]     mccormick2[36]  -1
    y[36]     mccormick3[36]  1
    y[37]     OBJ       -292
    y[37]     primal_upper  454
    y[37]     mccormick2[37]  -1
    y[37]     mccormick3[37]  1
    y[38]     OBJ       -596
    y[38]     primal_upper  277
    y[38]     mccormick2[38]  -1
    y[38]     mccormick3[38]  1
    y[39]     OBJ       -401
    y[39]     primal_upper  576
    y[39]     mccormick2[39]  -1
    y[39]     mccormick3[39]  1
    y[40]     OBJ       -545
    y[40]     primal_upper  856
    y[40]     mccormick2[40]  -1
    y[40]     mccormick3[40]  1
    y[41]     OBJ       -587
    y[41]     primal_upper  811
    y[41]     mccormick2[41]  -1
    y[41]     mccormick3[41]  1
    y[42]     OBJ       -303
    y[42]     primal_upper  567
    y[42]     mccormick2[42]  -1
    y[42]     mccormick3[42]  1
    y[43]     OBJ       -896
    y[43]     primal_upper  591
    y[43]     mccormick2[43]  -1
    y[43]     mccormick3[43]  1
    y[44]     OBJ       -120
    y[44]     primal_upper  472
    y[44]     mccormick2[44]  -1
    y[44]     mccormick3[44]  1
    y[45]     OBJ       -192
    y[45]     primal_upper  876
    y[45]     mccormick2[45]  -1
    y[45]     mccormick3[45]  1
    y[46]     OBJ       -722
    y[46]     primal_upper  835
    y[46]     mccormick2[46]  -1
    y[46]     mccormick3[46]  1
    y[47]     OBJ       -770
    y[47]     primal_upper  51
    y[47]     mccormick2[47]  -1
    y[47]     mccormick3[47]  1
    y[48]     OBJ       -178
    y[48]     primal_upper  536
    y[48]     mccormick2[48]  -1
    y[48]     mccormick3[48]  1
    y[49]     OBJ       -639
    y[49]     primal_upper  577
    y[49]     mccormick2[49]  -1
    y[49]     mccormick3[49]  1
    y[50]     OBJ       -36
    y[50]     primal_upper  496
    y[50]     mccormick2[50]  -1
    y[50]     mccormick3[50]  1
    y[51]     OBJ       -832
    y[51]     primal_upper  849
    y[51]     mccormick2[51]  -1
    y[51]     mccormick3[51]  1
    y[52]     OBJ       -272
    y[52]     primal_upper  30
    y[52]     mccormick2[52]  -1
    y[52]     mccormick3[52]  1
    y[53]     OBJ       -10
    y[53]     primal_upper  965
    y[53]     mccormick2[53]  -1
    y[53]     mccormick3[53]  1
    y[54]     OBJ       -153
    y[54]     primal_upper  322
    y[54]     mccormick2[54]  -1
    y[54]     mccormick3[54]  1
    y[55]     OBJ       -279
    y[55]     primal_upper  945
    y[55]     mccormick2[55]  -1
    y[55]     mccormick3[55]  1
    y[56]     OBJ       -256
    y[56]     primal_upper  770
    y[56]     mccormick2[56]  -1
    y[56]     mccormick3[56]  1
    y[57]     OBJ       -193
    y[57]     primal_upper  452
    y[57]     mccormick2[57]  -1
    y[57]     mccormick3[57]  1
    y[58]     OBJ       -693
    y[58]     primal_upper  485
    y[58]     mccormick2[58]  -1
    y[58]     mccormick3[58]  1
    y[59]     OBJ       -208
    y[59]     primal_upper  971
    y[59]     mccormick2[59]  -1
    y[59]     mccormick3[59]  1
    y[60]     OBJ       -557
    y[60]     primal_upper  750
    y[60]     mccormick2[60]  -1
    y[60]     mccormick3[60]  1
    y[61]     OBJ       -307
    y[61]     primal_upper  260
    y[61]     mccormick2[61]  -1
    y[61]     mccormick3[61]  1
    y[62]     OBJ       -207
    y[62]     primal_upper  833
    y[62]     mccormick2[62]  -1
    y[62]     mccormick3[62]  1
    y[63]     OBJ       -907
    y[63]     primal_upper  852
    y[63]     mccormick2[63]  -1
    y[63]     mccormick3[63]  1
    y[64]     OBJ       -720
    y[64]     primal_upper  613
    y[64]     mccormick2[64]  -1
    y[64]     mccormick3[64]  1
    y[65]     OBJ       -186
    y[65]     primal_upper  157
    y[65]     mccormick2[65]  -1
    y[65]     mccormick3[65]  1
    y[66]     OBJ       -78
    y[66]     primal_upper  894
    y[66]     mccormick2[66]  -1
    y[66]     mccormick3[66]  1
    y[67]     OBJ       -715
    y[67]     primal_upper  232
    y[67]     mccormick2[67]  -1
    y[67]     mccormick3[67]  1
    y[68]     OBJ       -754
    y[68]     primal_upper  733
    y[68]     mccormick2[68]  -1
    y[68]     mccormick3[68]  1
    y[69]     OBJ       -571
    y[69]     primal_upper  611
    y[69]     mccormick2[69]  -1
    y[69]     mccormick3[69]  1
    y[70]     OBJ       -374
    y[70]     primal_upper  639
    y[70]     mccormick2[70]  -1
    y[70]     mccormick3[70]  1
    y[71]     OBJ       -692
    y[71]     primal_upper  919
    y[71]     mccormick2[71]  -1
    y[71]     mccormick3[71]  1
    y[72]     OBJ       -406
    y[72]     primal_upper  295
    y[72]     mccormick2[72]  -1
    y[72]     mccormick3[72]  1
    y[73]     OBJ       -163
    y[73]     primal_upper  248
    y[73]     mccormick2[73]  -1
    y[73]     mccormick3[73]  1
    y[74]     OBJ       -796
    y[74]     primal_upper  497
    y[74]     mccormick2[74]  -1
    y[74]     mccormick3[74]  1
    y[75]     OBJ       -407
    y[75]     primal_upper  298
    y[75]     mccormick2[75]  -1
    y[75]     mccormick3[75]  1
    y[76]     OBJ       -867
    y[76]     primal_upper  956
    y[76]     mccormick2[76]  -1
    y[76]     mccormick3[76]  1
    y[77]     OBJ       -34
    y[77]     primal_upper  68
    y[77]     mccormick2[77]  -1
    y[77]     mccormick3[77]  1
    y[78]     OBJ       -21
    y[78]     primal_upper  234
    y[78]     mccormick2[78]  -1
    y[78]     mccormick3[78]  1
    y[79]     OBJ       -989
    y[79]     primal_upper  484
    y[79]     mccormick2[79]  -1
    y[79]     mccormick3[79]  1
    y[80]     OBJ       -584
    y[80]     primal_upper  119
    y[80]     mccormick2[80]  -1
    y[80]     mccormick3[80]  1
    y[81]     OBJ       -651
    y[81]     primal_upper  87
    y[81]     mccormick2[81]  -1
    y[81]     mccormick3[81]  1
    y[82]     OBJ       -723
    y[82]     primal_upper  884
    y[82]     mccormick2[82]  -1
    y[82]     mccormick3[82]  1
    y[83]     OBJ       -471
    y[83]     primal_upper  771
    y[83]     mccormick2[83]  -1
    y[83]     mccormick3[83]  1
    y[84]     OBJ       -638
    y[84]     primal_upper  815
    y[84]     mccormick2[84]  -1
    y[84]     mccormick3[84]  1
    y[85]     OBJ       -546
    y[85]     primal_upper  683
    y[85]     mccormick2[85]  -1
    y[85]     mccormick3[85]  1
    y[86]     OBJ       -455
    y[86]     primal_upper  185
    y[86]     mccormick2[86]  -1
    y[86]     mccormick3[86]  1
    y[87]     OBJ       -324
    y[87]     primal_upper  973
    y[87]     mccormick2[87]  -1
    y[87]     mccormick3[87]  1
    y[88]     OBJ       -217
    y[88]     primal_upper  955
    y[88]     mccormick2[88]  -1
    y[88]     mccormick3[88]  1
    y[89]     OBJ       -556
    y[89]     primal_upper  428
    y[89]     mccormick2[89]  -1
    y[89]     mccormick3[89]  1
    y[90]     OBJ       -295
    y[90]     primal_upper  22
    y[90]     mccormick2[90]  -1
    y[90]     mccormick3[90]  1
    y[91]     OBJ       -155
    y[91]     primal_upper  982
    y[91]     mccormick2[91]  -1
    y[91]     mccormick3[91]  1
    y[92]     OBJ       -287
    y[92]     primal_upper  790
    y[92]     mccormick2[92]  -1
    y[92]     mccormick3[92]  1
    y[93]     OBJ       -666
    y[93]     primal_upper  705
    y[93]     mccormick2[93]  -1
    y[93]     mccormick3[93]  1
    y[94]     OBJ       -801
    y[94]     primal_upper  785
    y[94]     mccormick2[94]  -1
    y[94]     mccormick3[94]  1
    y[95]     OBJ       -556
    y[95]     primal_upper  246
    y[95]     mccormick2[95]  -1
    y[95]     mccormick3[95]  1
    y[96]     OBJ       -478
    y[96]     primal_upper  250
    y[96]     mccormick2[96]  -1
    y[96]     mccormick3[96]  1
    y[97]     OBJ       -493
    y[97]     primal_upper  722
    y[97]     mccormick2[97]  -1
    y[97]     mccormick3[97]  1
    y[98]     OBJ       -950
    y[98]     primal_upper  981
    y[98]     mccormick2[98]  -1
    y[98]     mccormick3[98]  1
    y[99]     OBJ       -578
    y[99]     primal_upper  861
    y[99]     mccormick2[99]  -1
    y[99]     mccormick3[99]  1
    u[0]      primal_lower0  517
    u[0]      primal_lower1  436
    u[0]      primal_lower2  937
    u[0]      primal_lower3  609
    u[0]      primal_lower4  471
    u[0]      primal_lower5  41
    u[0]      primal_lower6  820
    u[0]      primal_lower7  349
    u[0]      primal_lower8  440
    u[0]      primal_lower9  811
    u[0]      primal_lower10  389
    u[0]      primal_lower11  510
    u[0]      primal_lower12  153
    u[0]      primal_lower13  213
    u[0]      primal_lower14  965
    u[0]      primal_lower15  344
    u[0]      primal_lower16  142
    u[0]      primal_lower17  473
    u[0]      primal_lower18  37
    u[0]      primal_lower19  577
    u[0]      primal_lower20  232
    u[0]      primal_lower21  212
    u[0]      primal_lower22  90
    u[0]      primal_lower23  676
    u[0]      primal_lower24  670
    u[0]      primal_lower25  379
    u[0]      primal_lower26  902
    u[0]      primal_lower27  671
    u[0]      primal_lower28  32
    u[0]      primal_lower29  913
    u[0]      primal_lower30  240
    u[0]      primal_lower31  531
    u[0]      primal_lower32  123
    u[0]      primal_lower33  608
    u[0]      primal_lower34  637
    u[0]      primal_lower35  521
    u[0]      primal_lower36  294
    u[0]      primal_lower37  574
    u[0]      primal_lower38  692
    u[0]      primal_lower39  282
    u[0]      primal_lower40  286
    u[0]      primal_lower41  360
    u[0]      primal_lower42  577
    u[0]      primal_lower43  204
    u[0]      primal_lower44  601
    u[0]      primal_lower45  978
    u[0]      primal_lower46  426
    u[0]      primal_lower47  857
    u[0]      primal_lower48  988
    u[0]      primal_lower49  796
    u[0]      primal_lower50  761
    u[0]      primal_lower51  241
    u[0]      primal_lower52  709
    u[0]      primal_lower53  76
    u[0]      primal_lower54  915
    u[0]      primal_lower55  561
    u[0]      primal_lower56  362
    u[0]      primal_lower57  118
    u[0]      primal_lower58  902
    u[0]      primal_lower59  822
    u[0]      primal_lower60  218
    u[0]      primal_lower61  941
    u[0]      primal_lower62  912
    u[0]      primal_lower63  542
    u[0]      primal_lower64  851
    u[0]      primal_lower65  164
    u[0]      primal_lower66  806
    u[0]      primal_lower67  665
    u[0]      primal_lower68  132
    u[0]      primal_lower69  535
    u[0]      primal_lower70  299
    u[0]      primal_lower71  403
    u[0]      primal_lower72  168
    u[0]      primal_lower73  768
    u[0]      primal_lower74  454
    u[0]      primal_lower75  118
    u[0]      primal_lower76  233
    u[0]      primal_lower77  827
    u[0]      primal_lower78  456
    u[0]      primal_lower79  97
    u[0]      primal_lower80  671
    u[0]      primal_lower81  696
    u[0]      primal_lower82  888
    u[0]      primal_lower83  756
    u[0]      primal_lower84  533
    u[0]      primal_lower85  691
    u[0]      primal_lower86  940
    u[0]      primal_lower87  258
    u[0]      primal_lower88  782
    u[0]      primal_lower89  950
    u[0]      primal_lower90  425
    u[0]      primal_lower91  600
    u[0]      primal_lower92  544
    u[0]      primal_lower93  140
    u[0]      primal_lower94  353
    u[0]      primal_lower95  444
    u[0]      primal_lower96  59
    u[0]      primal_lower97  119
    u[0]      primal_lower98  441
    u[0]      primal_lower99  618
    u[0]      interdiction[0]  1
    u[0]      mccormick1[0]  -1
    u[0]      mccormick3[0]  1
    u[1]      primal_lower0  585
    u[1]      primal_lower1  861
    u[1]      primal_lower2  77
    u[1]      primal_lower3  554
    u[1]      primal_lower4  296
    u[1]      primal_lower5  525
    u[1]      primal_lower6  653
    u[1]      primal_lower7  70
    u[1]      primal_lower8  193
    u[1]      primal_lower9  935
    u[1]      primal_lower10  385
    u[1]      primal_lower11  698
    u[1]      primal_lower12  469
    u[1]      primal_lower13  814
    u[1]      primal_lower14  278
    u[1]      primal_lower15  489
    u[1]      primal_lower16  298
    u[1]      primal_lower17  197
    u[1]      primal_lower18  950
    u[1]      primal_lower19  37
    u[1]      primal_lower20  116
    u[1]      primal_lower21  901
    u[1]      primal_lower22  339
    u[1]      primal_lower23  157
    u[1]      primal_lower24  295
    u[1]      primal_lower25  847
    u[1]      primal_lower26  778
    u[1]      primal_lower27  443
    u[1]      primal_lower28  577
    u[1]      primal_lower29  285
    u[1]      primal_lower30  468
    u[1]      primal_lower31  583
    u[1]      primal_lower32  900
    u[1]      primal_lower33  68
    u[1]      primal_lower34  697
    u[1]      primal_lower35  450
    u[1]      primal_lower36  994
    u[1]      primal_lower37  655
    u[1]      primal_lower38  453
    u[1]      primal_lower39  646
    u[1]      primal_lower40  482
    u[1]      primal_lower41  700
    u[1]      primal_lower42  106
    u[1]      primal_lower43  173
    u[1]      primal_lower44  746
    u[1]      primal_lower45  907
    u[1]      primal_lower46  286
    u[1]      primal_lower47  349
    u[1]      primal_lower48  405
    u[1]      primal_lower49  829
    u[1]      primal_lower50  122
    u[1]      primal_lower51  885
    u[1]      primal_lower52  913
    u[1]      primal_lower53  293
    u[1]      primal_lower54  956
    u[1]      primal_lower55  989
    u[1]      primal_lower56  350
    u[1]      primal_lower57  895
    u[1]      primal_lower58  530
    u[1]      primal_lower59  991
    u[1]      primal_lower60  686
    u[1]      primal_lower61  769
    u[1]      primal_lower62  937
    u[1]      primal_lower63  239
    u[1]      primal_lower64  292
    u[1]      primal_lower65  741
    u[1]      primal_lower66  7
    u[1]      primal_lower67  834
    u[1]      primal_lower68  541
    u[1]      primal_lower69  672
    u[1]      primal_lower70  503
    u[1]      primal_lower71  503
    u[1]      primal_lower72  236
    u[1]      primal_lower73  732
    u[1]      primal_lower74  199
    u[1]      primal_lower75  143
    u[1]      primal_lower76  466
    u[1]      primal_lower77  279
    u[1]      primal_lower78  300
    u[1]      primal_lower79  570
    u[1]      primal_lower80  907
    u[1]      primal_lower81  612
    u[1]      primal_lower82  249
    u[1]      primal_lower83  640
    u[1]      primal_lower84  209
    u[1]      primal_lower85  356
    u[1]      primal_lower86  37
    u[1]      primal_lower87  955
    u[1]      primal_lower88  943
    u[1]      primal_lower89  919
    u[1]      primal_lower90  661
    u[1]      primal_lower91  540
    u[1]      primal_lower92  260
    u[1]      primal_lower93  960
    u[1]      primal_lower94  453
    u[1]      primal_lower95  896
    u[1]      primal_lower96  999
    u[1]      primal_lower97  96
    u[1]      primal_lower98  162
    u[1]      primal_lower99  715
    u[1]      interdiction[1]  1
    u[1]      mccormick1[1]  -1
    u[1]      mccormick3[1]  1
    u[2]      primal_lower0  703
    u[2]      primal_lower1  263
    u[2]      primal_lower2  203
    u[2]      primal_lower3  692
    u[2]      primal_lower4  690
    u[2]      primal_lower5  435
    u[2]      primal_lower6  127
    u[2]      primal_lower7  576
    u[2]      primal_lower8  883
    u[2]      primal_lower9  677
    u[2]      primal_lower10  527
    u[2]      primal_lower11  248
    u[2]      primal_lower12  315
    u[2]      primal_lower13  864
    u[2]      primal_lower14  792
    u[2]      primal_lower15  611
    u[2]      primal_lower16  976
    u[2]      primal_lower17  67
    u[2]      primal_lower18  288
    u[2]      primal_lower19  283
    u[2]      primal_lower20  634
    u[2]      primal_lower21  663
    u[2]      primal_lower22  989
    u[2]      primal_lower23  839
    u[2]      primal_lower24  785
    u[2]      primal_lower25  221
    u[2]      primal_lower26  544
    u[2]      primal_lower27  825
    u[2]      primal_lower28  123
    u[2]      primal_lower29  555
    u[2]      primal_lower30  218
    u[2]      primal_lower31  893
    u[2]      primal_lower32  806
    u[2]      primal_lower33  58
    u[2]      primal_lower34  935
    u[2]      primal_lower35  508
    u[2]      primal_lower36  752
    u[2]      primal_lower37  249
    u[2]      primal_lower38  951
    u[2]      primal_lower39  572
    u[2]      primal_lower40  688
    u[2]      primal_lower41  418
    u[2]      primal_lower42  724
    u[2]      primal_lower43  231
    u[2]      primal_lower44  660
    u[2]      primal_lower45  253
    u[2]      primal_lower46  924
    u[2]      primal_lower47  171
    u[2]      primal_lower48  663
    u[2]      primal_lower49  151
    u[2]      primal_lower50  124
    u[2]      primal_lower51  75
    u[2]      primal_lower52  711
    u[2]      primal_lower53  671
    u[2]      primal_lower54  70
    u[2]      primal_lower55  675
    u[2]      primal_lower56  428
    u[2]      primal_lower57  529
    u[2]      primal_lower58  40
    u[2]      primal_lower59  753
    u[2]      primal_lower60  900
    u[2]      primal_lower61  63
    u[2]      primal_lower62  139
    u[2]      primal_lower63  753
    u[2]      primal_lower64  254
    u[2]      primal_lower65  567
    u[2]      primal_lower66  137
    u[2]      primal_lower67  788
    u[2]      primal_lower68  439
    u[2]      primal_lower69  106
    u[2]      primal_lower70  605
    u[2]      primal_lower71  765
    u[2]      primal_lower72  642
    u[2]      primal_lower73  922
    u[2]      primal_lower74  305
    u[2]      primal_lower75  33
    u[2]      primal_lower76  164
    u[2]      primal_lower77  533
    u[2]      primal_lower78  250
    u[2]      primal_lower79  964
    u[2]      primal_lower80  505
    u[2]      primal_lower81  354
    u[2]      primal_lower82  75
    u[2]      primal_lower83  814
    u[2]      primal_lower84  807
    u[2]      primal_lower85  902
    u[2]      primal_lower86  959
    u[2]      primal_lower87  29
    u[2]      primal_lower88  697
    u[2]      primal_lower89  169
    u[2]      primal_lower90  931
    u[2]      primal_lower91  274
    u[2]      primal_lower92  98
    u[2]      primal_lower93  350
    u[2]      primal_lower94  723
    u[2]      primal_lower95  566
    u[2]      primal_lower96  501
    u[2]      primal_lower97  210
    u[2]      primal_lower98  588
    u[2]      primal_lower99  701
    u[2]      interdiction[2]  1
    u[2]      mccormick1[2]  -1
    u[2]      mccormick3[2]  1
    u[3]      primal_lower0  488
    u[3]      primal_lower1  420
    u[3]      primal_lower2  716
    u[3]      primal_lower3  489
    u[3]      primal_lower4  447
    u[3]      primal_lower5  156
    u[3]      primal_lower6  876
    u[3]      primal_lower7  461
    u[3]      primal_lower8  176
    u[3]      primal_lower9  134
    u[3]      primal_lower10  112
    u[3]      primal_lower11  953
    u[3]      primal_lower12  100
    u[3]      primal_lower13  549
    u[3]      primal_lower14  845
    u[3]      primal_lower15  232
    u[3]      primal_lower16  913
    u[3]      primal_lower17  916
    u[3]      primal_lower18  325
    u[3]      primal_lower19  196
    u[3]      primal_lower20  995
    u[3]      primal_lower21  596
    u[3]      primal_lower22  114
    u[3]      primal_lower23  316
    u[3]      primal_lower24  910
    u[3]      primal_lower25  406
    u[3]      primal_lower26  345
    u[3]      primal_lower27  698
    u[3]      primal_lower28  688
    u[3]      primal_lower29  380
    u[3]      primal_lower30  627
    u[3]      primal_lower31  422
    u[3]      primal_lower32  267
    u[3]      primal_lower33  531
    u[3]      primal_lower34  144
    u[3]      primal_lower35  361
    u[3]      primal_lower36  529
    u[3]      primal_lower37  686
    u[3]      primal_lower38  500
    u[3]      primal_lower39  477
    u[3]      primal_lower40  433
    u[3]      primal_lower41  155
    u[3]      primal_lower42  185
    u[3]      primal_lower43  852
    u[3]      primal_lower44  945
    u[3]      primal_lower45  74
    u[3]      primal_lower46  909
    u[3]      primal_lower47  508
    u[3]      primal_lower48  572
    u[3]      primal_lower49  4
    u[3]      primal_lower50  177
    u[3]      primal_lower51  268
    u[3]      primal_lower52  64
    u[3]      primal_lower53  244
    u[3]      primal_lower54  931
    u[3]      primal_lower55  4
    u[3]      primal_lower56  37
    u[3]      primal_lower57  470
    u[3]      primal_lower58  353
    u[3]      primal_lower59  526
    u[3]      primal_lower60  149
    u[3]      primal_lower61  608
    u[3]      primal_lower62  536
    u[3]      primal_lower63  246
    u[3]      primal_lower64  507
    u[3]      primal_lower65  948
    u[3]      primal_lower66  734
    u[3]      primal_lower67  745
    u[3]      primal_lower68  964
    u[3]      primal_lower69  287
    u[3]      primal_lower70  174
    u[3]      primal_lower71  758
    u[3]      primal_lower72  115
    u[3]      primal_lower73  155
    u[3]      primal_lower74  646
    u[3]      primal_lower75  462
    u[3]      primal_lower76  969
    u[3]      primal_lower77  446
    u[3]      primal_lower78  979
    u[3]      primal_lower79  225
    u[3]      primal_lower80  338
    u[3]      primal_lower81  819
    u[3]      primal_lower82  648
    u[3]      primal_lower83  959
    u[3]      primal_lower84  304
    u[3]      primal_lower85  435
    u[3]      primal_lower86  332
    u[3]      primal_lower87  802
    u[3]      primal_lower88  598
    u[3]      primal_lower89  614
    u[3]      primal_lower90  156
    u[3]      primal_lower91  491
    u[3]      primal_lower92  587
    u[3]      primal_lower93  263
    u[3]      primal_lower94  292
    u[3]      primal_lower95  935
    u[3]      primal_lower96  526
    u[3]      primal_lower97  655
    u[3]      primal_lower98  313
    u[3]      primal_lower99  818
    u[3]      interdiction[3]  1
    u[3]      mccormick1[3]  -1
    u[3]      mccormick3[3]  1
    u[4]      primal_lower0  377
    u[4]      primal_lower1  129
    u[4]      primal_lower2  845
    u[4]      primal_lower3  246
    u[4]      primal_lower4  588
    u[4]      primal_lower5  453
    u[4]      primal_lower6  281
    u[4]      primal_lower7  538
    u[4]      primal_lower8  709
    u[4]      primal_lower9  127
    u[4]      primal_lower10  849
    u[4]      primal_lower11  794
    u[4]      primal_lower12  293
    u[4]      primal_lower13  242
    u[4]      primal_lower14  34
    u[4]      primal_lower15  965
    u[4]      primal_lower16  722
    u[4]      primal_lower17  917
    u[4]      primal_lower18  602
    u[4]      primal_lower19  613
    u[4]      primal_lower20  244
    u[4]      primal_lower21  137
    u[4]      primal_lower22  367
    u[4]      primal_lower23  833
    u[4]      primal_lower24  811
    u[4]      primal_lower25  751
    u[4]      primal_lower26  210
    u[4]      primal_lower27  603
    u[4]      primal_lower28  973
    u[4]      primal_lower29  237
    u[4]      primal_lower30  852
    u[4]      primal_lower31  543
    u[4]      primal_lower32  400
    u[4]      primal_lower33  372
    u[4]      primal_lower34  441
    u[4]      primal_lower35  126
    u[4]      primal_lower36  634
    u[4]      primal_lower37  579
    u[4]      primal_lower38  753
    u[4]      primal_lower39  814
    u[4]      primal_lower40  458
    u[4]      primal_lower41  604
    u[4]      primal_lower42  30
    u[4]      primal_lower43  761
    u[4]      primal_lower44  302
    u[4]      primal_lower45  303
    u[4]      primal_lower46  694
    u[4]      primal_lower47  509
    u[4]      primal_lower48  713
    u[4]      primal_lower49  49
    u[4]      primal_lower50  214
    u[4]      primal_lower51  125
    u[4]      primal_lower52  409
    u[4]      primal_lower53  633
    u[4]      primal_lower54  240
    u[4]      primal_lower55  517
    u[4]      primal_lower56  758
    u[4]      primal_lower57  307
    u[4]      primal_lower58  386
    u[4]      primal_lower59  723
    u[4]      primal_lower60  678
    u[4]      primal_lower61  865
    u[4]      primal_lower62  189
    u[4]      primal_lower63  171
    u[4]      primal_lower64  136
    u[4]      primal_lower65  89
    u[4]      primal_lower66  59
    u[4]      primal_lower67  118
    u[4]      primal_lower68  881
    u[4]      primal_lower69  180
    u[4]      primal_lower70  439
    u[4]      primal_lower71  159
    u[4]      primal_lower72  940
    u[4]      primal_lower73  604
    u[4]      primal_lower74  563
    u[4]      primal_lower75  939
    u[4]      primal_lower76  918
    u[4]      primal_lower77  615
    u[4]      primal_lower78  148
    u[4]      primal_lower79  94
    u[4]      primal_lower80  435
    u[4]      primal_lower81  148
    u[4]      primal_lower82  349
    u[4]      primal_lower83  672
    u[4]      primal_lower84  953
    u[4]      primal_lower85  880
    u[4]      primal_lower86  529
    u[4]      primal_lower87  431
    u[4]      primal_lower88  75
    u[4]      primal_lower89  963
    u[4]      primal_lower90  101
    u[4]      primal_lower91  516
    u[4]      primal_lower92  380
    u[4]      primal_lower93  88
    u[4]      primal_lower94  389
    u[4]      primal_lower95  504
    u[4]      primal_lower96  439
    u[4]      primal_lower97  380
    u[4]      primal_lower98  446
    u[4]      primal_lower99  383
    u[4]      interdiction[4]  1
    u[4]      mccormick1[4]  -1
    u[4]      mccormick3[4]  1
    u[5]      primal_lower0  775
    u[5]      primal_lower1  938
    u[5]      primal_lower2  907
    u[5]      primal_lower3  759
    u[5]      primal_lower4  197
    u[5]      primal_lower5  475
    u[5]      primal_lower6  586
    u[5]      primal_lower7  843
    u[5]      primal_lower8  974
    u[5]      primal_lower9  781
    u[5]      primal_lower10  151
    u[5]      primal_lower11  744
    u[5]      primal_lower12  107
    u[5]      primal_lower13  979
    u[5]      primal_lower14  707
    u[5]      primal_lower15  430
    u[5]      primal_lower16  800
    u[5]      primal_lower17  11
    u[5]      primal_lower18  731
    u[5]      primal_lower19  123
    u[5]      primal_lower20  922
    u[5]      primal_lower21  218
    u[5]      primal_lower22  384
    u[5]      primal_lower23  298
    u[5]      primal_lower24  756
    u[5]      primal_lower25  981
    u[5]      primal_lower26  392
    u[5]      primal_lower27  921
    u[5]      primal_lower28  518
    u[5]      primal_lower29  283
    u[5]      primal_lower30  266
    u[5]      primal_lower31  693
    u[5]      primal_lower32  329
    u[5]      primal_lower33  698
    u[5]      primal_lower34  375
    u[5]      primal_lower35  135
    u[5]      primal_lower36  136
    u[5]      primal_lower37  500
    u[5]      primal_lower38  154
    u[5]      primal_lower39  940
    u[5]      primal_lower40  872
    u[5]      primal_lower41  410
    u[5]      primal_lower42  151
    u[5]      primal_lower43  882
    u[5]      primal_lower44  287
    u[5]      primal_lower45  32
    u[5]      primal_lower46  140
    u[5]      primal_lower47  643
    u[5]      primal_lower48  634
    u[5]      primal_lower49  266
    u[5]      primal_lower50  679
    u[5]      primal_lower51  139
    u[5]      primal_lower52  375
    u[5]      primal_lower53  378
    u[5]      primal_lower54  945
    u[5]      primal_lower55  35
    u[5]      primal_lower56  132
    u[5]      primal_lower57  484
    u[5]      primal_lower58  624
    u[5]      primal_lower59  92
    u[5]      primal_lower60  52
    u[5]      primal_lower61  927
    u[5]      primal_lower62  438
    u[5]      primal_lower63  748
    u[5]      primal_lower64  969
    u[5]      primal_lower65  298
    u[5]      primal_lower66  940
    u[5]      primal_lower67  887
    u[5]      primal_lower68  426
    u[5]      primal_lower69  837
    u[5]      primal_lower70  389
    u[5]      primal_lower71  509
    u[5]      primal_lower72  874
    u[5]      primal_lower73  618
    u[5]      primal_lower74  604
    u[5]      primal_lower75  252
    u[5]      primal_lower76  79
    u[5]      primal_lower77  725
    u[5]      primal_lower78  98
    u[5]      primal_lower79  711
    u[5]      primal_lower80  761
    u[5]      primal_lower81  146
    u[5]      primal_lower82  22
    u[5]      primal_lower83  62
    u[5]      primal_lower84  239
    u[5]      primal_lower85  209
    u[5]      primal_lower86  514
    u[5]      primal_lower87  392
    u[5]      primal_lower88  180
    u[5]      primal_lower89  980
    u[5]      primal_lower90  715
    u[5]      primal_lower91  938
    u[5]      primal_lower92  106
    u[5]      primal_lower93  486
    u[5]      primal_lower94  587
    u[5]      primal_lower95  942
    u[5]      primal_lower96  533
    u[5]      primal_lower97  285
    u[5]      primal_lower98  695
    u[5]      primal_lower99  656
    u[5]      interdiction[5]  1
    u[5]      mccormick1[5]  -1
    u[5]      mccormick3[5]  1
    u[6]      primal_lower0  58
    u[6]      primal_lower1  730
    u[6]      primal_lower2  118
    u[6]      primal_lower3  407
    u[6]      primal_lower4  21
    u[6]      primal_lower5  398
    u[6]      primal_lower6  82
    u[6]      primal_lower7  315
    u[6]      primal_lower8  286
    u[6]      primal_lower9  728
    u[6]      primal_lower10  482
    u[6]      primal_lower11  83
    u[6]      primal_lower12  822
    u[6]      primal_lower13  867
    u[6]      primal_lower14  739
    u[6]      primal_lower15  214
    u[6]      primal_lower16  219
    u[6]      primal_lower17  654
    u[6]      primal_lower18  947
    u[6]      primal_lower19  62
    u[6]      primal_lower20  797
    u[6]      primal_lower21  762
    u[6]      primal_lower22  24
    u[6]      primal_lower23  90
    u[6]      primal_lower24  156
    u[6]      primal_lower25  600
    u[6]      primal_lower26  539
    u[6]      primal_lower27  796
    u[6]      primal_lower28  486
    u[6]      primal_lower29  590
    u[6]      primal_lower30  469
    u[6]      primal_lower31  328
    u[6]      primal_lower32  993
    u[6]      primal_lower33  61
    u[6]      primal_lower34  482
    u[6]      primal_lower35  879
    u[6]      primal_lower36  523
    u[6]      primal_lower37  60
    u[6]      primal_lower38  506
    u[6]      primal_lower39  295
    u[6]      primal_lower40  547
    u[6]      primal_lower41  965
    u[6]      primal_lower42  239
    u[6]      primal_lower43  418
    u[6]      primal_lower44  599
    u[6]      primal_lower45  800
    u[6]      primal_lower46  143
    u[6]      primal_lower47  38
    u[6]      primal_lower48  258
    u[6]      primal_lower49  858
    u[6]      primal_lower50  103
    u[6]      primal_lower51  14
    u[6]      primal_lower52  394
    u[6]      primal_lower53  418
    u[6]      primal_lower54  473
    u[6]      primal_lower55  518
    u[6]      primal_lower56  7
    u[6]      primal_lower57  68
    u[6]      primal_lower58  667
    u[6]      primal_lower59  460
    u[6]      primal_lower60  791
    u[6]      primal_lower61  706
    u[6]      primal_lower62  30
    u[6]      primal_lower63  20
    u[6]      primal_lower64  577
    u[6]      primal_lower65  114
    u[6]      primal_lower66  932
    u[6]      primal_lower67  127
    u[6]      primal_lower68  442
    u[6]      primal_lower69  621
    u[6]      primal_lower70  112
    u[6]      primal_lower71  792
    u[6]      primal_lower72  725
    u[6]      primal_lower73  669
    u[6]      primal_lower74  468
    u[6]      primal_lower75  940
    u[6]      primal_lower76  807
    u[6]      primal_lower77  480
    u[6]      primal_lower78  637
    u[6]      primal_lower79  167
    u[6]      primal_lower80  228
    u[6]      primal_lower81  861
    u[6]      primal_lower82  526
    u[6]      primal_lower83  41
    u[6]      primal_lower84  778
    u[6]      primal_lower85  537
    u[6]      primal_lower86  970
    u[6]      primal_lower87  264
    u[6]      primal_lower88  748
    u[6]      primal_lower89  20
    u[6]      primal_lower90  142
    u[6]      primal_lower91  29
    u[6]      primal_lower92  725
    u[6]      primal_lower93  649
    u[6]      primal_lower94  766
    u[6]      primal_lower95  537
    u[6]      primal_lower96  888
    u[6]      primal_lower97  245
    u[6]      primal_lower98  263
    u[6]      primal_lower99  352
    u[6]      interdiction[6]  1
    u[6]      mccormick1[6]  -1
    u[6]      mccormick3[6]  1
    u[7]      primal_lower0  681
    u[7]      primal_lower1  572
    u[7]      primal_lower2  21
    u[7]      primal_lower3  481
    u[7]      primal_lower4  279
    u[7]      primal_lower5  549
    u[7]      primal_lower6  940
    u[7]      primal_lower7  69
    u[7]      primal_lower8  720
    u[7]      primal_lower9  47
    u[7]      primal_lower10  281
    u[7]      primal_lower11  762
    u[7]      primal_lower12  245
    u[7]      primal_lower13  317
    u[7]      primal_lower14  397
    u[7]      primal_lower15  888
    u[7]      primal_lower16  626
    u[7]      primal_lower17  765
    u[7]      primal_lower18  389
    u[7]      primal_lower19  525
    u[7]      primal_lower20  428
    u[7]      primal_lower21  588
    u[7]      primal_lower22  210
    u[7]      primal_lower23  340
    u[7]      primal_lower24  438
    u[7]      primal_lower25  255
    u[7]      primal_lower26  866
    u[7]      primal_lower27  179
    u[7]      primal_lower28  968
    u[7]      primal_lower29  765
    u[7]      primal_lower30  372
    u[7]      primal_lower31  511
    u[7]      primal_lower32  179
    u[7]      primal_lower33  68
    u[7]      primal_lower34  17
    u[7]      primal_lower35  929
    u[7]      primal_lower36  690
    u[7]      primal_lower37  142
    u[7]      primal_lower38  540
    u[7]      primal_lower39  78
    u[7]      primal_lower40  378
    u[7]      primal_lower41  692
    u[7]      primal_lower42  689
    u[7]      primal_lower43  148
    u[7]      primal_lower44  273
    u[7]      primal_lower45  730
    u[7]      primal_lower46  902
    u[7]      primal_lower47  677
    u[7]      primal_lower48  372
    u[7]      primal_lower49  668
    u[7]      primal_lower50  193
    u[7]      primal_lower51  837
    u[7]      primal_lower52  49
    u[7]      primal_lower53  796
    u[7]      primal_lower54  563
    u[7]      primal_lower55  661
    u[7]      primal_lower56  102
    u[7]      primal_lower57  750
    u[7]      primal_lower58  722
    u[7]      primal_lower59  502
    u[7]      primal_lower60  958
    u[7]      primal_lower61  905
    u[7]      primal_lower62  464
    u[7]      primal_lower63  150
    u[7]      primal_lower64  35
    u[7]      primal_lower65  20
    u[7]      primal_lower66  262
    u[7]      primal_lower67  49
    u[7]      primal_lower68  540
    u[7]      primal_lower69  279
    u[7]      primal_lower70  967
    u[7]      primal_lower71  791
    u[7]      primal_lower72  580
    u[7]      primal_lower73  324
    u[7]      primal_lower74  942
    u[7]      primal_lower75  894
    u[7]      primal_lower76  121
    u[7]      primal_lower77  831
    u[7]      primal_lower78  796
    u[7]      primal_lower79  801
    u[7]      primal_lower80  643
    u[7]      primal_lower81  820
    u[7]      primal_lower82  104
    u[7]      primal_lower83  416
    u[7]      primal_lower84  297
    u[7]      primal_lower85  315
    u[7]      primal_lower86  44
    u[7]      primal_lower87  978
    u[7]      primal_lower88  430
    u[7]      primal_lower89  742
    u[7]      primal_lower90  701
    u[7]      primal_lower91  692
    u[7]      primal_lower92  428
    u[7]      primal_lower93  64
    u[7]      primal_lower94  229
    u[7]      primal_lower95  232
    u[7]      primal_lower96  943
    u[7]      primal_lower97  703
    u[7]      primal_lower98  785
    u[7]      primal_lower99  450
    u[7]      interdiction[7]  1
    u[7]      mccormick1[7]  -1
    u[7]      mccormick3[7]  1
    u[8]      primal_lower0  866
    u[8]      primal_lower1  314
    u[8]      primal_lower2  654
    u[8]      primal_lower3  887
    u[8]      primal_lower4  341
    u[8]      primal_lower5  254
    u[8]      primal_lower6  690
    u[8]      primal_lower7  203
    u[8]      primal_lower8  742
    u[8]      primal_lower9  832
    u[8]      primal_lower10  122
    u[8]      primal_lower11  331
    u[8]      primal_lower12  446
    u[8]      primal_lower13  595
    u[8]      primal_lower14  667
    u[8]      primal_lower15  670
    u[8]      primal_lower16  555
    u[8]      primal_lower17  566
    u[8]      primal_lower18  355
    u[8]      primal_lower19  422
    u[8]      primal_lower20  453
    u[8]      primal_lower21  858
    u[8]      primal_lower22  752
    u[8]      primal_lower23  82
    u[8]      primal_lower24  156
    u[8]      primal_lower25  776
    u[8]      primal_lower26  339
    u[8]      primal_lower27  340
    u[8]      primal_lower28  798
    u[8]      primal_lower29  550
    u[8]      primal_lower30  325
    u[8]      primal_lower31  384
    u[8]      primal_lower32  993
    u[8]      primal_lower33  757
    u[8]      primal_lower34  794
    u[8]      primal_lower35  623
    u[8]      primal_lower36  203
    u[8]      primal_lower37  340
    u[8]      primal_lower38  946
    u[8]      primal_lower39  519
    u[8]      primal_lower40  635
    u[8]      primal_lower41  797
    u[8]      primal_lower42  879
    u[8]      primal_lower43  658
    u[8]      primal_lower44  959
    u[8]      primal_lower45  552
    u[8]      primal_lower46  655
    u[8]      primal_lower47  102
    u[8]      primal_lower48  130
    u[8]      primal_lower49  282
    u[8]      primal_lower50  335
    u[8]      primal_lower51  238
    u[8]      primal_lower52  778
    u[8]      primal_lower53  954
    u[8]      primal_lower54  177
    u[8]      primal_lower55  494
    u[8]      primal_lower56  439
    u[8]      primal_lower57  708
    u[8]      primal_lower58  403
    u[8]      primal_lower59  996
    u[8]      primal_lower60  863
    u[8]      primal_lower61  242
    u[8]      primal_lower62  902
    u[8]      primal_lower63  780
    u[8]      primal_lower64  529
    u[8]      primal_lower65  50
    u[8]      primal_lower66  820
    u[8]      primal_lower67  359
    u[8]      primal_lower68  930
    u[8]      primal_lower69  93
    u[8]      primal_lower70  824
    u[8]      primal_lower71  24
    u[8]      primal_lower72  173
    u[8]      primal_lower73  837
    u[8]      primal_lower74  772
    u[8]      primal_lower75  644
    u[8]      primal_lower76  919
    u[8]      primal_lower77  168
    u[8]      primal_lower78  653
    u[8]      primal_lower79  119
    u[8]      primal_lower80  716
    u[8]      primal_lower81  749
    u[8]      primal_lower82  350
    u[8]      primal_lower83  553
    u[8]      primal_lower84  234
    u[8]      primal_lower85  881
    u[8]      primal_lower86  346
    u[8]      primal_lower87  128
    u[8]      primal_lower88  988
    u[8]      primal_lower89  524
    u[8]      primal_lower90  622
    u[8]      primal_lower91  861
    u[8]      primal_lower92  741
    u[8]      primal_lower93  249
    u[8]      primal_lower94  102
    u[8]      primal_lower95  33
    u[8]      primal_lower96  920
    u[8]      primal_lower97  181
    u[8]      primal_lower98  607
    u[8]      primal_lower99  328
    u[8]      interdiction[8]  1
    u[8]      mccormick1[8]  -1
    u[8]      mccormick3[8]  1
    u[9]      primal_lower0  23
    u[9]      primal_lower1  675
    u[9]      primal_lower2  75
    u[9]      primal_lower3  296
    u[9]      primal_lower4  606
    u[9]      primal_lower5  651
    u[9]      primal_lower6  155
    u[9]      primal_lower7  980
    u[9]      primal_lower8  951
    u[9]      primal_lower9  285
    u[9]      primal_lower10  47
    u[9]      primal_lower11  312
    u[9]      primal_lower12  51
    u[9]      primal_lower13  596
    u[9]      primal_lower14  548
    u[9]      primal_lower15  823
    u[9]      primal_lower16  576
    u[9]      primal_lower17  339
    u[9]      primal_lower18  572
    u[9]      primal_lower19  803
    u[9]      primal_lower20  442
    u[9]      primal_lower21  235
    u[9]      primal_lower22  105
    u[9]      primal_lower23  475
    u[9]      primal_lower24  373
    u[9]      primal_lower25  293
    u[9]      primal_lower26  760
    u[9]      primal_lower27  473
    u[9]      primal_lower28  671
    u[9]      primal_lower29  307
    u[9]      primal_lower30  986
    u[9]      primal_lower31  269
    u[9]      primal_lower32  738
    u[9]      primal_lower33  626
    u[9]      primal_lower34  887
    u[9]      primal_lower35  144
    u[9]      primal_lower36  184
    u[9]      primal_lower37  29
    u[9]      primal_lower38  371
    u[9]      primal_lower39  916
    u[9]      primal_lower40  104
    u[9]      primal_lower41  210
    u[9]      primal_lower42  168
    u[9]      primal_lower43  995
    u[9]      primal_lower44  512
    u[9]      primal_lower45  761
    u[9]      primal_lower46  68
    u[9]      primal_lower47  451
    u[9]      primal_lower48  339
    u[9]      primal_lower49  307
    u[9]      primal_lower50  640
    u[9]      primal_lower51  355
    u[9]      primal_lower52  431
    u[9]      primal_lower53  331
    u[9]      primal_lower54  122
    u[9]      primal_lower55  531
    u[9]      primal_lower56  188
    u[9]      primal_lower57  421
    u[9]      primal_lower58  136
    u[9]      primal_lower59  173
    u[9]      primal_lower60  876
    u[9]      primal_lower61  983
    u[9]      primal_lower62  303
    u[9]      primal_lower63  109
    u[9]      primal_lower64  26
    u[9]      primal_lower65  99
    u[9]      primal_lower66  381
    u[9]      primal_lower67  576
    u[9]      primal_lower68  339
    u[9]      primal_lower69  710
    u[9]      primal_lower70  653
    u[9]      primal_lower71  701
    u[9]      primal_lower72  186
    u[9]      primal_lower73  938
    u[9]      primal_lower74  549
    u[9]      primal_lower75  45
    u[9]      primal_lower76  944
    u[9]      primal_lower77  517
    u[9]      primal_lower78  378
    u[9]      primal_lower79  240
    u[9]      primal_lower80  257
    u[9]      primal_lower81  386
    u[9]      primal_lower82  431
    u[9]      primal_lower83  6
    u[9]      primal_lower84  943
    u[9]      primal_lower85  122
    u[9]      primal_lower86  947
    u[9]      primal_lower87  721
    u[9]      primal_lower88  69
    u[9]      primal_lower89  125
    u[9]      primal_lower90  507
    u[9]      primal_lower91  530
    u[9]      primal_lower92  202
    u[9]      primal_lower93  750
    u[9]      primal_lower94  59
    u[9]      primal_lower95  486
    u[9]      primal_lower96  645
    u[9]      primal_lower97  822
    u[9]      primal_lower98  936
    u[9]      primal_lower99  305
    u[9]      interdiction[9]  1
    u[9]      mccormick1[9]  -1
    u[9]      mccormick3[9]  1
    u[10]     primal_lower0  25
    u[10]     primal_lower1  816
    u[10]     primal_lower2  885
    u[10]     primal_lower3  253
    u[10]     primal_lower4  75
    u[10]     primal_lower5  277
    u[10]     primal_lower6  184
    u[10]     primal_lower7  953
    u[10]     primal_lower8  884
    u[10]     primal_lower9  223
    u[10]     primal_lower10  329
    u[10]     primal_lower11  58
    u[10]     primal_lower12  669
    u[10]     primal_lower13  313
    u[10]     primal_lower14  969
    u[10]     primal_lower15  76
    u[10]     primal_lower16  882
    u[10]     primal_lower17  957
    u[10]     primal_lower18  833
    u[10]     primal_lower19  821
    u[10]     primal_lower20  948
    u[10]     primal_lower21  112
    u[10]     primal_lower22  102
    u[10]     primal_lower23  320
    u[10]     primal_lower24  106
    u[10]     primal_lower25  823
    u[10]     primal_lower26  234
    u[10]     primal_lower27  539
    u[10]     primal_lower28  676
    u[10]     primal_lower29  525
    u[10]     primal_lower30  724
    u[10]     primal_lower31  911
    u[10]     primal_lower32  415
    u[10]     primal_lower33  708
    u[10]     primal_lower34  529
    u[10]     primal_lower35  613
    u[10]     primal_lower36  914
    u[10]     primal_lower37  602
    u[10]     primal_lower38  488
    u[10]     primal_lower39  342
    u[10]     primal_lower40  386
    u[10]     primal_lower41  116
    u[10]     primal_lower42  333
    u[10]     primal_lower43  864
    u[10]     primal_lower44  85
    u[10]     primal_lower45  878
    u[10]     primal_lower46  430
    u[10]     primal_lower47  77
    u[10]     primal_lower48  136
    u[10]     primal_lower49  768
    u[10]     primal_lower50  589
    u[10]     primal_lower51  477
    u[10]     primal_lower52  617
    u[10]     primal_lower53  248
    u[10]     primal_lower54  575
    u[10]     primal_lower55  429
    u[10]     primal_lower56  430
    u[10]     primal_lower57  202
    u[10]     primal_lower58  458
    u[10]     primal_lower59  330
    u[10]     primal_lower60  814
    u[10]     primal_lower61  705
    u[10]     primal_lower62  284
    u[10]     primal_lower63  826
    u[10]     primal_lower64  71
    u[10]     primal_lower65  112
    u[10]     primal_lower66  138
    u[10]     primal_lower67  117
    u[10]     primal_lower68  56
    u[10]     primal_lower69  939
    u[10]     primal_lower70  487
    u[10]     primal_lower71  487
    u[10]     primal_lower72  724
    u[10]     primal_lower73  852
    u[10]     primal_lower74  682
    u[10]     primal_lower75  978
    u[10]     primal_lower76  797
    u[10]     primal_lower77  167
    u[10]     primal_lower78  564
    u[10]     primal_lower79  293
    u[10]     primal_lower80  843
    u[10]     primal_lower81  404
    u[10]     primal_lower82  564
    u[10]     primal_lower83  864
    u[10]     primal_lower84  81
    u[10]     primal_lower85  623
    u[10]     primal_lower86  608
    u[10]     primal_lower87  830
    u[10]     primal_lower88  858
    u[10]     primal_lower89  530
    u[10]     primal_lower90  677
    u[10]     primal_lower91  844
    u[10]     primal_lower92  596
    u[10]     primal_lower93  736
    u[10]     primal_lower94  397
    u[10]     primal_lower95  216
    u[10]     primal_lower96  647
    u[10]     primal_lower97  619
    u[10]     primal_lower98  53
    u[10]     primal_lower99  590
    u[10]     interdiction[10]  1
    u[10]     mccormick1[10]  -1
    u[10]     mccormick3[10]  1
    u[11]     primal_lower0  984
    u[11]     primal_lower1  44
    u[11]     primal_lower2  924
    u[11]     primal_lower3  369
    u[11]     primal_lower4  887
    u[11]     primal_lower5  652
    u[11]     primal_lower6  380
    u[11]     primal_lower7  397
    u[11]     primal_lower8  704
    u[11]     primal_lower9  126
    u[11]     primal_lower10  608
    u[11]     primal_lower11  561
    u[11]     primal_lower12  164
    u[11]     primal_lower13  805
    u[11]     primal_lower14  333
    u[11]     primal_lower15  40
    u[11]     primal_lower16  481
    u[11]     primal_lower17  52
    u[11]     primal_lower18  469
    u[11]     primal_lower19  236
    u[11]     primal_lower20  523
    u[11]     primal_lower21  268
    u[11]     primal_lower22  138
    u[11]     primal_lower23  260
    u[11]     primal_lower24  742
    u[11]     primal_lower25  182
    u[11]     primal_lower26  73
    u[11]     primal_lower27  386
    u[11]     primal_lower28  48
    u[11]     primal_lower29  124
    u[11]     primal_lower30  227
    u[11]     primal_lower31  830
    u[11]     primal_lower32  523
    u[11]     primal_lower33  475
    u[11]     primal_lower34  888
    u[11]     primal_lower35  305
    u[11]     primal_lower36  977
    u[11]     primal_lower37  934
    u[11]     primal_lower38  4
    u[11]     primal_lower39  333
    u[11]     primal_lower40  257
    u[11]     primal_lower41  187
    u[11]     primal_lower42  769
    u[11]     primal_lower43  252
    u[11]     primal_lower44  241
    u[11]     primal_lower45  138
    u[11]     primal_lower46  533
    u[11]     primal_lower47  572
    u[11]     primal_lower48  412
    u[11]     primal_lower49  788
    u[11]     primal_lower50  833
    u[11]     primal_lower51  380
    u[11]     primal_lower52  520
    u[11]     primal_lower53  180
    u[11]     primal_lower54  939
    u[11]     primal_lower55  580
    u[11]     primal_lower56  581
    u[11]     primal_lower57  726
    u[11]     primal_lower58  985
    u[11]     primal_lower59  238
    u[11]     primal_lower60  85
    u[11]     primal_lower61  768
    u[11]     primal_lower62  504
    u[11]     primal_lower63  526
    u[11]     primal_lower64  371
    u[11]     primal_lower65  380
    u[11]     primal_lower66  758
    u[11]     primal_lower67  249
    u[11]     primal_lower68  76
    u[11]     primal_lower69  407
    u[11]     primal_lower70  310
    u[11]     primal_lower71  782
    u[11]     primal_lower72  659
    u[11]     primal_lower73  307
    u[11]     primal_lower74  702
    u[11]     primal_lower75  814
    u[11]     primal_lower76  25
    u[11]     primal_lower77  982
    u[11]     primal_lower78  843
    u[11]     primal_lower79  697
    u[11]     primal_lower80  578
    u[11]     primal_lower81  915
    u[11]     primal_lower82  112
    u[11]     primal_lower83  919
    u[11]     primal_lower84  200
    u[11]     primal_lower85  155
    u[11]     primal_lower86  588
    u[11]     primal_lower87  258
    u[11]     primal_lower88  846
    u[11]     primal_lower89  150
    u[11]     primal_lower90  44
    u[11]     primal_lower91  707
    u[11]     primal_lower92  747
    u[11]     primal_lower93  431
    u[11]     primal_lower94  580
    u[11]     primal_lower95  111
    u[11]     primal_lower96  238
    u[11]     primal_lower97  583
    u[11]     primal_lower98  521
    u[11]     primal_lower99  394
    u[11]     interdiction[11]  1
    u[11]     mccormick1[11]  -1
    u[11]     mccormick3[11]  1
    u[12]     primal_lower0  601
    u[12]     primal_lower1  705
    u[12]     primal_lower2  93
    u[12]     primal_lower3  294
    u[12]     primal_lower4  172
    u[12]     primal_lower5  589
    u[12]     primal_lower6  113
    u[12]     primal_lower7  650
    u[12]     primal_lower8  37
    u[12]     primal_lower9  911
    u[12]     primal_lower10  937
    u[12]     primal_lower11  42
    u[12]     primal_lower12  917
    u[12]     primal_lower13  450
    u[12]     primal_lower14  762
    u[12]     primal_lower15  349
    u[12]     primal_lower16  738
    u[12]     primal_lower17  837
    u[12]     primal_lower18  706
    u[12]     primal_lower19  853
    u[12]     primal_lower20  860
    u[12]     primal_lower21  33
    u[12]     primal_lower22  831
    u[12]     primal_lower23  641
    u[12]     primal_lower24  835
    u[12]     primal_lower25  183
    u[12]     primal_lower26  786
    u[12]     primal_lower27  675
    u[12]     primal_lower28  773
    u[12]     primal_lower29  317
    u[12]     primal_lower30  276
    u[12]     primal_lower31  543
    u[12]     primal_lower32  552
    u[12]     primal_lower33  972
    u[12]     primal_lower34  801
    u[12]     primal_lower35  190
    u[12]     primal_lower36  490
    u[12]     primal_lower37  291
    u[12]     primal_lower38  449
    u[12]     primal_lower39  558
    u[12]     primal_lower40  290
    u[12]     primal_lower41  268
    u[12]     primal_lower42  94
    u[12]     primal_lower43  73
    u[12]     primal_lower44  734
    u[12]     primal_lower45  815
    u[12]     primal_lower46  254
    u[12]     primal_lower47  421
    u[12]     primal_lower48  961
    u[12]     primal_lower49  737
    u[12]     primal_lower50  670
    u[12]     primal_lower51  749
    u[12]     primal_lower52  465
    u[12]     primal_lower53  113
    u[12]     primal_lower54  176
    u[12]     primal_lower55  213
    u[12]     primal_lower56  470
    u[12]     primal_lower57  323
    u[12]     primal_lower58  618
    u[12]     primal_lower59  587
    u[12]     primal_lower60  14
    u[12]     primal_lower61  409
    u[12]     primal_lower62  893
    u[12]     primal_lower63  915
    u[12]     primal_lower64  320
    u[12]     primal_lower65  353
    u[12]     primal_lower66  179
    u[12]     primal_lower67  326
    u[12]     primal_lower68  929
    u[12]     primal_lower69  60
    u[12]     primal_lower70  255
    u[12]     primal_lower71  191
    u[12]     primal_lower72  244
    u[12]     primal_lower73  684
    u[12]     primal_lower74  955
    u[12]     primal_lower75  491
    u[12]     primal_lower76  414
    u[12]     primal_lower77  495
    u[12]     primal_lower78  12
    u[12]     primal_lower79  526
    u[12]     primal_lower80  603
    u[12]     primal_lower81  988
    u[12]     primal_lower82  477
    u[12]     primal_lower83  504
    u[12]     primal_lower84  505
    u[12]     primal_lower85  488
    u[12]     primal_lower86  913
    u[12]     primal_lower87  847
    u[12]     primal_lower88  803
    u[12]     primal_lower89  803
    u[12]     primal_lower90  805
    u[12]     primal_lower91  732
    u[12]     primal_lower92  564
    u[12]     primal_lower93  264
    u[12]     primal_lower94  533
    u[12]     primal_lower95  104
    u[12]     primal_lower96  279
    u[12]     primal_lower97  36
    u[12]     primal_lower98  622
    u[12]     primal_lower99  767
    u[12]     interdiction[12]  1
    u[12]     mccormick1[12]  -1
    u[12]     mccormick3[12]  1
    u[13]     primal_lower0  313
    u[13]     primal_lower1  797
    u[13]     primal_lower2  533
    u[13]     primal_lower3  666
    u[13]     primal_lower4  824
    u[13]     primal_lower5  325
    u[13]     primal_lower6  277
    u[13]     primal_lower7  814
    u[13]     primal_lower8  121
    u[13]     primal_lower9  559
    u[13]     primal_lower10  201
    u[13]     primal_lower11  322
    u[13]     primal_lower12  125
    u[13]     primal_lower13  838
    u[13]     primal_lower14  454
    u[13]     primal_lower15  369
    u[13]     primal_lower16  194
    u[13]     primal_lower17  325
    u[13]     primal_lower18  302
    u[13]     primal_lower19  757
    u[13]     primal_lower20  236
    u[13]     primal_lower21  141
    u[13]     primal_lower22  211
    u[13]     primal_lower23  85
    u[13]     primal_lower24  471
    u[13]     primal_lower25  7
    u[13]     primal_lower26  786
    u[13]     primal_lower27  723
    u[13]     primal_lower28  193
    u[13]     primal_lower29  517
    u[13]     primal_lower30  132
    u[13]     primal_lower31  607
    u[13]     primal_lower32  644
    u[13]     primal_lower33  212
    u[13]     primal_lower34  465
    u[13]     primal_lower35  650
    u[13]     primal_lower36  290
    u[13]     primal_lower37  943
    u[13]     primal_lower38  973
    u[13]     primal_lower39  918
    u[13]     primal_lower40  754
    u[13]     primal_lower41  228
    u[13]     primal_lower42  2
    u[13]     primal_lower43  317
    u[13]     primal_lower44  834
    u[13]     primal_lower45  995
    u[13]     primal_lower46  222
    u[13]     primal_lower47  205
    u[13]     primal_lower48  493
    u[13]     primal_lower49  517
    u[13]     primal_lower50  674
    u[13]     primal_lower51  773
    u[13]     primal_lower52  449
    u[13]     primal_lower53  221
    u[13]     primal_lower54  796
    u[13]     primal_lower55  709
    u[13]     primal_lower56  958
    u[13]     primal_lower57  7
    u[13]     primal_lower58  946
    u[13]     primal_lower59  375
    u[13]     primal_lower60  558
    u[13]     primal_lower61  257
    u[13]     primal_lower62  313
    u[13]     primal_lower63  399
    u[13]     primal_lower64  660
    u[13]     primal_lower65  229
    u[13]     primal_lower66  999
    u[13]     primal_lower67  162
    u[13]     primal_lower68  165
    u[13]     primal_lower69  424
    u[13]     primal_lower70  367
    u[13]     primal_lower71  367
    u[13]     primal_lower72  812
    u[13]     primal_lower73  396
    u[13]     primal_lower74  607
    u[13]     primal_lower75  847
    u[13]     primal_lower76  650
    u[13]     primal_lower77  335
    u[13]     primal_lower78  252
    u[13]     primal_lower79  386
    u[13]     primal_lower80  851
    u[13]     primal_lower81  756
    u[13]     primal_lower82  401
    u[13]     primal_lower83  816
    u[13]     primal_lower84  169
    u[13]     primal_lower85  348
    u[13]     primal_lower86  245
    u[13]     primal_lower87  267
    u[13]     primal_lower88  975
    u[13]     primal_lower89  431
    u[13]     primal_lower90  677
    u[13]     primal_lower91  652
    u[13]     primal_lower92  36
    u[13]     primal_lower93  96
    u[13]     primal_lower94  837
    u[13]     primal_lower95  40
    u[13]     primal_lower96  863
    u[13]     primal_lower97  360
    u[13]     primal_lower98  658
    u[13]     primal_lower99  963
    u[13]     interdiction[13]  1
    u[13]     mccormick1[13]  -1
    u[13]     mccormick3[13]  1
    u[14]     primal_lower0  626
    u[14]     primal_lower1  409
    u[14]     primal_lower2  238
    u[14]     primal_lower3  582
    u[14]     primal_lower4  52
    u[14]     primal_lower5  230
    u[14]     primal_lower6  233
    u[14]     primal_lower7  330
    u[14]     primal_lower8  333
    u[14]     primal_lower9  480
    u[14]     primal_lower10  938
    u[14]     primal_lower11  731
    u[14]     primal_lower12  582
    u[14]     primal_lower13  258
    u[14]     primal_lower14  530
    u[14]     primal_lower15  741
    u[14]     primal_lower16  795
    u[14]     primal_lower17  430
    u[14]     primal_lower18  498
    u[14]     primal_lower19  726
    u[14]     primal_lower20  349
    u[14]     primal_lower21  137
    u[14]     primal_lower22  511
    u[14]     primal_lower23  361
    u[14]     primal_lower24  627
    u[14]     primal_lower25  392
    u[14]     primal_lower26  195
    u[14]     primal_lower27  380
    u[14]     primal_lower28  269
    u[14]     primal_lower29  478
    u[14]     primal_lower30  381
    u[14]     primal_lower31  256
    u[14]     primal_lower32  24
    u[14]     primal_lower33  877
    u[14]     primal_lower34  210
    u[14]     primal_lower35  446
    u[14]     primal_lower36  595
    u[14]     primal_lower37  67
    u[14]     primal_lower38  737
    u[14]     primal_lower39  567
    u[14]     primal_lower40  67
    u[14]     primal_lower41  397
    u[14]     primal_lower42  158
    u[14]     primal_lower43  689
    u[14]     primal_lower44  622
    u[14]     primal_lower45  703
    u[14]     primal_lower46  767
    u[14]     primal_lower47  694
    u[14]     primal_lower48  185
    u[14]     primal_lower49  161
    u[14]     primal_lower50  198
    u[14]     primal_lower51  318
    u[14]     primal_lower52  226
    u[14]     primal_lower53  209
    u[14]     primal_lower54  840
    u[14]     primal_lower55  774
    u[14]     primal_lower56  999
    u[14]     primal_lower57  11
    u[14]     primal_lower58  579
    u[14]     primal_lower59  235
    u[14]     primal_lower60  687
    u[14]     primal_lower61  410
    u[14]     primal_lower62  973
    u[14]     primal_lower63  291
    u[14]     primal_lower64  608
    u[14]     primal_lower65  449
    u[14]     primal_lower66  435
    u[14]     primal_lower67  470
    u[14]     primal_lower68  785
    u[14]     primal_lower69  604
    u[14]     primal_lower70  208
    u[14]     primal_lower71  24
    u[14]     primal_lower72  5
    u[14]     primal_lower73  941
    u[14]     primal_lower74  379
    u[14]     primal_lower75  627
    u[14]     primal_lower76  310
    u[14]     primal_lower77  528
    u[14]     primal_lower78  509
    u[14]     primal_lower79  702
    u[14]     primal_lower80  916
    u[14]     primal_lower81  797
    u[14]     primal_lower82  645
    u[14]     primal_lower83  281
    u[14]     primal_lower84  962
    u[14]     primal_lower85  8
    u[14]     primal_lower86  329
    u[14]     primal_lower87  79
    u[14]     primal_lower88  547
    u[14]     primal_lower89  171
    u[14]     primal_lower90  326
    u[14]     primal_lower91  205
    u[14]     primal_lower92  293
    u[14]     primal_lower93  793
    u[14]     primal_lower94  62
    u[14]     primal_lower95  249
    u[14]     primal_lower96  112
    u[14]     primal_lower97  28
    u[14]     primal_lower98  878
    u[14]     primal_lower99  303
    u[14]     interdiction[14]  1
    u[14]     mccormick1[14]  -1
    u[14]     mccormick3[14]  1
    u[15]     primal_lower0  346
    u[15]     primal_lower1  285
    u[15]     primal_lower2  334
    u[15]     primal_lower3  418
    u[15]     primal_lower4  136
    u[15]     primal_lower5  30
    u[15]     primal_lower6  797
    u[15]     primal_lower7  894
    u[15]     primal_lower8  585
    u[15]     primal_lower9  504
    u[15]     primal_lower10  282
    u[15]     primal_lower11  235
    u[15]     primal_lower12  174
    u[15]     primal_lower13  286
    u[15]     primal_lower14  702
    u[15]     primal_lower15  601
    u[15]     primal_lower16  595
    u[15]     primal_lower17  398
    u[15]     primal_lower18  878
    u[15]     primal_lower19  190
    u[15]     primal_lower20  581
    u[15]     primal_lower21  997
    u[15]     primal_lower22  219
    u[15]     primal_lower23  885
    u[15]     primal_lower24  207
    u[15]     primal_lower25  40
    u[15]     primal_lower26  923
    u[15]     primal_lower27  620
    u[15]     primal_lower28  25
    u[15]     primal_lower29  526
    u[15]     primal_lower30  29
    u[15]     primal_lower31  640
    u[15]     primal_lower32  980
    u[15]     primal_lower33  549
    u[15]     primal_lower34  794
    u[15]     primal_lower35  762
    u[15]     primal_lower36  563
    u[15]     primal_lower37  471
    u[15]     primal_lower38  733
    u[15]     primal_lower39  479
    u[15]     primal_lower40  483
    u[15]     primal_lower41  477
    u[15]     primal_lower42  530
    u[15]     primal_lower43  405
    u[15]     primal_lower44  946
    u[15]     primal_lower45  979
    u[15]     primal_lower46  583
    u[15]     primal_lower47  614
    u[15]     primal_lower48  781
    u[15]     primal_lower49  429
    u[15]     primal_lower50  314
    u[15]     primal_lower51  662
    u[15]     primal_lower52  626
    u[15]     primal_lower53  925
    u[15]     primal_lower54  76
    u[15]     primal_lower55  222
    u[15]     primal_lower56  687
    u[15]     primal_lower57  31
    u[15]     primal_lower58  851
    u[15]     primal_lower59  983
    u[15]     primal_lower60  263
    u[15]     primal_lower61  338
    u[15]     primal_lower62  41
    u[15]     primal_lower63  655
    u[15]     primal_lower64  764
    u[15]     primal_lower65  165
    u[15]     primal_lower66  647
    u[15]     primal_lower67  722
    u[15]     primal_lower68  861
    u[15]     primal_lower69  936
    u[15]     primal_lower70  344
    u[15]     primal_lower71  896
    u[15]     primal_lower72  757
    u[15]     primal_lower73  621
    u[15]     primal_lower74  247
    u[15]     primal_lower75  103
    u[15]     primal_lower76  306
    u[15]     primal_lower77  544
    u[15]     primal_lower78  773
    u[15]     primal_lower79  722
    u[15]     primal_lower80  12
    u[15]     primal_lower81  301
    u[15]     primal_lower82  625
    u[15]     primal_lower83  681
    u[15]     primal_lower84  658
    u[15]     primal_lower85  492
    u[15]     primal_lower86  509
    u[15]     primal_lower87  83
    u[15]     primal_lower88  767
    u[15]     primal_lower89  143
    u[15]     primal_lower90  614
    u[15]     primal_lower91  541
    u[15]     primal_lower92  917
    u[15]     primal_lower93  217
    u[15]     primal_lower94  854
    u[15]     primal_lower95  617
    u[15]     primal_lower96  816
    u[15]     primal_lower97  344
    u[15]     primal_lower98  946
    u[15]     primal_lower99  763
    u[15]     interdiction[15]  1
    u[15]     mccormick1[15]  -1
    u[15]     mccormick3[15]  1
    u[16]     primal_lower0  178
    u[16]     primal_lower1  10
    u[16]     primal_lower2  238
    u[16]     primal_lower3  615
    u[16]     primal_lower4  845
    u[16]     primal_lower5  990
    u[16]     primal_lower6  338
    u[16]     primal_lower7  275
    u[16]     primal_lower8  702
    u[16]     primal_lower9  48
    u[16]     primal_lower10  842
    u[16]     primal_lower11  339
    u[16]     primal_lower12  694
    u[16]     primal_lower13  203
    u[16]     primal_lower14  75
    u[16]     primal_lower15  286
    u[16]     primal_lower16  323
    u[16]     primal_lower17  622
    u[16]     primal_lower18  451
    u[16]     primal_lower19  494
    u[16]     primal_lower20  237
    u[16]     primal_lower21  938
    u[16]     primal_lower22  888
    u[16]     primal_lower23  946
    u[16]     primal_lower24  716
    u[16]     primal_lower25  344
    u[16]     primal_lower26  763
    u[16]     primal_lower27  540
    u[16]     primal_lower28  870
    u[16]     primal_lower29  294
    u[16]     primal_lower30  93
    u[16]     primal_lower31  56
    u[16]     primal_lower32  969
    u[16]     primal_lower33  781
    u[16]     primal_lower34  154
    u[16]     primal_lower35  823
    u[16]     primal_lower36  675
    u[16]     primal_lower37  804
    u[16]     primal_lower38  2
    u[16]     primal_lower39  735
    u[16]     primal_lower40  507
    u[16]     primal_lower41  829
    u[16]     primal_lower42  599
    u[16]     primal_lower43  690
    u[16]     primal_lower44  647
    u[16]     primal_lower45  256
    u[16]     primal_lower46  223
    u[16]     primal_lower47  934
    u[16]     primal_lower48  394
    u[16]     primal_lower49  706
    u[16]     primal_lower50  151
    u[16]     primal_lower51  694
    u[16]     primal_lower52  98
    u[16]     primal_lower53  106
    u[16]     primal_lower54  241
    u[16]     primal_lower55  206
    u[16]     primal_lower56  767
    u[16]     primal_lower57  556
    u[16]     primal_lower58  995
    u[16]     primal_lower59  68
    u[16]     primal_lower60  199
    u[16]     primal_lower61  914
    u[16]     primal_lower62  606
    u[16]     primal_lower63  412
    u[16]     primal_lower64  825
    u[16]     primal_lower65  794
    u[16]     primal_lower66  92
    u[16]     primal_lower67  679
    u[16]     primal_lower68  674
    u[16]     primal_lower69  325
    u[16]     primal_lower70  488
    u[16]     primal_lower71  800
    u[16]     primal_lower72  741
    u[16]     primal_lower73  413
    u[16]     primal_lower74  932
    u[16]     primal_lower75  132
    u[16]     primal_lower76  583
    u[16]     primal_lower77  8
    u[16]     primal_lower78  381
    u[16]     primal_lower79  623
    u[16]     primal_lower80  388
    u[16]     primal_lower81  597
    u[16]     primal_lower82  654
    u[16]     primal_lower83  105
    u[16]     primal_lower84  850
    u[16]     primal_lower85  153
    u[16]     primal_lower86  34
    u[16]     primal_lower87  712
    u[16]     primal_lower88  428
    u[16]     primal_lower89  428
    u[16]     primal_lower90  86
    u[16]     primal_lower91  333
    u[16]     primal_lower92  141
    u[16]     primal_lower93  593
    u[16]     primal_lower94  814
    u[16]     primal_lower95  865
    u[16]     primal_lower96  464
    u[16]     primal_lower97  885
    u[16]     primal_lower98  735
    u[16]     primal_lower99  744
    u[16]     interdiction[16]  1
    u[16]     mccormick1[16]  -1
    u[16]     mccormick3[16]  1
    u[17]     primal_lower0  861
    u[17]     primal_lower1  969
    u[17]     primal_lower2  641
    u[17]     primal_lower3  926
    u[17]     primal_lower4  420
    u[17]     primal_lower5  641
    u[17]     primal_lower6  193
    u[17]     primal_lower7  226
    u[17]     primal_lower8  493
    u[17]     primal_lower9  107
    u[17]     primal_lower10  805
    u[17]     primal_lower11  702
    u[17]     primal_lower12  793
    u[17]     primal_lower13  858
    u[17]     primal_lower14  154
    u[17]     primal_lower15  893
    u[17]     primal_lower16  534
    u[17]     primal_lower17  657
    u[17]     primal_lower18  818
    u[17]     primal_lower19  473
    u[17]     primal_lower20  344
    u[17]     primal_lower21  369
    u[17]     primal_lower22  455
    u[17]     primal_lower23  529
    u[17]     primal_lower24  547
    u[17]     primal_lower25  907
    u[17]     primal_lower26  94
    u[17]     primal_lower27  663
    u[17]     primal_lower28  69
    u[17]     primal_lower29  729
    u[17]     primal_lower30  328
    u[17]     primal_lower31  867
    u[17]     primal_lower32  752
    u[17]     primal_lower33  912
    u[17]     primal_lower34  629
    u[17]     primal_lower35  558
    u[17]     primal_lower36  638
    u[17]     primal_lower37  171
    u[17]     primal_lower38  137
    u[17]     primal_lower39  810
    u[17]     primal_lower40  286
    u[17]     primal_lower41  800
    u[17]     primal_lower42  686
    u[17]     primal_lower43  209
    u[17]     primal_lower44  54
    u[17]     primal_lower45  631
    u[17]     primal_lower46  642
    u[17]     primal_lower47  665
    u[17]     primal_lower48  673
    u[17]     primal_lower49  649
    u[17]     primal_lower50  294
    u[17]     primal_lower51  73
    u[17]     primal_lower52  253
    u[17]     primal_lower53  233
    u[17]     primal_lower54  480
    u[17]     primal_lower55  113
    u[17]     primal_lower56  170
    u[17]     primal_lower57  163
    u[17]     primal_lower58  846
    u[17]     primal_lower59  651
    u[17]     primal_lower60  914
    u[17]     primal_lower61  949
    u[17]     primal_lower62  389
    u[17]     primal_lower63  619
    u[17]     primal_lower64  64
    u[17]     primal_lower65  145
    u[17]     primal_lower66  803
    u[17]     primal_lower67  726
    u[17]     primal_lower68  401
    u[17]     primal_lower69  540
    u[17]     primal_lower70  139
    u[17]     primal_lower71  667
    u[17]     primal_lower72  312
    u[17]     primal_lower73  448
    u[17]     primal_lower74  859
    u[17]     primal_lower75  411
    u[17]     primal_lower76  398
    u[17]     primal_lower77  739
    u[17]     primal_lower78  320
    u[17]     primal_lower79  158
    u[17]     primal_lower80  527
    u[17]     primal_lower81  928
    u[17]     primal_lower82  997
    u[17]     primal_lower83  284
    u[17]     primal_lower84  773
    u[17]     primal_lower85  664
    u[17]     primal_lower86  865
    u[17]     primal_lower87  991
    u[17]     primal_lower88  987
    u[17]     primal_lower89  499
    u[17]     primal_lower90  257
    u[17]     primal_lower91  320
    u[17]     primal_lower92  368
    u[17]     primal_lower93  76
    u[17]     primal_lower94  49
    u[17]     primal_lower95  244
    u[17]     primal_lower96  339
    u[17]     primal_lower97  100
    u[17]     primal_lower98  422
    u[17]     primal_lower99  71
    u[17]     interdiction[17]  1
    u[17]     mccormick1[17]  -1
    u[17]     mccormick3[17]  1
    u[18]     primal_lower0  222
    u[18]     primal_lower1  734
    u[18]     primal_lower2  218
    u[18]     primal_lower3  659
    u[18]     primal_lower4  937
    u[18]     primal_lower5  154
    u[18]     primal_lower6  758
    u[18]     primal_lower7  279
    u[18]     primal_lower8  410
    u[18]     primal_lower9  820
    u[18]     primal_lower10  254
    u[18]     primal_lower11  695
    u[18]     primal_lower12  866
    u[18]     primal_lower13  71
    u[18]     primal_lower14  71
    u[18]     primal_lower15  234
    u[18]     primal_lower16  687
    u[18]     primal_lower17  226
    u[18]     primal_lower18  663
    u[18]     primal_lower19  226
    u[18]     primal_lower20  721
    u[18]     primal_lower21  46
    u[18]     primal_lower22  492
    u[18]     primal_lower23  270
    u[18]     primal_lower24  736
    u[18]     primal_lower25  4
    u[18]     primal_lower26  847
    u[18]     primal_lower27  432
    u[18]     primal_lower28  714
    u[18]     primal_lower29  298
    u[18]     primal_lower30  969
    u[18]     primal_lower31  772
    u[18]     primal_lower32  357
    u[18]     primal_lower33  489
    u[18]     primal_lower34  142
    u[18]     primal_lower35  715
    u[18]     primal_lower36  759
    u[18]     primal_lower37  128
    u[18]     primal_lower38  790
    u[18]     primal_lower39  547
    u[18]     primal_lower40  887
    u[18]     primal_lower41  433
    u[18]     primal_lower42  339
    u[18]     primal_lower43  566
    u[18]     primal_lower44  403
    u[18]     primal_lower45  772
    u[18]     primal_lower46  563
    u[18]     primal_lower47  386
    u[18]     primal_lower48  134
    u[18]     primal_lower49  462
    u[18]     primal_lower50  483
    u[18]     primal_lower51  290
    u[18]     primal_lower52  102
    u[18]     primal_lower53  470
    u[18]     primal_lower54  85
    u[18]     primal_lower55  690
    u[18]     primal_lower56  771
    u[18]     primal_lower57  680
    u[18]     primal_lower58  863
    u[18]     primal_lower59  616
    u[18]     primal_lower60  147
    u[18]     primal_lower61  30
    u[18]     primal_lower62  898
    u[18]     primal_lower63  920
    u[18]     primal_lower64  693
    u[18]     primal_lower65  270
    u[18]     primal_lower66  952
    u[18]     primal_lower67  427
    u[18]     primal_lower68  862
    u[18]     primal_lower69  265
    u[18]     primal_lower70  724
    u[18]     primal_lower71  164
    u[18]     primal_lower72  913
    u[18]     primal_lower73  249
    u[18]     primal_lower74  544
    u[18]     primal_lower75  472
    u[18]     primal_lower76  131
    u[18]     primal_lower77  812
    u[18]     primal_lower78  345
    u[18]     primal_lower79  875
    u[18]     primal_lower80  24
    u[18]     primal_lower81  161
    u[18]     primal_lower82  362
    u[18]     primal_lower83  533
    u[18]     primal_lower84  318
    u[18]     primal_lower85  533
    u[18]     primal_lower86  454
    u[18]     primal_lower87  852
    u[18]     primal_lower88  64
    u[18]     primal_lower89  560
    u[18]     primal_lower90  218
    u[18]     primal_lower91  337
    u[18]     primal_lower92  945
    u[18]     primal_lower93  829
    u[18]     primal_lower94  770
    u[18]     primal_lower95  149
    u[18]     primal_lower96  908
    u[18]     primal_lower97  201
    u[18]     primal_lower98  419
    u[18]     primal_lower99  740
    u[18]     interdiction[18]  1
    u[18]     mccormick1[18]  -1
    u[18]     mccormick3[18]  1
    u[19]     primal_lower0  211
    u[19]     primal_lower1  967
    u[19]     primal_lower2  871
    u[19]     primal_lower3  628
    u[19]     primal_lower4  250
    u[19]     primal_lower5  423
    u[19]     primal_lower6  375
    u[19]     primal_lower7  56
    u[19]     primal_lower8  403
    u[19]     primal_lower9  569
    u[19]     primal_lower10  651
    u[19]     primal_lower11  868
    u[19]     primal_lower12  631
    u[19]     primal_lower13  736
    u[19]     primal_lower14  272
    u[19]     primal_lower15  435
    u[19]     primal_lower16  44
    u[19]     primal_lower17  247
    u[19]     primal_lower18  760
    u[19]     primal_lower19  471
    u[19]     primal_lower20  310
    u[19]     primal_lower21  759
    u[19]     primal_lower22  5
    u[19]     primal_lower23  839
    u[19]     primal_lower24  945
    u[19]     primal_lower25  225
    u[19]     primal_lower26  284
    u[19]     primal_lower27  421
    u[19]     primal_lower28  627
    u[19]     primal_lower29  423
    u[19]     primal_lower30  190
    u[19]     primal_lower31  169
    u[19]     primal_lower32  486
    u[19]     primal_lower33  526
    u[19]     primal_lower34  843
    u[19]     primal_lower35  468
    u[19]     primal_lower36  932
    u[19]     primal_lower37  881
    u[19]     primal_lower38  815
    u[19]     primal_lower39  608
    u[19]     primal_lower40  596
    u[19]     primal_lower41  30
    u[19]     primal_lower42  452
    u[19]     primal_lower43  231
    u[19]     primal_lower44  796
    u[19]     primal_lower45  677
    u[19]     primal_lower46  920
    u[19]     primal_lower47  623
    u[19]     primal_lower48  855
    u[19]     primal_lower49  575
    u[19]     primal_lower50  796
    u[19]     primal_lower51  967
    u[19]     primal_lower52  755
    u[19]     primal_lower53  823
    u[19]     primal_lower54  622
    u[19]     primal_lower55  231
    u[19]     primal_lower56  472
    u[19]     primal_lower57  457
    u[19]     primal_lower58  356
    u[19]     primal_lower59  833
    u[19]     primal_lower60  968
    u[19]     primal_lower61  83
    u[19]     primal_lower62  627
    u[19]     primal_lower63  785
    u[19]     primal_lower64  294
    u[19]     primal_lower65  87
    u[19]     primal_lower66  409
    u[19]     primal_lower67  532
    u[19]     primal_lower68  991
    u[19]     primal_lower69  594
    u[19]     primal_lower70  137
    u[19]     primal_lower71  249
    u[19]     primal_lower72  598
    u[19]     primal_lower73  510
    u[19]     primal_lower74  337
    u[19]     primal_lower75  385
    u[19]     primal_lower76  180
    u[19]     primal_lower77  769
    u[19]     primal_lower78  846
    u[19]     primal_lower79  452
    u[19]     primal_lower80  349
    u[19]     primal_lower81  582
    u[19]     primal_lower82  867
    u[19]     primal_lower83  626
    u[19]     primal_lower84  235
    u[19]     primal_lower85  382
    u[19]     primal_lower86  503
    u[19]     primal_lower87  221
    u[19]     primal_lower88  657
    u[19]     primal_lower89  841
    u[19]     primal_lower90  119
    u[19]     primal_lower91  134
    u[19]     primal_lower92  798
    u[19]     primal_lower93  778
    u[19]     primal_lower94  719
    u[19]     primal_lower95  786
    u[19]     primal_lower96  401
    u[19]     primal_lower97  234
    u[19]     primal_lower98  308
    u[19]     primal_lower99  989
    u[19]     interdiction[19]  1
    u[19]     mccormick1[19]  -1
    u[19]     mccormick3[19]  1
    u[20]     primal_lower0  954
    u[20]     primal_lower1  794
    u[20]     primal_lower2  14
    u[20]     primal_lower3  967
    u[20]     primal_lower4  621
    u[20]     primal_lower5  526
    u[20]     primal_lower6  938
    u[20]     primal_lower7  459
    u[20]     primal_lower8  398
    u[20]     primal_lower9  920
    u[20]     primal_lower10  90
    u[20]     primal_lower11  771
    u[20]     primal_lower12  174
    u[20]     primal_lower13  979
    u[20]     primal_lower14  979
    u[20]     primal_lower15  478
    u[20]     primal_lower16  411
    u[20]     primal_lower17  766
    u[20]     primal_lower18  531
    u[20]     primal_lower19  414
    u[20]     primal_lower20  69
    u[20]     primal_lower21  690
    u[20]     primal_lower22  992
    u[20]     primal_lower23  890
    u[20]     primal_lower24  332
    u[20]     primal_lower25  816
    u[20]     primal_lower26  587
    u[20]     primal_lower27  628
    u[20]     primal_lower28  566
    u[20]     primal_lower29  222
    u[20]     primal_lower30  973
    u[20]     primal_lower31  240
    u[20]     primal_lower32  1
    u[20]     primal_lower33  21
    u[20]     primal_lower34  554
    u[20]     primal_lower35  215
    u[20]     primal_lower36  779
    u[20]     primal_lower37  196
    u[20]     primal_lower38  882
    u[20]     primal_lower39  279
    u[20]     primal_lower40  435
    u[20]     primal_lower41  765
    u[20]     primal_lower42  407
    u[20]     primal_lower43  642
    u[20]     primal_lower44  807
    u[20]     primal_lower45  864
    u[20]     primal_lower46  559
    u[20]     primal_lower47  38
    u[20]     primal_lower48  890
    u[20]     primal_lower49  586
    u[20]     primal_lower50  455
    u[20]     primal_lower51  950
    u[20]     primal_lower52  186
    u[20]     primal_lower53  130
    u[20]     primal_lower54  425
    u[20]     primal_lower55  686
    u[20]     primal_lower56  551
    u[20]     primal_lower57  132
    u[20]     primal_lower58  323
    u[20]     primal_lower59  700
    u[20]     primal_lower60  567
    u[20]     primal_lower61  746
    u[20]     primal_lower62  430
    u[20]     primal_lower63  364
    u[20]     primal_lower64  193
    u[20]     primal_lower65  466
    u[20]     primal_lower66  260
    u[20]     primal_lower67  735
    u[20]     primal_lower68  338
    u[20]     primal_lower69  533
    u[20]     primal_lower70  480
    u[20]     primal_lower71  40
    u[20]     primal_lower72  325
    u[20]     primal_lower73  989
    u[20]     primal_lower74  204
    u[20]     primal_lower75  396
    u[20]     primal_lower76  639
    u[20]     primal_lower77  488
    u[20]     primal_lower78  845
    u[20]     primal_lower79  759
    u[20]     primal_lower80  596
    u[20]     primal_lower81  677
    u[20]     primal_lower82  454
    u[20]     primal_lower83  249
    u[20]     primal_lower84  986
    u[20]     primal_lower85  449
    u[20]     primal_lower86  650
    u[20]     primal_lower87  208
    u[20]     primal_lower88  164
    u[20]     primal_lower89  316
    u[20]     primal_lower90  590
    u[20]     primal_lower91  133
    u[20]     primal_lower92  893
    u[20]     primal_lower93  457
    u[20]     primal_lower94  454
    u[20]     primal_lower95  273
    u[20]     primal_lower96  648
    u[20]     primal_lower97  405
    u[20]     primal_lower98  951
    u[20]     primal_lower99  344
    u[20]     interdiction[20]  1
    u[20]     mccormick1[20]  -1
    u[20]     mccormick3[20]  1
    u[21]     primal_lower0  565
    u[21]     primal_lower1  848
    u[21]     primal_lower2  913
    u[21]     primal_lower3  69
    u[21]     primal_lower4  75
    u[21]     primal_lower5  297
    u[21]     primal_lower6  728
    u[21]     primal_lower7  457
    u[21]     primal_lower8  476
    u[21]     primal_lower9  811
    u[21]     primal_lower10  261
    u[21]     primal_lower11  326
    u[21]     primal_lower12  593
    u[21]     primal_lower13  97
    u[21]     primal_lower14  121
    u[21]     primal_lower15  732
    u[21]     primal_lower16  238
    u[21]     primal_lower17  905
    u[21]     primal_lower18  129
    u[21]     primal_lower19  145
    u[21]     primal_lower20  304
    u[21]     primal_lower21  352
    u[21]     primal_lower22  870
    u[21]     primal_lower23  336
    u[21]     primal_lower24  722
    u[21]     primal_lower25  59
    u[21]     primal_lower26  694
    u[21]     primal_lower27  719
    u[21]     primal_lower28  316
    u[21]     primal_lower29  369
    u[21]     primal_lower30  408
    u[21]     primal_lower31  483
    u[21]     primal_lower32  871
    u[21]     primal_lower33  840
    u[21]     primal_lower34  989
    u[21]     primal_lower35  965
    u[21]     primal_lower36  38
    u[21]     primal_lower37  82
    u[21]     primal_lower38  424
    u[21]     primal_lower39  522
    u[21]     primal_lower40  214
    u[21]     primal_lower41  928
    u[21]     primal_lower42  701
    u[21]     primal_lower43  80
    u[21]     primal_lower44  549
    u[21]     primal_lower45  334
    u[21]     primal_lower46  914
    u[21]     primal_lower47  849
    u[21]     primal_lower48  104
    u[21]     primal_lower49  712
    u[21]     primal_lower50  237
    u[21]     primal_lower51  113
    u[21]     primal_lower52  229
    u[21]     primal_lower53  760
    u[21]     primal_lower54  135
    u[21]     primal_lower55  593
    u[21]     primal_lower56  330
    u[21]     primal_lower57  10
    u[21]     primal_lower58  158
    u[21]     primal_lower59  522
    u[21]     primal_lower60  874
    u[21]     primal_lower61  605
    u[21]     primal_lower62  28
    u[21]     primal_lower63  962
    u[21]     primal_lower64  535
    u[21]     primal_lower65  560
    u[21]     primal_lower66  498
    u[21]     primal_lower67  285
    u[21]     primal_lower68  696
    u[21]     primal_lower69  515
    u[21]     primal_lower70  315
    u[21]     primal_lower71  627
    u[21]     primal_lower72  448
    u[21]     primal_lower73  880
    u[21]     primal_lower74  770
    u[21]     primal_lower75  546
    u[21]     primal_lower76  557
    u[21]     primal_lower77  91
    u[21]     primal_lower78  136
    u[21]     primal_lower79  997
    u[21]     primal_lower80  511
    u[21]     primal_lower81  800
    u[21]     primal_lower82  180
    u[21]     primal_lower83  244
    u[21]     primal_lower84  981
    u[21]     primal_lower85  703
    u[21]     primal_lower86  592
    u[21]     primal_lower87  782
    u[21]     primal_lower88  514
    u[21]     primal_lower89  490
    u[21]     primal_lower90  329
    u[21]     primal_lower91  456
    u[21]     primal_lower92  888
    u[21]     primal_lower93  444
    u[21]     primal_lower94  433
    u[21]     primal_lower95  84
    u[21]     primal_lower96  651
    u[21]     primal_lower97  459
    u[21]     primal_lower98  757
    u[21]     primal_lower99  222
    u[21]     interdiction[21]  1
    u[21]     mccormick1[21]  -1
    u[21]     mccormick3[21]  1
    u[22]     primal_lower0  113
    u[22]     primal_lower1  705
    u[22]     primal_lower2  637
    u[22]     primal_lower3  182
    u[22]     primal_lower4  612
    u[22]     primal_lower5  813
    u[22]     primal_lower6  985
    u[22]     primal_lower7  858
    u[22]     primal_lower8  253
    u[22]     primal_lower9  975
    u[22]     primal_lower10  169
    u[22]     primal_lower11  74
    u[22]     primal_lower12  461
    u[22]     primal_lower13  522
    u[22]     primal_lower14  482
    u[22]     primal_lower15  469
    u[22]     primal_lower16  138
    u[22]     primal_lower17  589
    u[22]     primal_lower18  618
    u[22]     primal_lower19  125
    u[22]     primal_lower20  420
    u[22]     primal_lower21  673
    u[22]     primal_lower22  767
    u[22]     primal_lower23  681
    u[22]     primal_lower24  907
    u[22]     primal_lower25  559
    u[22]     primal_lower26  330
    u[22]     primal_lower27  267
    u[22]     primal_lower28  565
    u[22]     primal_lower29  901
    u[22]     primal_lower30  804
    u[22]     primal_lower31  831
    u[22]     primal_lower32  160
    u[22]     primal_lower33  132
    u[22]     primal_lower34  377
    u[22]     primal_lower35  86
    u[22]     primal_lower36  634
    u[22]     primal_lower37  371
    u[22]     primal_lower38  849
    u[22]     primal_lower39  758
    u[22]     primal_lower40  826
    u[22]     primal_lower41  524
    u[22]     primal_lower42  742
    u[22]     primal_lower43  521
    u[22]     primal_lower44  286
    u[22]     primal_lower45  935
    u[22]     primal_lower46  150
    u[22]     primal_lower47  301
    u[22]     primal_lower48  577
    u[22]     primal_lower49  673
    u[22]     primal_lower50  22
    u[22]     primal_lower51  173
    u[22]     primal_lower52  905
    u[22]     primal_lower53  137
    u[22]     primal_lower54  640
    u[22]     primal_lower55  69
    u[22]     primal_lower56  558
    u[22]     primal_lower57  27
    u[22]     primal_lower58  218
    u[22]     primal_lower59  211
    u[22]     primal_lower60  630
    u[22]     primal_lower61  617
    u[22]     primal_lower62  341
    u[22]     primal_lower63  763
    u[22]     primal_lower64  696
    u[22]     primal_lower65  425
    u[22]     primal_lower66  755
    u[22]     primal_lower67  974
    u[22]     primal_lower68  353
    u[22]     primal_lower69  476
    u[22]     primal_lower70  383
    u[22]     primal_lower71  247
    u[22]     primal_lower72  132
    u[22]     primal_lower73  948
    u[22]     primal_lower74  915
    u[22]     primal_lower75  139
    u[22]     primal_lower76  614
    u[22]     primal_lower77  55
    u[22]     primal_lower78  92
    u[22]     primal_lower79  998
    u[22]     primal_lower80  915
    u[22]     primal_lower81  500
    u[22]     primal_lower82  885
    u[22]     primal_lower83  384
    u[22]     primal_lower84  233
    u[22]     primal_lower85  232
    u[22]     primal_lower86  993
    u[22]     primal_lower87  663
    u[22]     primal_lower88  275
    u[22]     primal_lower89  603
    u[22]     primal_lower90  381
    u[22]     primal_lower91  892
    u[22]     primal_lower92  196
    u[22]     primal_lower93  720
    u[22]     primal_lower94  53
    u[22]     primal_lower95  104
    u[22]     primal_lower96  167
    u[22]     primal_lower97  860
    u[22]     primal_lower98  214
    u[22]     primal_lower99  135
    u[22]     interdiction[22]  1
    u[22]     mccormick1[22]  -1
    u[22]     mccormick3[22]  1
    u[23]     primal_lower0  716
    u[23]     primal_lower1  743
    u[23]     primal_lower2  184
    u[23]     primal_lower3  356
    u[23]     primal_lower4  490
    u[23]     primal_lower5  560
    u[23]     primal_lower6  799
    u[23]     primal_lower7  776
    u[23]     primal_lower8  435
    u[23]     primal_lower9  290
    u[23]     primal_lower10  196
    u[23]     primal_lower11  941
    u[23]     primal_lower12  424
    u[23]     primal_lower13  712
    u[23]     primal_lower14  232
    u[23]     primal_lower15  59
    u[23]     primal_lower16  229
    u[23]     primal_lower17  600
    u[23]     primal_lower18  536
    u[23]     primal_lower19  464
    u[23]     primal_lower20  919
    u[23]     primal_lower21  743
    u[23]     primal_lower22  965
    u[23]     primal_lower23  855
    u[23]     primal_lower24  113
    u[23]     primal_lower25  738
    u[23]     primal_lower26  13
    u[23]     primal_lower27  454
    u[23]     primal_lower28  283
    u[23]     primal_lower29  568
    u[23]     primal_lower30  55
    u[23]     primal_lower31  754
    u[23]     primal_lower32  614
    u[23]     primal_lower33  247
    u[23]     primal_lower34  380
    u[23]     primal_lower35  244
    u[23]     primal_lower36  965
    u[23]     primal_lower37  849
    u[23]     primal_lower38  279
    u[23]     primal_lower39  713
    u[23]     primal_lower40  629
    u[23]     primal_lower41  447
    u[23]     primal_lower42  860
    u[23]     primal_lower43  79
    u[23]     primal_lower44  940
    u[23]     primal_lower45  317
    u[23]     primal_lower46  201
    u[23]     primal_lower47  528
    u[23]     primal_lower48  495
    u[23]     primal_lower49  383
    u[23]     primal_lower50  692
    u[23]     primal_lower51  464
    u[23]     primal_lower52  700
    u[23]     primal_lower53  471
    u[23]     primal_lower54  102
    u[23]     primal_lower55  976
    u[23]     primal_lower56  41
    u[23]     primal_lower57  417
    u[23]     primal_lower58  885
    u[23]     primal_lower59  849
    u[23]     primal_lower60  225
    u[23]     primal_lower61  748
    u[23]     primal_lower62  747
    u[23]     primal_lower63  649
    u[23]     primal_lower64  590
    u[23]     primal_lower65  311
    u[23]     primal_lower66  457
    u[23]     primal_lower67  124
    u[23]     primal_lower68  247
    u[23]     primal_lower69  594
    u[23]     primal_lower70  898
    u[23]     primal_lower71  474
    u[23]     primal_lower72  887
    u[23]     primal_lower73  407
    u[23]     primal_lower74  649
    u[23]     primal_lower75  545
    u[23]     primal_lower76  148
    u[23]     primal_lower77  170
    u[23]     primal_lower78  239
    u[23]     primal_lower79  468
    u[23]     primal_lower80  718
    u[23]     primal_lower81  495
    u[23]     primal_lower82  19
    u[23]     primal_lower83  763
    u[23]     primal_lower84  724
    u[23]     primal_lower85  782
    u[23]     primal_lower86  215
    u[23]     primal_lower87  597
    u[23]     primal_lower88  897
    u[23]     primal_lower89  401
    u[23]     primal_lower90  640
    u[23]     primal_lower91  767
    u[23]     primal_lower92  487
    u[23]     primal_lower93  371
    u[23]     primal_lower94  800
    u[23]     primal_lower95  859
    u[23]     primal_lower96  642
    u[23]     primal_lower97  498
    u[23]     primal_lower98  532
    u[23]     primal_lower99  573
    u[23]     interdiction[23]  1
    u[23]     mccormick1[23]  -1
    u[23]     mccormick3[23]  1
    u[24]     primal_lower0  786
    u[24]     primal_lower1  457
    u[24]     primal_lower2  334
    u[24]     primal_lower3  310
    u[24]     primal_lower4  780
    u[24]     primal_lower5  46
    u[24]     primal_lower6  73
    u[24]     primal_lower7  786
    u[24]     primal_lower8  901
    u[24]     primal_lower9  80
    u[24]     primal_lower10  874
    u[24]     primal_lower11  571
    u[24]     primal_lower12  678
    u[24]     primal_lower13  594
    u[24]     primal_lower14  154
    u[24]     primal_lower15  501
    u[24]     primal_lower16  91
    u[24]     primal_lower17  390
    u[24]     primal_lower18  586
    u[24]     primal_lower19  918
    u[24]     primal_lower20  109
    u[24]     primal_lower21  105
    u[24]     primal_lower22  319
    u[24]     primal_lower23  921
    u[24]     primal_lower24  787
    u[24]     primal_lower25  552
    u[24]     primal_lower26  987
    u[24]     primal_lower27  148
    u[24]     primal_lower28  173
    u[24]     primal_lower29  998
    u[24]     primal_lower30  661
    u[24]     primal_lower31  856
    u[24]     primal_lower32  48
    u[24]     primal_lower33  709
    u[24]     primal_lower34  290
    u[24]     primal_lower35  662
    u[24]     primal_lower36  67
    u[24]     primal_lower37  891
    u[24]     primal_lower38  161
    u[24]     primal_lower39  847
    u[24]     primal_lower40  275
    u[24]     primal_lower41  77
    u[24]     primal_lower42  622
    u[24]     primal_lower43  681
    u[24]     primal_lower44  230
    u[24]     primal_lower45  415
    u[24]     primal_lower46  367
    u[24]     primal_lower47  814
    u[24]     primal_lower48  409
    u[24]     primal_lower49  785
    u[24]     primal_lower50  806
    u[24]     primal_lower51  486
    u[24]     primal_lower52  18
    u[24]     primal_lower53  425
    u[24]     primal_lower54  728
    u[24]     primal_lower55  878
    u[24]     primal_lower56  927
    u[24]     primal_lower57  187
    u[24]     primal_lower58  595
    u[24]     primal_lower59  763
    u[24]     primal_lower60  967
    u[24]     primal_lower61  586
    u[24]     primal_lower62  69
    u[24]     primal_lower63  227
    u[24]     primal_lower64  120
    u[24]     primal_lower65  993
    u[24]     primal_lower66  315
    u[24]     primal_lower67  414
    u[24]     primal_lower68  769
    u[24]     primal_lower69  668
    u[24]     primal_lower70  88
    u[24]     primal_lower71  32
    u[24]     primal_lower72  61
    u[24]     primal_lower73  5
    u[24]     primal_lower74  467
    u[24]     primal_lower75  387
    u[24]     primal_lower76  662
    u[24]     primal_lower77  144
    u[24]     primal_lower78  645
    u[24]     primal_lower79  454
    u[24]     primal_lower80  980
    u[24]     primal_lower81  805
    u[24]     primal_lower82  637
    u[24]     primal_lower83  361
    u[24]     primal_lower84  250
    u[24]     primal_lower85  184
    u[24]     primal_lower86  233
    u[24]     primal_lower87  47
    u[24]     primal_lower88  131
    u[24]     primal_lower89  667
    u[24]     primal_lower90  598
    u[24]     primal_lower91  29
    u[24]     primal_lower92  749
    u[24]     primal_lower93  593
    u[24]     primal_lower94  246
    u[24]     primal_lower95  33
    u[24]     primal_lower96  928
    u[24]     primal_lower97  380
    u[24]     primal_lower98  590
    u[24]     primal_lower99  63
    u[24]     interdiction[24]  1
    u[24]     mccormick1[24]  -1
    u[24]     mccormick3[24]  1
    u[25]     primal_lower0  589
    u[25]     primal_lower1  209
    u[25]     primal_lower2  257
    u[25]     primal_lower3  174
    u[25]     primal_lower4  116
    u[25]     primal_lower5  169
    u[25]     primal_lower6  9
    u[25]     primal_lower7  770
    u[25]     primal_lower8  885
    u[25]     primal_lower9  851
    u[25]     primal_lower10  205
    u[25]     primal_lower11  70
    u[25]     primal_lower12  177
    u[25]     primal_lower13  482
    u[25]     primal_lower14  658
    u[25]     primal_lower15  925
    u[25]     primal_lower16  934
    u[25]     primal_lower17  633
    u[25]     primal_lower18  314
    u[25]     primal_lower19  929
    u[25]     primal_lower20  880
    u[25]     primal_lower21  1
    u[25]     primal_lower22  823
    u[25]     primal_lower23  721
    u[25]     primal_lower24  395
    u[25]     primal_lower25  963
    u[25]     primal_lower26  990
    u[25]     primal_lower27  455
    u[25]     primal_lower28  301
    u[25]     primal_lower29  569
    u[25]     primal_lower30  592
    u[25]     primal_lower31  59
    u[25]     primal_lower32  464
    u[25]     primal_lower33  968
    u[25]     primal_lower34  405
    u[25]     primal_lower35  974
    u[25]     primal_lower36  6
    u[25]     primal_lower37  883
    u[25]     primal_lower38  625
    u[25]     primal_lower39  138
    u[25]     primal_lower40  270
    u[25]     primal_lower41  216
    u[25]     primal_lower42  558
    u[25]     primal_lower43  385
    u[25]     primal_lower44  126
    u[25]     primal_lower45  7
    u[25]     primal_lower46  618
    u[25]     primal_lower47  505
    u[25]     primal_lower48  225
    u[25]     primal_lower49  537
    u[25]     primal_lower50  198
    u[25]     primal_lower51  521
    u[25]     primal_lower52  421
    u[25]     primal_lower53  545
    u[25]     primal_lower54  184
    u[25]     primal_lower55  881
    u[25]     primal_lower56  818
    u[25]     primal_lower57  259
    u[25]     primal_lower58  134
    u[25]     primal_lower59  467
    u[25]     primal_lower60  458
    u[25]     primal_lower61  5
    u[25]     primal_lower62  461
    u[25]     primal_lower63  891
    u[25]     primal_lower64  312
    u[25]     primal_lower65  865
    u[25]     primal_lower66  19
    u[25]     primal_lower67  358
    u[25]     primal_lower68  753
    u[25]     primal_lower69  916
    u[25]     primal_lower70  355
    u[25]     primal_lower71  171
    u[25]     primal_lower72  936
    u[25]     primal_lower73  112
    u[25]     primal_lower74  947
    u[25]     primal_lower75  307
    u[25]     primal_lower76  798
    u[25]     primal_lower77  563
    u[25]     primal_lower78  704
    u[25]     primal_lower79  270
    u[25]     primal_lower80  383
    u[25]     primal_lower81  360
    u[25]     primal_lower82  85
    u[25]     primal_lower83  340
    u[25]     primal_lower84  277
    u[25]     primal_lower85  240
    u[25]     primal_lower86  257
    u[25]     primal_lower87  895
    u[25]     primal_lower88  283
    u[25]     primal_lower89  619
    u[25]     primal_lower90  401
    u[25]     primal_lower91  896
    u[25]     primal_lower92  216
    u[25]     primal_lower93  476
    u[25]     primal_lower94  625
    u[25]     primal_lower95  788
    u[25]     primal_lower96  699
    u[25]     primal_lower97  308
    u[25]     primal_lower98  222
    u[25]     primal_lower99  247
    u[25]     interdiction[25]  1
    u[25]     mccormick1[25]  -1
    u[25]     mccormick3[25]  1
    u[26]     primal_lower0  311
    u[26]     primal_lower1  911
    u[26]     primal_lower2  291
    u[26]     primal_lower3  828
    u[26]     primal_lower4  570
    u[26]     primal_lower5  539
    u[26]     primal_lower6  223
    u[26]     primal_lower7  872
    u[26]     primal_lower8  11
    u[26]     primal_lower9  389
    u[26]     primal_lower10  135
    u[26]     primal_lower11  152
    u[26]     primal_lower12  371
    u[26]     primal_lower13  640
    u[26]     primal_lower14  696
    u[26]     primal_lower15  187
    u[26]     primal_lower16  72
    u[26]     primal_lower17  171
    u[26]     primal_lower18  720
    u[26]     primal_lower19  715
    u[26]     primal_lower20  290
    u[26]     primal_lower21  151
    u[26]     primal_lower22  437
    u[26]     primal_lower23  7
    u[26]     primal_lower24  785
    u[26]     primal_lower25  861
    u[26]     primal_lower26  544
    u[26]     primal_lower27  249
    u[26]     primal_lower28  427
    u[26]     primal_lower29  723
    u[26]     primal_lower30  722
    u[26]     primal_lower31  253
    u[26]     primal_lower32  558
    u[26]     primal_lower33  794
    u[26]     primal_lower34  647
    u[26]     primal_lower35  660
    u[26]     primal_lower36  632
    u[26]     primal_lower37  585
    u[26]     primal_lower38  47
    u[26]     primal_lower39  444
    u[26]     primal_lower40  848
    u[26]     primal_lower41  386
    u[26]     primal_lower42  516
    u[26]     primal_lower43  791
    u[26]     primal_lower44  996
    u[26]     primal_lower45  421
    u[26]     primal_lower46  620
    u[26]     primal_lower47  19
    u[26]     primal_lower48  863
    u[26]     primal_lower49  7
    u[26]     primal_lower50  684
    u[26]     primal_lower51  979
    u[26]     primal_lower52  135
    u[26]     primal_lower53  455
    u[26]     primal_lower54  46
    u[26]     primal_lower55  899
    u[26]     primal_lower56  140
    u[26]     primal_lower57  929
    u[26]     primal_lower58  320
    u[26]     primal_lower59  345
    u[26]     primal_lower60  196
    u[26]     primal_lower61  735
    u[26]     primal_lower62  75
    u[26]     primal_lower63  705
    u[26]     primal_lower64  174
    u[26]     primal_lower65  711
    u[26]     primal_lower66  609
    u[26]     primal_lower67  620
    u[26]     primal_lower68  407
    u[26]     primal_lower69  386
    u[26]     primal_lower70  893
    u[26]     primal_lower71  733
    u[26]     primal_lower72  842
    u[26]     primal_lower73  730
    u[26]     primal_lower74  161
    u[26]     primal_lower75  153
    u[26]     primal_lower76  436
    u[26]     primal_lower77  661
    u[26]     primal_lower78  946
    u[26]     primal_lower79  684
    u[26]     primal_lower80  49
    u[26]     primal_lower81  298
    u[26]     primal_lower82  555
    u[26]     primal_lower83  758
    u[26]     primal_lower84  567
    u[26]     primal_lower85  630
    u[26]     primal_lower86  31
    u[26]     primal_lower87  109
    u[26]     primal_lower88  377
    u[26]     primal_lower89  585
    u[26]     primal_lower90  995
    u[26]     primal_lower91  946
    u[26]     primal_lower92  18
    u[26]     primal_lower93  142
    u[26]     primal_lower94  691
    u[26]     primal_lower95  534
    u[26]     primal_lower96  541
    u[26]     primal_lower97  802
    u[26]     primal_lower98  724
    u[26]     primal_lower99  701
    u[26]     interdiction[26]  1
    u[26]     mccormick1[26]  -1
    u[26]     mccormick3[26]  1
    u[27]     primal_lower0  453
    u[27]     primal_lower1  552
    u[27]     primal_lower2  673
    u[27]     primal_lower3  629
    u[27]     primal_lower4  507
    u[27]     primal_lower5  217
    u[27]     primal_lower6  432
    u[27]     primal_lower7  313
    u[27]     primal_lower8  852
    u[27]     primal_lower9  187
    u[27]     primal_lower10  317
    u[27]     primal_lower11  422
    u[27]     primal_lower12  665
    u[27]     primal_lower13  225
    u[27]     primal_lower14  401
    u[27]     primal_lower15  724
    u[27]     primal_lower16  774
    u[27]     primal_lower17  657
    u[27]     primal_lower18  441
    u[27]     primal_lower19  577
    u[27]     primal_lower20  264
    u[27]     primal_lower21  328
    u[27]     primal_lower22  878
    u[27]     primal_lower23  272
    u[27]     primal_lower24  546
    u[27]     primal_lower25  931
    u[27]     primal_lower26  982
    u[27]     primal_lower27  7
    u[27]     primal_lower28  636
    u[27]     primal_lower29  161
    u[27]     primal_lower30  744
    u[27]     primal_lower31  971
    u[27]     primal_lower32  303
    u[27]     primal_lower33  328
    u[27]     primal_lower34  69
    u[27]     primal_lower35  685
    u[27]     primal_lower36  86
    u[27]     primal_lower37  970
    u[27]     primal_lower38  296
    u[27]     primal_lower39  530
    u[27]     primal_lower40  398
    u[27]     primal_lower41  648
    u[27]     primal_lower42  197
    u[27]     primal_lower43  728
    u[27]     primal_lower44  381
    u[27]     primal_lower45  94
    u[27]     primal_lower46  922
    u[27]     primal_lower47  873
    u[27]     primal_lower48  752
    u[27]     primal_lower49  128
    u[27]     primal_lower50  525
    u[27]     primal_lower51  145
    u[27]     primal_lower52  373
    u[27]     primal_lower53  784
    u[27]     primal_lower54  167
    u[27]     primal_lower55  257
    u[27]     primal_lower56  610
    u[27]     primal_lower57  738
    u[27]     primal_lower58  278
    u[27]     primal_lower59  858
    u[27]     primal_lower60  114
    u[27]     primal_lower61  309
    u[27]     primal_lower62  572
    u[27]     primal_lower63  610
    u[27]     primal_lower64  279
    u[27]     primal_lower65  56
    u[27]     primal_lower66  594
    u[27]     primal_lower67  437
    u[27]     primal_lower68  608
    u[27]     primal_lower69  771
    u[27]     primal_lower70  187
    u[27]     primal_lower71  899
    u[27]     primal_lower72  656
    u[27]     primal_lower73  904
    u[27]     primal_lower74  26
    u[27]     primal_lower75  442
    u[27]     primal_lower76  213
    u[27]     primal_lower77  595
    u[27]     primal_lower78  496
    u[27]     primal_lower79  237
    u[27]     primal_lower80  623
    u[27]     primal_lower81  224
    u[27]     primal_lower82  812
    u[27]     primal_lower83  180
    u[27]     primal_lower84  797
    u[27]     primal_lower85  87
    u[27]     primal_lower86  696
    u[27]     primal_lower87  902
    u[27]     primal_lower88  242
    u[27]     primal_lower89  602
    u[27]     primal_lower90  457
    u[27]     primal_lower91  824
    u[27]     primal_lower92  240
    u[27]     primal_lower93  540
    u[27]     primal_lower94  281
    u[27]     primal_lower95  236
    u[27]     primal_lower96  459
    u[27]     primal_lower97  35
    u[27]     primal_lower98  645
    u[27]     primal_lower99  446
    u[27]     interdiction[27]  1
    u[27]     mccormick1[27]  -1
    u[27]     mccormick3[27]  1
    u[28]     primal_lower0  755
    u[28]     primal_lower1  778
    u[28]     primal_lower2  999
    u[28]     primal_lower3  879
    u[28]     primal_lower4  45
    u[28]     primal_lower5  983
    u[28]     primal_lower6  42
    u[28]     primal_lower7  579
    u[28]     primal_lower8  198
    u[28]     primal_lower9  881
    u[28]     primal_lower10  547
    u[28]     primal_lower11  348
    u[28]     primal_lower12  463
    u[28]     primal_lower13  283
    u[28]     primal_lower14  83
    u[28]     primal_lower15  94
    u[28]     primal_lower16  28
    u[28]     primal_lower17  743
    u[28]     primal_lower18  179
    u[28]     primal_lower19  151
    u[28]     primal_lower20  790
    u[28]     primal_lower21  810
    u[28]     primal_lower22  344
    u[28]     primal_lower23  266
    u[28]     primal_lower24  716
    u[28]     primal_lower25  545
    u[28]     primal_lower26  308
    u[28]     primal_lower27  541
    u[28]     primal_lower28  278
    u[28]     primal_lower29  167
    u[28]     primal_lower30  462
    u[28]     primal_lower31  609
    u[28]     primal_lower32  913
    u[28]     primal_lower33  990
    u[28]     primal_lower34  707
    u[28]     primal_lower35  639
    u[28]     primal_lower36  676
    u[28]     primal_lower37  180
    u[28]     primal_lower38  834
    u[28]     primal_lower39  352
    u[28]     primal_lower40  404
    u[28]     primal_lower41  406
    u[28]     primal_lower42  759
    u[28]     primal_lower43  938
    u[28]     primal_lower44  791
    u[28]     primal_lower45  280
    u[28]     primal_lower46  144
    u[28]     primal_lower47  623
    u[28]     primal_lower48  866
    u[28]     primal_lower49  810
    u[28]     primal_lower50  327
    u[28]     primal_lower51  103
    u[28]     primal_lower52  811
    u[28]     primal_lower53  506
    u[28]     primal_lower54  513
    u[28]     primal_lower55  583
    u[28]     primal_lower56  936
    u[28]     primal_lower57  220
    u[28]     primal_lower58  308
    u[28]     primal_lower59  364
    u[28]     primal_lower60  544
    u[28]     primal_lower61  35
    u[28]     primal_lower62  134
    u[28]     primal_lower63  292
    u[28]     primal_lower64  97
    u[28]     primal_lower65  546
    u[28]     primal_lower66  428
    u[28]     primal_lower67  223
    u[28]     primal_lower68  258
    u[28]     primal_lower69  661
    u[28]     primal_lower70  577
    u[28]     primal_lower71  161
    u[28]     primal_lower72  774
    u[28]     primal_lower73  134
    u[28]     primal_lower74  428
    u[28]     primal_lower75  412
    u[28]     primal_lower76  463
    u[28]     primal_lower77  433
    u[28]     primal_lower78  334
    u[28]     primal_lower79  551
    u[28]     primal_lower80  333
    u[28]     primal_lower81  830
    u[28]     primal_lower82  118
    u[28]     primal_lower83  210
    u[28]     primal_lower84  307
    u[28]     primal_lower85  161
    u[28]     primal_lower86  210
    u[28]     primal_lower87  360
    u[28]     primal_lower88  380
    u[28]     primal_lower89  12
    u[28]     primal_lower90  279
    u[28]     primal_lower91  902
    u[28]     primal_lower92  982
    u[28]     primal_lower93  898
    u[28]     primal_lower94  383
    u[28]     primal_lower95  10
    u[28]     primal_lower96  81
    u[28]     primal_lower97  261
    u[28]     primal_lower98  863
    u[28]     primal_lower99  208
    u[28]     interdiction[28]  1
    u[28]     mccormick1[28]  -1
    u[28]     mccormick3[28]  1
    u[29]     primal_lower0  372
    u[29]     primal_lower1  928
    u[29]     primal_lower2  952
    u[29]     primal_lower3  333
    u[29]     primal_lower4  779
    u[29]     primal_lower5  160
    u[29]     primal_lower6  352
    u[29]     primal_lower7  353
    u[29]     primal_lower8  996
    u[29]     primal_lower9  962
    u[29]     primal_lower10  468
    u[29]     primal_lower11  597
    u[29]     primal_lower12  784
    u[29]     primal_lower13  809
    u[29]     primal_lower14  761
    u[29]     primal_lower15  436
    u[29]     primal_lower16  573
    u[29]     primal_lower17  520
    u[29]     primal_lower18  689
    u[29]     primal_lower19  224
    u[29]     primal_lower20  783
    u[29]     primal_lower21  512
    u[29]     primal_lower22  182
    u[29]     primal_lower23  960
    u[29]     primal_lower24  522
    u[29]     primal_lower25  906
    u[29]     primal_lower26  317
    u[29]     primal_lower27  70
    u[29]     primal_lower28  540
    u[29]     primal_lower29  600
    u[29]     primal_lower30  479
    u[29]     primal_lower31  954
    u[29]     primal_lower32  327
    u[29]     primal_lower33  647
    u[29]     primal_lower34  484
    u[29]     primal_lower35  701
    u[29]     primal_lower36  773
    u[29]     primal_lower37  818
    u[29]     primal_lower38  448
    u[29]     primal_lower39  553
    u[29]     primal_lower40  973
    u[29]     primal_lower41  39
    u[29]     primal_lower42  461
    u[29]     primal_lower43  800
    u[29]     primal_lower44  309
    u[29]     primal_lower45  694
    u[29]     primal_lower46  665
    u[29]     primal_lower47  384
    u[29]     primal_lower48  408
    u[29]     primal_lower49  296
    u[29]     primal_lower50  941
    u[29]     primal_lower51  408
    u[29]     primal_lower52  60
    u[29]     primal_lower53  320
    u[29]     primal_lower54  919
    u[29]     primal_lower55  352
    u[29]     primal_lower56  401
    u[29]     primal_lower57  402
    u[29]     primal_lower58  893
    u[29]     primal_lower59  722
    u[29]     primal_lower60  761
    u[29]     primal_lower61  460
    u[29]     primal_lower62  716
    u[29]     primal_lower63  978
    u[29]     primal_lower64  991
    u[29]     primal_lower65  456
    u[29]     primal_lower66  586
    u[29]     primal_lower67  245
    u[29]     primal_lower68  336
    u[29]     primal_lower69  627
    u[29]     primal_lower70  690
    u[29]     primal_lower71  522
    u[29]     primal_lower72  135
    u[29]     primal_lower73  551
    u[29]     primal_lower74  202
    u[29]     primal_lower75  826
    u[29]     primal_lower76  733
    u[29]     primal_lower77  538
    u[29]     primal_lower78  87
    u[29]     primal_lower79  461
    u[29]     primal_lower80  406
    u[29]     primal_lower81  55
    u[29]     primal_lower82  780
    u[29]     primal_lower83  707
    u[29]     primal_lower84  428
    u[29]     primal_lower85  943
    u[29]     primal_lower86  776
    u[29]     primal_lower87  662
    u[29]     primal_lower88  730
    u[29]     primal_lower89  842
    u[29]     primal_lower90  448
    u[29]     primal_lower91  719
    u[29]     primal_lower92  167
    u[29]     primal_lower93  11
    u[29]     primal_lower94  824
    u[29]     primal_lower95  443
    u[29]     primal_lower96  722
    u[29]     primal_lower97  611
    u[29]     primal_lower98  909
    u[29]     primal_lower99  102
    u[29]     interdiction[29]  1
    u[29]     mccormick1[29]  -1
    u[29]     mccormick3[29]  1
    u[30]     primal_lower0  647
    u[30]     primal_lower1  630
    u[30]     primal_lower2  995
    u[30]     primal_lower3  203
    u[30]     primal_lower4  969
    u[30]     primal_lower5  315
    u[30]     primal_lower6  494
    u[30]     primal_lower7  855
    u[30]     primal_lower8  386
    u[30]     primal_lower9  957
    u[30]     primal_lower10  7
    u[30]     primal_lower11  984
    u[30]     primal_lower12  115
    u[30]     primal_lower13  815
    u[30]     primal_lower14  351
    u[30]     primal_lower15  706
    u[30]     primal_lower16  720
    u[30]     primal_lower17  155
    u[30]     primal_lower18  615
    u[30]     primal_lower19  451
    u[30]     primal_lower20  778
    u[30]     primal_lower21  678
    u[30]     primal_lower22  388
    u[30]     primal_lower23  382
    u[30]     primal_lower24  368
    u[30]     primal_lower25  285
    u[30]     primal_lower26  664
    u[30]     primal_lower27  673
    u[30]     primal_lower28  210
    u[30]     primal_lower29  875
    u[30]     primal_lower30  362
    u[30]     primal_lower31  469
    u[30]     primal_lower32  797
    u[30]     primal_lower33  682
    u[30]     primal_lower34  167
    u[30]     primal_lower35  267
    u[30]     primal_lower36  296
    u[30]     primal_lower37  344
    u[30]     primal_lower38  854
    u[30]     primal_lower39  300
    u[30]     primal_lower40  264
    u[30]     primal_lower41  530
    u[30]     primal_lower42  155
    u[30]     primal_lower43  230
    u[30]     primal_lower44  155
    u[30]     primal_lower45  212
    u[30]     primal_lower46  308
    u[30]     primal_lower47  331
    u[30]     primal_lower48  134
    u[30]     primal_lower49  630
    u[30]     primal_lower50  883
    u[30]     primal_lower51  427
    u[30]     primal_lower52  799
    u[30]     primal_lower53  462
    u[30]     primal_lower54  301
    u[30]     primal_lower55  331
    u[30]     primal_lower56  356
    u[30]     primal_lower57  120
    u[30]     primal_lower58  504
    u[30]     primal_lower59  752
    u[30]     primal_lower60  932
    u[30]     primal_lower61  63
    u[30]     primal_lower62  514
    u[30]     primal_lower63  792
    u[30]     primal_lower64  309
    u[30]     primal_lower65  518
    u[30]     primal_lower66  680
    u[30]     primal_lower67  867
    u[30]     primal_lower68  574
    u[30]     primal_lower69  1
    u[30]     primal_lower70  541
    u[30]     primal_lower71  645
    u[30]     primal_lower72  178
    u[30]     primal_lower73  370
    u[30]     primal_lower74  512
    u[30]     primal_lower75  280
    u[30]     primal_lower76  539
    u[30]     primal_lower77  533
    u[30]     primal_lower78  754
    u[30]     primal_lower79  363
    u[30]     primal_lower80  441
    u[30]     primal_lower81  698
    u[30]     primal_lower82  602
    u[30]     primal_lower83  782
    u[30]     primal_lower84  47
    u[30]     primal_lower85  661
    u[30]     primal_lower86  422
    u[30]     primal_lower87  380
    u[30]     primal_lower88  152
    u[30]     primal_lower89  456
    u[30]     primal_lower90  939
    u[30]     primal_lower91  458
    u[30]     primal_lower92  434
    u[30]     primal_lower93  462
    u[30]     primal_lower94  363
    u[30]     primal_lower95  598
    u[30]     primal_lower96  597
    u[30]     primal_lower97  577
    u[30]     primal_lower98  875
    u[30]     primal_lower99  908
    u[30]     interdiction[30]  1
    u[30]     mccormick1[30]  -1
    u[30]     mccormick3[30]  1
    u[31]     primal_lower0  969
    u[31]     primal_lower1  772
    u[31]     primal_lower2  525
    u[31]     primal_lower3  769
    u[31]     primal_lower4  695
    u[31]     primal_lower5  717
    u[31]     primal_lower6  380
    u[31]     primal_lower7  685
    u[31]     primal_lower8  312
    u[31]     primal_lower9  623
    u[31]     primal_lower10  321
    u[31]     primal_lower11  586
    u[31]     primal_lower12  309
    u[31]     primal_lower13  869
    u[31]     primal_lower14  69
    u[31]     primal_lower15  288
    u[31]     primal_lower16  730
    u[31]     primal_lower17  829
    u[31]     primal_lower18  293
    u[31]     primal_lower19  565
    u[31]     primal_lower20  268
    u[31]     primal_lower21  124
    u[31]     primal_lower22  538
    u[31]     primal_lower23  204
    u[31]     primal_lower24  294
    u[31]     primal_lower25  863
    u[31]     primal_lower26  634
    u[31]     primal_lower27  491
    u[31]     primal_lower28  584
    u[31]     primal_lower29  797
    u[31]     primal_lower30  356
    u[31]     primal_lower31  591
    u[31]     primal_lower32  291
    u[31]     primal_lower33  484
    u[31]     primal_lower34  457
    u[31]     primal_lower35  985
    u[31]     primal_lower36  994
    u[31]     primal_lower37  838
    u[31]     primal_lower38  732
    u[31]     primal_lower39  742
    u[31]     primal_lower40  98
    u[31]     primal_lower41  380
    u[31]     primal_lower42  25
    u[31]     primal_lower43  460
    u[31]     primal_lower44  753
    u[31]     primal_lower45  834
    u[31]     primal_lower46  38
    u[31]     primal_lower47  133
    u[31]     primal_lower48  20
    u[31]     primal_lower49  268
    u[31]     primal_lower50  801
    u[31]     primal_lower51  901
    u[31]     primal_lower52  761
    u[31]     primal_lower53  228
    u[31]     primal_lower54  555
    u[31]     primal_lower55  805
    u[31]     primal_lower56  366
    u[31]     primal_lower57  158
    u[31]     primal_lower58  674
    u[31]     primal_lower59  750
    u[31]     primal_lower60  494
    u[31]     primal_lower61  761
    u[31]     primal_lower62  712
    u[31]     primal_lower63  758
    u[31]     primal_lower64  419
    u[31]     primal_lower65  204
    u[31]     primal_lower66  38
    u[31]     primal_lower67  433
    u[31]     primal_lower68  508
    u[31]     primal_lower69  791
    u[31]     primal_lower70  935
    u[31]     primal_lower71  87
    u[31]     primal_lower72  556
    u[31]     primal_lower73  764
    u[31]     primal_lower74  350
    u[31]     primal_lower75  118
    u[31]     primal_lower76  241
    u[31]     primal_lower77  31
    u[31]     primal_lower78  564
    u[31]     primal_lower79  113
    u[31]     primal_lower80  835
    u[31]     primal_lower81  500
    u[31]     primal_lower82  104
    u[31]     primal_lower83  360
    u[31]     primal_lower84  993
    u[31]     primal_lower85  603
    u[31]     primal_lower86  412
    u[31]     primal_lower87  138
    u[31]     primal_lower88  766
    u[31]     primal_lower89  62
    u[31]     primal_lower90  525
    u[31]     primal_lower91  700
    u[31]     primal_lower92  236
    u[31]     primal_lower93  360
    u[31]     primal_lower94  109
    u[31]     primal_lower95  160
    u[31]     primal_lower96  807
    u[31]     primal_lower97  127
    u[31]     primal_lower98  17
    u[31]     primal_lower99  674
    u[31]     interdiction[31]  1
    u[31]     mccormick1[31]  -1
    u[31]     mccormick3[31]  1
    u[32]     primal_lower0  97
    u[32]     primal_lower1  104
    u[32]     primal_lower2  61
    u[32]     primal_lower3  349
    u[32]     primal_lower4  179
    u[32]     primal_lower5  93
    u[32]     primal_lower6  448
    u[32]     primal_lower7  689
    u[32]     primal_lower8  348
    u[32]     primal_lower9  399
    u[32]     primal_lower10  185
    u[32]     primal_lower11  970
    u[32]     primal_lower12  421
    u[32]     primal_lower13  897
    u[32]     primal_lower14  521
    u[32]     primal_lower15  476
    u[32]     primal_lower16  706
    u[32]     primal_lower17  637
    u[32]     primal_lower18  305
    u[32]     primal_lower19  405
    u[32]     primal_lower20  364
    u[32]     primal_lower21  1000
    u[32]     primal_lower22  270
    u[32]     primal_lower23  600
    u[32]     primal_lower24  714
    u[32]     primal_lower25  783
    u[32]     primal_lower26  490
    u[32]     primal_lower27  931
    u[32]     primal_lower28  44
    u[32]     primal_lower29  461
    u[32]     primal_lower30  956
    u[32]     primal_lower31  879
    u[32]     primal_lower32  271
    u[32]     primal_lower33  788
    u[32]     primal_lower34  33
    u[32]     primal_lower35  933
    u[32]     primal_lower36  698
    u[32]     primal_lower37  898
    u[32]     primal_lower38  728
    u[32]     primal_lower39  278
    u[32]     primal_lower40  450
    u[32]     primal_lower41  636
    u[32]     primal_lower42  797
    u[32]     primal_lower43  616
    u[32]     primal_lower44  949
    u[32]     primal_lower45  422
    u[32]     primal_lower46  830
    u[32]     primal_lower47  13
    u[32]     primal_lower48  912
    u[32]     primal_lower49  312
    u[32]     primal_lower50  221
    u[32]     primal_lower51  941
    u[32]     primal_lower52  833
    u[32]     primal_lower53  192
    u[32]     primal_lower54  919
    u[32]     primal_lower55  141
    u[32]     primal_lower56  998
    u[32]     primal_lower57  786
    u[32]     primal_lower58  626
    u[32]     primal_lower59  706
    u[32]     primal_lower60  926
    u[32]     primal_lower61  721
    u[32]     primal_lower62  676
    u[32]     primal_lower63  66
    u[32]     primal_lower64  87
    u[32]     primal_lower65  248
    u[32]     primal_lower66  506
    u[32]     primal_lower67  245
    u[32]     primal_lower68  552
    u[32]     primal_lower69  235
    u[32]     primal_lower70  287
    u[32]     primal_lower71  887
    u[32]     primal_lower72  204
    u[32]     primal_lower73  836
    u[32]     primal_lower74  514
    u[32]     primal_lower75  458
    u[32]     primal_lower76  237
    u[32]     primal_lower77  823
    u[32]     primal_lower78  540
    u[32]     primal_lower79  653
    u[32]     primal_lower80  123
    u[32]     primal_lower81  620
    u[32]     primal_lower82  228
    u[32]     primal_lower83  656
    u[32]     primal_lower84  89
    u[32]     primal_lower85  39
    u[32]     primal_lower86  208
    u[32]     primal_lower87  406
    u[32]     primal_lower88  890
    u[32]     primal_lower89  250
    u[32]     primal_lower90  901
    u[32]     primal_lower91  148
    u[32]     primal_lower92  76
    u[32]     primal_lower93  256
    u[32]     primal_lower94  477
    u[32]     primal_lower95  256
    u[32]     primal_lower96  15
    u[32]     primal_lower97  443
    u[32]     primal_lower98  917
    u[32]     primal_lower99  494
    u[32]     interdiction[32]  1
    u[32]     mccormick1[32]  -1
    u[32]     mccormick3[32]  1
    u[33]     primal_lower0  338
    u[33]     primal_lower1  534
    u[33]     primal_lower2  86
    u[33]     primal_lower3  131
    u[33]     primal_lower4  457
    u[33]     primal_lower5  6
    u[33]     primal_lower6  470
    u[33]     primal_lower7  159
    u[33]     primal_lower8  122
    u[33]     primal_lower9  168
    u[33]     primal_lower10  482
    u[33]     primal_lower11  563
    u[33]     primal_lower12  30
    u[33]     primal_lower13  367
    u[33]     primal_lower14  367
    u[33]     primal_lower15  154
    u[33]     primal_lower16  931
    u[33]     primal_lower17  134
    u[33]     primal_lower18  855
    u[33]     primal_lower19  278
    u[33]     primal_lower20  309
    u[33]     primal_lower21  150
    u[33]     primal_lower22  332
    u[33]     primal_lower23  518
    u[33]     primal_lower24  848
    u[33]     primal_lower25  264
    u[33]     primal_lower26  651
    u[33]     primal_lower27  188
    u[33]     primal_lower28  674
    u[33]     primal_lower29  934
    u[33]     primal_lower30  549
    u[33]     primal_lower31  376
    u[33]     primal_lower32  733
    u[33]     primal_lower33  85
    u[33]     primal_lower34  994
    u[33]     primal_lower35  251
    u[33]     primal_lower36  827
    u[33]     primal_lower37  648
    u[33]     primal_lower38  614
    u[33]     primal_lower39  47
    u[33]     primal_lower40  91
    u[33]     primal_lower41  677
    u[33]     primal_lower42  187
    u[33]     primal_lower43  686
    u[33]     primal_lower44  427
    u[33]     primal_lower45  196
    u[33]     primal_lower46  863
    u[33]     primal_lower47  662
    u[33]     primal_lower48  198
    u[33]     primal_lower49  6
    u[33]     primal_lower50  651
    u[33]     primal_lower51  702
    u[33]     primal_lower52  682
    u[33]     primal_lower53  350
    u[33]     primal_lower54  773
    u[33]     primal_lower55  222
    u[33]     primal_lower56  743
    u[33]     primal_lower57  384
    u[33]     primal_lower58  611
    u[33]     primal_lower59  744
    u[33]     primal_lower60  7
    u[33]     primal_lower61  266
    u[33]     primal_lower62  690
    u[33]     primal_lower63  1000
    u[33]     primal_lower64  229
    u[33]     primal_lower65  334
    u[33]     primal_lower66  296
    u[33]     primal_lower67  315
    u[33]     primal_lower68  222
    u[33]     primal_lower69  745
    u[33]     primal_lower70  160
    u[33]     primal_lower71  136
    u[33]     primal_lower72  229
    u[33]     primal_lower73  565
    u[33]     primal_lower74  888
    u[33]     primal_lower75  232
    u[33]     primal_lower76  267
    u[33]     primal_lower77  208
    u[33]     primal_lower78  661
    u[33]     primal_lower79  211
    u[33]     primal_lower80  764
    u[33]     primal_lower81  133
    u[33]     primal_lower82  314
    u[33]     primal_lower83  537
    u[33]     primal_lower84  858
    u[33]     primal_lower85  981
    u[33]     primal_lower86  558
    u[33]     primal_lower87  908
    u[33]     primal_lower88  712
    u[33]     primal_lower89  880
    u[33]     primal_lower90  902
    u[33]     primal_lower91  669
    u[33]     primal_lower92  149
    u[33]     primal_lower93  657
    u[33]     primal_lower94  310
    u[33]     primal_lower95  649
    u[33]     primal_lower96  496
    u[33]     primal_lower97  809
    u[33]     primal_lower98  187
    u[33]     primal_lower99  428
    u[33]     interdiction[33]  1
    u[33]     mccormick1[33]  -1
    u[33]     mccormick3[33]  1
    u[34]     primal_lower0  209
    u[34]     primal_lower1  305
    u[34]     primal_lower2  381
    u[34]     primal_lower3  110
    u[34]     primal_lower4  268
    u[34]     primal_lower5  917
    u[34]     primal_lower6  433
    u[34]     primal_lower7  570
    u[34]     primal_lower8  269
    u[34]     primal_lower9  31
    u[34]     primal_lower10  761
    u[34]     primal_lower11  674
    u[34]     primal_lower12  21
    u[34]     primal_lower13  522
    u[34]     primal_lower14  962
    u[34]     primal_lower15  581
    u[34]     primal_lower16  914
    u[34]     primal_lower17  941
    u[34]     primal_lower18  970
    u[34]     primal_lower19  973
    u[34]     primal_lower20  812
    u[34]     primal_lower21  737
    u[34]     primal_lower22  495
    u[34]     primal_lower23  289
    u[34]     primal_lower24  291
    u[34]     primal_lower25  695
    u[34]     primal_lower26  466
    u[34]     primal_lower27  499
    u[34]     primal_lower28  389
    u[34]     primal_lower29  597
    u[34]     primal_lower30  468
    u[34]     primal_lower31  743
    u[34]     primal_lower32  280
    u[34]     primal_lower33  612
    u[34]     primal_lower34  857
    u[34]     primal_lower35  358
    u[34]     primal_lower36  90
    u[34]     primal_lower37  99
    u[34]     primal_lower38  985
    u[34]     primal_lower39  726
    u[34]     primal_lower40  114
    u[34]     primal_lower41  756
    u[34]     primal_lower42  630
    u[34]     primal_lower43  969
    u[34]     primal_lower44  790
    u[34]     primal_lower45  527
    u[34]     primal_lower46  590
    u[34]     primal_lower47  581
    u[34]     primal_lower48  721
    u[34]     primal_lower49  161
    u[34]     primal_lower50  646
    u[34]     primal_lower51  717
    u[34]     primal_lower52  489
    u[34]     primal_lower53  873
    u[34]     primal_lower54  144
    u[34]     primal_lower55  749
    u[34]     primal_lower56  542
    u[34]     primal_lower57  115
    u[34]     primal_lower58  994
    u[34]     primal_lower59  467
    u[34]     primal_lower60  886
    u[34]     primal_lower61  857
    u[34]     primal_lower62  197
    u[34]     primal_lower63  83
    u[34]     primal_lower64  168
    u[34]     primal_lower65  57
    u[34]     primal_lower66  195
    u[34]     primal_lower67  750
    u[34]     primal_lower68  833
    u[34]     primal_lower69  900
    u[34]     primal_lower70  391
    u[34]     primal_lower71  263
    u[34]     primal_lower72  236
    u[34]     primal_lower73  620
    u[34]     primal_lower74  19
    u[34]     primal_lower75  395
    u[34]     primal_lower76  478
    u[34]     primal_lower77  815
    u[34]     primal_lower78  884
    u[34]     primal_lower79  462
    u[34]     primal_lower80  571
    u[34]     primal_lower81  948
    u[34]     primal_lower82  949
    u[34]     primal_lower83  536
    u[34]     primal_lower84  449
    u[34]     primal_lower85  88
    u[34]     primal_lower86  633
    u[34]     primal_lower87  63
    u[34]     primal_lower88  859
    u[34]     primal_lower89  323
    u[34]     primal_lower90  149
    u[34]     primal_lower91  364
    u[34]     primal_lower92  396
    u[34]     primal_lower93  880
    u[34]     primal_lower94  517
    u[34]     primal_lower95  48
    u[34]     primal_lower96  135
    u[34]     primal_lower97  380
    u[34]     primal_lower98  334
    u[34]     primal_lower99  15
    u[34]     interdiction[34]  1
    u[34]     mccormick1[34]  -1
    u[34]     mccormick3[34]  1
    u[35]     primal_lower0  182
    u[35]     primal_lower1  474
    u[35]     primal_lower2  66
    u[35]     primal_lower3  367
    u[35]     primal_lower4  133
    u[35]     primal_lower5  106
    u[35]     primal_lower6  34
    u[35]     primal_lower7  723
    u[35]     primal_lower8  886
    u[35]     primal_lower9  332
    u[35]     primal_lower10  126
    u[35]     primal_lower11  223
    u[35]     primal_lower12  970
    u[35]     primal_lower13  979
    u[35]     primal_lower14  683
    u[35]     primal_lower15  702
    u[35]     primal_lower16  351
    u[35]     primal_lower17  378
    u[35]     primal_lower18  587
    u[35]     primal_lower19  522
    u[35]     primal_lower20  769
    u[35]     primal_lower21  666
    u[35]     primal_lower22  240
    u[35]     primal_lower23  882
    u[35]     primal_lower24  684
    u[35]     primal_lower25  164
    u[35]     primal_lower26  511
    u[35]     primal_lower27  960
    u[35]     primal_lower28  750
    u[35]     primal_lower29  10
    u[35]     primal_lower30  625
    u[35]     primal_lower31  340
    u[35]     primal_lower32  105
    u[35]     primal_lower33  689
    u[35]     primal_lower34  182
    u[35]     primal_lower35  71
    u[35]     primal_lower36  487
    u[35]     primal_lower37  716
    u[35]     primal_lower38  978
    u[35]     primal_lower39  755
    u[35]     primal_lower40  671
    u[35]     primal_lower41  545
    u[35]     primal_lower42  335
    u[35]     primal_lower43  474
    u[35]     primal_lower44  903
    u[35]     primal_lower45  592
    u[35]     primal_lower46  875
    u[35]     primal_lower47  282
    u[35]     primal_lower48  322
    u[35]     primal_lower49  938
    u[35]     primal_lower50  199
    u[35]     primal_lower51  906
    u[35]     primal_lower52  150
    u[35]     primal_lower53  50
    u[35]     primal_lower54  601
    u[35]     primal_lower55  650
    u[35]     primal_lower56  163
    u[35]     primal_lower57  132
    u[35]     primal_lower58  287
    u[35]     primal_lower59  820
    u[35]     primal_lower60  859
    u[35]     primal_lower61  822
    u[35]     primal_lower62  542
    u[35]     primal_lower63  116
    u[35]     primal_lower64  489
    u[35]     primal_lower65  834
    u[35]     primal_lower66  228
    u[35]     primal_lower67  583
    u[35]     primal_lower68  610
    u[35]     primal_lower69  597
    u[35]     primal_lower70  100
    u[35]     primal_lower71  724
    u[35]     primal_lower72  473
    u[35]     primal_lower73  441
    u[35]     primal_lower74  36
    u[35]     primal_lower75  356
    u[35]     primal_lower76  951
    u[35]     primal_lower77  268
    u[35]     primal_lower78  473
    u[35]     primal_lower79  879
    u[35]     primal_lower80  560
    u[35]     primal_lower81  737
    u[35]     primal_lower82  134
    u[35]     primal_lower83  125
    u[35]     primal_lower84  910
    u[35]     primal_lower85  137
    u[35]     primal_lower86  306
    u[35]     primal_lower87  944
    u[35]     primal_lower88  900
    u[35]     primal_lower89  948
    u[35]     primal_lower90  18
    u[35]     primal_lower91  17
    u[35]     primal_lower92  281
    u[35]     primal_lower93  565
    u[35]     primal_lower94  242
    u[35]     primal_lower95  709
    u[35]     primal_lower96  836
    u[35]     primal_lower97  229
    u[35]     primal_lower98  423
    u[35]     primal_lower99  696
    u[35]     interdiction[35]  1
    u[35]     mccormick1[35]  -1
    u[35]     mccormick3[35]  1
    u[36]     primal_lower0  641
    u[36]     primal_lower1  625
    u[36]     primal_lower2  869
    u[36]     primal_lower3  30
    u[36]     primal_lower4  260
    u[36]     primal_lower5  693
    u[36]     primal_lower6  961
    u[36]     primal_lower7  338
    u[36]     primal_lower8  965
    u[36]     primal_lower9  487
    u[36]     primal_lower10  377
    u[36]     primal_lower11  378
    u[36]     primal_lower12  453
    u[36]     primal_lower13  562
    u[36]     primal_lower14  298
    u[36]     primal_lower15  701
    u[36]     primal_lower16  954
    u[36]     primal_lower17  29
    u[36]     primal_lower18  330
    u[36]     primal_lower19  589
    u[36]     primal_lower20  244
    u[36]     primal_lower21  449
    u[36]     primal_lower22  927
    u[36]     primal_lower23  577
    u[36]     primal_lower24  59
    u[36]     primal_lower25  79
    u[36]     primal_lower26  714
    u[36]     primal_lower27  355
    u[36]     primal_lower28  213
    u[36]     primal_lower29  133
    u[36]     primal_lower30  676
    u[36]     primal_lower31  263
    u[36]     primal_lower32  968
    u[36]     primal_lower33  228
    u[36]     primal_lower34  545
    u[36]     primal_lower35  206
    u[36]     primal_lower36  842
    u[36]     primal_lower37  3
    u[36]     primal_lower38  889
    u[36]     primal_lower39  966
    u[36]     primal_lower40  578
    u[36]     primal_lower41  924
    u[36]     primal_lower42  910
    u[36]     primal_lower43  537
    u[36]     primal_lower44  526
    u[36]     primal_lower45  55
    u[36]     primal_lower46  662
    u[36]     primal_lower47  325
    u[36]     primal_lower48  57
    u[36]     primal_lower49  57
    u[36]     primal_lower50  446
    u[36]     primal_lower51  229
    u[36]     primal_lower52  633
    u[36]     primal_lower53  425
    u[36]     primal_lower54  512
    u[36]     primal_lower55  93
    u[36]     primal_lower56  670
    u[36]     primal_lower57  619
    u[36]     primal_lower58  898
    u[36]     primal_lower59  947
    u[36]     primal_lower60  326
    u[36]     primal_lower61  169
    u[36]     primal_lower62  901
    u[36]     primal_lower63  787
    u[36]     primal_lower64  984
    u[36]     primal_lower65  561
    u[36]     primal_lower66  907
    u[36]     primal_lower67  958
    u[36]     primal_lower68  993
    u[36]     primal_lower69  676
    u[36]     primal_lower70  143
    u[36]     primal_lower71  23
    u[36]     primal_lower72  68
    u[36]     primal_lower73  452
    u[36]     primal_lower74  979
    u[36]     primal_lower75  435
    u[36]     primal_lower76  446
    u[36]     primal_lower77  487
    u[36]     primal_lower78  684
    u[36]     primal_lower79  118
    u[36]     primal_lower80  627
    u[36]     primal_lower81  668
    u[36]     primal_lower82  597
    u[36]     primal_lower83  520
    u[36]     primal_lower84  41
    u[36]     primal_lower85  296
    u[36]     primal_lower86  841
    u[36]     primal_lower87  647
    u[36]     primal_lower88  387
    u[36]     primal_lower89  259
    u[36]     primal_lower90  661
    u[36]     primal_lower91  124
    u[36]     primal_lower92  708
    u[36]     primal_lower93  968
    u[36]     primal_lower94  701
    u[36]     primal_lower95  992
    u[36]     primal_lower96  351
    u[36]     primal_lower97  524
    u[36]     primal_lower98  86
    u[36]     primal_lower99  335
    u[36]     interdiction[36]  1
    u[36]     mccormick1[36]  -1
    u[36]     mccormick3[36]  1
    u[37]     primal_lower0  914
    u[37]     primal_lower1  437
    u[37]     primal_lower2  70
    u[37]     primal_lower3  762
    u[37]     primal_lower4  160
    u[37]     primal_lower5  262
    u[37]     primal_lower6  109
    u[37]     primal_lower7  638
    u[37]     primal_lower8  377
    u[37]     primal_lower9  664
    u[37]     primal_lower10  930
    u[37]     primal_lower11  923
    u[37]     primal_lower12  446
    u[37]     primal_lower13  782
    u[37]     primal_lower14  966
    u[37]     primal_lower15  729
    u[37]     primal_lower16  27
    u[37]     primal_lower17  438
    u[37]     primal_lower18  166
    u[37]     primal_lower19  574
    u[37]     primal_lower20  293
    u[37]     primal_lower21  253
    u[37]     primal_lower22  955
    u[37]     primal_lower23  229
    u[37]     primal_lower24  103
    u[37]     primal_lower25  432
    u[37]     primal_lower26  987
    u[37]     primal_lower27  940
    u[37]     primal_lower28  713
    u[37]     primal_lower29  182
    u[37]     primal_lower30  845
    u[37]     primal_lower31  528
    u[37]     primal_lower32  444
    u[37]     primal_lower33  541
    u[37]     primal_lower34  498
    u[37]     primal_lower35  834
    u[37]     primal_lower36  219
    u[37]     primal_lower37  279
    u[37]     primal_lower38  933
    u[37]     primal_lower39  311
    u[37]     primal_lower40  579
    u[37]     primal_lower41  613
    u[37]     primal_lower42  602
    u[37]     primal_lower43  357
    u[37]     primal_lower44  250
    u[37]     primal_lower45  899
    u[37]     primal_lower46  823
    u[37]     primal_lower47  998
    u[37]     primal_lower48  493
    u[37]     primal_lower49  309
    u[37]     primal_lower50  970
    u[37]     primal_lower51  702
    u[37]     primal_lower52  930
    u[37]     primal_lower53  165
    u[37]     primal_lower54  548
    u[37]     primal_lower55  38
    u[37]     primal_lower56  127
    u[37]     primal_lower57  487
    u[37]     primal_lower58  819
    u[37]     primal_lower59  295
    u[37]     primal_lower60  359
    u[37]     primal_lower61  898
    u[37]     primal_lower62  545
    u[37]     primal_lower63  367
    u[37]     primal_lower64  468
    u[37]     primal_lower65  333
    u[37]     primal_lower66  919
    u[37]     primal_lower67  378
    u[37]     primal_lower68  677
    u[37]     primal_lower69  168
    u[37]     primal_lower70  504
    u[37]     primal_lower71  344
    u[37]     primal_lower72  957
    u[37]     primal_lower73  333
    u[37]     primal_lower74  455
    u[37]     primal_lower75  655
    u[37]     primal_lower76  538
    u[37]     primal_lower77  928
    u[37]     primal_lower78  533
    u[37]     primal_lower79  378
    u[37]     primal_lower80  364
    u[37]     primal_lower81  781
    u[37]     primal_lower82  721
    u[37]     primal_lower83  393
    u[37]     primal_lower84  594
    u[37]     primal_lower85  60
    u[37]     primal_lower86  309
    u[37]     primal_lower87  699
    u[37]     primal_lower88  415
    u[37]     primal_lower89  47
    u[37]     primal_lower90  366
    u[37]     primal_lower91  445
    u[37]     primal_lower92  21
    u[37]     primal_lower93  841
    u[37]     primal_lower94  542
    u[37]     primal_lower95  457
    u[37]     primal_lower96  256
    u[37]     primal_lower97  896
    u[37]     primal_lower98  74
    u[37]     primal_lower99  971
    u[37]     interdiction[37]  1
    u[37]     mccormick1[37]  -1
    u[37]     mccormick3[37]  1
    u[38]     primal_lower0  929
    u[38]     primal_lower1  545
    u[38]     primal_lower2  853
    u[38]     primal_lower3  590
    u[38]     primal_lower4  524
    u[38]     primal_lower5  493
    u[38]     primal_lower6  41
    u[38]     primal_lower7  530
    u[38]     primal_lower8  229
    u[38]     primal_lower9  679
    u[38]     primal_lower10  81
    u[38]     primal_lower11  634
    u[38]     primal_lower12  21
    u[38]     primal_lower13  378
    u[38]     primal_lower14  530
    u[38]     primal_lower15  997
    u[38]     primal_lower16  578
    u[38]     primal_lower17  621
    u[38]     primal_lower18  666
    u[38]     primal_lower19  757
    u[38]     primal_lower20  36
    u[38]     primal_lower21  937
    u[38]     primal_lower22  279
    u[38]     primal_lower23  569
    u[38]     primal_lower24  371
    u[38]     primal_lower25  47
    u[38]     primal_lower26  234
    u[38]     primal_lower27  467
    u[38]     primal_lower28  853
    u[38]     primal_lower29  845
    u[38]     primal_lower30  12
    u[38]     primal_lower31  31
    u[38]     primal_lower32  792
    u[38]     primal_lower33  308
    u[38]     primal_lower34  609
    u[38]     primal_lower35  662
    u[38]     primal_lower36  570
    u[38]     primal_lower37  755
    u[38]     primal_lower38  1
    u[38]     primal_lower39  878
    u[38]     primal_lower40  154
    u[38]     primal_lower41  140
    u[38]     primal_lower42  254
    u[38]     primal_lower43  753
    u[38]     primal_lower44  806
    u[38]     primal_lower45  887
    u[38]     primal_lower46  262
    u[38]     primal_lower47  605
    u[38]     primal_lower48  121
    u[38]     primal_lower49  281
    u[38]     primal_lower50  894
    u[38]     primal_lower51  845
    u[38]     primal_lower52  441
    u[38]     primal_lower53  89
    u[38]     primal_lower54  472
    u[38]     primal_lower55  461
    u[38]     primal_lower56  550
    u[38]     primal_lower57  203
    u[38]     primal_lower58  714
    u[38]     primal_lower59  363
    u[38]     primal_lower60  398
    u[38]     primal_lower61  217
    u[38]     primal_lower62  509
    u[38]     primal_lower63  739
    u[38]     primal_lower64  48
    u[38]     primal_lower65  665
    u[38]     primal_lower66  139
    u[38]     primal_lower67  478
    u[38]     primal_lower68  417
    u[38]     primal_lower69  820
    u[38]     primal_lower70  55
    u[38]     primal_lower71  319
    u[38]     primal_lower72  652
    u[38]     primal_lower73  716
    u[38]     primal_lower74  619
    u[38]     primal_lower75  531
    u[38]     primal_lower76  198
    u[38]     primal_lower77  391
    u[38]     primal_lower78  956
    u[38]     primal_lower79  222
    u[38]     primal_lower80  563
    u[38]     primal_lower81  12
    u[38]     primal_lower82  869
    u[38]     primal_lower83  592
    u[38]     primal_lower84  169
    u[38]     primal_lower85  544
    u[38]     primal_lower86  129
    u[38]     primal_lower87  879
    u[38]     primal_lower88  531
    u[38]     primal_lower89  619
    u[38]     primal_lower90  949
    u[38]     primal_lower91  860
    u[38]     primal_lower92  476
    u[38]     primal_lower93  64
    u[38]     primal_lower94  357
    u[38]     primal_lower95  936
    u[38]     primal_lower96  191
    u[38]     primal_lower97  268
    u[38]     primal_lower98  998
    u[38]     primal_lower99  639
    u[38]     interdiction[38]  1
    u[38]     mccormick1[38]  -1
    u[38]     mccormick3[38]  1
    u[39]     primal_lower0  20
    u[39]     primal_lower1  327
    u[39]     primal_lower2  376
    u[39]     primal_lower3  260
    u[39]     primal_lower4  602
    u[39]     primal_lower5  144
    u[39]     primal_lower6  151
    u[39]     primal_lower7  88
    u[39]     primal_lower8  299
    u[39]     primal_lower9  850
    u[39]     primal_lower10  692
    u[39]     primal_lower11  29
    u[39]     primal_lower12  696
    u[39]     primal_lower13  976
    u[39]     primal_lower14  560
    u[39]     primal_lower15  411
    u[39]     primal_lower16  213
    u[39]     primal_lower17  920
    u[39]     primal_lower18  840
    u[39]     primal_lower19  920
    u[39]     primal_lower20  911
    u[39]     primal_lower21  799
    u[39]     primal_lower22  45
    u[39]     primal_lower23  63
    u[39]     primal_lower24  17
    u[39]     primal_lower25  114
    u[39]     primal_lower26  301
    u[39]     primal_lower27  14
    u[39]     primal_lower28  979
    u[39]     primal_lower29  344
    u[39]     primal_lower30  271
    u[39]     primal_lower31  986
    u[39]     primal_lower32  518
    u[39]     primal_lower33  607
    u[39]     primal_lower34  740
    u[39]     primal_lower35  20
    u[39]     primal_lower36  613
    u[39]     primal_lower37  521
    u[39]     primal_lower38  15
    u[39]     primal_lower39  817
    u[39]     primal_lower40  397
    u[39]     primal_lower41  567
    u[39]     primal_lower42  780
    u[39]     primal_lower43  247
    u[39]     primal_lower44  764
    u[39]     primal_lower45  917
    u[39]     primal_lower46  137
    u[39]     primal_lower47  120
    u[39]     primal_lower48  23
    u[39]     primal_lower49  167
    u[39]     primal_lower50  948
    u[39]     primal_lower51  840
    u[39]     primal_lower52  588
    u[39]     primal_lower53  119
    u[39]     primal_lower54  798
    u[39]     primal_lower55  256
    u[39]     primal_lower56  737
    u[39]     primal_lower57  849
    u[39]     primal_lower58  13
    u[39]     primal_lower59  417
    u[39]     primal_lower60  465
    u[39]     primal_lower61  532
    u[39]     primal_lower62  827
    u[39]     primal_lower63  409
    u[39]     primal_lower64  22
    u[39]     primal_lower65  407
    u[39]     primal_lower66  265
    u[39]     primal_lower67  724
    u[39]     primal_lower68  439
    u[39]     primal_lower69  618
    u[39]     primal_lower70  378
    u[39]     primal_lower71  530
    u[39]     primal_lower72  799
    u[39]     primal_lower73  551
    u[39]     primal_lower74  561
    u[39]     primal_lower75  945
    u[39]     primal_lower76  332
    u[39]     primal_lower77  570
    u[39]     primal_lower78  399
    u[39]     primal_lower79  892
    u[39]     primal_lower80  446
    u[39]     primal_lower81  655
    u[39]     primal_lower82  267
    u[39]     primal_lower83  371
    u[39]     primal_lower84  500
    u[39]     primal_lower85  646
    u[39]     primal_lower86  199
    u[39]     primal_lower87  205
    u[39]     primal_lower88  289
    u[39]     primal_lower89  825
    u[39]     primal_lower90  528
    u[39]     primal_lower91  871
    u[39]     primal_lower92  111
    u[39]     primal_lower93  947
    u[39]     primal_lower94  200
    u[39]     primal_lower95  315
    u[39]     primal_lower96  314
    u[39]     primal_lower97  82
    u[39]     primal_lower98  764
    u[39]     primal_lower99  901
    u[39]     interdiction[39]  1
    u[39]     mccormick1[39]  -1
    u[39]     mccormick3[39]  1
    u[40]     primal_lower0  828
    u[40]     primal_lower1  532
    u[40]     primal_lower2  304
    u[40]     primal_lower3  161
    u[40]     primal_lower4  71
    u[40]     primal_lower5  520
    u[40]     primal_lower6  292
    u[40]     primal_lower7  501
    u[40]     primal_lower8  728
    u[40]     primal_lower9  66
    u[40]     primal_lower10  92
    u[40]     primal_lower11  293
    u[40]     primal_lower12  472
    u[40]     primal_lower13  493
    u[40]     primal_lower14  645
    u[40]     primal_lower15  216
    u[40]     primal_lower16  805
    u[40]     primal_lower17  568
    u[40]     primal_lower18  501
    u[40]     primal_lower19  256
    u[40]     primal_lower20  287
    u[40]     primal_lower21  124
    u[40]     primal_lower22  762
    u[40]     primal_lower23  532
    u[40]     primal_lower24  534
    u[40]     primal_lower25  490
    u[40]     primal_lower26  85
    u[40]     primal_lower27  110
    u[40]     primal_lower28  848
    u[40]     primal_lower29  832
    u[40]     primal_lower30  399
    u[40]     primal_lower31  2
    u[40]     primal_lower32  475
    u[40]     primal_lower33  95
    u[40]     primal_lower34  220
    u[40]     primal_lower35  153
    u[40]     primal_lower36  365
    u[40]     primal_lower37  646
    u[40]     primal_lower38  556
    u[40]     primal_lower39  753
    u[40]     primal_lower40  997
    u[40]     primal_lower41  287
    u[40]     primal_lower42  121
    u[40]     primal_lower43  532
    u[40]     primal_lower44  665
    u[40]     primal_lower45  970
    u[40]     primal_lower46  521
    u[40]     primal_lower47  368
    u[40]     primal_lower48  620
    u[40]     primal_lower49  76
    u[40]     primal_lower50  825
    u[40]     primal_lower51  240
    u[40]     primal_lower52  788
    u[40]     primal_lower53  596
    u[40]     primal_lower54  883
    u[40]     primal_lower55  8
    u[40]     primal_lower56  657
    u[40]     primal_lower57  166
    u[40]     primal_lower58  501
    u[40]     primal_lower59  94
    u[40]     primal_lower60  857
    u[40]     primal_lower61  732
    u[40]     primal_lower62  664
    u[40]     primal_lower63  326
    u[40]     primal_lower64  827
    u[40]     primal_lower65  724
    u[40]     primal_lower66  926
    u[40]     primal_lower67  745
    u[40]     primal_lower68  628
    u[40]     primal_lower69  591
    u[40]     primal_lower70  626
    u[40]     primal_lower71  666
    u[40]     primal_lower72  199
    u[40]     primal_lower73  791
    u[40]     primal_lower74  134
    u[40]     primal_lower75  750
    u[40]     primal_lower76  673
    u[40]     primal_lower77  82
    u[40]     primal_lower78  223
    u[40]     primal_lower79  609
    u[40]     primal_lower80  918
    u[40]     primal_lower81  951
    u[40]     primal_lower82  936
    u[40]     primal_lower83  355
    u[40]     primal_lower84  244
    u[40]     primal_lower85  515
    u[40]     primal_lower86  588
    u[40]     primal_lower87  674
    u[40]     primal_lower88  358
    u[40]     primal_lower89  310
    u[40]     primal_lower90  688
    u[40]     primal_lower91  807
    u[40]     primal_lower92  511
    u[40]     primal_lower93  3
    u[40]     primal_lower94  520
    u[40]     primal_lower95  835
    u[40]     primal_lower96  706
    u[40]     primal_lower97  975
    u[40]     primal_lower98  873
    u[40]     primal_lower99  514
    u[40]     interdiction[40]  1
    u[40]     mccormick1[40]  -1
    u[40]     mccormick3[40]  1
    u[41]     primal_lower0  463
    u[41]     primal_lower1  218
    u[41]     primal_lower2  419
    u[41]     primal_lower3  231
    u[41]     primal_lower4  869
    u[41]     primal_lower5  947
    u[41]     primal_lower6  250
    u[41]     primal_lower7  563
    u[41]     primal_lower8  694
    u[41]     primal_lower9  437
    u[41]     primal_lower10  455
    u[41]     primal_lower11  856
    u[41]     primal_lower12  683
    u[41]     primal_lower13  179
    u[41]     primal_lower14  915
    u[41]     primal_lower15  238
    u[41]     primal_lower16  432
    u[41]     primal_lower17  755
    u[41]     primal_lower18  3
    u[41]     primal_lower19  675
    u[41]     primal_lower20  882
    u[41]     primal_lower21  466
    u[41]     primal_lower22  632
    u[41]     primal_lower23  714
    u[41]     primal_lower24  316
    u[41]     primal_lower25  21
    u[41]     primal_lower26  904
    u[41]     primal_lower27  657
    u[41]     primal_lower28  286
    u[41]     primal_lower29  299
    u[41]     primal_lower30  146
    u[41]     primal_lower31  517
    u[41]     primal_lower32  33
    u[41]     primal_lower33  570
    u[41]     primal_lower34  879
    u[41]     primal_lower35  287
    u[41]     primal_lower36  288
    u[41]     primal_lower37  716
    u[41]     primal_lower38  242
    u[41]     primal_lower39  460
    u[41]     primal_lower40  664
    u[41]     primal_lower41  282
    u[41]     primal_lower42  927
    u[41]     primal_lower43  426
    u[41]     primal_lower44  911
    u[41]     primal_lower45  8
    u[41]     primal_lower46  556
    u[41]     primal_lower47  955
    u[41]     primal_lower48  802
    u[41]     primal_lower49  490
    u[41]     primal_lower50  559
    u[41]     primal_lower51  547
    u[41]     primal_lower52  719
    u[41]     primal_lower53  330
    u[41]     primal_lower54  337
    u[41]     primal_lower55  395
    u[41]     primal_lower56  508
    u[41]     primal_lower57  484
    u[41]     primal_lower58  848
    u[41]     primal_lower59  172
    u[41]     primal_lower60  996
    u[41]     primal_lower61  871
    u[41]     primal_lower62  150
    u[41]     primal_lower63  252
    u[41]     primal_lower64  761
    u[41]     primal_lower65  26
    u[41]     primal_lower66  564
    u[41]     primal_lower67  519
    u[41]     primal_lower68  978
    u[41]     primal_lower69  557
    u[41]     primal_lower70  949
    u[41]     primal_lower71  613
    u[41]     primal_lower72  890
    u[41]     primal_lower73  106
    u[41]     primal_lower74  356
    u[41]     primal_lower75  732
    u[41]     primal_lower76  207
    u[41]     primal_lower77  213
    u[41]     primal_lower78  242
    u[41]     primal_lower79  183
    u[41]     primal_lower80  129
    u[41]     primal_lower81  962
    u[41]     primal_lower82  726
    u[41]     primal_lower83  142
    u[41]     primal_lower84  711
    u[41]     primal_lower85  753
    u[41]     primal_lower86  754
    u[41]     primal_lower87  432
    u[41]     primal_lower88  356
    u[41]     primal_lower89  324
    u[41]     primal_lower90  539
    u[41]     primal_lower91  722
    u[41]     primal_lower92  858
    u[41]     primal_lower93  318
    u[41]     primal_lower94  699
    u[41]     primal_lower95  166
    u[41]     primal_lower96  229
    u[41]     primal_lower97  469
    u[41]     primal_lower98  655
    u[41]     primal_lower99  704
    u[41]     interdiction[41]  1
    u[41]     mccormick1[41]  -1
    u[41]     mccormick3[41]  1
    u[42]     primal_lower0  11
    u[42]     primal_lower1  883
    u[42]     primal_lower2  511
    u[42]     primal_lower3  392
    u[42]     primal_lower4  550
    u[42]     primal_lower5  919
    u[42]     primal_lower6  459
    u[42]     primal_lower7  300
    u[42]     primal_lower8  719
    u[42]     primal_lower9  145
    u[42]     primal_lower10  707
    u[42]     primal_lower11  644
    u[42]     primal_lower12  743
    u[42]     primal_lower13  428
    u[42]     primal_lower14  84
    u[42]     primal_lower15  167
    u[42]     primal_lower16  940
    u[42]     primal_lower17  143
    u[42]     primal_lower18  580
    u[42]     primal_lower19  831
    u[42]     primal_lower20  598
    u[42]     primal_lower21  115
    u[42]     primal_lower22  49
    u[42]     primal_lower23  251
    u[42]     primal_lower24  461
    u[42]     primal_lower25  393
    u[42]     primal_lower26  572
    u[42]     primal_lower27  213
    u[42]     primal_lower28  487
    u[42]     primal_lower29  831
    u[42]     primal_lower30  198
    u[42]     primal_lower31  937
    u[42]     primal_lower32  354
    u[42]     primal_lower33  158
    u[42]     primal_lower34  859
    u[42]     primal_lower35  264
    u[42]     primal_lower36  700
    u[42]     primal_lower37  325
    u[42]     primal_lower38  155
    u[42]     primal_lower39  248
    u[42]     primal_lower40  436
    u[42]     primal_lower41  734
    u[42]     primal_lower42  16
    u[42]     primal_lower43  747
    u[42]     primal_lower44  456
    u[42]     primal_lower45  193
    u[42]     primal_lower46  80
    u[42]     primal_lower47  255
    u[42]     primal_lower48  723
    u[42]     primal_lower49  251
    u[42]     primal_lower50  208
    u[42]     primal_lower51  583
    u[42]     primal_lower52  851
    u[42]     primal_lower53  747
    u[42]     primal_lower54  306
    u[42]     primal_lower55  559
    u[42]     primal_lower56  208
    u[42]     primal_lower57  413
    u[42]     primal_lower58  748
    u[42]     primal_lower59  221
    u[42]     primal_lower60  272
    u[42]     primal_lower61  75
    u[42]     primal_lower62  823
    u[42]     primal_lower63  141
    u[42]     primal_lower64  170
    u[42]     primal_lower65  923
    u[42]     primal_lower66  669
    u[42]     primal_lower67  208
    u[42]     primal_lower68  35
    u[42]     primal_lower69  78
    u[42]     primal_lower70  161
    u[42]     primal_lower71  681
    u[42]     primal_lower72  358
    u[42]     primal_lower73  518
    u[42]     primal_lower74  237
    u[42]     primal_lower75  237
    u[42]     primal_lower76  440
    u[42]     primal_lower77  617
    u[42]     primal_lower78  86
    u[42]     primal_lower79  656
    u[42]     primal_lower80  141
    u[42]     primal_lower81  942
    u[42]     primal_lower82  7
    u[42]     primal_lower83  954
    u[42]     primal_lower84  475
    u[42]     primal_lower85  74
    u[42]     primal_lower86  683
    u[42]     primal_lower87  137
    u[42]     primal_lower88  421
    u[42]     primal_lower89  237
    u[42]     primal_lower90  375
    u[42]     primal_lower91  406
    u[42]     primal_lower92  422
    u[42]     primal_lower93  986
    u[42]     primal_lower94  639
    u[42]     primal_lower95  2
    u[42]     primal_lower96  305
    u[42]     primal_lower97  502
    u[42]     primal_lower98  664
    u[42]     primal_lower99  633
    u[42]     interdiction[42]  1
    u[42]     mccormick1[42]  -1
    u[42]     mccormick3[42]  1
    u[43]     primal_lower0  563
    u[43]     primal_lower1  702
    u[43]     primal_lower2  239
    u[43]     primal_lower3  299
    u[43]     primal_lower4  929
    u[43]     primal_lower5  47
    u[43]     primal_lower6  94
    u[43]     primal_lower7  959
    u[43]     primal_lower8  170
    u[43]     primal_lower9  745
    u[43]     primal_lower10  211
    u[43]     primal_lower11  188
    u[43]     primal_lower12  463
    u[43]     primal_lower13  287
    u[43]     primal_lower14  639
    u[43]     primal_lower15  850
    u[43]     primal_lower16  452
    u[43]     primal_lower17  527
    u[43]     primal_lower18  71
    u[43]     primal_lower19  391
    u[43]     primal_lower20  542
    u[43]     primal_lower21  294
    u[43]     primal_lower22  884
    u[43]     primal_lower23  958
    u[43]     primal_lower24  952
    u[43]     primal_lower25  321
    u[43]     primal_lower26  204
    u[43]     primal_lower27  285
    u[43]     primal_lower28  730
    u[43]     primal_lower29  583
    u[43]     primal_lower30  382
    u[43]     primal_lower31  921
    u[43]     primal_lower32  397
    u[43]     primal_lower33  766
    u[43]     primal_lower34  867
    u[43]     primal_lower35  699
    u[43]     primal_lower36  940
    u[43]     primal_lower37  632
    u[43]     primal_lower38  742
    u[43]     primal_lower39  952
    u[43]     primal_lower40  564
    u[43]     primal_lower41  302
    u[43]     primal_lower42  499
    u[43]     primal_lower43  502
    u[43]     primal_lower44  667
    u[43]     primal_lower45  140
    u[43]     primal_lower46  48
    u[43]     primal_lower47  103
    u[43]     primal_lower48  918
    u[43]     primal_lower49  166
    u[43]     primal_lower50  715
    u[43]     primal_lower51  279
    u[43]     primal_lower52  627
    u[43]     primal_lower53  486
    u[43]     primal_lower54  213
    u[43]     primal_lower55  103
    u[43]     primal_lower56  864
    u[43]     primal_lower57  576
    u[43]     primal_lower58  516
    u[43]     primal_lower59  632
    u[43]     primal_lower60  352
    u[43]     primal_lower61  891
    u[43]     primal_lower62  794
    u[43]     primal_lower63  632
    u[43]     primal_lower64  941
    u[43]     primal_lower65  574
    u[43]     primal_lower66  800
    u[43]     primal_lower67  459
    u[43]     primal_lower68  990
    u[43]     primal_lower69  401
    u[43]     primal_lower70  785
    u[43]     primal_lower71  257
    u[43]     primal_lower72  854
    u[43]     primal_lower73  614
    u[43]     primal_lower74  648
    u[43]     primal_lower75  264
    u[43]     primal_lower76  355
    u[43]     primal_lower77  761
    u[43]     primal_lower78  702
    u[43]     primal_lower79  747
    u[43]     primal_lower80  197
    u[43]     primal_lower81  654
    u[43]     primal_lower82  586
    u[43]     primal_lower83  154
    u[43]     primal_lower84  139
    u[43]     primal_lower85  989
    u[43]     primal_lower86  622
    u[43]     primal_lower87  588
    u[43]     primal_lower88  112
    u[43]     primal_lower89  808
    u[43]     primal_lower90  855
    u[43]     primal_lower91  694
    u[43]     primal_lower92  654
    u[43]     primal_lower93  914
    u[43]     primal_lower94  935
    u[43]     primal_lower95  218
    u[43]     primal_lower96  833
    u[43]     primal_lower97  249
    u[43]     primal_lower98  659
    u[43]     primal_lower99  684
    u[43]     interdiction[43]  1
    u[43]     mccormick1[43]  -1
    u[43]     mccormick3[43]  1
    u[44]     primal_lower0  12
    u[44]     primal_lower1  652
    u[44]     primal_lower2  304
    u[44]     primal_lower3  665
    u[44]     primal_lower4  175
    u[44]     primal_lower5  48
    u[44]     primal_lower6  644
    u[44]     primal_lower7  317
    u[44]     primal_lower8  768
    u[44]     primal_lower9  250
    u[44]     primal_lower10  708
    u[44]     primal_lower11  733
    u[44]     primal_lower12  328
    u[44]     primal_lower13  485
    u[44]     primal_lower14  773
    u[44]     primal_lower15  656
    u[44]     primal_lower16  813
    u[44]     primal_lower17  664
    u[44]     primal_lower18  93
    u[44]     primal_lower19  680
    u[44]     primal_lower20  903
    u[44]     primal_lower21  652
    u[44]     primal_lower22  746
    u[44]     primal_lower23  884
    u[44]     primal_lower24  206
    u[44]     primal_lower25  906
    u[44]     primal_lower26  941
    u[44]     primal_lower27  110
    u[44]     primal_lower28  32
    u[44]     primal_lower29  56
    u[44]     primal_lower30  791
    u[44]     primal_lower31  594
    u[44]     primal_lower32  419
    u[44]     primal_lower33  455
    u[44]     primal_lower34  588
    u[44]     primal_lower35  921
    u[44]     primal_lower36  5
    u[44]     primal_lower37  430
    u[44]     primal_lower38  340
    u[44]     primal_lower39  689
    u[44]     primal_lower40  61
    u[44]     primal_lower41  543
    u[44]     primal_lower42  209
    u[44]     primal_lower43  172
    u[44]     primal_lower44  617
    u[44]     primal_lower45  106
    u[44]     primal_lower46  905
    u[44]     primal_lower47  456
    u[44]     primal_lower48  220
    u[44]     primal_lower49  452
    u[44]     primal_lower50  553
    u[44]     primal_lower51  776
    u[44]     primal_lower52  300
    u[44]     primal_lower53  428
    u[44]     primal_lower54  115
    u[44]     primal_lower55  704
    u[44]     primal_lower56  809
    u[44]     primal_lower57  542
    u[44]     primal_lower58  461
    u[44]     primal_lower59  206
    u[44]     primal_lower60  249
    u[44]     primal_lower61  220
    u[44]     primal_lower62  408
    u[44]     primal_lower63  614
    u[44]     primal_lower64  35
    u[44]     primal_lower65  820
    u[44]     primal_lower66  6
    u[44]     primal_lower67  721
    u[44]     primal_lower68  732
    u[44]     primal_lower69  895
    u[44]     primal_lower70  586
    u[44]     primal_lower71  106
    u[44]     primal_lower72  287
    u[44]     primal_lower73  559
    u[44]     primal_lower74  206
    u[44]     primal_lower75  22
    u[44]     primal_lower76  257
    u[44]     primal_lower77  250
    u[44]     primal_lower78  631
    u[44]     primal_lower79  673
    u[44]     primal_lower80  934
    u[44]     primal_lower81  15
    u[44]     primal_lower82  72
    u[44]     primal_lower83  467
    u[44]     primal_lower84  964
    u[44]     primal_lower85  915
    u[44]     primal_lower86  596
    u[44]     primal_lower87  610
    u[44]     primal_lower88  382
    u[44]     primal_lower89  238
    u[44]     primal_lower90  240
    u[44]     primal_lower91  167
    u[44]     primal_lower92  471
    u[44]     primal_lower93  251
    u[44]     primal_lower94  272
    u[44]     primal_lower95  835
    u[44]     primal_lower96  202
    u[44]     primal_lower97  991
    u[44]     primal_lower98  81
    u[44]     primal_lower99  474
    u[44]     interdiction[44]  1
    u[44]     mccormick1[44]  -1
    u[44]     mccormick3[44]  1
    u[45]     primal_lower0  48
    u[45]     primal_lower1  939
    u[45]     primal_lower2  820
    u[45]     primal_lower3  984
    u[45]     primal_lower4  494
    u[45]     primal_lower5  188
    u[45]     primal_lower6  59
    u[45]     primal_lower7  252
    u[45]     primal_lower8  127
    u[45]     primal_lower9  558
    u[45]     primal_lower10  640
    u[45]     primal_lower11  889
    u[45]     primal_lower12  316
    u[45]     primal_lower13  204
    u[45]     primal_lower14  180
    u[45]     primal_lower15  119
    u[45]     primal_lower16  393
    u[45]     primal_lower17  540
    u[45]     primal_lower18  180
    u[45]     primal_lower19  740
    u[45]     primal_lower20  395
    u[45]     primal_lower21  19
    u[45]     primal_lower22  689
    u[45]     primal_lower23  739
    u[45]     primal_lower24  349
    u[45]     primal_lower25  38
    u[45]     primal_lower26  329
    u[45]     primal_lower27  34
    u[45]     primal_lower28  159
    u[45]     primal_lower29  100
    u[45]     primal_lower30  251
    u[45]     primal_lower31  438
    u[45]     primal_lower32  730
    u[45]     primal_lower33  251
    u[45]     primal_lower34  400
    u[45]     primal_lower35  816
    u[45]     primal_lower36  113
    u[45]     primal_lower37  933
    u[45]     primal_lower38  651
    u[45]     primal_lower39  205
    u[45]     primal_lower40  433
    u[45]     primal_lower41  747
    u[45]     primal_lower42  872
    u[45]     primal_lower43  531
    u[45]     primal_lower44  136
    u[45]     primal_lower45  345
    u[45]     primal_lower46  237
    u[45]     primal_lower47  988
    u[45]     primal_lower48  459
    u[45]     primal_lower49  163
    u[45]     primal_lower50  56
    u[45]     primal_lower51  764
    u[45]     primal_lower52  360
    u[45]     primal_lower53  11
    u[45]     primal_lower54  618
    u[45]     primal_lower55  428
    u[45]     primal_lower56  229
    u[45]     primal_lower57  781
    u[45]     primal_lower58  537
    u[45]     primal_lower59  261
    u[45]     primal_lower60  389
    u[45]     primal_lower61  336
    u[45]     primal_lower62  911
    u[45]     primal_lower63  893
    u[45]     primal_lower64  18
    u[45]     primal_lower65  443
    u[45]     primal_lower66  389
    u[45]     primal_lower67  552
    u[45]     primal_lower68  211
    u[45]     primal_lower69  430
    u[45]     primal_lower70  342
    u[45]     primal_lower71  414
    u[45]     primal_lower72  179
    u[45]     primal_lower73  835
    u[45]     primal_lower74  125
    u[45]     primal_lower75  573
    u[45]     primal_lower76  784
    u[45]     primal_lower77  758
    u[45]     primal_lower78  675
    u[45]     primal_lower79  112
    u[45]     primal_lower80  634
    u[45]     primal_lower81  347
    u[45]     primal_lower82  359
    u[45]     primal_lower83  223
    u[45]     primal_lower84  352
    u[45]     primal_lower85  26
    u[45]     primal_lower86  963
    u[45]     primal_lower87  881
    u[45]     primal_lower88  309
    u[45]     primal_lower89  21
    u[45]     primal_lower90  524
    u[45]     primal_lower91  507
    u[45]     primal_lower92  83
    u[45]     primal_lower93  191
    u[45]     primal_lower94  260
    u[45]     primal_lower95  783
    u[45]     primal_lower96  478
    u[45]     primal_lower97  486
    u[45]     primal_lower98  104
    u[45]     primal_lower99  49
    u[45]     interdiction[45]  1
    u[45]     mccormick1[45]  -1
    u[45]     mccormick3[45]  1
    u[46]     primal_lower0  727
    u[46]     primal_lower1  710
    u[46]     primal_lower2  67
    u[46]     primal_lower3  395
    u[46]     primal_lower4  57
    u[46]     primal_lower5  171
    u[46]     primal_lower6  478
    u[46]     primal_lower7  471
    u[46]     primal_lower8  650
    u[46]     primal_lower9  213
    u[46]     primal_lower10  207
    u[46]     primal_lower11  864
    u[46]     primal_lower12  443
    u[46]     primal_lower13  503
    u[46]     primal_lower14  671
    u[46]     primal_lower15  218
    u[46]     primal_lower16  208
    u[46]     primal_lower17  475
    u[46]     primal_lower18  39
    u[46]     primal_lower19  99
    u[46]     primal_lower20  970
    u[46]     primal_lower21  766
    u[46]     primal_lower22  620
    u[46]     primal_lower23  806
    u[46]     primal_lower24  920
    u[46]     primal_lower25  237
    u[46]     primal_lower26  952
    u[46]     primal_lower27  457
    u[46]     primal_lower28  34
    u[46]     primal_lower29  587
    u[46]     primal_lower30  914
    u[46]     primal_lower31  805
    u[46]     primal_lower32  749
    u[46]     primal_lower33  106
    u[46]     primal_lower34  687
    u[46]     primal_lower35  27
    u[46]     primal_lower36  712
    u[46]     primal_lower37  320
    u[46]     primal_lower38  958
    u[46]     primal_lower39  548
    u[46]     primal_lower40  104
    u[46]     primal_lower41  666
    u[46]     primal_lower42  699
    u[46]     primal_lower43  374
    u[46]     primal_lower44  67
    u[46]     primal_lower45  660
    u[46]     primal_lower46  636
    u[46]     primal_lower47  635
    u[46]     primal_lower48  566
    u[46]     primal_lower49  662
    u[46]     primal_lower50  571
    u[46]     primal_lower51  587
    u[46]     primal_lower52  703
    u[46]     primal_lower53  150
    u[46]     primal_lower54  517
    u[46]     primal_lower55  67
    u[46]     primal_lower56  388
    u[46]     primal_lower57  640
    u[46]     primal_lower58  832
    u[46]     primal_lower59  424
    u[46]     primal_lower60  516
    u[46]     primal_lower61  399
    u[46]     primal_lower62  514
    u[46]     primal_lower63  784
    u[46]     primal_lower64  981
    u[46]     primal_lower65  630
    u[46]     primal_lower66  80
    u[46]     primal_lower67  459
    u[46]     primal_lower68  878
    u[46]     primal_lower69  409
    u[46]     primal_lower70  789
    u[46]     primal_lower71  45
    u[46]     primal_lower72  842
    u[46]     primal_lower73  602
    u[46]     primal_lower74  248
    u[46]     primal_lower75  760
    u[46]     primal_lower76  203
    u[46]     primal_lower77  757
    u[46]     primal_lower78  394
    u[46]     primal_lower79  595
    u[46]     primal_lower80  169
    u[46]     primal_lower81  578
    u[46]     primal_lower82  562
    u[46]     primal_lower83  94
    u[46]     primal_lower84  711
    u[46]     primal_lower85  773
    u[46]     primal_lower86  182
    u[46]     primal_lower87  828
    u[46]     primal_lower88  664
    u[46]     primal_lower89  72
    u[46]     primal_lower90  891
    u[46]     primal_lower91  410
    u[46]     primal_lower92  186
    u[46]     primal_lower93  262
    u[46]     primal_lower94  603
    u[46]     primal_lower95  110
    u[46]     primal_lower96  413
    u[46]     primal_lower97  529
    u[46]     primal_lower98  507
    u[46]     primal_lower99  548
    u[46]     interdiction[46]  1
    u[46]     mccormick1[46]  -1
    u[46]     mccormick3[46]  1
    u[47]     primal_lower0  815
    u[47]     primal_lower1  66
    u[47]     primal_lower2  539
    u[47]     primal_lower3  735
    u[47]     primal_lower4  61
    u[47]     primal_lower5  699
    u[47]     primal_lower6  962
    u[47]     primal_lower7  923
    u[47]     primal_lower8  350
    u[47]     primal_lower9  325
    u[47]     primal_lower10  951
    u[47]     primal_lower11  784
    u[47]     primal_lower12  899
    u[47]     primal_lower13  939
    u[47]     primal_lower14  803
    u[47]     primal_lower15  878
    u[47]     primal_lower16  176
    u[47]     primal_lower17  395
    u[47]     primal_lower18  763
    u[47]     primal_lower19  155
    u[47]     primal_lower20  730
    u[47]     primal_lower21  634
    u[47]     primal_lower22  768
    u[47]     primal_lower23  722
    u[47]     primal_lower24  292
    u[47]     primal_lower25  229
    u[47]     primal_lower26  480
    u[47]     primal_lower27  969
    u[47]     primal_lower28  686
    u[47]     primal_lower29  155
    u[47]     primal_lower30  90
    u[47]     primal_lower31  533
    u[47]     primal_lower32  249
    u[47]     primal_lower33  26
    u[47]     primal_lower34  431
    u[47]     primal_lower35  271
    u[47]     primal_lower36  992
    u[47]     primal_lower37  300
    u[47]     primal_lower38  98
    u[47]     primal_lower39  852
    u[47]     primal_lower40  792
    u[47]     primal_lower41  866
    u[47]     primal_lower42  663
    u[47]     primal_lower43  330
    u[47]     primal_lower44  263
    u[47]     primal_lower45  328
    u[47]     primal_lower46  772
    u[47]     primal_lower47  459
    u[47]     primal_lower48  562
    u[47]     primal_lower49  418
    u[47]     primal_lower50  255
    u[47]     primal_lower51  795
    u[47]     primal_lower52  311
    u[47]     primal_lower53  730
    u[47]     primal_lower54  113
    u[47]     primal_lower55  427
    u[47]     primal_lower56  636
    u[47]     primal_lower57  252
    u[47]     primal_lower58  832
    u[47]     primal_lower59  108
    u[47]     primal_lower60  420
    u[47]     primal_lower61  799
    u[47]     primal_lower62  150
    u[47]     primal_lower63  884
    u[47]     primal_lower64  921
    u[47]     primal_lower65  978
    u[47]     primal_lower66  388
    u[47]     primal_lower67  407
    u[47]     primal_lower68  50
    u[47]     primal_lower69  309
    u[47]     primal_lower70  421
    u[47]     primal_lower71  797
    u[47]     primal_lower72  242
    u[47]     primal_lower73  154
    u[47]     primal_lower74  900
    u[47]     primal_lower75  900
    u[47]     primal_lower76  815
    u[47]     primal_lower77  21
    u[47]     primal_lower78  370
    u[47]     primal_lower79  583
    u[47]     primal_lower80  913
    u[47]     primal_lower81  410
    u[47]     primal_lower82  422
    u[47]     primal_lower83  990
    u[47]     primal_lower84  591
    u[47]     primal_lower85  849
    u[47]     primal_lower86  746
    u[47]     primal_lower87  16
    u[47]     primal_lower88  28
    u[47]     primal_lower89  252
    u[47]     primal_lower90  603
    u[47]     primal_lower91  826
    u[47]     primal_lower92  378
    u[47]     primal_lower93  30
    u[47]     primal_lower94  859
    u[47]     primal_lower95  774
    u[47]     primal_lower96  381
    u[47]     primal_lower97  469
    u[47]     primal_lower98  303
    u[47]     primal_lower99  128
    u[47]     interdiction[47]  1
    u[47]     mccormick1[47]  -1
    u[47]     mccormick3[47]  1
    u[48]     primal_lower0  292
    u[48]     primal_lower1  972
    u[48]     primal_lower2  480
    u[48]     primal_lower3  545
    u[48]     primal_lower4  735
    u[48]     primal_lower5  472
    u[48]     primal_lower6  884
    u[48]     primal_lower7  677
    u[48]     primal_lower8  920
    u[48]     primal_lower9  986
    u[48]     primal_lower10  564
    u[48]     primal_lower11  509
    u[48]     primal_lower12  200
    u[48]     primal_lower13  557
    u[48]     primal_lower14  301
    u[48]     primal_lower15  936
    u[48]     primal_lower16  781
    u[48]     primal_lower17  16
    u[48]     primal_lower18  949
    u[48]     primal_lower19  496
    u[48]     primal_lower20  695
    u[48]     primal_lower21  444
    u[48]     primal_lower22  250
    u[48]     primal_lower23  140
    u[48]     primal_lower24  822
    u[48]     primal_lower25  122
    u[48]     primal_lower26  173
    u[48]     primal_lower27  470
    u[48]     primal_lower28  736
    u[48]     primal_lower29  192
    u[48]     primal_lower30  479
    u[48]     primal_lower31  298
    u[48]     primal_lower32  11
    u[48]     primal_lower33  239
    u[48]     primal_lower34  572
    u[48]     primal_lower35  617
    u[48]     primal_lower36  405
    u[48]     primal_lower37  222
    u[48]     primal_lower38  156
    u[48]     primal_lower39  345
    u[48]     primal_lower40  949
    u[48]     primal_lower41  687
    u[48]     primal_lower42  849
    u[48]     primal_lower43  428
    u[48]     primal_lower44  425
    u[48]     primal_lower45  130
    u[48]     primal_lower46  41
    u[48]     primal_lower47  440
    u[48]     primal_lower48  20
    u[48]     primal_lower49  76
    u[48]     primal_lower50  17
    u[48]     primal_lower51  512
    u[48]     primal_lower52  156
    u[48]     primal_lower53  388
    u[48]     primal_lower54  443
    u[48]     primal_lower55  560
    u[48]     primal_lower56  633
    u[48]     primal_lower57  262
    u[48]     primal_lower58  93
    u[48]     primal_lower59  446
    u[48]     primal_lower60  185
    u[48]     primal_lower61  132
    u[48]     primal_lower62  320
    u[48]     primal_lower63  774
    u[48]     primal_lower64  867
    u[48]     primal_lower65  220
    u[48]     primal_lower66  278
    u[48]     primal_lower67  9
    u[48]     primal_lower68  332
    u[48]     primal_lower69  679
    u[48]     primal_lower70  538
    u[48]     primal_lower71  34
    u[48]     primal_lower72  367
    u[48]     primal_lower73  655
    u[48]     primal_lower74  230
    u[48]     primal_lower75  534
    u[48]     primal_lower76  625
    u[48]     primal_lower77  858
    u[48]     primal_lower78  543
    u[48]     primal_lower79  937
    u[48]     primal_lower80  110
    u[48]     primal_lower81  703
    u[48]     primal_lower82  888
    u[48]     primal_lower83  899
    u[48]     primal_lower84  28
    u[48]     primal_lower85  619
    u[48]     primal_lower86  460
    u[48]     primal_lower87  658
    u[48]     primal_lower88  694
    u[48]     primal_lower89  806
    u[48]     primal_lower90  560
    u[48]     primal_lower91  983
    u[48]     primal_lower92  983
    u[48]     primal_lower93  219
    u[48]     primal_lower94  8
    u[48]     primal_lower95  403
    u[48]     primal_lower96  378
    u[48]     primal_lower97  735
    u[48]     primal_lower98  113
    u[48]     primal_lower99  778
    u[48]     interdiction[48]  1
    u[48]     mccormick1[48]  -1
    u[48]     mccormick3[48]  1
    u[49]     primal_lower0  141
    u[49]     primal_lower1  513
    u[49]     primal_lower2  441
    u[49]     primal_lower3  342
    u[49]     primal_lower4  244
    u[49]     primal_lower5  177
    u[49]     primal_lower6  169
    u[49]     primal_lower7  18
    u[49]     primal_lower8  229
    u[49]     primal_lower9  747
    u[49]     primal_lower10  869
    u[49]     primal_lower11  142
    u[49]     primal_lower12  241
    u[49]     primal_lower13  314
    u[49]     primal_lower14  818
    u[49]     primal_lower15  37
    u[49]     primal_lower16  582
    u[49]     primal_lower17  641
    u[49]     primal_lower18  570
    u[49]     primal_lower19  129
    u[49]     primal_lower20  824
    u[49]     primal_lower21  361
    u[49]     primal_lower22  527
    u[49]     primal_lower23  809
    u[49]     primal_lower24  387
    u[49]     primal_lower25  35
    u[49]     primal_lower26  566
    u[49]     primal_lower27  951
    u[49]     primal_lower28  661
    u[49]     primal_lower29  761
    u[49]     primal_lower30  912
    u[49]     primal_lower31  859
    u[49]     primal_lower32  328
    u[49]     primal_lower33  928
    u[49]     primal_lower34  453
    u[49]     primal_lower35  454
    u[49]     primal_lower36  70
    u[49]     primal_lower37  835
    u[49]     primal_lower38  897
    u[49]     primal_lower39  138
    u[49]     primal_lower40  862
    u[49]     primal_lower41  392
    u[49]     primal_lower42  214
    u[49]     primal_lower43  433
    u[49]     primal_lower44  934
    u[49]     primal_lower45  999
    u[49]     primal_lower46  738
    u[49]     primal_lower47  873
    u[49]     primal_lower48  689
    u[49]     primal_lower49  609
    u[49]     primal_lower50  398
    u[49]     primal_lower51  209
    u[49]     primal_lower52  813
    u[49]     primal_lower53  49
    u[49]     primal_lower54  872
    u[49]     primal_lower55  449
    u[49]     primal_lower56  178
    u[49]     primal_lower57  715
    u[49]     primal_lower58  350
    u[49]     primal_lower59  875
    u[49]     primal_lower60  50
    u[49]     primal_lower61  733
    u[49]     primal_lower62  549
    u[49]     primal_lower63  619
    u[49]     primal_lower64  248
    u[49]     primal_lower65  897
    u[49]     primal_lower66  603
    u[49]     primal_lower67  190
    u[49]     primal_lower68  17
    u[49]     primal_lower69  316
    u[49]     primal_lower70  763
    u[49]     primal_lower71  827
    u[49]     primal_lower72  672
    u[49]     primal_lower73  136
    u[49]     primal_lower74  563
    u[49]     primal_lower75  931
    u[49]     primal_lower76  350
    u[49]     primal_lower77  787
    u[49]     primal_lower78  416
    u[49]     primal_lower79  486
    u[49]     primal_lower80  887
    u[49]     primal_lower81  328
    u[49]     primal_lower82  69
    u[49]     primal_lower83  68
    u[49]     primal_lower84  381
    u[49]     primal_lower85  296
    u[49]     primal_lower86  153
    u[49]     primal_lower87  455
    u[49]     primal_lower88  251
    u[49]     primal_lower89  947
    u[49]     primal_lower90  337
    u[49]     primal_lower91  912
    u[49]     primal_lower92  992
    u[49]     primal_lower93  876
    u[49]     primal_lower94  625
    u[49]     primal_lower95  268
    u[49]     primal_lower96  851
    u[49]     primal_lower97  484
    u[49]     primal_lower98  590
    u[49]     primal_lower99  183
    u[49]     interdiction[49]  1
    u[49]     mccormick1[49]  -1
    u[49]     mccormick3[49]  1
    u[50]     primal_lower0  732
    u[50]     primal_lower1  779
    u[50]     primal_lower2  928
    u[50]     primal_lower3  64
    u[50]     primal_lower4  734
    u[50]     primal_lower5  40
    u[50]     primal_lower6  747
    u[50]     primal_lower7  660
    u[50]     primal_lower8  367
    u[50]     primal_lower9  482
    u[50]     primal_lower10  212
    u[50]     primal_lower11  149
    u[50]     primal_lower12  456
    u[50]     primal_lower13  316
    u[50]     primal_lower14  652
    u[50]     primal_lower15  671
    u[50]     primal_lower16  349
    u[50]     primal_lower17  472
    u[50]     primal_lower18  364
    u[50]     primal_lower19  368
    u[50]     primal_lower20  367
    u[50]     primal_lower21  179
    u[50]     primal_lower22  665
    u[50]     primal_lower23  203
    u[50]     primal_lower24  557
    u[50]     primal_lower25  450
    u[50]     primal_lower26  437
    u[50]     primal_lower27  694
    u[50]     primal_lower28  991
    u[50]     primal_lower29  832
    u[50]     primal_lower30  367
    u[50]     primal_lower31  386
    u[50]     primal_lower32  306
    u[50]     primal_lower33  775
    u[50]     primal_lower34  580
    u[50]     primal_lower35  672
    u[50]     primal_lower36  597
    u[50]     primal_lower37  365
    u[50]     primal_lower38  35
    u[50]     primal_lower39  25
    u[50]     primal_lower40  677
    u[50]     primal_lower41  63
    u[50]     primal_lower42  128
    u[50]     primal_lower43  227
    u[50]     primal_lower44  736
    u[50]     primal_lower45  881
    u[50]     primal_lower46  681
    u[50]     primal_lower47  584
    u[50]     primal_lower48  763
    u[50]     primal_lower49  379
    u[50]     primal_lower50  856
    u[50]     primal_lower51  872
    u[50]     primal_lower52  4
    u[50]     primal_lower53  123
    u[50]     primal_lower54  786
    u[50]     primal_lower55  648
    u[50]     primal_lower56  145
    u[50]     primal_lower57  453
    u[50]     primal_lower58  133
    u[50]     primal_lower59  805
    u[50]     primal_lower60  457
    u[50]     primal_lower61  660
    u[50]     primal_lower62  87
    u[50]     primal_lower63  917
    u[50]     primal_lower64  778
    u[50]     primal_lower65  811
    u[50]     primal_lower66  845
    u[50]     primal_lower67  608
    u[50]     primal_lower68  203
    u[50]     primal_lower69  750
    u[50]     primal_lower70  474
    u[50]     primal_lower71  866
    u[50]     primal_lower72  327
    u[50]     primal_lower73  887
    u[50]     primal_lower74  413
    u[50]     primal_lower75  949
    u[50]     primal_lower76  784
    u[50]     primal_lower77  394
    u[50]     primal_lower78  375
    u[50]     primal_lower79  736
    u[50]     primal_lower80  222
    u[50]     primal_lower81  455
    u[50]     primal_lower82  399
    u[50]     primal_lower83  35
    u[50]     primal_lower84  588
    u[50]     primal_lower85  138
    u[50]     primal_lower86  779
    u[50]     primal_lower87  177
    u[50]     primal_lower88  373
    u[50]     primal_lower89  837
    u[50]     primal_lower90  536
    u[50]     primal_lower91  199
    u[50]     primal_lower92  695
    u[50]     primal_lower93  291
    u[50]     primal_lower94  336
    u[50]     primal_lower95  499
    u[50]     primal_lower96  394
    u[50]     primal_lower97  926
    u[50]     primal_lower98  1000
    u[50]     primal_lower99  985
    u[50]     interdiction[50]  1
    u[50]     mccormick1[50]  -1
    u[50]     mccormick3[50]  1
    u[51]     primal_lower0  829
    u[51]     primal_lower1  857
    u[51]     primal_lower2  209
    u[51]     primal_lower3  382
    u[51]     primal_lower4  756
    u[51]     primal_lower5  225
    u[51]     primal_lower6  449
    u[51]     primal_lower7  690
    u[51]     primal_lower8  53
    u[51]     primal_lower9  779
    u[51]     primal_lower10  429
    u[51]     primal_lower11  606
    u[51]     primal_lower12  649
    u[51]     primal_lower13  362
    u[51]     primal_lower14  314
    u[51]     primal_lower15  893
    u[51]     primal_lower16  150
    u[51]     primal_lower17  201
    u[51]     primal_lower18  442
    u[51]     primal_lower19  193
    u[51]     primal_lower20  240
    u[51]     primal_lower21  473
    u[51]     primal_lower22  279
    u[51]     primal_lower23  337
    u[51]     primal_lower24  323
    u[51]     primal_lower25  971
    u[51]     primal_lower26  270
    u[51]     primal_lower27  487
    u[51]     primal_lower28  949
    u[51]     primal_lower29  681
    u[51]     primal_lower30  344
    u[51]     primal_lower31  867
    u[51]     primal_lower32  872
    u[51]     primal_lower33  744
    u[51]     primal_lower34  885
    u[51]     primal_lower35  582
    u[51]     primal_lower36  94
    u[51]     primal_lower37  971
    u[51]     primal_lower38  857
    u[51]     primal_lower39  946
    u[51]     primal_lower40  190
    u[51]     primal_lower41  248
    u[51]     primal_lower42  454
    u[51]     primal_lower43  705
    u[51]     primal_lower44  518
    u[51]     primal_lower45  679
    u[51]     primal_lower46  554
    u[51]     primal_lower47  153
    u[51]     primal_lower48  993
    u[51]     primal_lower49  721
    u[51]     primal_lower50  726
    u[51]     primal_lower51  713
    u[51]     primal_lower52  37
    u[51]     primal_lower53  929
    u[51]     primal_lower54  328
    u[51]     primal_lower55  737
    u[51]     primal_lower56  138
    u[51]     primal_lower57  707
    u[51]     primal_lower58  14
    u[51]     primal_lower59  75
    u[51]     primal_lower60  474
    u[51]     primal_lower61  957
    u[51]     primal_lower62  765
    u[51]     primal_lower63  443
    u[51]     primal_lower64  32
    u[51]     primal_lower65  1
    u[51]     primal_lower66  411
    u[51]     primal_lower67  182
    u[51]     primal_lower68  529
    u[51]     primal_lower69  36
    u[51]     primal_lower70  331
    u[51]     primal_lower71  339
    u[51]     primal_lower72  80
    u[51]     primal_lower73  968
    u[51]     primal_lower74  643
    u[51]     primal_lower75  963
    u[51]     primal_lower76  718
    u[51]     primal_lower77  995
    u[51]     primal_lower78  648
    u[51]     primal_lower79  966
    u[51]     primal_lower80  799
    u[51]     primal_lower81  24
    u[51]     primal_lower82  197
    u[51]     primal_lower83  828
    u[51]     primal_lower84  917
    u[51]     primal_lower85  496
    u[51]     primal_lower86  409
    u[51]     primal_lower87  79
    u[51]     primal_lower88  979
    u[51]     primal_lower89  139
    u[51]     primal_lower90  65
    u[51]     primal_lower91  752
    u[51]     primal_lower92  544
    u[51]     primal_lower93  332
    u[51]     primal_lower94  473
    u[51]     primal_lower95  244
    u[51]     primal_lower96  763
    u[51]     primal_lower97  20
    u[51]     primal_lower98  198
    u[51]     primal_lower99  415
    u[51]     interdiction[51]  1
    u[51]     mccormick1[51]  -1
    u[51]     mccormick3[51]  1
    u[52]     primal_lower0  234
    u[52]     primal_lower1  730
    u[52]     primal_lower2  398
    u[52]     primal_lower3  551
    u[52]     primal_lower4  773
    u[52]     primal_lower5  646
    u[52]     primal_lower6  82
    u[52]     primal_lower7  747
    u[52]     primal_lower8  510
    u[52]     primal_lower9  128
    u[52]     primal_lower10  226
    u[52]     primal_lower11  403
    u[52]     primal_lower12  998
    u[52]     primal_lower13  843
    u[52]     primal_lower14  507
    u[52]     primal_lower15  558
    u[52]     primal_lower16  763
    u[52]     primal_lower17  902
    u[52]     primal_lower18  715
    u[52]     primal_lower19  614
    u[52]     primal_lower20  909
    u[52]     primal_lower21  802
    u[52]     primal_lower22  584
    u[52]     primal_lower23  290
    u[52]     primal_lower24  76
    u[52]     primal_lower25  336
    u[52]     primal_lower26  83
    u[52]     primal_lower27  564
    u[52]     primal_lower28  478
    u[52]     primal_lower29  206
    u[52]     primal_lower30  565
    u[52]     primal_lower31  16
    u[52]     primal_lower32  881
    u[52]     primal_lower33  845
    u[52]     primal_lower34  250
    u[52]     primal_lower35  831
    u[52]     primal_lower36  11
    u[52]     primal_lower37  12
    u[52]     primal_lower38  74
    u[52]     primal_lower39  71
    u[52]     primal_lower40  147
    u[52]     primal_lower41  549
    u[52]     primal_lower42  239
    u[52]     primal_lower43  154
    u[52]     primal_lower44  39
    u[52]     primal_lower45  472
    u[52]     primal_lower46  311
    u[52]     primal_lower47  294
    u[52]     primal_lower48  930
    u[52]     primal_lower49  290
    u[52]     primal_lower50  383
    u[52]     primal_lower51  318
    u[52]     primal_lower52  298
    u[52]     primal_lower53  58
    u[52]     primal_lower54  121
    u[52]     primal_lower55  214
    u[52]     primal_lower56  391
    u[52]     primal_lower57  436
    u[52]     primal_lower58  699
    u[52]     primal_lower59  516
    u[52]     primal_lower60  751
    u[52]     primal_lower61  26
    u[52]     primal_lower62  78
    u[52]     primal_lower63  628
    u[52]     primal_lower64  369
    u[52]     primal_lower65  978
    u[52]     primal_lower66  836
    u[52]     primal_lower67  663
    u[52]     primal_lower68  378
    u[52]     primal_lower69  709
    u[52]     primal_lower70  864
    u[52]     primal_lower71  280
    u[52]     primal_lower72  565
    u[52]     primal_lower73  5
    u[52]     primal_lower74  604
    u[52]     primal_lower75  12
    u[52]     primal_lower76  367
    u[52]     primal_lower77  656
    u[52]     primal_lower78  373
    u[52]     primal_lower79  807
    u[52]     primal_lower80  732
    u[52]     primal_lower81  773
    u[52]     primal_lower82  534
    u[52]     primal_lower83  89
    u[52]     primal_lower84  570
    u[52]     primal_lower85  233
    u[52]     primal_lower86  962
    u[52]     primal_lower87  816
    u[52]     primal_lower88  972
    u[52]     primal_lower89  52
    u[52]     primal_lower90  86
    u[52]     primal_lower91  141
    u[52]     primal_lower92  725
    u[52]     primal_lower93  329
    u[52]     primal_lower94  678
    u[52]     primal_lower95  49
    u[52]     primal_lower96  656
    u[52]     primal_lower97  597
    u[52]     primal_lower98  743
    u[52]     primal_lower99  792
    u[52]     interdiction[52]  1
    u[52]     mccormick1[52]  -1
    u[52]     mccormick3[52]  1
    u[53]     primal_lower0  673
    u[53]     primal_lower1  685
    u[53]     primal_lower2  277
    u[53]     primal_lower3  618
    u[53]     primal_lower4  344
    u[53]     primal_lower5  549
    u[53]     primal_lower6  293
    u[53]     primal_lower7  950
    u[53]     primal_lower8  193
    u[53]     primal_lower9  359
    u[53]     primal_lower10  809
    u[53]     primal_lower11  362
    u[53]     primal_lower12  885
    u[53]     primal_lower13  94
    u[53]     primal_lower14  46
    u[53]     primal_lower15  145
    u[53]     primal_lower16  458
    u[53]     primal_lower17  589
    u[53]     primal_lower18  206
    u[53]     primal_lower19  261
    u[53]     primal_lower20  140
    u[53]     primal_lower21  445
    u[53]     primal_lower22  875
    u[53]     primal_lower23  597
    u[53]     primal_lower24  831
    u[53]     primal_lower25  527
    u[53]     primal_lower26  778
    u[53]     primal_lower27  675
    u[53]     primal_lower28  937
    u[53]     primal_lower29  61
    u[53]     primal_lower30  876
    u[53]     primal_lower31  871
    u[53]     primal_lower32  52
    u[53]     primal_lower33  652
    u[53]     primal_lower34  897
    u[53]     primal_lower35  658
    u[53]     primal_lower36  986
    u[53]     primal_lower37  183
    u[53]     primal_lower38  429
    u[53]     primal_lower39  622
    u[53]     primal_lower40  386
    u[53]     primal_lower41  532
    u[53]     primal_lower42  474
    u[53]     primal_lower43  245
    u[53]     primal_lower44  978
    u[53]     primal_lower45  987
    u[53]     primal_lower46  646
    u[53]     primal_lower47  933
    u[53]     primal_lower48  453
    u[53]     primal_lower49  133
    u[53]     primal_lower50  34
    u[53]     primal_lower51  613
    u[53]     primal_lower52  641
    u[53]     primal_lower53  5
    u[53]     primal_lower54  628
    u[53]     primal_lower55  781
    u[53]     primal_lower56  366
    u[53]     primal_lower57  903
    u[53]     primal_lower58  234
    u[53]     primal_lower59  551
    u[53]     primal_lower60  934
    u[53]     primal_lower61  521
    u[53]     primal_lower62  537
    u[53]     primal_lower63  807
    u[53]     primal_lower64  300
    u[53]     primal_lower65  677
    u[53]     primal_lower66  975
    u[53]     primal_lower67  458
    u[53]     primal_lower68  709
    u[53]     primal_lower69  312
    u[53]     primal_lower70  711
    u[53]     primal_lower71  759
    u[53]     primal_lower72  404
    u[53]     primal_lower73  876
    u[53]     primal_lower74  247
    u[53]     primal_lower75  447
    u[53]     primal_lower76  314
    u[53]     primal_lower77  671
    u[53]     primal_lower78  364
    u[53]     primal_lower79  706
    u[53]     primal_lower80  627
    u[53]     primal_lower81  492
    u[53]     primal_lower82  169
    u[53]     primal_lower83  928
    u[53]     primal_lower84  809
    u[53]     primal_lower85  124
    u[53]     primal_lower86  957
    u[53]     primal_lower87  579
    u[53]     primal_lower88  319
    u[53]     primal_lower89  951
    u[53]     primal_lower90  165
    u[53]     primal_lower91  836
    u[53]     primal_lower92  484
    u[53]     primal_lower93  200
    u[53]     primal_lower94  485
    u[53]     primal_lower95  648
    u[53]     primal_lower96  583
    u[53]     primal_lower97  232
    u[53]     primal_lower98  194
    u[53]     primal_lower99  963
    u[53]     interdiction[53]  1
    u[53]     mccormick1[53]  -1
    u[53]     mccormick3[53]  1
    u[54]     primal_lower0  430
    u[54]     primal_lower1  197
    u[54]     primal_lower2  186
    u[54]     primal_lower3  514
    u[54]     primal_lower4  616
    u[54]     primal_lower5  58
    u[54]     primal_lower6  221
    u[54]     primal_lower7  966
    u[54]     primal_lower8  57
    u[54]     primal_lower9  668
    u[54]     primal_lower10  406
    u[54]     primal_lower11  535
    u[54]     primal_lower12  42
    u[54]     primal_lower13  662
    u[54]     primal_lower14  806
    u[54]     primal_lower15  161
    u[54]     primal_lower16  311
    u[54]     primal_lower17  858
    u[54]     primal_lower18  566
    u[54]     primal_lower19  930
    u[54]     primal_lower20  9
    u[54]     primal_lower21  141
    u[54]     primal_lower22  867
    u[54]     primal_lower23  53
    u[54]     primal_lower24  175
    u[54]     primal_lower25  876
    u[54]     primal_lower26  383
    u[54]     primal_lower27  160
    u[54]     primal_lower28  657
    u[54]     primal_lower29  874
    u[54]     primal_lower30  561
    u[54]     primal_lower31  292
    u[54]     primal_lower32  364
    u[54]     primal_lower33  209
    u[54]     primal_lower34  190
    u[54]     primal_lower35  610
    u[54]     primal_lower36  375
    u[54]     primal_lower37  999
    u[54]     primal_lower38  389
    u[54]     primal_lower39  451
    u[54]     primal_lower40  559
    u[54]     primal_lower41  233
    u[54]     primal_lower42  18
    u[54]     primal_lower43  813
    u[54]     primal_lower44  290
    u[54]     primal_lower45  611
    u[54]     primal_lower46  179
    u[54]     primal_lower47  954
    u[54]     primal_lower48  789
    u[54]     primal_lower49  173
    u[54]     primal_lower50  50
    u[54]     primal_lower51  250
    u[54]     primal_lower52  606
    u[54]     primal_lower53  181
    u[54]     primal_lower54  460
    u[54]     primal_lower55  650
    u[54]     primal_lower56  363
    u[54]     primal_lower57  7
    u[54]     primal_lower58  135
    u[54]     primal_lower59  239
    u[54]     primal_lower60  123
    u[54]     primal_lower61  734
    u[54]     primal_lower62  273
    u[54]     primal_lower63  575
    u[54]     primal_lower64  212
    u[54]     primal_lower65  125
    u[54]     primal_lower66  151
    u[54]     primal_lower67  282
    u[54]     primal_lower68  405
    u[54]     primal_lower69  72
    u[54]     primal_lower70  36
    u[54]     primal_lower71  44
    u[54]     primal_lower72  249
    u[54]     primal_lower73  569
    u[54]     primal_lower74  199
    u[54]     primal_lower75  255
    u[54]     primal_lower76  170
    u[54]     primal_lower77  828
    u[54]     primal_lower78  57
    u[54]     primal_lower79  610
    u[54]     primal_lower80  920
    u[54]     primal_lower81  753
    u[54]     primal_lower82  369
    u[54]     primal_lower83  701
    u[54]     primal_lower84  774
    u[54]     primal_lower85  92
    u[54]     primal_lower86  69
    u[54]     primal_lower87  491
    u[54]     primal_lower88  943
    u[54]     primal_lower89  447
    u[54]     primal_lower90  258
    u[54]     primal_lower91  553
    u[54]     primal_lower92  729
    u[54]     primal_lower93  485
    u[54]     primal_lower94  458
    u[54]     primal_lower95  77
    u[54]     primal_lower96  340
    u[54]     primal_lower97  184
    u[54]     primal_lower98  826
    u[54]     primal_lower99  371
    u[54]     interdiction[54]  1
    u[54]     mccormick1[54]  -1
    u[54]     mccormick3[54]  1
    u[55]     primal_lower0  277
    u[55]     primal_lower1  56
    u[55]     primal_lower2  937
    u[55]     primal_lower3  925
    u[55]     primal_lower4  843
    u[55]     primal_lower5  841
    u[55]     primal_lower6  464
    u[55]     primal_lower7  305
    u[55]     primal_lower8  612
    u[55]     primal_lower9  411
    u[55]     primal_lower10  85
    u[55]     primal_lower11  894
    u[55]     primal_lower12  73
    u[55]     primal_lower13  41
    u[55]     primal_lower14  601
    u[55]     primal_lower15  524
    u[55]     primal_lower16  110
    u[55]     primal_lower17  481
    u[55]     primal_lower18  9
    u[55]     primal_lower19  817
    u[55]     primal_lower20  744
    u[55]     primal_lower21  504
    u[55]     primal_lower22  318
    u[55]     primal_lower23  640
    u[55]     primal_lower24  578
    u[55]     primal_lower25  11
    u[55]     primal_lower26  366
    u[55]     primal_lower27  775
    u[55]     primal_lower28  340
    u[55]     primal_lower29  273
    u[55]     primal_lower30  88
    u[55]     primal_lower31  587
    u[55]     primal_lower32  119
    u[55]     primal_lower33  152
    u[55]     primal_lower34  365
    u[55]     primal_lower35  669
    u[55]     primal_lower36  502
    u[55]     primal_lower37  618
    u[55]     primal_lower38  80
    u[55]     primal_lower39  762
    u[55]     primal_lower40  870
    u[55]     primal_lower41  88
    u[55]     primal_lower42  837
    u[55]     primal_lower43  288
    u[55]     primal_lower44  341
    u[55]     primal_lower45  430
    u[55]     primal_lower46  570
    u[55]     primal_lower47  457
    u[55]     primal_lower48  128
    u[55]     primal_lower49  88
    u[55]     primal_lower50  933
    u[55]     primal_lower51  585
    u[55]     primal_lower52  21
    u[55]     primal_lower53  992
    u[55]     primal_lower54  655
    u[55]     primal_lower55  673
    u[55]     primal_lower56  658
    u[55]     primal_lower57  2
    u[55]     primal_lower58  878
    u[55]     primal_lower59  970
    u[55]     primal_lower60  266
    u[55]     primal_lower61  61
    u[55]     primal_lower62  796
    u[55]     primal_lower63  690
    u[55]     primal_lower64  623
    u[55]     primal_lower65  216
    u[55]     primal_lower66  890
    u[55]     primal_lower67  709
    u[55]     primal_lower68  872
    u[55]     primal_lower69  395
    u[55]     primal_lower70  683
    u[55]     primal_lower71  11
    u[55]     primal_lower72  128
    u[55]     primal_lower73  224
    u[55]     primal_lower74  754
    u[55]     primal_lower75  298
    u[55]     primal_lower76  661
    u[55]     primal_lower77  867
    u[55]     primal_lower78  864
    u[55]     primal_lower79  669
    u[55]     primal_lower80  655
    u[55]     primal_lower81  856
    u[55]     primal_lower82  84
    u[55]     primal_lower83  252
    u[55]     primal_lower84  277
    u[55]     primal_lower85  671
    u[55]     primal_lower86  728
    u[55]     primal_lower87  470
    u[55]     primal_lower88  858
    u[55]     primal_lower89  578
    u[55]     primal_lower90  513
    u[55]     primal_lower91  920
    u[55]     primal_lower92  432
    u[55]     primal_lower93  604
    u[55]     primal_lower94  137
    u[55]     primal_lower95  636
    u[55]     primal_lower96  691
    u[55]     primal_lower97  723
    u[55]     primal_lower98  637
    u[55]     primal_lower99  46
    u[55]     interdiction[55]  1
    u[55]     mccormick1[55]  -1
    u[55]     mccormick3[55]  1
    u[56]     primal_lower0  766
    u[56]     primal_lower1  334
    u[56]     primal_lower2  18
    u[56]     primal_lower3  203
    u[56]     primal_lower4  361
    u[56]     primal_lower5  570
    u[56]     primal_lower6  446
    u[56]     primal_lower7  967
    u[56]     primal_lower8  322
    u[56]     primal_lower9  412
    u[56]     primal_lower10  766
    u[56]     primal_lower11  495
    u[56]     primal_lower12  362
    u[56]     primal_lower13  495
    u[56]     primal_lower14  759
    u[56]     primal_lower15  954
    u[56]     primal_lower16  471
    u[56]     primal_lower17  578
    u[56]     primal_lower18  71
    u[56]     primal_lower19  546
    u[56]     primal_lower20  649
    u[56]     primal_lower21  830
    u[56]     primal_lower22  60
    u[56]     primal_lower23  78
    u[56]     primal_lower24  168
    u[56]     primal_lower25  12
    u[56]     primal_lower26  143
    u[56]     primal_lower27  864
    u[56]     primal_lower28  746
    u[56]     primal_lower29  506
    u[56]     primal_lower30  433
    u[56]     primal_lower31  276
    u[56]     primal_lower32  309
    u[56]     primal_lower33  857
    u[56]     primal_lower34  918
    u[56]     primal_lower35  563
    u[56]     primal_lower36  863
    u[56]     primal_lower37  32
    u[56]     primal_lower38  446
    u[56]     primal_lower39  563
    u[56]     primal_lower40  743
    u[56]     primal_lower41  857
    u[56]     primal_lower42  115
    u[56]     primal_lower43  622
    u[56]     primal_lower44  867
    u[56]     primal_lower45  956
    u[56]     primal_lower46  387
    u[56]     primal_lower47  426
    u[56]     primal_lower48  646
    u[56]     primal_lower49  270
    u[56]     primal_lower50  923
    u[56]     primal_lower51  290
    u[56]     primal_lower52  390
    u[56]     primal_lower53  198
    u[56]     primal_lower54  741
    u[56]     primal_lower55  930
    u[56]     primal_lower56  875
    u[56]     primal_lower57  216
    u[56]     primal_lower58  199
    u[56]     primal_lower59  368
    u[56]     primal_lower60  771
    u[56]     primal_lower61  742
    u[56]     primal_lower62  218
    u[56]     primal_lower63  528
    u[56]     primal_lower64  453
    u[56]     primal_lower65  598
    u[56]     primal_lower66  384
    u[56]     primal_lower67  235
    u[56]     primal_lower68  374
    u[56]     primal_lower69  833
    u[56]     primal_lower70  244
    u[56]     primal_lower71  452
    u[56]     primal_lower72  81
    u[56]     primal_lower73  921
    u[56]     primal_lower74  120
    u[56]     primal_lower75  160
    u[56]     primal_lower76  115
    u[56]     primal_lower77  324
    u[56]     primal_lower78  737
    u[56]     primal_lower79  475
    u[56]     primal_lower80  88
    u[56]     primal_lower81  265
    u[56]     primal_lower82  114
    u[56]     primal_lower83  965
    u[56]     primal_lower84  302
    u[56]     primal_lower85  165
    u[56]     primal_lower86  726
    u[56]     primal_lower87  204
    u[56]     primal_lower88  552
    u[56]     primal_lower89  432
    u[56]     primal_lower90  730
    u[56]     primal_lower91  761
    u[56]     primal_lower92  17
    u[56]     primal_lower93  549
    u[56]     primal_lower94  658
    u[56]     primal_lower95  493
    u[56]     primal_lower96  716
    u[56]     primal_lower97  793
    u[56]     primal_lower98  931
    u[56]     primal_lower99  244
    u[56]     interdiction[56]  1
    u[56]     mccormick1[56]  -1
    u[56]     mccormick3[56]  1
    u[57]     primal_lower0  704
    u[57]     primal_lower1  315
    u[57]     primal_lower2  884
    u[57]     primal_lower3  648
    u[57]     primal_lower4  822
    u[57]     primal_lower5  188
    u[57]     primal_lower6  195
    u[57]     primal_lower7  700
    u[57]     primal_lower8  327
    u[57]     primal_lower9  766
    u[57]     primal_lower10  616
    u[57]     primal_lower11  849
    u[57]     primal_lower12  708
    u[57]     primal_lower13  908
    u[57]     primal_lower14  164
    u[57]     primal_lower15  599
    u[57]     primal_lower16  945
    u[57]     primal_lower17  500
    u[57]     primal_lower18  844
    u[57]     primal_lower19  788
    u[57]     primal_lower20  163
    u[57]     primal_lower21  635
    u[57]     primal_lower22  737
    u[57]     primal_lower23  763
    u[57]     primal_lower24  93
    u[57]     primal_lower25  246
    u[57]     primal_lower26  169
    u[57]     primal_lower27  786
    u[57]     primal_lower28  367
    u[57]     primal_lower29  172
    u[57]     primal_lower30  715
    u[57]     primal_lower31  126
    u[57]     primal_lower32  210
    u[57]     primal_lower33  643
    u[57]     primal_lower34  840
    u[57]     primal_lower35  24
    u[57]     primal_lower36  897
    u[57]     primal_lower37  325
    u[57]     primal_lower38  107
    u[57]     primal_lower39  453
    u[57]     primal_lower40  249
    u[57]     primal_lower41  211
    u[57]     primal_lower42  624
    u[57]     primal_lower43  339
    u[57]     primal_lower44  496
    u[57]     primal_lower45  369
    u[57]     primal_lower46  357
    u[57]     primal_lower47  500
    u[57]     primal_lower48  3
    u[57]     primal_lower49  579
    u[57]     primal_lower50  216
    u[57]     primal_lower51  460
    u[57]     primal_lower52  576
    u[57]     primal_lower53  979
    u[57]     primal_lower54  458
    u[57]     primal_lower55  188
    u[57]     primal_lower56  189
    u[57]     primal_lower57  413
    u[57]     primal_lower58  617
    u[57]     primal_lower59  853
    u[57]     primal_lower60  637
    u[57]     primal_lower61  16
    u[57]     primal_lower62  455
    u[57]     primal_lower63  821
    u[57]     primal_lower64  490
    u[57]     primal_lower65  443
    u[57]     primal_lower66  485
    u[57]     primal_lower67  160
    u[57]     primal_lower68  587
    u[57]     primal_lower69  502
    u[57]     primal_lower70  822
    u[57]     primal_lower71  550
    u[57]     primal_lower72  547
    u[57]     primal_lower73  843
    u[57]     primal_lower74  157
    u[57]     primal_lower75  773
    u[57]     primal_lower76  952
    u[57]     primal_lower77  446
    u[57]     primal_lower78  51
    u[57]     primal_lower79  624
    u[57]     primal_lower80  794
    u[57]     primal_lower81  587
    u[57]     primal_lower82  247
    u[57]     primal_lower83  975
    u[57]     primal_lower84  608
    u[57]     primal_lower85  90
    u[57]     primal_lower86  187
    u[57]     primal_lower87  97
    u[57]     primal_lower88  917
    u[57]     primal_lower89  397
    u[57]     primal_lower90  564
    u[57]     primal_lower91  715
    u[57]     primal_lower92  667
    u[57]     primal_lower93  95
    u[57]     primal_lower94  44
    u[57]     primal_lower95  55
    u[57]     primal_lower96  94
    u[57]     primal_lower97  318
    u[57]     primal_lower98  960
    u[57]     primal_lower99  777
    u[57]     interdiction[57]  1
    u[57]     mccormick1[57]  -1
    u[57]     mccormick3[57]  1
    u[58]     primal_lower0  953
    u[58]     primal_lower1  313
    u[58]     primal_lower2  5
    u[58]     primal_lower3  478
    u[58]     primal_lower4  36
    u[58]     primal_lower5  541
    u[58]     primal_lower6  873
    u[58]     primal_lower7  490
    u[58]     primal_lower8  277
    u[58]     primal_lower9  655
    u[58]     primal_lower10  913
    u[58]     primal_lower11  898
    u[58]     primal_lower12  517
    u[58]     primal_lower13  186
    u[58]     primal_lower14  58
    u[58]     primal_lower15  557
    u[58]     primal_lower16  402
    u[58]     primal_lower17  765
    u[58]     primal_lower18  50
    u[58]     primal_lower19  949
    u[58]     primal_lower20  44
    u[58]     primal_lower21  433
    u[58]     primal_lower22  295
    u[58]     primal_lower23  393
    u[58]     primal_lower24  75
    u[58]     primal_lower25  887
    u[58]     primal_lower26  226
    u[58]     primal_lower27  11
    u[58]     primal_lower28  605
    u[58]     primal_lower29  805
    u[58]     primal_lower30  204
    u[58]     primal_lower31  543
    u[58]     primal_lower32  856
    u[58]     primal_lower33  164
    u[58]     primal_lower34  561
    u[58]     primal_lower35  102
    u[58]     primal_lower36  554
    u[58]     primal_lower37  563
    u[58]     primal_lower38  833
    u[58]     primal_lower39  766
    u[58]     primal_lower40  434
    u[58]     primal_lower41  268
    u[58]     primal_lower42  878
    u[58]     primal_lower43  169
    u[58]     primal_lower44  206
    u[58]     primal_lower45  39
    u[58]     primal_lower46  718
    u[58]     primal_lower47  557
    u[58]     primal_lower48  561
    u[58]     primal_lower49  633
    u[58]     primal_lower50  902
    u[58]     primal_lower51  533
    u[58]     primal_lower52  697
    u[58]     primal_lower53  985
    u[58]     primal_lower54  8
    u[58]     primal_lower55  693
    u[58]     primal_lower56  262
    u[58]     primal_lower57  235
    u[58]     primal_lower58  42
    u[58]     primal_lower59  227
    u[58]     primal_lower60  358
    u[58]     primal_lower61  201
    u[58]     primal_lower62  405
    u[58]     primal_lower63  251
    u[58]     primal_lower64  496
    u[58]     primal_lower65  41
    u[58]     primal_lower66  299
    u[58]     primal_lower67  406
    u[58]     primal_lower68  681
    u[58]     primal_lower69  860
    u[58]     primal_lower70  815
    u[58]     primal_lower71  895
    u[58]     primal_lower72  580
    u[58]     primal_lower73  356
    u[58]     primal_lower74  83
    u[58]     primal_lower75  419
    u[58]     primal_lower76  166
    u[58]     primal_lower77  815
    u[58]     primal_lower78  276
    u[58]     primal_lower79  222
    u[58]     primal_lower80  147
    u[58]     primal_lower81  908
    u[58]     primal_lower82  357
    u[58]     primal_lower83  24
    u[58]     primal_lower84  521
    u[58]     primal_lower85  360
    u[58]     primal_lower86  489
    u[58]     primal_lower87  975
    u[58]     primal_lower88  283
    u[58]     primal_lower89  195
    u[58]     primal_lower90  653
    u[58]     primal_lower91  300
    u[58]     primal_lower92  436
    u[58]     primal_lower93  48
    u[58]     primal_lower94  981
    u[58]     primal_lower95  496
    u[58]     primal_lower96  375
    u[58]     primal_lower97  612
    u[58]     primal_lower98  22
    u[58]     primal_lower99  431
    u[58]     interdiction[58]  1
    u[58]     mccormick1[58]  -1
    u[58]     mccormick3[58]  1
    u[59]     primal_lower0  615
    u[59]     primal_lower1  435
    u[59]     primal_lower2  995
    u[59]     primal_lower3  824
    u[59]     primal_lower4  30
    u[59]     primal_lower5  443
    u[59]     primal_lower6  827
    u[59]     primal_lower7  644
    u[59]     primal_lower8  231
    u[59]     primal_lower9  741
    u[59]     primal_lower10  935
    u[59]     primal_lower11  784
    u[59]     primal_lower12  83
    u[59]     primal_lower13  732
    u[59]     primal_lower14  196
    u[59]     primal_lower15  63
    u[59]     primal_lower16  448
    u[59]     primal_lower17  931
    u[59]     primal_lower18  356
    u[59]     primal_lower19  643
    u[59]     primal_lower20  482
    u[59]     primal_lower21  3
    u[59]     primal_lower22  73
    u[59]     primal_lower23  587
    u[59]     primal_lower24  853
    u[59]     primal_lower25  325
    u[59]     primal_lower26  872
    u[59]     primal_lower27  337
    u[59]     primal_lower28  591
    u[59]     primal_lower29  491
    u[59]     primal_lower30  178
    u[59]     primal_lower31  701
    u[59]     primal_lower32  762
    u[59]     primal_lower33  98
    u[59]     primal_lower34  47
    u[59]     primal_lower35  248
    u[59]     primal_lower36  360
    u[59]     primal_lower37  5
    u[59]     primal_lower38  339
    u[59]     primal_lower39  356
    u[59]     primal_lower40  544
    u[59]     primal_lower41  458
    u[59]     primal_lower42  8
    u[59]     primal_lower43  595
    u[59]     primal_lower44  488
    u[59]     primal_lower45  161
    u[59]     primal_lower46  900
    u[59]     primal_lower47  219
    u[59]     primal_lower48  307
    u[59]     primal_lower49  635
    u[59]     primal_lower50  112
    u[59]     primal_lower51  803
    u[59]     primal_lower52  7
    u[59]     primal_lower53  291
    u[59]     primal_lower54  434
    u[59]     primal_lower55  171
    u[59]     primal_lower56  540
    u[59]     primal_lower57  421
    u[59]     primal_lower58  592
    u[59]     primal_lower59  765
    u[59]     primal_lower60  596
    u[59]     primal_lower61  495
    u[59]     primal_lower62  423
    u[59]     primal_lower63  613
    u[59]     primal_lower64  946
    u[59]     primal_lower65  699
    u[59]     primal_lower66  597
    u[59]     primal_lower67  120
    u[59]     primal_lower68  899
    u[59]     primal_lower69  966
    u[59]     primal_lower70  37
    u[59]     primal_lower71  621
    u[59]     primal_lower72  402
    u[59]     primal_lower73  466
    u[59]     primal_lower74  549
    u[59]     primal_lower75  509
    u[59]     primal_lower76  192
    u[59]     primal_lower77  805
    u[59]     primal_lower78  34
    u[59]     primal_lower79  736
    u[59]     primal_lower80  17
    u[59]     primal_lower81  250
    u[59]     primal_lower82  247
    u[59]     primal_lower83  326
    u[59]     primal_lower84  135
    u[59]     primal_lower85  898
    u[59]     primal_lower86  379
    u[59]     primal_lower87  833
    u[59]     primal_lower88  165
    u[59]     primal_lower89  821
    u[59]     primal_lower90  915
    u[59]     primal_lower91  218
    u[59]     primal_lower92  170
    u[59]     primal_lower93  510
    u[59]     primal_lower94  731
    u[59]     primal_lower95  750
    u[59]     primal_lower96  821
    u[59]     primal_lower97  454
    u[59]     primal_lower98  240
    u[59]     primal_lower99  729
    u[59]     interdiction[59]  1
    u[59]     mccormick1[59]  -1
    u[59]     mccormick3[59]  1
    u[60]     primal_lower0  162
    u[60]     primal_lower1  801
    u[60]     primal_lower2  814
    u[60]     primal_lower3  934
    u[60]     primal_lower4  84
    u[60]     primal_lower5  150
    u[60]     primal_lower6  465
    u[60]     primal_lower7  114
    u[60]     primal_lower8  773
    u[60]     primal_lower9  568
    u[60]     primal_lower10  2
    u[60]     primal_lower11  891
    u[60]     primal_lower12  990
    u[60]     primal_lower13  34
    u[60]     primal_lower14  522
    u[60]     primal_lower15  461
    u[60]     primal_lower16  283
    u[60]     primal_lower17  526
    u[60]     primal_lower18  930
    u[60]     primal_lower19  974
    u[60]     primal_lower20  677
    u[60]     primal_lower21  953
    u[60]     primal_lower22  127
    u[60]     primal_lower23  257
    u[60]     primal_lower24  107
    u[60]     primal_lower25  304
    u[60]     primal_lower26  83
    u[60]     primal_lower27  716
    u[60]     primal_lower28  997
    u[60]     primal_lower29  382
    u[60]     primal_lower30  653
    u[60]     primal_lower31  448
    u[60]     primal_lower32  704
    u[60]     primal_lower33  117
    u[60]     primal_lower34  770
    u[60]     primal_lower35  926
    u[60]     primal_lower36  819
    u[60]     primal_lower37  987
    u[60]     primal_lower38  305
    u[60]     primal_lower39  607
    u[60]     primal_lower40  595
    u[60]     primal_lower41  901
    u[60]     primal_lower42  558
    u[60]     primal_lower43  769
    u[60]     primal_lower44  342
    u[60]     primal_lower45  231
    u[60]     primal_lower46  343
    u[60]     primal_lower47  486
    u[60]     primal_lower48  321
    u[60]     primal_lower49  281
    u[60]     primal_lower50  590
    u[60]     primal_lower51  702
    u[60]     primal_lower52  682
    u[60]     primal_lower53  369
    u[60]     primal_lower54  376
    u[60]     primal_lower55  638
    u[60]     primal_lower56  167
    u[60]     primal_lower57  187
    u[60]     primal_lower58  563
    u[60]     primal_lower59  643
    u[60]     primal_lower60  663
    u[60]     primal_lower61  82
    u[60]     primal_lower62  725
    u[60]     primal_lower63  547
    u[60]     primal_lower64  488
    u[60]     primal_lower65  641
    u[60]     primal_lower66  611
    u[60]     primal_lower67  94
    u[60]     primal_lower68  969
    u[60]     primal_lower69  36
    u[60]     primal_lower70  232
    u[60]     primal_lower71  192
    u[60]     primal_lower72  829
    u[60]     primal_lower73  493
    u[60]     primal_lower74  923
    u[60]     primal_lower75  707
    u[60]     primal_lower76  566
    u[60]     primal_lower77  88
    u[60]     primal_lower78  413
    u[60]     primal_lower79  854
    u[60]     primal_lower80  4
    u[60]     primal_lower81  709
    u[60]     primal_lower82  277
    u[60]     primal_lower83  849
    u[60]     primal_lower84  826
    u[60]     primal_lower85  824
    u[60]     primal_lower86  289
    u[60]     primal_lower87  503
    u[60]     primal_lower88  771
    u[60]     primal_lower89  443
    u[60]     primal_lower90  198
    u[60]     primal_lower91  53
    u[60]     primal_lower92  629
    u[60]     primal_lower93  105
    u[60]     primal_lower94  334
    u[60]     primal_lower95  681
    u[60]     primal_lower96  936
    u[60]     primal_lower97  468
    u[60]     primal_lower98  374
    u[60]     primal_lower99  815
    u[60]     interdiction[60]  1
    u[60]     mccormick1[60]  -1
    u[60]     mccormick3[60]  1
    u[61]     primal_lower0  840
    u[61]     primal_lower1  915
    u[61]     primal_lower2  508
    u[61]     primal_lower3  304
    u[61]     primal_lower4  198
    u[61]     primal_lower5  132
    u[61]     primal_lower6  459
    u[61]     primal_lower7  804
    u[61]     primal_lower8  695
    u[61]     primal_lower9  806
    u[61]     primal_lower10  272
    u[61]     primal_lower11  313
    u[61]     primal_lower12  92
    u[61]     primal_lower13  652
    u[61]     primal_lower14  380
    u[61]     primal_lower15  775
    u[61]     primal_lower16  585
    u[61]     primal_lower17  140
    u[61]     primal_lower18  20
    u[61]     primal_lower19  100
    u[61]     primal_lower20  475
    u[61]     primal_lower21  299
    u[61]     primal_lower22  625
    u[61]     primal_lower23  291
    u[61]     primal_lower24  661
    u[61]     primal_lower25  326
    u[61]     primal_lower26  977
    u[61]     primal_lower27  282
    u[61]     primal_lower28  631
    u[61]     primal_lower29  644
    u[61]     primal_lower30  227
    u[61]     primal_lower31  510
    u[61]     primal_lower32  474
    u[61]     primal_lower33  907
    u[61]     primal_lower34  120
    u[61]     primal_lower35  696
    u[61]     primal_lower36  849
    u[61]     primal_lower37  797
    u[61]     primal_lower38  699
    u[61]     primal_lower39  717
    u[61]     primal_lower40  65
    u[61]     primal_lower41  811
    u[61]     primal_lower42  72
    u[61]     primal_lower43  923
    u[61]     primal_lower44  280
    u[61]     primal_lower45  305
    u[61]     primal_lower46  277
    u[61]     primal_lower47  668
    u[61]     primal_lower48  139
    u[61]     primal_lower49  627
    u[61]     primal_lower50  504
    u[61]     primal_lower51  580
    u[61]     primal_lower52  176
    u[61]     primal_lower53  539
    u[61]     primal_lower54  354
    u[61]     primal_lower55  60
    u[61]     primal_lower56  157
    u[61]     primal_lower57  141
    u[61]     primal_lower58  609
    u[61]     primal_lower59  117
    u[61]     primal_lower60  5
    u[61]     primal_lower61  464
    u[61]     primal_lower62  71
    u[61]     primal_lower63  797
    u[61]     primal_lower64  2
    u[61]     primal_lower65  803
    u[61]     primal_lower66  85
    u[61]     primal_lower67  936
    u[61]     primal_lower68  203
    u[61]     primal_lower69  262
    u[61]     primal_lower70  870
    u[61]     primal_lower71  174
    u[61]     primal_lower72  723
    u[61]     primal_lower73  419
    u[61]     primal_lower74  53
    u[61]     primal_lower75  509
    u[61]     primal_lower76  856
    u[61]     primal_lower77  822
    u[61]     primal_lower78  755
    u[61]     primal_lower79  1000
    u[61]     primal_lower80  242
    u[61]     primal_lower81  459
    u[61]     primal_lower82  447
    u[61]     primal_lower83  415
    u[61]     primal_lower84  576
    u[61]     primal_lower85  722
    u[61]     primal_lower86  387
    u[61]     primal_lower87  865
    u[61]     primal_lower88  573
    u[61]     primal_lower89  797
    u[61]     primal_lower90  212
    u[61]     primal_lower91  603
    u[61]     primal_lower92  851
    u[61]     primal_lower93  927
    u[61]     primal_lower94  108
    u[61]     primal_lower95  63
    u[61]     primal_lower96  166
    u[61]     primal_lower97  902
    u[61]     primal_lower98  608
    u[61]     primal_lower99  361
    u[61]     interdiction[61]  1
    u[61]     mccormick1[61]  -1
    u[61]     mccormick3[61]  1
    u[62]     primal_lower0  421
    u[62]     primal_lower1  68
    u[62]     primal_lower2  937
    u[62]     primal_lower3  521
    u[62]     primal_lower4  127
    u[62]     primal_lower5  529
    u[62]     primal_lower6  556
    u[62]     primal_lower7  909
    u[62]     primal_lower8  440
    u[62]     primal_lower9  819
    u[62]     primal_lower10  381
    u[62]     primal_lower11  310
    u[62]     primal_lower12  785
    u[62]     primal_lower13  957
    u[62]     primal_lower14  301
    u[62]     primal_lower15  784
    u[62]     primal_lower16  198
    u[62]     primal_lower17  969
    u[62]     primal_lower18  933
    u[62]     primal_lower19  281
    u[62]     primal_lower20  32
    u[62]     primal_lower21  668
    u[62]     primal_lower22  314
    u[62]     primal_lower23  260
    u[62]     primal_lower24  790
    u[62]     primal_lower25  907
    u[62]     primal_lower26  486
    u[62]     primal_lower27  615
    u[62]     primal_lower28  304
    u[62]     primal_lower29  329
    u[62]     primal_lower30  920
    u[62]     primal_lower31  547
    u[62]     primal_lower32  883
    u[62]     primal_lower33  80
    u[62]     primal_lower34  133
    u[62]     primal_lower35  409
    u[62]     primal_lower36  870
    u[62]     primal_lower37  46
    u[62]     primal_lower38  324
    u[62]     primal_lower39  626
    u[62]     primal_lower40  710
    u[62]     primal_lower41  744
    u[62]     primal_lower42  169
    u[62]     primal_lower43  156
    u[62]     primal_lower44  73
    u[62]     primal_lower45  890
    u[62]     primal_lower46  506
    u[62]     primal_lower47  585
    u[62]     primal_lower48  204
    u[62]     primal_lower49  28
    u[62]     primal_lower50  33
    u[62]     primal_lower51  681
    u[62]     primal_lower52  517
    u[62]     primal_lower53  964
    u[62]     primal_lower54  683
    u[62]     primal_lower55  489
    u[62]     primal_lower56  434
    u[62]     primal_lower57  310
    u[62]     primal_lower58  22
    u[62]     primal_lower59  462
    u[62]     primal_lower60  10
    u[62]     primal_lower61  437
    u[62]     primal_lower62  456
    u[62]     primal_lower63  214
    u[62]     primal_lower64  427
    u[62]     primal_lower65  972
    u[62]     primal_lower66  302
    u[62]     primal_lower67  969
    u[62]     primal_lower68  492
    u[62]     primal_lower69  143
    u[62]     primal_lower70  227
    u[62]     primal_lower71  307
    u[62]     primal_lower72  232
    u[62]     primal_lower73  280
    u[62]     primal_lower74  630
    u[62]     primal_lower75  582
    u[62]     primal_lower76  73
    u[62]     primal_lower77  107
    u[62]     primal_lower78  712
    u[62]     primal_lower79  129
    u[62]     primal_lower80  431
    u[62]     primal_lower81  328
    u[62]     primal_lower82  136
    u[62]     primal_lower83  548
    u[62]     primal_lower84  765
    u[62]     primal_lower85  603
    u[62]     primal_lower86  12
    u[62]     primal_lower87  426
    u[62]     primal_lower88  758
    u[62]     primal_lower89  998
    u[62]     primal_lower90  649
    u[62]     primal_lower91  496
    u[62]     primal_lower92  360
    u[62]     primal_lower93  100
    u[62]     primal_lower94  505
    u[62]     primal_lower95  4
    u[62]     primal_lower96  611
    u[62]     primal_lower97  527
    u[62]     primal_lower98  809
    u[62]     primal_lower99  410
    u[62]     interdiction[62]  1
    u[62]     mccormick1[62]  -1
    u[62]     mccormick3[62]  1
    u[63]     primal_lower0  920
    u[63]     primal_lower1  531
    u[63]     primal_lower2  116
    u[63]     primal_lower3  376
    u[63]     primal_lower4  798
    u[63]     primal_lower5  980
    u[63]     primal_lower6  387
    u[63]     primal_lower7  444
    u[63]     primal_lower8  111
    u[63]     primal_lower9  270
    u[63]     primal_lower10  16
    u[63]     primal_lower11  249
    u[63]     primal_lower12  188
    u[63]     primal_lower13  748
    u[63]     primal_lower14  252
    u[63]     primal_lower15  911
    u[63]     primal_lower16  193
    u[63]     primal_lower17  908
    u[63]     primal_lower18  708
    u[63]     primal_lower19  492
    u[63]     primal_lower20  163
    u[63]     primal_lower21  435
    u[63]     primal_lower22  825
    u[63]     primal_lower23  771
    u[63]     primal_lower24  861
    u[63]     primal_lower25  62
    u[63]     primal_lower26  193
    u[63]     primal_lower27  466
    u[63]     primal_lower28  199
    u[63]     primal_lower29  396
    u[63]     primal_lower30  531
    u[63]     primal_lower31  406
    u[63]     primal_lower32  162
    u[63]     primal_lower33  883
    u[63]     primal_lower34  560
    u[63]     primal_lower35  56
    u[63]     primal_lower36  241
    u[63]     primal_lower37  709
    u[63]     primal_lower38  291
    u[63]     primal_lower39  21
    u[63]     primal_lower40  873
    u[63]     primal_lower41  683
    u[63]     primal_lower42  312
    u[63]     primal_lower43  939
    u[63]     primal_lower44  904
    u[63]     primal_lower45  849
    u[63]     primal_lower46  613
    u[63]     primal_lower47  60
    u[63]     primal_lower48  315
    u[63]     primal_lower49  667
    u[63]     primal_lower50  424
    u[63]     primal_lower51  444
    u[63]     primal_lower52  440
    u[63]     primal_lower53  507
    u[63]     primal_lower54  650
    u[63]     primal_lower55  292
    u[63]     primal_lower56  949
    u[63]     primal_lower57  717
    u[63]     primal_lower58  873
    u[63]     primal_lower59  717
    u[63]     primal_lower60  229
    u[63]     primal_lower61  800
    u[63]     primal_lower62  495
    u[63]     primal_lower63  597
    u[63]     primal_lower64  626
    u[63]     primal_lower65  763
    u[63]     primal_lower66  469
    u[63]     primal_lower67  840
    u[63]     primal_lower68  971
    u[63]     primal_lower69  206
    u[63]     primal_lower70  430
    u[63]     primal_lower71  678
    u[63]     primal_lower72  819
    u[63]     primal_lower73  19
    u[63]     primal_lower74  133
    u[63]     primal_lower75  37
    u[63]     primal_lower76  552
    u[63]     primal_lower77  814
    u[63]     primal_lower78  347
    u[63]     primal_lower79  816
    u[63]     primal_lower80  106
    u[63]     primal_lower81  947
    u[63]     primal_lower82  879
    u[63]     primal_lower83  607
    u[63]     primal_lower84  400
    u[63]     primal_lower85  850
    u[63]     primal_lower86  619
    u[63]     primal_lower87  73
    u[63]     primal_lower88  157
    u[63]     primal_lower89  509
    u[63]     primal_lower90  108
    u[63]     primal_lower91  347
    u[63]     primal_lower92  27
    u[63]     primal_lower93  863
    u[63]     primal_lower94  524
    u[63]     primal_lower95  999
    u[63]     primal_lower96  22
    u[63]     primal_lower97  502
    u[63]     primal_lower98  552
    u[63]     primal_lower99  953
    u[63]     interdiction[63]  1
    u[63]     mccormick1[63]  -1
    u[63]     mccormick3[63]  1
    u[64]     primal_lower0  457
    u[64]     primal_lower1  792
    u[64]     primal_lower2  925
    u[64]     primal_lower3  885
    u[64]     primal_lower4  387
    u[64]     primal_lower5  813
    u[64]     primal_lower6  128
    u[64]     primal_lower7  729
    u[64]     primal_lower8  124
    u[64]     primal_lower9  407
    u[64]     primal_lower10  49
    u[64]     primal_lower11  66
    u[64]     primal_lower12  997
    u[64]     primal_lower13  577
    u[64]     primal_lower14  561
    u[64]     primal_lower15  612
    u[64]     primal_lower16  962
    u[64]     primal_lower17  693
    u[64]     primal_lower18  65
    u[64]     primal_lower19  917
    u[64]     primal_lower20  20
    u[64]     primal_lower21  128
    u[64]     primal_lower22  46
    u[64]     primal_lower23  392
    u[64]     primal_lower24  570
    u[64]     primal_lower25  55
    u[64]     primal_lower26  226
    u[64]     primal_lower27  19
    u[64]     primal_lower28  332
    u[64]     primal_lower29  325
    u[64]     primal_lower30  724
    u[64]     primal_lower31  375
    u[64]     primal_lower32  783
    u[64]     primal_lower33  884
    u[64]     primal_lower34  121
    u[64]     primal_lower35  349
    u[64]     primal_lower36  10
    u[64]     primal_lower37  658
    u[64]     primal_lower38  528
    u[64]     primal_lower39  758
    u[64]     primal_lower40  714
    u[64]     primal_lower41  900
    u[64]     primal_lower42  205
    u[64]     primal_lower43  392
    u[64]     primal_lower44  797
    u[64]     primal_lower45  902
    u[64]     primal_lower46  894
    u[64]     primal_lower47  869
    u[64]     primal_lower48  816
    u[64]     primal_lower49  312
    u[64]     primal_lower50  173
    u[64]     primal_lower51  517
    u[64]     primal_lower52  497
    u[64]     primal_lower53  912
    u[64]     primal_lower54  487
    u[64]     primal_lower55  245
    u[64]     primal_lower56  374
    u[64]     primal_lower57  498
    u[64]     primal_lower58  762
    u[64]     primal_lower59  618
    u[64]     primal_lower60  798
    u[64]     primal_lower61  289
    u[64]     primal_lower62  628
    u[64]     primal_lower63  922
    u[64]     primal_lower64  679
    u[64]     primal_lower65  456
    u[64]     primal_lower66  106
    u[64]     primal_lower67  157
    u[64]     primal_lower68  160
    u[64]     primal_lower69  651
    u[64]     primal_lower70  279
    u[64]     primal_lower71  839
    u[64]     primal_lower72  964
    u[64]     primal_lower73  996
    u[64]     primal_lower74  986
    u[64]     primal_lower75  770
    u[64]     primal_lower76  205
    u[64]     primal_lower77  951
    u[64]     primal_lower78  540
    u[64]     primal_lower79  637
    u[64]     primal_lower80  731
    u[64]     primal_lower81  164
    u[64]     primal_lower82  628
    u[64]     primal_lower83  72
    u[64]     primal_lower84  769
    u[64]     primal_lower85  855
    u[64]     primal_lower86  952
    u[64]     primal_lower87  198
    u[64]     primal_lower88  962
    u[64]     primal_lower89  954
    u[64]     primal_lower90  989
    u[64]     primal_lower91  564
    u[64]     primal_lower92  932
    u[64]     primal_lower93  280
    u[64]     primal_lower94  477
    u[64]     primal_lower95  632
    u[64]     primal_lower96  655
    u[64]     primal_lower97  43
    u[64]     primal_lower98  229
    u[64]     primal_lower99  246
    u[64]     interdiction[64]  1
    u[64]     mccormick1[64]  -1
    u[64]     mccormick3[64]  1
    u[65]     primal_lower0  249
    u[65]     primal_lower1  909
    u[65]     primal_lower2  981
    u[65]     primal_lower3  210
    u[65]     primal_lower4  856
    u[65]     primal_lower5  389
    u[65]     primal_lower6  621
    u[65]     primal_lower7  430
    u[65]     primal_lower8  841
    u[65]     primal_lower9  759
    u[65]     primal_lower10  121
    u[65]     primal_lower11  858
    u[65]     primal_lower12  213
    u[65]     primal_lower13  766
    u[65]     primal_lower14  150
    u[65]     primal_lower15  393
    u[65]     primal_lower16  474
    u[65]     primal_lower17  333
    u[65]     primal_lower18  198
    u[65]     primal_lower19  605
    u[65]     primal_lower20  92
    u[65]     primal_lower21  269
    u[65]     primal_lower22  475
    u[65]     primal_lower23  381
    u[65]     primal_lower24  343
    u[65]     primal_lower25  679
    u[65]     primal_lower26  538
    u[65]     primal_lower27  187
    u[65]     primal_lower28  849
    u[65]     primal_lower29  213
    u[65]     primal_lower30  140
    u[65]     primal_lower31  111
    u[65]     primal_lower32  172
    u[65]     primal_lower33  628
    u[65]     primal_lower34  273
    u[65]     primal_lower35  354
    u[65]     primal_lower36  858
    u[65]     primal_lower37  215
    u[65]     primal_lower38  493
    u[65]     primal_lower39  678
    u[65]     primal_lower40  946
    u[65]     primal_lower41  980
    u[65]     primal_lower42  354
    u[65]     primal_lower43  565
    u[65]     primal_lower44  410
    u[65]     primal_lower45  331
    u[65]     primal_lower46  94
    u[65]     primal_lower47  13
    u[65]     primal_lower48  725
    u[65]     primal_lower49  909
    u[65]     primal_lower50  674
    u[65]     primal_lower51  645
    u[65]     primal_lower52  137
    u[65]     primal_lower53  597
    u[65]     primal_lower54  12
    u[65]     primal_lower55  421
    u[65]     primal_lower56  854
    u[65]     primal_lower57  135
    u[65]     primal_lower58  610
    u[65]     primal_lower59  727
    u[65]     primal_lower60  646
    u[65]     primal_lower61  881
    u[65]     primal_lower62  265
    u[65]     primal_lower63  823
    u[65]     primal_lower64  108
    u[65]     primal_lower65  165
    u[65]     primal_lower66  951
    u[65]     primal_lower67  122
    u[65]     primal_lower68  373
    u[65]     primal_lower69  784
    u[65]     primal_lower70  663
    u[65]     primal_lower71  423
    u[65]     primal_lower72  588
    u[65]     primal_lower73  868
    u[65]     primal_lower74  479
    u[65]     primal_lower75  63
    u[65]     primal_lower76  842
    u[65]     primal_lower77  503
    u[65]     primal_lower78  60
    u[65]     primal_lower79  386
    u[65]     primal_lower80  715
    u[65]     primal_lower81  980
    u[65]     primal_lower82  577
    u[65]     primal_lower83  528
    u[65]     primal_lower84  625
    u[65]     primal_lower85  340
    u[65]     primal_lower86  933
    u[65]     primal_lower87  123
    u[65]     primal_lower88  279
    u[65]     primal_lower89  895
    u[65]     primal_lower90  573
    u[65]     primal_lower91  268
    u[65]     primal_lower92  116
    u[65]     primal_lower93  368
    u[65]     primal_lower94  621
    u[65]     primal_lower95  952
    u[65]     primal_lower96  743
    u[65]     primal_lower97  40
    u[65]     primal_lower98  266
    u[65]     primal_lower99  867
    u[65]     interdiction[65]  1
    u[65]     mccormick1[65]  -1
    u[65]     mccormick3[65]  1
    u[66]     primal_lower0  546
    u[66]     primal_lower1  265
    u[66]     primal_lower2  302
    u[66]     primal_lower3  318
    u[66]     primal_lower4  652
    u[66]     primal_lower5  566
    u[66]     primal_lower6  545
    u[66]     primal_lower7  818
    u[66]     primal_lower8  957
    u[66]     primal_lower9  568
    u[66]     primal_lower10  146
    u[66]     primal_lower11  467
    u[66]     primal_lower12  622
    u[66]     primal_lower13  306
    u[66]     primal_lower14  930
    u[66]     primal_lower15  885
    u[66]     primal_lower16  603
    u[66]     primal_lower17  686
    u[66]     primal_lower18  346
    u[66]     primal_lower19  350
    u[66]     primal_lower20  437
    u[66]     primal_lower21  985
    u[66]     primal_lower22  951
    u[66]     primal_lower23  761
    u[66]     primal_lower24  995
    u[66]     primal_lower25  40
    u[66]     primal_lower26  907
    u[66]     primal_lower27  396
    u[66]     primal_lower28  573
    u[66]     primal_lower29  118
    u[66]     primal_lower30  509
    u[66]     primal_lower31  904
    u[66]     primal_lower32  832
    u[66]     primal_lower33  685
    u[66]     primal_lower34  514
    u[66]     primal_lower35  718
    u[66]     primal_lower36  227
    u[66]     primal_lower37  363
    u[66]     primal_lower38  145
    u[66]     primal_lower39  55
    u[66]     primal_lower40  275
    u[66]     primal_lower41  117
    u[66]     primal_lower42  270
    u[66]     primal_lower43  753
    u[66]     primal_lower44  606
    u[66]     primal_lower45  935
    u[66]     primal_lower46  367
    u[66]     primal_lower47  774
    u[66]     primal_lower48  993
    u[66]     primal_lower49  49
    u[66]     primal_lower50  374
    u[66]     primal_lower51  142
    u[66]     primal_lower52  90
    u[66]     primal_lower53  313
    u[66]     primal_lower54  944
    u[66]     primal_lower55  366
    u[66]     primal_lower56  303
    u[66]     primal_lower57  187
    u[66]     primal_lower58  507
    u[66]     primal_lower59  619
    u[66]     primal_lower60  519
    u[66]     primal_lower61  994
    u[66]     primal_lower62  405
    u[66]     primal_lower63  515
    u[66]     primal_lower64  368
    u[66]     primal_lower65  953
    u[66]     primal_lower66  955
    u[66]     primal_lower67  510
    u[66]     primal_lower68  385
    u[66]     primal_lower69  396
    u[66]     primal_lower70  600
    u[66]     primal_lower71  344
    u[66]     primal_lower72  773
    u[66]     primal_lower73  901
    u[66]     primal_lower74  355
    u[66]     primal_lower75  587
    u[66]     primal_lower76  382
    u[66]     primal_lower77  232
    u[66]     primal_lower78  509
    u[66]     primal_lower79  70
    u[66]     primal_lower80  76
    u[66]     primal_lower81  965
    u[66]     primal_lower82  789
    u[66]     primal_lower83  249
    u[66]     primal_lower84  10
    u[66]     primal_lower85  472
    u[66]     primal_lower86  801
    u[66]     primal_lower87  799
    u[66]     primal_lower88  291
    u[66]     primal_lower89  139
    u[66]     primal_lower90  494
    u[66]     primal_lower91  773
    u[66]     primal_lower92  189
    u[66]     primal_lower93  337
    u[66]     primal_lower94  38
    u[66]     primal_lower95  937
    u[66]     primal_lower96  336
    u[66]     primal_lower97  540
    u[66]     primal_lower98  870
    u[66]     primal_lower99  143
    u[66]     interdiction[66]  1
    u[66]     mccormick1[66]  -1
    u[66]     mccormick3[66]  1
    u[67]     primal_lower0  708
    u[67]     primal_lower1  743
    u[67]     primal_lower2  432
    u[67]     primal_lower3  340
    u[67]     primal_lower4  706
    u[67]     primal_lower5  160
    u[67]     primal_lower6  351
    u[67]     primal_lower7  80
    u[67]     primal_lower8  411
    u[67]     primal_lower9  834
    u[67]     primal_lower10  676
    u[67]     primal_lower11  477
    u[67]     primal_lower12  808
    u[67]     primal_lower13  920
    u[67]     primal_lower14  472
    u[67]     primal_lower15  459
    u[67]     primal_lower16  293
    u[67]     primal_lower17  480
    u[67]     primal_lower18  464
    u[67]     primal_lower19  320
    u[67]     primal_lower20  687
    u[67]     primal_lower21  95
    u[67]     primal_lower22  829
    u[67]     primal_lower23  151
    u[67]     primal_lower24  689
    u[67]     primal_lower25  818
    u[67]     primal_lower26  997
    u[67]     primal_lower27  454
    u[67]     primal_lower28  339
    u[67]     primal_lower29  152
    u[67]     primal_lower30  671
    u[67]     primal_lower31  866
    u[67]     primal_lower32  270
    u[67]     primal_lower33  455
    u[67]     primal_lower34  428
    u[67]     primal_lower35  652
    u[67]     primal_lower36  557
    u[67]     primal_lower37  105
    u[67]     primal_lower38  319
    u[67]     primal_lower39  737
    u[67]     primal_lower40  949
    u[67]     primal_lower41  231
    u[67]     primal_lower42  324
    u[67]     primal_lower43  199
    u[67]     primal_lower44  684
    u[67]     primal_lower45  133
    u[67]     primal_lower46  873
    u[67]     primal_lower47  504
    u[67]     primal_lower48  399
    u[67]     primal_lower49  887
    u[67]     primal_lower50  164
    u[67]     primal_lower51  40
    u[67]     primal_lower52  748
    u[67]     primal_lower53  799
    u[67]     primal_lower54  622
    u[67]     primal_lower55  624
    u[67]     primal_lower56  569
    u[67]     primal_lower57  161
    u[67]     primal_lower58  525
    u[67]     primal_lower59  145
    u[67]     primal_lower60  953
    u[67]     primal_lower61  516
    u[67]     primal_lower62  979
    u[67]     primal_lower63  785
    u[67]     primal_lower64  886
    u[67]     primal_lower65  215
    u[67]     primal_lower66  521
    u[67]     primal_lower67  908
    u[67]     primal_lower68  991
    u[67]     primal_lower69  186
    u[67]     primal_lower70  210
    u[67]     primal_lower71  866
    u[67]     primal_lower72  663
    u[67]     primal_lower73  191
    u[67]     primal_lower74  657
    u[67]     primal_lower75  633
    u[67]     primal_lower76  532
    u[67]     primal_lower77  874
    u[67]     primal_lower78  31
    u[67]     primal_lower79  788
    u[67]     primal_lower80  22
    u[67]     primal_lower81  127
    u[67]     primal_lower82  555
    u[67]     primal_lower83  251
    u[67]     primal_lower84  916
    u[67]     primal_lower85  582
    u[67]     primal_lower86  639
    u[67]     primal_lower87  349
    u[67]     primal_lower88  481
    u[67]     primal_lower89  417
    u[67]     primal_lower90  496
    u[67]     primal_lower91  159
    u[67]     primal_lower92  591
    u[67]     primal_lower93  499
    u[67]     primal_lower94  776
    u[67]     primal_lower95  547
    u[67]     primal_lower96  114
    u[67]     primal_lower97  434
    u[67]     primal_lower98  708
    u[67]     primal_lower99  293
    u[67]     interdiction[67]  1
    u[67]     mccormick1[67]  -1
    u[67]     mccormick3[67]  1
    u[68]     primal_lower0  657
    u[68]     primal_lower1  9
    u[68]     primal_lower2  181
    u[68]     primal_lower3  662
    u[68]     primal_lower4  668
    u[68]     primal_lower5  909
    u[68]     primal_lower6  809
    u[68]     primal_lower7  794
    u[68]     primal_lower8  685
    u[68]     primal_lower9  447
    u[68]     primal_lower10  433
    u[68]     primal_lower11  522
    u[68]     primal_lower12  341
    u[68]     primal_lower13  810
    u[68]     primal_lower14  818
    u[68]     primal_lower15  77
    u[68]     primal_lower16  858
    u[68]     primal_lower17  773
    u[68]     primal_lower18  282
    u[68]     primal_lower19  877
    u[68]     primal_lower20  764
    u[68]     primal_lower21  25
    u[68]     primal_lower22  751
    u[68]     primal_lower23  153
    u[68]     primal_lower24  211
    u[68]     primal_lower25  959
    u[68]     primal_lower26  546
    u[68]     primal_lower27  491
    u[68]     primal_lower28  901
    u[68]     primal_lower29  605
    u[68]     primal_lower30  844
    u[68]     primal_lower31  95
    u[68]     primal_lower32  832
    u[68]     primal_lower33  740
    u[68]     primal_lower34  257
    u[68]     primal_lower35  742
    u[68]     primal_lower36  722
    u[68]     primal_lower37  315
    u[68]     primal_lower38  585
    u[68]     primal_lower39  190
    u[68]     primal_lower40  874
    u[68]     primal_lower41  940
    u[68]     primal_lower42  422
    u[68]     primal_lower43  417
    u[68]     primal_lower44  510
    u[68]     primal_lower45  575
    u[68]     primal_lower46  470
    u[68]     primal_lower47  957
    u[68]     primal_lower48  777
    u[68]     primal_lower49  1
    u[68]     primal_lower50  606
    u[68]     primal_lower51  901
    u[68]     primal_lower52  633
    u[68]     primal_lower53  937
    u[68]     primal_lower54  680
    u[68]     primal_lower55  53
    u[68]     primal_lower56  38
    u[68]     primal_lower57  891
    u[68]     primal_lower58  746
    u[68]     primal_lower59  75
    u[68]     primal_lower60  998
    u[68]     primal_lower61  241
    u[68]     primal_lower62  901
    u[68]     primal_lower63  435
    u[68]     primal_lower64  424
    u[68]     primal_lower65  537
    u[68]     primal_lower66  459
    u[68]     primal_lower67  990
    u[68]     primal_lower68  225
    u[68]     primal_lower69  44
    u[68]     primal_lower70  495
    u[68]     primal_lower71  383
    u[68]     primal_lower72  940
    u[68]     primal_lower73  716
    u[68]     primal_lower74  35
    u[68]     primal_lower75  499
    u[68]     primal_lower76  534
    u[68]     primal_lower77  255
    u[68]     primal_lower78  564
    u[68]     primal_lower79  566
    u[68]     primal_lower80  859
    u[68]     primal_lower81  220
    u[68]     primal_lower82  629
    u[68]     primal_lower83  216
    u[68]     primal_lower84  65
    u[68]     primal_lower85  80
    u[68]     primal_lower86  953
    u[68]     primal_lower87  519
    u[68]     primal_lower88  147
    u[68]     primal_lower89  107
    u[68]     primal_lower90  757
    u[68]     primal_lower91  188
    u[68]     primal_lower92  36
    u[68]     primal_lower93  592
    u[68]     primal_lower94  613
    u[68]     primal_lower95  232
    u[68]     primal_lower96  839
    u[68]     primal_lower97  380
    u[68]     primal_lower98  78
    u[68]     primal_lower99  223
    u[68]     interdiction[68]  1
    u[68]     mccormick1[68]  -1
    u[68]     mccormick3[68]  1
    u[69]     primal_lower0  839
    u[69]     primal_lower1  634
    u[69]     primal_lower2  203
    u[69]     primal_lower3  271
    u[69]     primal_lower4  445
    u[69]     primal_lower5  531
    u[69]     primal_lower6  778
    u[69]     primal_lower7  19
    u[69]     primal_lower8  414
    u[69]     primal_lower9  573
    u[69]     primal_lower10  335
    u[69]     primal_lower11  1000
    u[69]     primal_lower12  267
    u[69]     primal_lower13  315
    u[69]     primal_lower14  643
    u[69]     primal_lower15  494
    u[69]     primal_lower16  640
    u[69]     primal_lower17  675
    u[69]     primal_lower18  403
    u[69]     primal_lower19  427
    u[69]     primal_lower20  82
    u[69]     primal_lower21  554
    u[69]     primal_lower22  128
    u[69]     primal_lower23  74
    u[69]     primal_lower24  188
    u[69]     primal_lower25  237
    u[69]     primal_lower26  160
    u[69]     primal_lower27  57
    u[69]     primal_lower28  62
    u[69]     primal_lower29  19
    u[69]     primal_lower30  274
    u[69]     primal_lower31  749
    u[69]     primal_lower32  865
    u[69]     primal_lower33  850
    u[69]     primal_lower34  967
    u[69]     primal_lower35  927
    u[69]     primal_lower36  336
    u[69]     primal_lower37  428
    u[69]     primal_lower38  82
    u[69]     primal_lower39  132
    u[69]     primal_lower40  744
    u[69]     primal_lower41  794
    u[69]     primal_lower42  279
    u[69]     primal_lower43  562
    u[69]     primal_lower44  263
    u[69]     primal_lower45  208
    u[69]     primal_lower46  860
    u[69]     primal_lower47  435
    u[69]     primal_lower48  490
    u[69]     primal_lower49  802
    u[69]     primal_lower50  167
    u[69]     primal_lower51  403
    u[69]     primal_lower52  143
    u[69]     primal_lower53  434
    u[69]     primal_lower54  985
    u[69]     primal_lower55  419
    u[69]     primal_lower56  500
    u[69]     primal_lower57  316
    u[69]     primal_lower58  968
    u[69]     primal_lower59  884
    u[69]     primal_lower60  180
    u[69]     primal_lower61  791
    u[69]     primal_lower62  934
    u[69]     primal_lower63  668
    u[69]     primal_lower64  217
    u[69]     primal_lower65  978
    u[69]     primal_lower66  708
    u[69]     primal_lower67  247
    u[69]     primal_lower68  618
    u[69]     primal_lower69  13
    u[69]     primal_lower70  485
    u[69]     primal_lower71  213
    u[69]     primal_lower72  914
    u[69]     primal_lower73  762
    u[69]     primal_lower74  100
    u[69]     primal_lower75  316
    u[69]     primal_lower76  487
    u[69]     primal_lower77  557
    u[69]     primal_lower78  738
    u[69]     primal_lower79  167
    u[69]     primal_lower80  649
    u[69]     primal_lower81  594
    u[69]     primal_lower82  166
    u[69]     primal_lower83  158
    u[69]     primal_lower84  631
    u[69]     primal_lower85  521
    u[69]     primal_lower86  730
    u[69]     primal_lower87  840
    u[69]     primal_lower88  508
    u[69]     primal_lower89  28
    u[69]     primal_lower90  299
    u[69]     primal_lower91  842
    u[69]     primal_lower92  290
    u[69]     primal_lower93  534
    u[69]     primal_lower94  147
    u[69]     primal_lower95  342
    u[69]     primal_lower96  437
    u[69]     primal_lower97  853
    u[69]     primal_lower98  175
    u[69]     primal_lower99  808
    u[69]     interdiction[69]  1
    u[69]     mccormick1[69]  -1
    u[69]     mccormick3[69]  1
    u[70]     primal_lower0  491
    u[70]     primal_lower1  466
    u[70]     primal_lower2  503
    u[70]     primal_lower3  7
    u[70]     primal_lower4  485
    u[70]     primal_lower5  279
    u[70]     primal_lower6  386
    u[70]     primal_lower7  955
    u[70]     primal_lower8  566
    u[70]     primal_lower9  681
    u[70]     primal_lower10  515
    u[70]     primal_lower11  764
    u[70]     primal_lower12  63
    u[70]     primal_lower13  387
    u[70]     primal_lower14  35
    u[70]     primal_lower15  182
    u[70]     primal_lower16  836
    u[70]     primal_lower17  199
    u[70]     primal_lower18  19
    u[70]     primal_lower19  975
    u[70]     primal_lower20  166
    u[70]     primal_lower21  914
    u[70]     primal_lower22  384
    u[70]     primal_lower23  818
    u[70]     primal_lower24  564
    u[70]     primal_lower25  761
    u[70]     primal_lower26  484
    u[70]     primal_lower27  605
    u[70]     primal_lower28  846
    u[70]     primal_lower29  711
    u[70]     primal_lower30  166
    u[70]     primal_lower31  137
    u[70]     primal_lower32  849
    u[70]     primal_lower33  294
    u[70]     primal_lower34  867
    u[70]     primal_lower35  623
    u[70]     primal_lower36  4
    u[70]     primal_lower37  388
    u[70]     primal_lower38  410
    u[70]     primal_lower39  712
    u[70]     primal_lower40  204
    u[70]     primal_lower41  942
    u[70]     primal_lower42  215
    u[70]     primal_lower43  314
    u[70]     primal_lower44  607
    u[70]     primal_lower45  808
    u[70]     primal_lower46  480
    u[70]     primal_lower47  119
    u[70]     primal_lower48  354
    u[70]     primal_lower49  394
    u[70]     primal_lower50  575
    u[70]     primal_lower51  647
    u[70]     primal_lower52  451
    u[70]     primal_lower53  938
    u[70]     primal_lower54  697
    u[70]     primal_lower55  575
    u[70]     primal_lower56  296
    u[70]     primal_lower57  876
    u[70]     primal_lower58  484
    u[70]     primal_lower59  540
    u[70]     primal_lower60  920
    u[70]     primal_lower61  603
    u[70]     primal_lower62  470
    u[70]     primal_lower63  596
    u[70]     primal_lower64  505
    u[70]     primal_lower65  722
    u[70]     primal_lower66  340
    u[70]     primal_lower67  191
    u[70]     primal_lower68  922
    u[70]     primal_lower69  469
    u[70]     primal_lower70  177
    u[70]     primal_lower71  561
    u[70]     primal_lower72  982
    u[70]     primal_lower73  662
    u[70]     primal_lower74  612
    u[70]     primal_lower75  876
    u[70]     primal_lower76  79
    u[70]     primal_lower77  73
    u[70]     primal_lower78  526
    u[70]     primal_lower79  511
    u[70]     primal_lower80  405
    u[70]     primal_lower81  478
    u[70]     primal_lower82  470
    u[70]     primal_lower83  762
    u[70]     primal_lower84  883
    u[70]     primal_lower85  337
    u[70]     primal_lower86  562
    u[70]     primal_lower87  352
    u[70]     primal_lower88  748
    u[70]     primal_lower89  908
    u[70]     primal_lower90  407
    u[70]     primal_lower91  894
    u[70]     primal_lower92  902
    u[70]     primal_lower93  490
    u[70]     primal_lower94  23
    u[70]     primal_lower95  426
    u[70]     primal_lower96  225
    u[70]     primal_lower97  557
    u[70]     primal_lower98  39
    u[70]     primal_lower99  880
    u[70]     interdiction[70]  1
    u[70]     mccormick1[70]  -1
    u[70]     mccormick3[70]  1
    u[71]     primal_lower0  547
    u[71]     primal_lower1  238
    u[71]     primal_lower2  479
    u[71]     primal_lower3  587
    u[71]     primal_lower4  593
    u[71]     primal_lower5  87
    u[71]     primal_lower6  710
    u[71]     primal_lower7  127
    u[71]     primal_lower8  170
    u[71]     primal_lower9  353
    u[71]     primal_lower10  971
    u[71]     primal_lower11  84
    u[71]     primal_lower12  375
    u[71]     primal_lower13  47
    u[71]     primal_lower14  231
    u[71]     primal_lower15  714
    u[71]     primal_lower16  748
    u[71]     primal_lower17  447
    u[71]     primal_lower18  63
    u[71]     primal_lower19  975
    u[71]     primal_lower20  942
    u[71]     primal_lower21  694
    u[71]     primal_lower22  396
    u[71]     primal_lower23  830
    u[71]     primal_lower24  856
    u[71]     primal_lower25  913
    u[71]     primal_lower26  36
    u[71]     primal_lower27  981
    u[71]     primal_lower28  338
    u[71]     primal_lower29  919
    u[71]     primal_lower30  686
    u[71]     primal_lower31  593
    u[71]     primal_lower32  597
    u[71]     primal_lower33  622
    u[71]     primal_lower34  667
    u[71]     primal_lower35  539
    u[71]     primal_lower36  644
    u[71]     primal_lower37  344
    u[71]     primal_lower38  134
    u[71]     primal_lower39  184
    u[71]     primal_lower40  84
    u[71]     primal_lower41  838
    u[71]     primal_lower42  723
    u[71]     primal_lower43  846
    u[71]     primal_lower44  363
    u[71]     primal_lower45  60
    u[71]     primal_lower46  1000
    u[71]     primal_lower47  951
    u[71]     primal_lower48  526
    u[71]     primal_lower49  966
    u[71]     primal_lower50  43
    u[71]     primal_lower51  159
    u[71]     primal_lower52  635
    u[71]     primal_lower53  286
    u[71]     primal_lower54  189
    u[71]     primal_lower55  951
    u[71]     primal_lower56  424
    u[71]     primal_lower57  888
    u[71]     primal_lower58  372
    u[71]     primal_lower59  752
    u[71]     primal_lower60  512
    u[71]     primal_lower61  443
    u[71]     primal_lower62  386
    u[71]     primal_lower63  600
    u[71]     primal_lower64  373
    u[71]     primal_lower65  254
    u[71]     primal_lower66  416
    u[71]     primal_lower67  283
    u[71]     primal_lower68  798
    u[71]     primal_lower69  153
    u[71]     primal_lower70  897
    u[71]     primal_lower71  625
    u[71]     primal_lower72  30
    u[71]     primal_lower73  366
    u[71]     primal_lower74  496
    u[71]     primal_lower75  360
    u[71]     primal_lower76  59
    u[71]     primal_lower77  913
    u[71]     primal_lower78  758
    u[71]     primal_lower79  587
    u[71]     primal_lower80  741
    u[71]     primal_lower81  654
    u[71]     primal_lower82  490
    u[71]     primal_lower83  978
    u[71]     primal_lower84  275
    u[71]     primal_lower85  869
    u[71]     primal_lower86  14
    u[71]     primal_lower87  684
    u[71]     primal_lower88  480
    u[71]     primal_lower89  992
    u[71]     primal_lower90  903
    u[71]     primal_lower91  566
    u[71]     primal_lower92  486
    u[71]     primal_lower93  706
    u[71]     primal_lower94  343
    u[71]     primal_lower95  634
    u[71]     primal_lower96  809
    u[71]     primal_lower97  881
    u[71]     primal_lower98  995
    u[71]     primal_lower99  212
    u[71]     interdiction[71]  1
    u[71]     mccormick1[71]  -1
    u[71]     mccormick3[71]  1
    u[72]     primal_lower0  635
    u[72]     primal_lower1  451
    u[72]     primal_lower2  175
    u[72]     primal_lower3  600
    u[72]     primal_lower4  262
    u[72]     primal_lower5  359
    u[72]     primal_lower6  43
    u[72]     primal_lower7  52
    u[72]     primal_lower8  127
    u[72]     primal_lower9  169
    u[72]     primal_lower10  955
    u[72]     primal_lower11  348
    u[72]     primal_lower12  207
    u[72]     primal_lower13  932
    u[72]     primal_lower14  276
    u[72]     primal_lower15  231
    u[72]     primal_lower16  948
    u[72]     primal_lower17  775
    u[72]     primal_lower18  588
    u[72]     primal_lower19  463
    u[72]     primal_lower20  270
    u[72]     primal_lower21  307
    u[72]     primal_lower22  785
    u[72]     primal_lower23  595
    u[72]     primal_lower24  373
    u[72]     primal_lower25  65
    u[72]     primal_lower26  364
    u[72]     primal_lower27  797
    u[72]     primal_lower28  23
    u[72]     primal_lower29  503
    u[72]     primal_lower30  846
    u[72]     primal_lower31  649
    u[72]     primal_lower32  810
    u[72]     primal_lower33  958
    u[72]     primal_lower34  171
    u[72]     primal_lower35  712
    u[72]     primal_lower36  356
    u[72]     primal_lower37  837
    u[72]     primal_lower38  171
    u[72]     primal_lower39  232
    u[72]     primal_lower40  244
    u[72]     primal_lower41  742
    u[72]     primal_lower42  536
    u[72]     primal_lower43  35
    u[72]     primal_lower44  784
    u[72]     primal_lower45  801
    u[72]     primal_lower46  576
    u[72]     primal_lower47  615
    u[72]     primal_lower48  515
    u[72]     primal_lower49  907
    u[72]     primal_lower50  744
    u[72]     primal_lower51  55
    u[72]     primal_lower52  619
    u[72]     primal_lower53  859
    u[72]     primal_lower54  554
    u[72]     primal_lower55  511
    u[72]     primal_lower56  440
    u[72]     primal_lower57  21
    u[72]     primal_lower58  740
    u[72]     primal_lower59  781
    u[72]     primal_lower60  744
    u[72]     primal_lower61  291
    u[72]     primal_lower62  367
    u[72]     primal_lower63  213
    u[72]     primal_lower64  202
    u[72]     primal_lower65  171
    u[72]     primal_lower66  733
    u[72]     primal_lower67  720
    u[72]     primal_lower68  899
    u[72]     primal_lower69  814
    u[72]     primal_lower70  105
    u[72]     primal_lower71  953
    u[72]     primal_lower72  758
    u[72]     primal_lower73  718
    u[72]     primal_lower74  877
    u[72]     primal_lower75  837
    u[72]     primal_lower76  744
    u[72]     primal_lower77  465
    u[72]     primal_lower78  102
    u[72]     primal_lower79  496
    u[72]     primal_lower80  581
    u[72]     primal_lower81  70
    u[72]     primal_lower82  15
    u[72]     primal_lower83  930
    u[72]     primal_lower84  811
    u[72]     primal_lower85  658
    u[72]     primal_lower86  739
    u[72]     primal_lower87  881
    u[72]     primal_lower88  517
    u[72]     primal_lower89  53
    u[72]     primal_lower90  751
    u[72]     primal_lower91  22
    u[72]     primal_lower92  86
    u[72]     primal_lower93  210
    u[72]     primal_lower94  15
    u[72]     primal_lower95  162
    u[72]     primal_lower96  137
    u[72]     primal_lower97  70
    u[72]     primal_lower98  376
    u[72]     primal_lower99  97
    u[72]     interdiction[72]  1
    u[72]     mccormick1[72]  -1
    u[72]     mccormick3[72]  1
    u[73]     primal_lower0  372
    u[73]     primal_lower1  520
    u[73]     primal_lower2  888
    u[73]     primal_lower3  517
    u[73]     primal_lower4  787
    u[73]     primal_lower5  504
    u[73]     primal_lower6  600
    u[73]     primal_lower7  553
    u[73]     primal_lower8  668
    u[73]     primal_lower9  410
    u[73]     primal_lower10  916
    u[73]     primal_lower11  821
    u[73]     primal_lower12  144
    u[73]     primal_lower13  969
    u[73]     primal_lower14  769
    u[73]     primal_lower15  196
    u[73]     primal_lower16  21
    u[73]     primal_lower17  744
    u[73]     primal_lower18  25
    u[73]     primal_lower19  456
    u[73]     primal_lower20  31
    u[73]     primal_lower21  640
    u[73]     primal_lower22  750
    u[73]     primal_lower23  240
    u[73]     primal_lower24  258
    u[73]     primal_lower25  266
    u[73]     primal_lower26  181
    u[73]     primal_lower27  54
    u[73]     primal_lower28  636
    u[73]     primal_lower29  280
    u[73]     primal_lower30  47
    u[73]     primal_lower31  402
    u[73]     primal_lower32  879
    u[73]     primal_lower33  975
    u[73]     primal_lower34  188
    u[73]     primal_lower35  797
    u[73]     primal_lower36  197
    u[73]     primal_lower37  554
    u[73]     primal_lower38  336
    u[73]     primal_lower39  177
    u[73]     primal_lower40  205
    u[73]     primal_lower41  263
    u[73]     primal_lower42  525
    u[73]     primal_lower43  168
    u[73]     primal_lower44  317
    u[73]     primal_lower45  606
    u[73]     primal_lower46  737
    u[73]     primal_lower47  504
    u[73]     primal_lower48  488
    u[73]     primal_lower49  352
    u[73]     primal_lower50  165
    u[73]     primal_lower51  40
    u[73]     primal_lower52  388
    u[73]     primal_lower53  920
    u[73]     primal_lower54  751
    u[73]     primal_lower55  288
    u[73]     primal_lower56  273
    u[73]     primal_lower57  786
    u[73]     primal_lower58  61
    u[73]     primal_lower59  434
    u[73]     primal_lower60  425
    u[73]     primal_lower61  716
    u[73]     primal_lower62  356
    u[73]     primal_lower63  490
    u[73]     primal_lower64  503
    u[73]     primal_lower65  456
    u[73]     primal_lower66  218
    u[73]     primal_lower67  109
    u[73]     primal_lower68  872
    u[73]     primal_lower69  147
    u[73]     primal_lower70  658
    u[73]     primal_lower71  26
    u[73]     primal_lower72  687
    u[73]     primal_lower73  711
    u[73]     primal_lower74  730
    u[73]     primal_lower75  906
    u[73]     primal_lower76  917
    u[73]     primal_lower77  306
    u[73]     primal_lower78  7
    u[73]     primal_lower79  309
    u[73]     primal_lower80  270
    u[73]     primal_lower81  399
    u[73]     primal_lower82  764
    u[73]     primal_lower83  939
    u[73]     primal_lower84  612
    u[73]     primal_lower85  359
    u[73]     primal_lower86  336
    u[73]     primal_lower87  566
    u[73]     primal_lower88  690
    u[73]     primal_lower89  994
    u[73]     primal_lower90  296
    u[73]     primal_lower91  119
    u[73]     primal_lower92  39
    u[73]     primal_lower93  187
    u[73]     primal_lower94  224
    u[73]     primal_lower95  867
    u[73]     primal_lower96  266
    u[73]     primal_lower97  683
    u[73]     primal_lower98  117
    u[73]     primal_lower99  654
    u[73]     interdiction[73]  1
    u[73]     mccormick1[73]  -1
    u[73]     mccormick3[73]  1
    u[74]     primal_lower0  165
    u[74]     primal_lower1  524
    u[74]     primal_lower2  577
    u[74]     primal_lower3  737
    u[74]     primal_lower4  79
    u[74]     primal_lower5  633
    u[74]     primal_lower6  404
    u[74]     primal_lower7  565
    u[74]     primal_lower8  816
    u[74]     primal_lower9  395
    u[74]     primal_lower10  365
    u[74]     primal_lower11  158
    u[74]     primal_lower12  201
    u[74]     primal_lower13  205
    u[74]     primal_lower14  933
    u[74]     primal_lower15  880
    u[74]     primal_lower16  438
    u[74]     primal_lower17  9
    u[74]     primal_lower18  485
    u[74]     primal_lower19  633
    u[74]     primal_lower20  152
    u[74]     primal_lower21  484
    u[74]     primal_lower22  954
    u[74]     primal_lower23  172
    u[74]     primal_lower24  910
    u[74]     primal_lower25  779
    u[74]     primal_lower26  662
    u[74]     primal_lower27  471
    u[74]     primal_lower28  344
    u[74]     primal_lower29  577
    u[74]     primal_lower30  856
    u[74]     primal_lower31  499
    u[74]     primal_lower32  819
    u[74]     primal_lower33  992
    u[74]     primal_lower34  509
    u[74]     primal_lower35  305
    u[74]     primal_lower36  94
    u[74]     primal_lower37  710
    u[74]     primal_lower38  604
    u[74]     primal_lower39  554
    u[74]     primal_lower40  38
    u[74]     primal_lower41  296
    u[74]     primal_lower42  873
    u[74]     primal_lower43  660
    u[74]     primal_lower44  593
    u[74]     primal_lower45  242
    u[74]     primal_lower46  402
    u[74]     primal_lower47  273
    u[74]     primal_lower48  764
    u[74]     primal_lower49  564
    u[74]     primal_lower50  881
    u[74]     primal_lower51  73
    u[74]     primal_lower52  757
    u[74]     primal_lower53  428
    u[74]     primal_lower54  419
    u[74]     primal_lower55  1
    u[74]     primal_lower56  898
    u[74]     primal_lower57  534
    u[74]     primal_lower58  246
    u[74]     primal_lower59  566
    u[74]     primal_lower60  282
    u[74]     primal_lower61  445
    u[74]     primal_lower62  792
    u[74]     primal_lower63  974
    u[74]     primal_lower64  291
    u[74]     primal_lower65  140
    u[74]     primal_lower66  710
    u[74]     primal_lower67  321
    u[74]     primal_lower68  172
    u[74]     primal_lower69  343
    u[74]     primal_lower70  819
    u[74]     primal_lower71  851
    u[74]     primal_lower72  256
    u[74]     primal_lower73  952
    u[74]     primal_lower74  86
    u[74]     primal_lower75  142
    u[74]     primal_lower76  161
    u[74]     primal_lower77  827
    u[74]     primal_lower78  432
    u[74]     primal_lower79  241
    u[74]     primal_lower80  847
    u[74]     primal_lower81  376
    u[74]     primal_lower82  688
    u[74]     primal_lower83  244
    u[74]     primal_lower84  389
    u[74]     primal_lower85  955
    u[74]     primal_lower86  876
    u[74]     primal_lower87  922
    u[74]     primal_lower88  390
    u[74]     primal_lower89  934
    u[74]     primal_lower90  545
    u[74]     primal_lower91  640
    u[74]     primal_lower92  1000
    u[74]     primal_lower93  276
    u[74]     primal_lower94  713
    u[74]     primal_lower95  284
    u[74]     primal_lower96  875
    u[74]     primal_lower97  983
    u[74]     primal_lower98  953
    u[74]     primal_lower99  74
    u[74]     interdiction[74]  1
    u[74]     mccormick1[74]  -1
    u[74]     mccormick3[74]  1
    u[75]     primal_lower0  502
    u[75]     primal_lower1  561
    u[75]     primal_lower2  66
    u[75]     primal_lower3  342
    u[75]     primal_lower4  4
    u[75]     primal_lower5  506
    u[75]     primal_lower6  961
    u[75]     primal_lower7  330
    u[75]     primal_lower8  309
    u[75]     primal_lower9  908
    u[75]     primal_lower10  686
    u[75]     primal_lower11  111
    u[75]     primal_lower12  858
    u[75]     primal_lower13  450
    u[75]     primal_lower14  826
    u[75]     primal_lower15  933
    u[75]     primal_lower16  871
    u[75]     primal_lower17  634
    u[75]     primal_lower18  386
    u[75]     primal_lower19  426
    u[75]     primal_lower20  161
    u[75]     primal_lower21  201
    u[75]     primal_lower22  855
    u[75]     primal_lower23  17
    u[75]     primal_lower24  603
    u[75]     primal_lower25  324
    u[75]     primal_lower26  559
    u[75]     primal_lower27  504
    u[75]     primal_lower28  773
    u[75]     primal_lower29  130
    u[75]     primal_lower30  145
    u[75]     primal_lower31  332
    u[75]     primal_lower32  832
    u[75]     primal_lower33  465
    u[75]     primal_lower34  646
    u[75]     primal_lower35  718
    u[75]     primal_lower36  511
    u[75]     primal_lower37  699
    u[75]     primal_lower38  953
    u[75]     primal_lower39  155
    u[75]     primal_lower40  815
    u[75]     primal_lower41  633
    u[75]     primal_lower42  590
    u[75]     primal_lower43  833
    u[75]     primal_lower44  430
    u[75]     primal_lower45  391
    u[75]     primal_lower46  219
    u[75]     primal_lower47  634
    u[75]     primal_lower48  385
    u[75]     primal_lower49  737
    u[75]     primal_lower50  558
    u[75]     primal_lower51  290
    u[75]     primal_lower52  382
    u[75]     primal_lower53  337
    u[75]     primal_lower54  888
    u[75]     primal_lower55  258
    u[75]     primal_lower56  915
    u[75]     primal_lower57  987
    u[75]     primal_lower58  599
    u[75]     primal_lower59  435
    u[75]     primal_lower60  179
    u[75]     primal_lower61  606
    u[75]     primal_lower62  341
    u[75]     primal_lower63  803
    u[75]     primal_lower64  24
    u[75]     primal_lower65  865
    u[75]     primal_lower66  411
    u[75]     primal_lower67  934
    u[75]     primal_lower68  641
    u[75]     primal_lower69  732
    u[75]     primal_lower70  356
    u[75]     primal_lower71  756
    u[75]     primal_lower72  817
    u[75]     primal_lower73  921
    u[75]     primal_lower74  651
    u[75]     primal_lower75  755
    u[75]     primal_lower76  534
    u[75]     primal_lower77  724
    u[75]     primal_lower78  169
    u[75]     primal_lower79  342
    u[75]     primal_lower80  944
    u[75]     primal_lower81  321
    u[75]     primal_lower82  621
    u[75]     primal_lower83  413
    u[75]     primal_lower84  838
    u[75]     primal_lower85  128
    u[75]     primal_lower86  457
    u[75]     primal_lower87  239
    u[75]     primal_lower88  931
    u[75]     primal_lower89  915
    u[75]     primal_lower90  914
    u[75]     primal_lower91  73
    u[75]     primal_lower92  777
    u[75]     primal_lower93  205
    u[75]     primal_lower94  258
    u[75]     primal_lower95  853
    u[75]     primal_lower96  204
    u[75]     primal_lower97  460
    u[75]     primal_lower98  710
    u[75]     primal_lower99  359
    u[75]     interdiction[75]  1
    u[75]     mccormick1[75]  -1
    u[75]     mccormick3[75]  1
    u[76]     primal_lower0  168
    u[76]     primal_lower1  175
    u[76]     primal_lower2  820
    u[76]     primal_lower3  964
    u[76]     primal_lower4  410
    u[76]     primal_lower5  556
    u[76]     primal_lower6  47
    u[76]     primal_lower7  144
    u[76]     primal_lower8  355
    u[76]     primal_lower9  70
    u[76]     primal_lower10  400
    u[76]     primal_lower11  745
    u[76]     primal_lower12  596
    u[76]     primal_lower13  656
    u[76]     primal_lower14  152
    u[76]     primal_lower15  635
    u[76]     primal_lower16  529
    u[76]     primal_lower17  324
    u[76]     primal_lower18  568
    u[76]     primal_lower19  364
    u[76]     primal_lower20  827
    u[76]     primal_lower21  735
    u[76]     primal_lower22  805
    u[76]     primal_lower23  439
    u[76]     primal_lower24  785
    u[76]     primal_lower25  798
    u[76]     primal_lower26  137
    u[76]     primal_lower27  218
    u[76]     primal_lower28  779
    u[76]     primal_lower29  988
    u[76]     primal_lower30  603
    u[76]     primal_lower31  142
    u[76]     primal_lower32  230
    u[76]     primal_lower33  867
    u[76]     primal_lower34  776
    u[76]     primal_lower35  348
    u[76]     primal_lower36  265
    u[76]     primal_lower37  65
    u[76]     primal_lower38  279
    u[76]     primal_lower39  661
    u[76]     primal_lower40  49
    u[76]     primal_lower41  851
    u[76]     primal_lower42  196
    u[76]     primal_lower43  751
    u[76]     primal_lower44  572
    u[76]     primal_lower45  709
    u[76]     primal_lower46  797
    u[76]     primal_lower47  492
    u[76]     primal_lower48  703
    u[76]     primal_lower49  463
    u[76]     primal_lower50  820
    u[76]     primal_lower51  108
    u[76]     primal_lower52  80
    u[76]     primal_lower53  551
    u[76]     primal_lower54  102
    u[76]     primal_lower55  44
    u[76]     primal_lower56  221
    u[76]     primal_lower57  665
    u[76]     primal_lower58  617
    u[76]     primal_lower59  521
    u[76]     primal_lower60  317
    u[76]     primal_lower61  680
    u[76]     primal_lower62  507
    u[76]     primal_lower63  425
    u[76]     primal_lower64  814
    u[76]     primal_lower65  623
    u[76]     primal_lower66  889
    u[76]     primal_lower67  916
    u[76]     primal_lower68  943
    u[76]     primal_lower69  570
    u[76]     primal_lower70  534
    u[76]     primal_lower71  702
    u[76]     primal_lower72  579
    u[76]     primal_lower73  243
    u[76]     primal_lower74  809
    u[76]     primal_lower75  185
    u[76]     primal_lower76  996
    u[76]     primal_lower77  190
    u[76]     primal_lower78  963
    u[76]     primal_lower79  684
    u[76]     primal_lower80  506
    u[76]     primal_lower81  259
    u[76]     primal_lower82  851
    u[76]     primal_lower83  207
    u[76]     primal_lower84  432
    u[76]     primal_lower85  150
    u[76]     primal_lower86  63
    u[76]     primal_lower87  981
    u[76]     primal_lower88  649
    u[76]     primal_lower89  313
    u[76]     primal_lower90  196
    u[76]     primal_lower91  811
    u[76]     primal_lower92  171
    u[76]     primal_lower93  55
    u[76]     primal_lower94  940
    u[76]     primal_lower95  31
    u[76]     primal_lower96  430
    u[76]     primal_lower97  402
    u[76]     primal_lower98  604
    u[76]     primal_lower99  293
    u[76]     interdiction[76]  1
    u[76]     mccormick1[76]  -1
    u[76]     mccormick3[76]  1
    u[77]     primal_lower0  936
    u[77]     primal_lower1  476
    u[77]     primal_lower2  500
    u[77]     primal_lower3  833
    u[77]     primal_lower4  335
    u[77]     primal_lower5  468
    u[77]     primal_lower6  924
    u[77]     primal_lower7  637
    u[77]     primal_lower8  72
    u[77]     primal_lower9  982
    u[77]     primal_lower10  992
    u[77]     primal_lower11  905
    u[77]     primal_lower12  364
    u[77]     primal_lower13  525
    u[77]     primal_lower14  525
    u[77]     primal_lower15  72
    u[77]     primal_lower16  993
    u[77]     primal_lower17  836
    u[77]     primal_lower18  981
    u[77]     primal_lower19  836
    u[77]     primal_lower20  83
    u[77]     primal_lower21  548
    u[77]     primal_lower22  138
    u[77]     primal_lower23  428
    u[77]     primal_lower24  454
    u[77]     primal_lower25  646
    u[77]     primal_lower26  129
    u[77]     primal_lower27  66
    u[77]     primal_lower28  40
    u[77]     primal_lower29  492
    u[77]     primal_lower30  547
    u[77]     primal_lower31  718
    u[77]     primal_lower32  171
    u[77]     primal_lower33  963
    u[77]     primal_lower34  80
    u[77]     primal_lower35  145
    u[77]     primal_lower36  649
    u[77]     primal_lower37  614
    u[77]     primal_lower38  172
    u[77]     primal_lower39  637
    u[77]     primal_lower40  97
    u[77]     primal_lower41  555
    u[77]     primal_lower42  809
    u[77]     primal_lower43  868
    u[77]     primal_lower44  513
    u[77]     primal_lower45  138
    u[77]     primal_lower46  405
    u[77]     primal_lower47  876
    u[77]     primal_lower48  260
    u[77]     primal_lower49  4
    u[77]     primal_lower50  313
    u[77]     primal_lower51  444
    u[77]     primal_lower52  152
    u[77]     primal_lower53  820
    u[77]     primal_lower54  315
    u[77]     primal_lower55  132
    u[77]     primal_lower56  133
    u[77]     primal_lower57  662
    u[77]     primal_lower58  89
    u[77]     primal_lower59  110
    u[77]     primal_lower60  45
    u[77]     primal_lower61  688
    u[77]     primal_lower62  568
    u[77]     primal_lower63  502
    u[77]     primal_lower64  211
    u[77]     primal_lower65  620
    u[77]     primal_lower66  422
    u[77]     primal_lower67  753
    u[77]     primal_lower68  828
    u[77]     primal_lower69  367
    u[77]     primal_lower70  550
    u[77]     primal_lower71  166
    u[77]     primal_lower72  851
    u[77]     primal_lower73  27
    u[77]     primal_lower74  166
    u[77]     primal_lower75  702
    u[77]     primal_lower76  465
    u[77]     primal_lower77  262
    u[77]     primal_lower78  979
    u[77]     primal_lower79  281
    u[77]     primal_lower80  42
    u[77]     primal_lower81  219
    u[77]     primal_lower82  136
    u[77]     primal_lower83  175
    u[77]     primal_lower84  696
    u[77]     primal_lower85  979
    u[77]     primal_lower86  708
    u[77]     primal_lower87  322
    u[77]     primal_lower88  582
    u[77]     primal_lower89  358
    u[77]     primal_lower90  884
    u[77]     primal_lower91  123
    u[77]     primal_lower92  867
    u[77]     primal_lower93  807
    u[77]     primal_lower94  124
    u[77]     primal_lower95  927
    u[77]     primal_lower96  502
    u[77]     primal_lower97  431
    u[77]     primal_lower98  89
    u[77]     primal_lower99  506
    u[77]     interdiction[77]  1
    u[77]     mccormick1[77]  -1
    u[77]     mccormick3[77]  1
    u[78]     primal_lower0  398
    u[78]     primal_lower1  573
    u[78]     primal_lower2  10
    u[78]     primal_lower3  682
    u[78]     primal_lower4  40
    u[78]     primal_lower5  410
    u[78]     primal_lower6  565
    u[78]     primal_lower7  662
    u[78]     primal_lower8  921
    u[78]     primal_lower9  396
    u[78]     primal_lower10  86
    u[78]     primal_lower11  71
    u[78]     primal_lower12  186
    u[78]     primal_lower13  198
    u[78]     primal_lower14  454
    u[78]     primal_lower15  665
    u[78]     primal_lower16  879
    u[78]     primal_lower17  642
    u[78]     primal_lower18  926
    u[78]     primal_lower19  930
    u[78]     primal_lower20  73
    u[78]     primal_lower21  997
    u[78]     primal_lower22  331
    u[78]     primal_lower23  157
    u[78]     primal_lower24  183
    u[78]     primal_lower25  52
    u[78]     primal_lower26  751
    u[78]     primal_lower27  96
    u[78]     primal_lower28  777
    u[78]     primal_lower29  562
    u[78]     primal_lower30  977
    u[78]     primal_lower31  404
    u[78]     primal_lower32  84
    u[78]     primal_lower33  409
    u[78]     primal_lower34  478
    u[78]     primal_lower35  906
    u[78]     primal_lower36  887
    u[78]     primal_lower37  303
    u[78]     primal_lower38  253
    u[78]     primal_lower39  515
    u[78]     primal_lower40  279
    u[78]     primal_lower41  225
    u[78]     primal_lower42  962
    u[78]     primal_lower43  109
    u[78]     primal_lower44  106
    u[78]     primal_lower45  611
    u[78]     primal_lower46  395
    u[78]     primal_lower47  386
    u[78]     primal_lower48  301
    u[78]     primal_lower49  821
    u[78]     primal_lower50  282
    u[78]     primal_lower51  162
    u[78]     primal_lower52  494
    u[78]     primal_lower53  989
    u[78]     primal_lower54  892
    u[78]     primal_lower55  410
    u[78]     primal_lower56  859
    u[78]     primal_lower57  711
    u[78]     primal_lower58  175
    u[78]     primal_lower59  999
    u[78]     primal_lower60  699
    u[78]     primal_lower61  302
    u[78]     primal_lower62  601
    u[78]     primal_lower63  319
    u[78]     primal_lower64  20
    u[78]     primal_lower65  261
    u[78]     primal_lower66  319
    u[78]     primal_lower67  354
    u[78]     primal_lower68  173
    u[78]     primal_lower69  992
    u[78]     primal_lower70  268
    u[78]     primal_lower71  44
    u[78]     primal_lower72  921
    u[78]     primal_lower73  505
    u[78]     primal_lower74  919
    u[78]     primal_lower75  287
    u[78]     primal_lower76  82
    u[78]     primal_lower77  828
    u[78]     primal_lower78  569
    u[78]     primal_lower79  962
    u[78]     primal_lower80  760
    u[78]     primal_lower81  601
    u[78]     primal_lower82  121
    u[78]     primal_lower83  757
    u[78]     primal_lower84  542
    u[78]     primal_lower85  68
    u[78]     primal_lower86  525
    u[78]     primal_lower87  643
    u[78]     primal_lower88  991
    u[78]     primal_lower89  55
    u[78]     primal_lower90  114
    u[78]     primal_lower91  353
    u[78]     primal_lower92  89
    u[78]     primal_lower93  445
    u[78]     primal_lower94  146
    u[78]     primal_lower95  813
    u[78]     primal_lower96  428
    u[78]     primal_lower97  808
    u[78]     primal_lower98  698
    u[78]     primal_lower99  819
    u[78]     interdiction[78]  1
    u[78]     mccormick1[78]  -1
    u[78]     mccormick3[78]  1
    u[79]     primal_lower0  136
    u[79]     primal_lower1  907
    u[79]     primal_lower2  876
    u[79]     primal_lower3  448
    u[79]     primal_lower4  382
    u[79]     primal_lower5  724
    u[79]     primal_lower6  243
    u[79]     primal_lower7  308
    u[79]     primal_lower8  31
    u[79]     primal_lower9  334
    u[79]     primal_lower10  336
    u[79]     primal_lower11  569
    u[79]     primal_lower12  940
    u[79]     primal_lower13  532
    u[79]     primal_lower14  908
    u[79]     primal_lower15  263
    u[79]     primal_lower16  977
    u[79]     primal_lower17  300
    u[79]     primal_lower18  548
    u[79]     primal_lower19  684
    u[79]     primal_lower20  387
    u[79]     primal_lower21  691
    u[79]     primal_lower22  665
    u[79]     primal_lower23  475
    u[79]     primal_lower24  981
    u[79]     primal_lower25  102
    u[79]     primal_lower26  9
    u[79]     primal_lower27  402
    u[79]     primal_lower28  703
    u[79]     primal_lower29  604
    u[79]     primal_lower30  803
    u[79]     primal_lower31  54
    u[79]     primal_lower32  282
    u[79]     primal_lower33  867
    u[79]     primal_lower34  368
    u[79]     primal_lower35  424
    u[79]     primal_lower36  609
    u[79]     primal_lower37  653
    u[79]     primal_lower38  443
    u[79]     primal_lower39  957
    u[79]     primal_lower40  849
    u[79]     primal_lower41  59
    u[79]     primal_lower42  464
    u[79]     primal_lower43  67
    u[79]     primal_lower44  184
    u[79]     primal_lower45  9
    u[79]     primal_lower46  677
    u[79]     primal_lower47  644
    u[79]     primal_lower48  923
    u[79]     primal_lower49  315
    u[79]     primal_lower50  392
    u[79]     primal_lower51  668
    u[79]     primal_lower52  224
    u[79]     primal_lower53  891
    u[79]     primal_lower54  602
    u[79]     primal_lower55  236
    u[79]     primal_lower56  325
    u[79]     primal_lower57  45
    u[79]     primal_lower58  297
    u[79]     primal_lower59  613
    u[79]     primal_lower60  741
    u[79]     primal_lower61  8
    u[79]     primal_lower62  711
    u[79]     primal_lower63  69
    u[79]     primal_lower64  18
    u[79]     primal_lower65  275
    u[79]     primal_lower66  605
    u[79]     primal_lower67  960
    u[79]     primal_lower68  747
    u[79]     primal_lower69  126
    u[79]     primal_lower70  742
    u[79]     primal_lower71  214
    u[79]     primal_lower72  747
    u[79]     primal_lower73  915
    u[79]     primal_lower74  677
    u[79]     primal_lower75  757
    u[79]     primal_lower76  808
    u[79]     primal_lower77  350
    u[79]     primal_lower78  259
    u[79]     primal_lower79  976
    u[79]     primal_lower80  978
    u[79]     primal_lower81  283
    u[79]     primal_lower82  943
    u[79]     primal_lower83  639
    u[79]     primal_lower84  392
    u[79]     primal_lower85  202
    u[79]     primal_lower86  115
    u[79]     primal_lower87  57
    u[79]     primal_lower88  693
    u[79]     primal_lower89  901
    u[79]     primal_lower90  676
    u[79]     primal_lower91  843
    u[79]     primal_lower92  203
    u[79]     primal_lower93  607
    u[79]     primal_lower94  484
    u[79]     primal_lower95  87
    u[79]     primal_lower96  718
    u[79]     primal_lower97  854
    u[79]     primal_lower98  584
    u[79]     primal_lower99  201
    u[79]     interdiction[79]  1
    u[79]     mccormick1[79]  -1
    u[79]     mccormick3[79]  1
    u[80]     primal_lower0  987
    u[80]     primal_lower1  258
    u[80]     primal_lower2  39
    u[80]     primal_lower3  983
    u[80]     primal_lower4  669
    u[80]     primal_lower5  239
    u[80]     primal_lower6  322
    u[80]     primal_lower7  979
    u[80]     primal_lower8  134
    u[80]     primal_lower9  617
    u[80]     primal_lower10  419
    u[80]     primal_lower11  724
    u[80]     primal_lower12  919
    u[80]     primal_lower13  779
    u[80]     primal_lower14  435
    u[80]     primal_lower15  998
    u[80]     primal_lower16  36
    u[80]     primal_lower17  287
    u[80]     primal_lower18  259
    u[80]     primal_lower19  151
    u[80]     primal_lower20  430
    u[80]     primal_lower21  202
    u[80]     primal_lower22  720
    u[80]     primal_lower23  626
    u[80]     primal_lower24  916
    u[80]     primal_lower25  425
    u[80]     primal_lower26  564
    u[80]     primal_lower27  597
    u[80]     primal_lower28  910
    u[80]     primal_lower29  719
    u[80]     primal_lower30  902
    u[80]     primal_lower31  425
    u[80]     primal_lower32  657
    u[80]     primal_lower33  182
    u[80]     primal_lower34  467
    u[80]     primal_lower35  95
    u[80]     primal_lower36  84
    u[80]     primal_lower37  404
    u[80]     primal_lower38  754
    u[80]     primal_lower39  48
    u[80]     primal_lower40  972
    u[80]     primal_lower41  70
    u[80]     primal_lower42  735
    u[80]     primal_lower43  58
    u[80]     primal_lower44  743
    u[80]     primal_lower45  200
    u[80]     primal_lower46  560
    u[80]     primal_lower47  391
    u[80]     primal_lower48  242
    u[80]     primal_lower49  450
    u[80]     primal_lower50  943
    u[80]     primal_lower51  567
    u[80]     primal_lower52  195
    u[80]     primal_lower53  290
    u[80]     primal_lower54  713
    u[80]     primal_lower55  607
    u[80]     primal_lower56  472
    u[80]     primal_lower57  460
    u[80]     primal_lower58  980
    u[80]     primal_lower59  964
    u[80]     primal_lower60  736
    u[80]     primal_lower61  955
    u[80]     primal_lower62  446
    u[80]     primal_lower63  68
    u[80]     primal_lower64  241
    u[80]     primal_lower65  490
    u[80]     primal_lower66  884
    u[80]     primal_lower67  623
    u[80]     primal_lower68  378
    u[80]     primal_lower69  605
    u[80]     primal_lower70  849
    u[80]     primal_lower71  65
    u[80]     primal_lower72  926
    u[80]     primal_lower73  918
    u[80]     primal_lower74  612
    u[80]     primal_lower75  44
    u[80]     primal_lower76  743
    u[80]     primal_lower77  737
    u[80]     primal_lower78  630
    u[80]     primal_lower79  103
    u[80]     primal_lower80  213
    u[80]     primal_lower81  918
    u[80]     primal_lower82  446
    u[80]     primal_lower83  58
    u[80]     primal_lower84  315
    u[80]     primal_lower85  697
    u[80]     primal_lower86  90
    u[80]     primal_lower87  224
    u[80]     primal_lower88  660
    u[80]     primal_lower89  204
    u[80]     primal_lower90  711
    u[80]     primal_lower91  150
    u[80]     primal_lower92  182
    u[80]     primal_lower93  202
    u[80]     primal_lower94  767
    u[80]     primal_lower95  10
    u[80]     primal_lower96  561
    u[80]     primal_lower97  93
    u[80]     primal_lower98  103
    u[80]     primal_lower99  904
    u[80]     interdiction[80]  1
    u[80]     mccormick1[80]  -1
    u[80]     mccormick3[80]  1
    u[81]     primal_lower0  995
    u[81]     primal_lower1  14
    u[81]     primal_lower2  423
    u[81]     primal_lower3  3
    u[81]     primal_lower4  385
    u[81]     primal_lower5  359
    u[81]     primal_lower6  86
    u[81]     primal_lower7  799
    u[81]     primal_lower8  26
    u[81]     primal_lower9  601
    u[81]     primal_lower10  427
    u[81]     primal_lower11  892
    u[81]     primal_lower12  631
    u[81]     primal_lower13  63
    u[81]     primal_lower14  871
    u[81]     primal_lower15  466
    u[81]     primal_lower16  588
    u[81]     primal_lower17  15
    u[81]     primal_lower18  639
    u[81]     primal_lower19  175
    u[81]     primal_lower20  518
    u[81]     primal_lower21  134
    u[81]     primal_lower22  28
    u[81]     primal_lower23  958
    u[81]     primal_lower24  672
    u[81]     primal_lower25  169
    u[81]     primal_lower26  348
    u[81]     primal_lower27  61
    u[81]     primal_lower28  938
    u[81]     primal_lower29  575
    u[81]     primal_lower30  798
    u[81]     primal_lower31  689
    u[81]     primal_lower32  69
    u[81]     primal_lower33  6
    u[81]     primal_lower34  131
    u[81]     primal_lower35  571
    u[81]     primal_lower36  84
    u[81]     primal_lower37  880
    u[81]     primal_lower38  326
    u[81]     primal_lower39  264
    u[81]     primal_lower40  924
    u[81]     primal_lower41  406
    u[81]     primal_lower42  939
    u[81]     primal_lower43  438
    u[81]     primal_lower44  875
    u[81]     primal_lower45  452
    u[81]     primal_lower46  256
    u[81]     primal_lower47  871
    u[81]     primal_lower48  494
    u[81]     primal_lower49  734
    u[81]     primal_lower50  931
    u[81]     primal_lower51  855
    u[81]     primal_lower52  907
    u[81]     primal_lower53  390
    u[81]     primal_lower54  269
    u[81]     primal_lower55  655
    u[81]     primal_lower56  280
    u[81]     primal_lower57  200
    u[81]     primal_lower58  308
    u[81]     primal_lower59  168
    u[81]     primal_lower60  560
    u[81]     primal_lower61  219
    u[81]     primal_lower62  282
    u[81]     primal_lower63  304
    u[81]     primal_lower64  677
    u[81]     primal_lower65  734
    u[81]     primal_lower66  256
    u[81]     primal_lower67  811
    u[81]     primal_lower68  886
    u[81]     primal_lower69  721
    u[81]     primal_lower70  745
    u[81]     primal_lower71  737
    u[81]     primal_lower72  390
    u[81]     primal_lower73  126
    u[81]     primal_lower74  640
    u[81]     primal_lower75  240
    u[81]     primal_lower76  43
    u[81]     primal_lower77  105
    u[81]     primal_lower78  174
    u[81]     primal_lower79  235
    u[81]     primal_lower80  637
    u[81]     primal_lower81  606
    u[81]     primal_lower82  402
    u[81]     primal_lower83  250
    u[81]     primal_lower84  171
    u[81]     primal_lower85  981
    u[81]     primal_lower86  654
    u[81]     primal_lower87  476
    u[81]     primal_lower88  784
    u[81]     primal_lower89  16
    u[81]     primal_lower90  391
    u[81]     primal_lower91  358
    u[81]     primal_lower92  406
    u[81]     primal_lower93  506
    u[81]     primal_lower94  711
    u[81]     primal_lower95  314
    u[81]     primal_lower96  121
    u[81]     primal_lower97  721
    u[81]     primal_lower98  187
    u[81]     primal_lower99  244
    u[81]     interdiction[81]  1
    u[81]     mccormick1[81]  -1
    u[81]     mccormick3[81]  1
    u[82]     primal_lower0  264
    u[82]     primal_lower1  223
    u[82]     primal_lower2  308
    u[82]     primal_lower3  860
    u[82]     primal_lower4  858
    u[82]     primal_lower5  988
    u[82]     primal_lower6  975
    u[82]     primal_lower7  360
    u[82]     primal_lower8  619
    u[82]     primal_lower9  566
    u[82]     primal_lower10  80
    u[82]     primal_lower11  329
    u[82]     primal_lower12  988
    u[82]     primal_lower13  664
    u[82]     primal_lower14  456
    u[82]     primal_lower15  403
    u[82]     primal_lower16  281
    u[82]     primal_lower17  532
    u[82]     primal_lower18  808
    u[82]     primal_lower19  60
    u[82]     primal_lower20  979
    u[82]     primal_lower21  799
    u[82]     primal_lower22  133
    u[82]     primal_lower23  671
    u[82]     primal_lower24  273
    u[82]     primal_lower25  870
    u[82]     primal_lower26  993
    u[82]     primal_lower27  866
    u[82]     primal_lower28  595
    u[82]     primal_lower29  212
    u[82]     primal_lower30  259
    u[82]     primal_lower31  974
    u[82]     primal_lower32  230
    u[82]     primal_lower33  683
    u[82]     primal_lower34  256
    u[82]     primal_lower35  68
    u[82]     primal_lower36  601
    u[82]     primal_lower37  953
    u[82]     primal_lower38  599
    u[82]     primal_lower39  941
    u[82]     primal_lower40  537
    u[82]     primal_lower41  635
    u[82]     primal_lower42  660
    u[82]     primal_lower43  423
    u[82]     primal_lower44  684
    u[82]     primal_lower45  365
    u[82]     primal_lower46  285
    u[82]     primal_lower47  444
    u[82]     primal_lower48  983
    u[82]     primal_lower49  855
    u[82]     primal_lower50  420
    u[82]     primal_lower51  636
    u[82]     primal_lower52  56
    u[82]     primal_lower53  655
    u[82]     primal_lower54  902
    u[82]     primal_lower55  276
    u[82]     primal_lower56  493
    u[82]     primal_lower57  209
    u[82]     primal_lower58  657
    u[82]     primal_lower59  785
    u[82]     primal_lower60  29
    u[82]     primal_lower61  864
    u[82]     primal_lower62  435
    u[82]     primal_lower63  785
    u[82]     primal_lower64  566
    u[82]     primal_lower65  327
    u[82]     primal_lower66  57
    u[82]     primal_lower67  700
    u[82]     primal_lower68  471
    u[82]     primal_lower69  266
    u[82]     primal_lower70  670
    u[82]     primal_lower71  638
    u[82]     primal_lower72  523
    u[82]     primal_lower73  347
    u[82]     primal_lower74  697
    u[82]     primal_lower75  545
    u[82]     primal_lower76  828
    u[82]     primal_lower77  646
    u[82]     primal_lower78  747
    u[82]     primal_lower79  948
    u[82]     primal_lower80  322
    u[82]     primal_lower81  283
    u[82]     primal_lower82  643
    u[82]     primal_lower83  207
    u[82]     primal_lower84  176
    u[82]     primal_lower85  446
    u[82]     primal_lower86  959
    u[82]     primal_lower87  669
    u[82]     primal_lower88  161
    u[82]     primal_lower89  857
    u[82]     primal_lower90  964
    u[82]     primal_lower91  339
    u[82]     primal_lower92  843
    u[82]     primal_lower93  279
    u[82]     primal_lower94  540
    u[82]     primal_lower95  559
    u[82]     primal_lower96  942
    u[82]     primal_lower97  658
    u[82]     primal_lower98  12
    u[82]     primal_lower99  893
    u[82]     interdiction[82]  1
    u[82]     mccormick1[82]  -1
    u[82]     mccormick3[82]  1
    u[83]     primal_lower0  191
    u[83]     primal_lower1  594
    u[83]     primal_lower2  307
    u[83]     primal_lower3  239
    u[83]     primal_lower4  597
    u[83]     primal_lower5  211
    u[83]     primal_lower6  434
    u[83]     primal_lower7  787
    u[83]     primal_lower8  142
    u[83]     primal_lower9  773
    u[83]     primal_lower10  23
    u[83]     primal_lower11  864
    u[83]     primal_lower12  499
    u[83]     primal_lower13  755
    u[83]     primal_lower14  195
    u[83]     primal_lower15  174
    u[83]     primal_lower16  320
    u[83]     primal_lower17  651
    u[83]     primal_lower18  931
    u[83]     primal_lower19  539
    u[83]     primal_lower20  282
    u[83]     primal_lower21  786
    u[83]     primal_lower22  104
    u[83]     primal_lower23  394
    u[83]     primal_lower24  332
    u[83]     primal_lower25  125
    u[83]     primal_lower26  1000
    u[83]     primal_lower27  617
    u[83]     primal_lower28  438
    u[83]     primal_lower29  611
    u[83]     primal_lower30  394
    u[83]     primal_lower31  173
    u[83]     primal_lower32  809
    u[83]     primal_lower33  762
    u[83]     primal_lower34  447
    u[83]     primal_lower35  743
    u[83]     primal_lower36  744
    u[83]     primal_lower37  20
    u[83]     primal_lower38  266
    u[83]     primal_lower39  12
    u[83]     primal_lower40  240
    u[83]     primal_lower41  418
    u[83]     primal_lower42  767
    u[83]     primal_lower43  338
    u[83]     primal_lower44  927
    u[83]     primal_lower45  376
    u[83]     primal_lower46  324
    u[83]     primal_lower47  707
    u[83]     primal_lower48  842
    u[83]     primal_lower49  130
    u[83]     primal_lower50  879
    u[83]     primal_lower51  923
    u[83]     primal_lower52  543
    u[83]     primal_lower53  394
    u[83]     primal_lower54  553
    u[83]     primal_lower55  219
    u[83]     primal_lower56  668
    u[83]     primal_lower57  604
    u[83]     primal_lower58  448
    u[83]     primal_lower59  756
    u[83]     primal_lower60  604
    u[83]     primal_lower61  71
    u[83]     primal_lower62  502
    u[83]     primal_lower63  68
    u[83]     primal_lower64  393
    u[83]     primal_lower65  426
    u[83]     primal_lower66  372
    u[83]     primal_lower67  679
    u[83]     primal_lower68  226
    u[83]     primal_lower69  773
    u[83]     primal_lower70  685
    u[83]     primal_lower71  213
    u[83]     primal_lower72  370
    u[83]     primal_lower73  890
    u[83]     primal_lower74  228
    u[83]     primal_lower75  156
    u[83]     primal_lower76  151
    u[83]     primal_lower77  373
    u[83]     primal_lower78  298
    u[83]     primal_lower79  967
    u[83]     primal_lower80  113
    u[83]     primal_lower81  778
    u[83]     primal_lower82  806
    u[83]     primal_lower83  726
    u[83]     primal_lower84  919
    u[83]     primal_lower85  961
    u[83]     primal_lower86  554
    u[83]     primal_lower87  64
    u[83]     primal_lower88  812
    u[83]     primal_lower89  988
    u[83]     primal_lower90  147
    u[83]     primal_lower91  770
    u[83]     primal_lower92  890
    u[83]     primal_lower93  806
    u[83]     primal_lower94  875
    u[83]     primal_lower95  206
    u[83]     primal_lower96  205
    u[83]     primal_lower97  189
    u[83]     primal_lower98  855
    u[83]     primal_lower99  512
    u[83]     interdiction[83]  1
    u[83]     mccormick1[83]  -1
    u[83]     mccormick3[83]  1
    u[84]     primal_lower0  43
    u[84]     primal_lower1  202
    u[84]     primal_lower2  351
    u[84]     primal_lower3  47
    u[84]     primal_lower4  549
    u[84]     primal_lower5  39
    u[84]     primal_lower6  298
    u[84]     primal_lower7  931
    u[84]     primal_lower8  382
    u[84]     primal_lower9  825
    u[84]     primal_lower10  667
    u[84]     primal_lower11  92
    u[84]     primal_lower12  831
    u[84]     primal_lower13  635
    u[84]     primal_lower14  627
    u[84]     primal_lower15  222
    u[84]     primal_lower16  532
    u[84]     primal_lower17  527
    u[84]     primal_lower18  379
    u[84]     primal_lower19  943
    u[84]     primal_lower20  654
    u[84]     primal_lower21  442
    u[84]     primal_lower22  112
    u[84]     primal_lower23  674
    u[84]     primal_lower24  148
    u[84]     primal_lower25  65
    u[84]     primal_lower26  180
    u[84]     primal_lower27  829
    u[84]     primal_lower28  214
    u[84]     primal_lower29  399
    u[84]     primal_lower30  22
    u[84]     primal_lower31  17
    u[84]     primal_lower32  825
    u[84]     primal_lower33  550
    u[84]     primal_lower34  795
    u[84]     primal_lower35  871
    u[84]     primal_lower36  220
    u[84]     primal_lower37  796
    u[84]     primal_lower38  922
    u[84]     primal_lower39  176
    u[84]     primal_lower40  956
    u[84]     primal_lower41  598
    u[84]     primal_lower42  287
    u[84]     primal_lower43  666
    u[84]     primal_lower44  743
    u[84]     primal_lower45  680
    u[84]     primal_lower46  152
    u[84]     primal_lower47  487
    u[84]     primal_lower48  18
    u[84]     primal_lower49  434
    u[84]     primal_lower50  751
    u[84]     primal_lower51  207
    u[84]     primal_lower52  203
    u[84]     primal_lower53  682
    u[84]     primal_lower54  25
    u[84]     primal_lower55  311
    u[84]     primal_lower56  336
    u[84]     primal_lower57  476
    u[84]     primal_lower58  564
    u[84]     primal_lower59  836
    u[84]     primal_lower60  656
    u[84]     primal_lower61  587
    u[84]     primal_lower62  558
    u[84]     primal_lower63  916
    u[84]     primal_lower64  337
    u[84]     primal_lower65  162
    u[84]     primal_lower66  188
    u[84]     primal_lower67  263
    u[84]     primal_lower68  986
    u[84]     primal_lower69  549
    u[84]     primal_lower70  961
    u[84]     primal_lower71  65
    u[84]     primal_lower72  262
    u[84]     primal_lower73  438
    u[84]     primal_lower74  740
    u[84]     primal_lower75  92
    u[84]     primal_lower76  7
    u[84]     primal_lower77  529
    u[84]     primal_lower78  686
    u[84]     primal_lower79  559
    u[84]     primal_lower80  957
    u[84]     primal_lower81  910
    u[84]     primal_lower82  646
    u[84]     primal_lower83  978
    u[84]     primal_lower84  843
    u[84]     primal_lower85  321
    u[84]     primal_lower86  386
    u[84]     primal_lower87  448
    u[84]     primal_lower88  900
    u[84]     primal_lower89  292
    u[84]     primal_lower90  839
    u[84]     primal_lower91  534
    u[84]     primal_lower92  718
    u[84]     primal_lower93  186
    u[84]     primal_lower94  591
    u[84]     primal_lower95  26
    u[84]     primal_lower96  737
    u[84]     primal_lower97  149
    u[84]     primal_lower98  191
    u[84]     primal_lower99  760
    u[84]     interdiction[84]  1
    u[84]     mccormick1[84]  -1
    u[84]     mccormick3[84]  1
    u[85]     primal_lower0  407
    u[85]     primal_lower1  330
    u[85]     primal_lower2  331
    u[85]     primal_lower3  991
    u[85]     primal_lower4  533
    u[85]     primal_lower5  307
    u[85]     primal_lower6  914
    u[85]     primal_lower7  307
    u[85]     primal_lower8  278
    u[85]     primal_lower9  261
    u[85]     primal_lower10  383
    u[85]     primal_lower11  928
    u[85]     primal_lower12  275
    u[85]     primal_lower13  347
    u[85]     primal_lower14  491
    u[85]     primal_lower15  878
    u[85]     primal_lower16  904
    u[85]     primal_lower17  731
    u[85]     primal_lower18  11
    u[85]     primal_lower19  795
    u[85]     primal_lower20  530
    u[85]     primal_lower21  666
    u[85]     primal_lower22  552
    u[85]     primal_lower23  546
    u[85]     primal_lower24  300
    u[85]     primal_lower25  733
    u[85]     primal_lower26  120
    u[85]     primal_lower27  761
    u[85]     primal_lower28  494
    u[85]     primal_lower29  419
    u[85]     primal_lower30  490
    u[85]     primal_lower31  317
    u[85]     primal_lower32  273
    u[85]     primal_lower33  130
    u[85]     primal_lower34  671
    u[85]     primal_lower35  327
    u[85]     primal_lower36  816
    u[85]     primal_lower37  972
    u[85]     primal_lower38  890
    u[85]     primal_lower39  564
    u[85]     primal_lower40  912
    u[85]     primal_lower41  642
    u[85]     primal_lower42  527
    u[85]     primal_lower43  234
    u[85]     primal_lower44  831
    u[85]     primal_lower45  560
    u[85]     primal_lower46  580
    u[85]     primal_lower47  875
    u[85]     primal_lower48  538
    u[85]     primal_lower49  946
    u[85]     primal_lower50  15
    u[85]     primal_lower51  107
    u[85]     primal_lower52  415
    u[85]     primal_lower53  674
    u[85]     primal_lower54  649
    u[85]     primal_lower55  227
    u[85]     primal_lower56  300
    u[85]     primal_lower57  892
    u[85]     primal_lower58  344
    u[85]     primal_lower59  212
    u[85]     primal_lower60  372
    u[85]     primal_lower61  839
    u[85]     primal_lower62  342
    u[85]     primal_lower63  76
    u[85]     primal_lower64  673
    u[85]     primal_lower65  754
    u[85]     primal_lower66  460
    u[85]     primal_lower67  951
    u[85]     primal_lower68  578
    u[85]     primal_lower69  869
    u[85]     primal_lower70  365
    u[85]     primal_lower71  949
    u[85]     primal_lower72  834
    u[85]     primal_lower73  762
    u[85]     primal_lower74  292
    u[85]     primal_lower75  476
    u[85]     primal_lower76  79
    u[85]     primal_lower77  573
    u[85]     primal_lower78  298
    u[85]     primal_lower79  447
    u[85]     primal_lower80  65
    u[85]     primal_lower81  850
    u[85]     primal_lower82  878
    u[85]     primal_lower83  94
    u[85]     primal_lower84  831
    u[85]     primal_lower85  545
    u[85]     primal_lower86  714
    u[85]     primal_lower87  952
    u[85]     primal_lower88  820
    u[85]     primal_lower89  972
    u[85]     primal_lower90  539
    u[85]     primal_lower91  82
    u[85]     primal_lower92  354
    u[85]     primal_lower93  606
    u[85]     primal_lower94  603
    u[85]     primal_lower95  270
    u[85]     primal_lower96  5
    u[85]     primal_lower97  981
    u[85]     primal_lower98  927
    u[85]     primal_lower99  376
    u[85]     interdiction[85]  1
    u[85]     mccormick1[85]  -1
    u[85]     mccormick3[85]  1
    u[86]     primal_lower0  173
    u[86]     primal_lower1  12
    u[86]     primal_lower2  17
    u[86]     primal_lower3  145
    u[86]     primal_lower4  727
    u[86]     primal_lower5  601
    u[86]     primal_lower6  780
    u[86]     primal_lower7  821
    u[86]     primal_lower8  976
    u[86]     primal_lower9  299
    u[86]     primal_lower10  957
    u[86]     primal_lower11  990
    u[86]     primal_lower12  665
    u[86]     primal_lower13  541
    u[86]     primal_lower14  445
    u[86]     primal_lower15  160
    u[86]     primal_lower16  598
    u[86]     primal_lower17  641
    u[86]     primal_lower18  901
    u[86]     primal_lower19  73
    u[86]     primal_lower20  448
    u[86]     primal_lower21  668
    u[86]     primal_lower22  618
    u[86]     primal_lower23  836
    u[86]     primal_lower24  910
    u[86]     primal_lower25  299
    u[86]     primal_lower26  598
    u[86]     primal_lower27  703
    u[86]     primal_lower28  752
    u[86]     primal_lower29  417
    u[86]     primal_lower30  688
    u[86]     primal_lower31  907
    u[86]     primal_lower32  435
    u[86]     primal_lower33  800
    u[86]     primal_lower34  877
    u[86]     primal_lower35  857
    u[86]     primal_lower36  238
    u[86]     primal_lower37  366
    u[86]     primal_lower38  372
    u[86]     primal_lower39  762
    u[86]     primal_lower40  246
    u[86]     primal_lower41  984
    u[86]     primal_lower42  121
    u[86]     primal_lower43  828
    u[86]     primal_lower44  369
    u[86]     primal_lower45  186
    u[86]     primal_lower46  946
    u[86]     primal_lower47  689
    u[86]     primal_lower48  68
    u[86]     primal_lower49  740
    u[86]     primal_lower50  281
    u[86]     primal_lower51  57
    u[86]     primal_lower52  213
    u[86]     primal_lower53  316
    u[86]     primal_lower54  963
    u[86]     primal_lower55  825
    u[86]     primal_lower56  50
    u[86]     primal_lower57  678
    u[86]     primal_lower58  310
    u[86]     primal_lower59  742
    u[86]     primal_lower60  826
    u[86]     primal_lower61  261
    u[86]     primal_lower62  904
    u[86]     primal_lower63  518
    u[86]     primal_lower64  203
    u[86]     primal_lower65  956
    u[86]     primal_lower66  726
    u[86]     primal_lower67  225
    u[86]     primal_lower68  148
    u[86]     primal_lower69  231
    u[86]     primal_lower70  99
    u[86]     primal_lower71  867
    u[86]     primal_lower72  840
    u[86]     primal_lower73  776
    u[86]     primal_lower74  310
    u[86]     primal_lower75  966
    u[86]     primal_lower76  761
    u[86]     primal_lower77  595
    u[86]     primal_lower78  752
    u[86]     primal_lower79  345
    u[86]     primal_lower80  31
    u[86]     primal_lower81  504
    u[86]     primal_lower82  88
    u[86]     primal_lower83  116
    u[86]     primal_lower84  325
    u[86]     primal_lower85  899
    u[86]     primal_lower86  36
    u[86]     primal_lower87  194
    u[86]     primal_lower88  190
    u[86]     primal_lower89  238
    u[86]     primal_lower90  329
    u[86]     primal_lower91  880
    u[86]     primal_lower92  216
    u[86]     primal_lower93  636
    u[86]     primal_lower94  521
    u[86]     primal_lower95  988
    u[86]     primal_lower96  539
    u[86]     primal_lower97  199
    u[86]     primal_lower98  945
    u[86]     primal_lower99  282
    u[86]     interdiction[86]  1
    u[86]     mccormick1[86]  -1
    u[86]     mccormick3[86]  1
    u[87]     primal_lower0  201
    u[87]     primal_lower1  213
    u[87]     primal_lower2  733
    u[87]     primal_lower3  738
    u[87]     primal_lower4  560
    u[87]     primal_lower5  789
    u[87]     primal_lower6  389
    u[87]     primal_lower7  302
    u[87]     primal_lower8  577
    u[87]     primal_lower9  335
    u[87]     primal_lower10  849
    u[87]     primal_lower11  354
    u[87]     primal_lower12  237
    u[87]     primal_lower13  190
    u[87]     primal_lower14  438
    u[87]     primal_lower15  921
    u[87]     primal_lower16  506
    u[87]     primal_lower17  21
    u[87]     primal_lower18  926
    u[87]     primal_lower19  661
    u[87]     primal_lower20  324
    u[87]     primal_lower21  437
    u[87]     primal_lower22  483
    u[87]     primal_lower23  237
    u[87]     primal_lower24  543
    u[87]     primal_lower25  687
    u[87]     primal_lower26  306
    u[87]     primal_lower27  195
    u[87]     primal_lower28  537
    u[87]     primal_lower29  421
    u[87]     primal_lower30  572
    u[87]     primal_lower31  687
    u[87]     primal_lower32  156
    u[87]     primal_lower33  764
    u[87]     primal_lower34  617
    u[87]     primal_lower35  338
    u[87]     primal_lower36  490
    u[87]     primal_lower37  927
    u[87]     primal_lower38  37
    u[87]     primal_lower39  502
    u[87]     primal_lower40  106
    u[87]     primal_lower41  108
    u[87]     primal_lower42  282
    u[87]     primal_lower43  909
    u[87]     primal_lower44  178
    u[87]     primal_lower45  547
    u[87]     primal_lower46  606
    u[87]     primal_lower47  293
    u[87]     primal_lower48  693
    u[87]     primal_lower49  213
    u[87]     primal_lower50  642
    u[87]     primal_lower51  997
    u[87]     primal_lower52  481
    u[87]     primal_lower53  949
    u[87]     primal_lower54  684
    u[87]     primal_lower55  61
    u[87]     primal_lower56  606
    u[87]     primal_lower57  327
    u[87]     primal_lower58  106
    u[87]     primal_lower59  527
    u[87]     primal_lower60  358
    u[87]     primal_lower61  193
    u[87]     primal_lower62  617
    u[87]     primal_lower63  455
    u[87]     primal_lower64  28
    u[87]     primal_lower65  573
    u[87]     primal_lower66  967
    u[87]     primal_lower67  282
    u[87]     primal_lower68  437
    u[87]     primal_lower69  1000
    u[87]     primal_lower70  679
    u[87]     primal_lower71  575
    u[87]     primal_lower72  524
    u[87]     primal_lower73  444
    u[87]     primal_lower74  95
    u[87]     primal_lower75  335
    u[87]     primal_lower76  258
    u[87]     primal_lower77  183
    u[87]     primal_lower78  708
    u[87]     primal_lower79  554
    u[87]     primal_lower80  539
    u[87]     primal_lower81  604
    u[87]     primal_lower82  673
    u[87]     primal_lower83  808
    u[87]     primal_lower84  353
    u[87]     primal_lower85  4
    u[87]     primal_lower86  837
    u[87]     primal_lower87  987
    u[87]     primal_lower88  623
    u[87]     primal_lower89  415
    u[87]     primal_lower90  69
    u[87]     primal_lower91  508
    u[87]     primal_lower92  844
    u[87]     primal_lower93  176
    u[87]     primal_lower94  165
    u[87]     primal_lower95  712
    u[87]     primal_lower96  783
    u[87]     primal_lower97  416
    u[87]     primal_lower98  530
    u[87]     primal_lower99  563
    u[87]     interdiction[87]  1
    u[87]     mccormick1[87]  -1
    u[87]     mccormick3[87]  1
    u[88]     primal_lower0  871
    u[88]     primal_lower1  695
    u[88]     primal_lower2  827
    u[88]     primal_lower3  76
    u[88]     primal_lower4  290
    u[88]     primal_lower5  99
    u[88]     primal_lower6  439
    u[88]     primal_lower7  56
    u[88]     primal_lower8  491
    u[88]     primal_lower9  773
    u[88]     primal_lower10  583
    u[88]     primal_lower11  976
    u[88]     primal_lower12  235
    u[88]     primal_lower13  640
    u[88]     primal_lower14  808
    u[88]     primal_lower15  19
    u[88]     primal_lower16  824
    u[88]     primal_lower17  803
    u[88]     primal_lower18  224
    u[88]     primal_lower19  99
    u[88]     primal_lower20  898
    u[88]     primal_lower21  991
    u[88]     primal_lower22  981
    u[88]     primal_lower23  551
    u[88]     primal_lower24  793
    u[88]     primal_lower25  93
    u[88]     primal_lower26  984
    u[88]     primal_lower27  553
    u[88]     primal_lower28  795
    u[88]     primal_lower29  867
    u[88]     primal_lower30  858
    u[88]     primal_lower31  453
    u[88]     primal_lower32  70
    u[88]     primal_lower33  850
    u[88]     primal_lower34  623
    u[88]     primal_lower35  308
    u[88]     primal_lower36  432
    u[88]     primal_lower37  217
    u[88]     primal_lower38  151
    u[88]     primal_lower39  948
    u[88]     primal_lower40  576
    u[88]     primal_lower41  562
    u[88]     primal_lower42  972
    u[88]     primal_lower43  687
    u[88]     primal_lower44  692
    u[88]     primal_lower45  821
    u[88]     primal_lower46  932
    u[88]     primal_lower47  475
    u[88]     primal_lower48  367
    u[88]     primal_lower49  375
    u[88]     primal_lower50  700
    u[88]     primal_lower51  331
    u[88]     primal_lower52  311
    u[88]     primal_lower53  495
    u[88]     primal_lower54  934
    u[88]     primal_lower55  243
    u[88]     primal_lower56  660
    u[88]     primal_lower57  713
    u[88]     primal_lower58  240
    u[88]     primal_lower59  401
    u[88]     primal_lower60  36
    u[88]     primal_lower61  359
    u[88]     primal_lower62  267
    u[88]     primal_lower63  97
    u[88]     primal_lower64  46
    u[88]     primal_lower65  695
    u[88]     primal_lower66  633
    u[88]     primal_lower67  708
    u[88]     primal_lower68  23
    u[88]     primal_lower69  490
    u[88]     primal_lower70  925
    u[88]     primal_lower71  613
    u[88]     primal_lower72  562
    u[88]     primal_lower73  546
    u[88]     primal_lower74  33
    u[88]     primal_lower75  457
    u[88]     primal_lower76  492
    u[88]     primal_lower77  277
    u[88]     primal_lower78  386
    u[88]     primal_lower79  308
    u[88]     primal_lower80  937
    u[88]     primal_lower81  738
    u[88]     primal_lower82  643
    u[88]     primal_lower83  646
    u[88]     primal_lower84  599
    u[88]     primal_lower85  966
    u[88]     primal_lower86  79
    u[88]     primal_lower87  653
    u[88]     primal_lower88  593
    u[88]     primal_lower89  1
    u[88]     primal_lower90  779
    u[88]     primal_lower91  690
    u[88]     primal_lower92  562
    u[88]     primal_lower93  54
    u[88]     primal_lower94  123
    u[88]     primal_lower95  158
    u[88]     primal_lower96  573
    u[88]     primal_lower97  546
    u[88]     primal_lower98  884
    u[88]     primal_lower99  157
    u[88]     interdiction[88]  1
    u[88]     mccormick1[88]  -1
    u[88]     mccormick3[88]  1
    u[89]     primal_lower0  352
    u[89]     primal_lower1  132
    u[89]     primal_lower2  964
    u[89]     primal_lower3  73
    u[89]     primal_lower4  7
    u[89]     primal_lower5  188
    u[89]     primal_lower6  964
    u[89]     primal_lower7  21
    u[89]     primal_lower8  840
    u[89]     primal_lower9  998
    u[89]     primal_lower10  280
    u[89]     primal_lower11  897
    u[89]     primal_lower12  84
    u[89]     primal_lower13  293
    u[89]     primal_lower14  397
    u[89]     primal_lower15  672
    u[89]     primal_lower16  489
    u[89]     primal_lower17  484
    u[89]     primal_lower18  445
    u[89]     primal_lower19  980
    u[89]     primal_lower20  459
    u[89]     primal_lower21  116
    u[89]     primal_lower22  842
    u[89]     primal_lower23  588
    u[89]     primal_lower24  78
    u[89]     primal_lower25  166
    u[89]     primal_lower26  913
    u[89]     primal_lower27  682
    u[89]     primal_lower28  952
    u[89]     primal_lower29  588
    u[89]     primal_lower30  875
    u[89]     primal_lower31  382
    u[89]     primal_lower32  411
    u[89]     primal_lower33  115
    u[89]     primal_lower34  864
    u[89]     primal_lower35  897
    u[89]     primal_lower36  177
    u[89]     primal_lower37  702
    u[89]     primal_lower38  892
    u[89]     primal_lower39  549
    u[89]     primal_lower40  457
    u[89]     primal_lower41  163
    u[89]     primal_lower42  721
    u[89]     primal_lower43  708
    u[89]     primal_lower44  801
    u[89]     primal_lower45  186
    u[89]     primal_lower46  373
    u[89]     primal_lower47  260
    u[89]     primal_lower48  772
    u[89]     primal_lower49  892
    u[89]     primal_lower50  345
    u[89]     primal_lower51  860
    u[89]     primal_lower52  848
    u[89]     primal_lower53  260
    u[89]     primal_lower54  987
    u[89]     primal_lower55  60
    u[89]     primal_lower56  565
    u[89]     primal_lower57  94
    u[89]     primal_lower58  529
    u[89]     primal_lower59  766
    u[89]     primal_lower60  53
    u[89]     primal_lower61  616
    u[89]     primal_lower62  344
    u[89]     primal_lower63  470
    u[89]     primal_lower64  251
    u[89]     primal_lower65  540
    u[89]     primal_lower66  854
    u[89]     primal_lower67  697
    u[89]     primal_lower68  996
    u[89]     primal_lower69  831
    u[89]     primal_lower70  94
    u[89]     primal_lower71  294
    u[89]     primal_lower72  35
    u[89]     primal_lower73  379
    u[89]     primal_lower74  86
    u[89]     primal_lower75  478
    u[89]     primal_lower76  169
    u[89]     primal_lower77  46
    u[89]     primal_lower78  203
    u[89]     primal_lower79  593
    u[89]     primal_lower80  754
    u[89]     primal_lower81  307
    u[89]     primal_lower82  520
    u[89]     primal_lower83  775
    u[89]     primal_lower84  112
    u[89]     primal_lower85  723
    u[89]     primal_lower86  340
    u[89]     primal_lower87  34
    u[89]     primal_lower88  614
    u[89]     primal_lower89  750
    u[89]     primal_lower90  108
    u[89]     primal_lower91  555
    u[89]     primal_lower92  723
    u[89]     primal_lower93  687
    u[89]     primal_lower94  764
    u[89]     primal_lower95  191
    u[89]     primal_lower96  990
    u[89]     primal_lower97  199
    u[89]     primal_lower98  401
    u[89]     primal_lower99  114
    u[89]     interdiction[89]  1
    u[89]     mccormick1[89]  -1
    u[89]     mccormick3[89]  1
    u[90]     primal_lower0  242
    u[90]     primal_lower1  985
    u[90]     primal_lower2  854
    u[90]     primal_lower3  150
    u[90]     primal_lower4  340
    u[90]     primal_lower5  630
    u[90]     primal_lower6  233
    u[90]     primal_lower7  250
    u[90]     primal_lower8  821
    u[90]     primal_lower9  768
    u[90]     primal_lower10  450
    u[90]     primal_lower11  947
    u[90]     primal_lower12  86
    u[90]     primal_lower13  10
    u[90]     primal_lower14  354
    u[90]     primal_lower15  733
    u[90]     primal_lower16  443
    u[90]     primal_lower17  494
    u[90]     primal_lower18  346
    u[90]     primal_lower19  430
    u[90]     primal_lower20  101
    u[90]     primal_lower21  609
    u[90]     primal_lower22  15
    u[90]     primal_lower23  257
    u[90]     primal_lower24  571
    u[90]     primal_lower25  872
    u[90]     primal_lower26  843
    u[90]     primal_lower27  60
    u[90]     primal_lower28  637
    u[90]     primal_lower29  638
    u[90]     primal_lower30  853
    u[90]     primal_lower31  584
    u[90]     primal_lower32  144
    u[90]     primal_lower33  485
    u[90]     primal_lower34  970
    u[90]     primal_lower35  438
    u[90]     primal_lower36  955
    u[90]     primal_lower37  171
    u[90]     primal_lower38  441
    u[90]     primal_lower39  31
    u[90]     primal_lower40  467
    u[90]     primal_lower41  309
    u[90]     primal_lower42  710
    u[90]     primal_lower43  569
    u[90]     primal_lower44  710
    u[90]     primal_lower45  255
    u[90]     primal_lower46  935
    u[90]     primal_lower47  414
    u[90]     primal_lower48  633
    u[90]     primal_lower49  945
    u[90]     primal_lower50  190
    u[90]     primal_lower51  558
    u[90]     primal_lower52  922
    u[90]     primal_lower53  601
    u[90]     primal_lower54  456
    u[90]     primal_lower55  254
    u[90]     primal_lower56  919
    u[90]     primal_lower57  203
    u[90]     primal_lower58  835
    u[90]     primal_lower59  83
    u[90]     primal_lower60  271
    u[90]     primal_lower61  362
    u[90]     primal_lower62  405
    u[90]     primal_lower63  59
    u[90]     primal_lower64  1000
    u[90]     primal_lower65  145
    u[90]     primal_lower66  499
    u[90]     primal_lower67  590
    u[90]     primal_lower68  585
    u[90]     primal_lower69  588
    u[90]     primal_lower70  656
    u[90]     primal_lower71  680
    u[90]     primal_lower72  93
    u[90]     primal_lower73  173
    u[90]     primal_lower74  419
    u[90]     primal_lower75  19
    u[90]     primal_lower76  550
    u[90]     primal_lower77  24
    u[90]     primal_lower78  317
    u[90]     primal_lower79  334
    u[90]     primal_lower80  620
    u[90]     primal_lower81  237
    u[90]     primal_lower82  141
    u[90]     primal_lower83  193
    u[90]     primal_lower84  994
    u[90]     primal_lower85  752
    u[90]     primal_lower86  361
    u[90]     primal_lower87  423
    u[90]     primal_lower88  75
    u[90]     primal_lower89  963
    u[90]     primal_lower90  742
    u[90]     primal_lower91  541
    u[90]     primal_lower92  749
    u[90]     primal_lower93  593
    u[90]     primal_lower94  534
    u[90]     primal_lower95  577
    u[90]     primal_lower96  928
    u[90]     primal_lower97  972
    u[90]     primal_lower98  230
    u[90]     primal_lower99  159
    u[90]     interdiction[90]  1
    u[90]     mccormick1[90]  -1
    u[90]     mccormick3[90]  1
    u[91]     primal_lower0  426
    u[91]     primal_lower1  997
    u[91]     primal_lower2  238
    u[91]     primal_lower3  778
    u[91]     primal_lower4  216
    u[91]     primal_lower5  782
    u[91]     primal_lower6  533
    u[91]     primal_lower7  174
    u[91]     primal_lower8  689
    u[91]     primal_lower9  856
    u[91]     primal_lower10  442
    u[91]     primal_lower11  443
    u[91]     primal_lower12  366
    u[91]     primal_lower13  518
    u[91]     primal_lower14  718
    u[91]     primal_lower15  81
    u[91]     primal_lower16  691
    u[91]     primal_lower17  142
    u[91]     primal_lower18  614
    u[91]     primal_lower19  334
    u[91]     primal_lower20  437
    u[91]     primal_lower21  285
    u[91]     primal_lower22  603
    u[91]     primal_lower23  293
    u[91]     primal_lower24  527
    u[91]     primal_lower25  336
    u[91]     primal_lower26  11
    u[91]     primal_lower27  228
    u[91]     primal_lower28  57
    u[91]     primal_lower29  246
    u[91]     primal_lower30  197
    u[91]     primal_lower31  968
    u[91]     primal_lower32  940
    u[91]     primal_lower33  317
    u[91]     primal_lower34  858
    u[91]     primal_lower35  18
    u[91]     primal_lower36  771
    u[91]     primal_lower37  367
    u[91]     primal_lower38  357
    u[91]     primal_lower39  39
    u[91]     primal_lower40  195
    u[91]     primal_lower41  701
    u[91]     primal_lower42  930
    u[91]     primal_lower43  805
    u[91]     primal_lower44  194
    u[91]     primal_lower45  123
    u[91]     primal_lower46  559
    u[91]     primal_lower47  862
    u[91]     primal_lower48  677
    u[91]     primal_lower49  357
    u[91]     primal_lower50  34
    u[91]     primal_lower51  862
    u[91]     primal_lower52  658
    u[91]     primal_lower53  533
    u[91]     primal_lower54  932
    u[91]     primal_lower55  358
    u[91]     primal_lower56  511
    u[91]     primal_lower57  207
    u[91]     primal_lower58  923
    u[91]     primal_lower59  607
    u[91]     primal_lower60  87
    u[91]     primal_lower61  114
    u[91]     primal_lower62  177
    u[91]     primal_lower63  711
    u[91]     primal_lower64  68
    u[91]     primal_lower65  21
    u[91]     primal_lower66  199
    u[91]     primal_lower67  890
    u[91]     primal_lower68  461
    u[91]     primal_lower69  440
    u[91]     primal_lower70  48
    u[91]     primal_lower71  136
    u[91]     primal_lower72  669
    u[91]     primal_lower73  797
    u[91]     primal_lower74  207
    u[91]     primal_lower75  295
    u[91]     primal_lower76  898
    u[91]     primal_lower77  640
    u[91]     primal_lower78  501
    u[91]     primal_lower79  506
    u[91]     primal_lower80  220
    u[91]     primal_lower81  445
    u[91]     primal_lower82  193
    u[91]     primal_lower83  521
    u[91]     primal_lower84  762
    u[91]     primal_lower85  404
    u[91]     primal_lower86  877
    u[91]     primal_lower87  27
    u[91]     primal_lower88  103
    u[91]     primal_lower89  711
    u[91]     primal_lower90  966
    u[91]     primal_lower91  285
    u[91]     primal_lower92  93
    u[91]     primal_lower93  425
    u[91]     primal_lower94  534
    u[91]     primal_lower95  681
    u[91]     primal_lower96  296
    u[91]     primal_lower97  968
    u[91]     primal_lower98  818
    u[91]     primal_lower99  571
    u[91]     interdiction[91]  1
    u[91]     mccormick1[91]  -1
    u[91]     mccormick3[91]  1
    u[92]     primal_lower0  394
    u[92]     primal_lower1  369
    u[92]     primal_lower2  558
    u[92]     primal_lower3  478
    u[92]     primal_lower4  284
    u[92]     primal_lower5  118
    u[92]     primal_lower6  529
    u[92]     primal_lower7  290
    u[92]     primal_lower8  781
    u[92]     primal_lower9  712
    u[92]     primal_lower10  146
    u[92]     primal_lower11  875
    u[92]     primal_lower12  278
    u[92]     primal_lower13  938
    u[92]     primal_lower14  386
    u[92]     primal_lower15  605
    u[92]     primal_lower16  499
    u[92]     primal_lower17  278
    u[92]     primal_lower18  74
    u[92]     primal_lower19  470
    u[92]     primal_lower20  837
    u[92]     primal_lower21  673
    u[92]     primal_lower22  383
    u[92]     primal_lower23  705
    u[92]     primal_lower24  443
    u[92]     primal_lower25  992
    u[92]     primal_lower26  499
    u[92]     primal_lower27  348
    u[92]     primal_lower28  429
    u[92]     primal_lower29  126
    u[92]     primal_lower30  685
    u[92]     primal_lower31  672
    u[92]     primal_lower32  456
    u[92]     primal_lower33  597
    u[92]     primal_lower34  650
    u[92]     primal_lower35  550
    u[92]     primal_lower36  627
    u[92]     primal_lower37  363
    u[92]     primal_lower38  89
    u[92]     primal_lower39  919
    u[92]     primal_lower40  795
    u[92]     primal_lower41  565
    u[92]     primal_lower42  270
    u[92]     primal_lower43  265
    u[92]     primal_lower44  966
    u[92]     primal_lower45  479
    u[92]     primal_lower46  879
    u[92]     primal_lower47  958
    u[92]     primal_lower48  889
    u[92]     primal_lower49  273
    u[92]     primal_lower50  446
    u[92]     primal_lower51  734
    u[92]     primal_lower52  610
    u[92]     primal_lower53  241
    u[92]     primal_lower54  632
    u[92]     primal_lower55  486
    u[92]     primal_lower56  943
    u[92]     primal_lower57  123
    u[92]     primal_lower58  907
    u[92]     primal_lower59  571
    u[92]     primal_lower60  599
    u[92]     primal_lower61  490
    u[92]     primal_lower62  877
    u[92]     primal_lower63  203
    u[92]     primal_lower64  864
    u[92]     primal_lower65  713
    u[92]     primal_lower66  459
    u[92]     primal_lower67  190
    u[92]     primal_lower68  129
    u[92]     primal_lower69  908
    u[92]     primal_lower70  488
    u[92]     primal_lower71  920
    u[92]     primal_lower72  685
    u[92]     primal_lower73  837
    u[92]     primal_lower74  563
    u[92]     primal_lower75  715
    u[92]     primal_lower76  214
    u[92]     primal_lower77  152
    u[92]     primal_lower78  93
    u[92]     primal_lower79  638
    u[92]     primal_lower80  516
    u[92]     primal_lower81  21
    u[92]     primal_lower82  125
    u[92]     primal_lower83  449
    u[92]     primal_lower84  730
    u[92]     primal_lower85  264
    u[92]     primal_lower86  889
    u[92]     primal_lower87  335
    u[92]     primal_lower88  115
    u[92]     primal_lower89  395
    u[92]     primal_lower90  758
    u[92]     primal_lower91  789
    u[92]     primal_lower92  821
    u[92]     primal_lower93  649
    u[92]     primal_lower94  334
    u[92]     primal_lower95  793
    u[92]     primal_lower96  560
    u[92]     primal_lower97  596
    u[92]     primal_lower98  638
    u[92]     primal_lower99  719
    u[92]     interdiction[92]  1
    u[92]     mccormick1[92]  -1
    u[92]     mccormick3[92]  1
    u[93]     primal_lower0  685
    u[93]     primal_lower1  496
    u[93]     primal_lower2  289
    u[93]     primal_lower3  5
    u[93]     primal_lower4  379
    u[93]     primal_lower5  529
    u[93]     primal_lower6  888
    u[93]     primal_lower7  353
    u[93]     primal_lower8  964
    u[93]     primal_lower9  659
    u[93]     primal_lower10  85
    u[93]     primal_lower11  94
    u[93]     primal_lower12  945
    u[93]     primal_lower13  265
    u[93]     primal_lower14  457
    u[93]     primal_lower15  732
    u[93]     primal_lower16  950
    u[93]     primal_lower17  497
    u[93]     primal_lower18  25
    u[93]     primal_lower19  65
    u[93]     primal_lower20  912
    u[93]     primal_lower21  440
    u[93]     primal_lower22  806
    u[93]     primal_lower23  80
    u[93]     primal_lower24  746
    u[93]     primal_lower25  19
    u[93]     primal_lower26  686
    u[93]     primal_lower27  759
    u[93]     primal_lower28  100
    u[93]     primal_lower29  601
    u[93]     primal_lower30  680
    u[93]     primal_lower31  355
    u[93]     primal_lower32  759
    u[93]     primal_lower33  64
    u[93]     primal_lower34  829
    u[93]     primal_lower35  949
    u[93]     primal_lower36  958
    u[93]     primal_lower37  186
    u[93]     primal_lower38  288
    u[93]     primal_lower39  634
    u[93]     primal_lower40  278
    u[93]     primal_lower41  408
    u[93]     primal_lower42  613
    u[93]     primal_lower43  632
    u[93]     primal_lower44  541
    u[93]     primal_lower45  302
    u[93]     primal_lower46  466
    u[93]     primal_lower47  41
    u[93]     primal_lower48  40
    u[93]     primal_lower49  112
    u[93]     primal_lower50  381
    u[93]     primal_lower51  481
    u[93]     primal_lower52  397
    u[93]     primal_lower53  160
    u[93]     primal_lower54  519
    u[93]     primal_lower55  73
    u[93]     primal_lower56  946
    u[93]     primal_lower57  530
    u[93]     primal_lower58  470
    u[93]     primal_lower59  754
    u[93]     primal_lower60  986
    u[93]     primal_lower61  717
    u[93]     primal_lower62  156
    u[93]     primal_lower63  666
    u[93]     primal_lower64  151
    u[93]     primal_lower65  976
    u[93]     primal_lower66  530
    u[93]     primal_lower67  325
    u[93]     primal_lower68  392
    u[93]     primal_lower69  203
    u[93]     primal_lower70  859
    u[93]     primal_lower71  643
    u[93]     primal_lower72  416
    u[93]     primal_lower73  448
    u[93]     primal_lower74  282
    u[93]     primal_lower75  746
    u[93]     primal_lower76  789
    u[93]     primal_lower77  843
    u[93]     primal_lower78  640
    u[93]     primal_lower79  965
    u[93]     primal_lower80  103
    u[93]     primal_lower81  424
    u[93]     primal_lower82  444
    u[93]     primal_lower83  580
    u[93]     primal_lower84  261
    u[93]     primal_lower85  615
    u[93]     primal_lower86  880
    u[93]     primal_lower87  174
    u[93]     primal_lower88  186
    u[93]     primal_lower89  706
    u[93]     primal_lower90  185
    u[93]     primal_lower91  992
    u[93]     primal_lower92  176
    u[93]     primal_lower93  84
    u[93]     primal_lower94  857
    u[93]     primal_lower95  100
    u[93]     primal_lower96  883
    u[93]     primal_lower97  395
    u[93]     primal_lower98  813
    u[93]     primal_lower99  6
    u[93]     interdiction[93]  1
    u[93]     mccormick1[93]  -1
    u[93]     mccormick3[93]  1
    u[94]     primal_lower0  589
    u[94]     primal_lower1  765
    u[94]     primal_lower2  65
    u[94]     primal_lower3  754
    u[94]     primal_lower4  192
    u[94]     primal_lower5  321
    u[94]     primal_lower6  533
    u[94]     primal_lower7  462
    u[94]     primal_lower8  465
    u[94]     primal_lower9  51
    u[94]     primal_lower10  285
    u[94]     primal_lower11  702
    u[94]     primal_lower12  473
    u[94]     primal_lower13  894
    u[94]     primal_lower14  126
    u[94]     primal_lower15  65
    u[94]     primal_lower16  222
    u[94]     primal_lower17  313
    u[94]     primal_lower18  630
    u[94]     primal_lower19  153
    u[94]     primal_lower20  472
    u[94]     primal_lower21  581
    u[94]     primal_lower22  179
    u[94]     primal_lower23  517
    u[94]     primal_lower24  247
    u[94]     primal_lower25  451
    u[94]     primal_lower26  726
    u[94]     primal_lower27  167
    u[94]     primal_lower28  393
    u[94]     primal_lower29  25
    u[94]     primal_lower30  224
    u[94]     primal_lower31  915
    u[94]     primal_lower32  500
    u[94]     primal_lower33  808
    u[94]     primal_lower34  309
    u[94]     primal_lower35  258
    u[94]     primal_lower36  886
    u[94]     primal_lower37  55
    u[94]     primal_lower38  229
    u[94]     primal_lower39  346
    u[94]     primal_lower40  22
    u[94]     primal_lower41  64
    u[94]     primal_lower42  90
    u[94]     primal_lower43  453
    u[94]     primal_lower44  642
    u[94]     primal_lower45  539
    u[94]     primal_lower46  122
    u[94]     primal_lower47  297
    u[94]     primal_lower48  381
    u[94]     primal_lower49  605
    u[94]     primal_lower50  194
    u[94]     primal_lower51  377
    u[94]     primal_lower52  21
    u[94]     primal_lower53  613
    u[94]     primal_lower54  700
    u[94]     primal_lower55  593
    u[94]     primal_lower56  850
    u[94]     primal_lower57  823
    u[94]     primal_lower58  574
    u[94]     primal_lower59  911
    u[94]     primal_lower60  618
    u[94]     primal_lower61  981
    u[94]     primal_lower62  1
    u[94]     primal_lower63  327
    u[94]     primal_lower64  652
    u[94]     primal_lower65  597
    u[94]     primal_lower66  983
    u[94]     primal_lower67  970
    u[94]     primal_lower68  941
    u[94]     primal_lower69  96
    u[94]     primal_lower70  971
    u[94]     primal_lower71  163
    u[94]     primal_lower72  352
    u[94]     primal_lower73  504
    u[94]     primal_lower74  39
    u[94]     primal_lower75  975
    u[94]     primal_lower76  282
    u[94]     primal_lower77  3
    u[94]     primal_lower78  264
    u[94]     primal_lower79  362
    u[94]     primal_lower80  583
    u[94]     primal_lower81  744
    u[94]     primal_lower82  401
    u[94]     primal_lower83  28
    u[94]     primal_lower84  869
    u[94]     primal_lower85  732
    u[94]     primal_lower86  45
    u[94]     primal_lower87  179
    u[94]     primal_lower88  151
    u[94]     primal_lower89  367
    u[94]     primal_lower90  145
    u[94]     primal_lower91  216
    u[94]     primal_lower92  568
    u[94]     primal_lower93  36
    u[94]     primal_lower94  153
    u[94]     primal_lower95  572
    u[94]     primal_lower96  491
    u[94]     primal_lower97  712
    u[94]     primal_lower98  930
    u[94]     primal_lower99  763
    u[94]     interdiction[94]  1
    u[94]     mccormick1[94]  -1
    u[94]     mccormick3[94]  1
    u[95]     primal_lower0  138
    u[95]     primal_lower1  670
    u[95]     primal_lower2  742
    u[95]     primal_lower3  595
    u[95]     primal_lower4  481
    u[95]     primal_lower5  214
    u[95]     primal_lower6  718
    u[95]     primal_lower7  159
    u[95]     primal_lower8  466
    u[95]     primal_lower9  112
    u[95]     primal_lower10  490
    u[95]     primal_lower11  955
    u[95]     primal_lower12  366
    u[95]     primal_lower13  487
    u[95]     primal_lower14  407
    u[95]     primal_lower15  162
    u[95]     primal_lower16  123
    u[95]     primal_lower17  502
    u[95]     primal_lower18  255
    u[95]     primal_lower19  678
    u[95]     primal_lower20  573
    u[95]     primal_lower21  630
    u[95]     primal_lower22  372
    u[95]     primal_lower23  542
    u[95]     primal_lower24  152
    u[95]     primal_lower25  528
    u[95]     primal_lower26  355
    u[95]     primal_lower27  524
    u[95]     primal_lower28  610
    u[95]     primal_lower29  238
    u[95]     primal_lower30  13
    u[95]     primal_lower31  400
    u[95]     primal_lower32  837
    u[95]     primal_lower33  765
    u[95]     primal_lower34  866
    u[95]     primal_lower35  603
    u[95]     primal_lower36  667
    u[95]     primal_lower37  152
    u[95]     primal_lower38  262
    u[95]     primal_lower39  663
    u[95]     primal_lower40  635
    u[95]     primal_lower41  813
    u[95]     primal_lower42  203
    u[95]     primal_lower43  326
    u[95]     primal_lower44  443
    u[95]     primal_lower45  804
    u[95]     primal_lower46  887
    u[95]     primal_lower47  870
    u[95]     primal_lower48  438
    u[95]     primal_lower49  806
    u[95]     primal_lower50  147
    u[95]     primal_lower51  830
    u[95]     primal_lower52  706
    u[95]     primal_lower53  966
    u[95]     primal_lower54  261
    u[95]     primal_lower55  830
    u[95]     primal_lower56  263
    u[95]     primal_lower57  728
    u[95]     primal_lower58  483
    u[95]     primal_lower59  504
    u[95]     primal_lower60  575
    u[95]     primal_lower61  666
    u[95]     primal_lower62  946
    u[95]     primal_lower63  848
    u[95]     primal_lower64  781
    u[95]     primal_lower65  30
    u[95]     primal_lower66  152
    u[95]     primal_lower67  35
    u[95]     primal_lower68  998
    u[95]     primal_lower69  761
    u[95]     primal_lower70  248
    u[95]     primal_lower71  120
    u[95]     primal_lower72  629
    u[95]     primal_lower73  669
    u[95]     primal_lower74  352
    u[95]     primal_lower75  600
    u[95]     primal_lower76  683
    u[95]     primal_lower77  784
    u[95]     primal_lower78  101
    u[95]     primal_lower79  627
    u[95]     primal_lower80  668
    u[95]     primal_lower81  221
    u[95]     primal_lower82  754
    u[95]     primal_lower83  649
    u[95]     primal_lower84  874
    u[95]     primal_lower85  541
    u[95]     primal_lower86  486
    u[95]     primal_lower87  772
    u[95]     primal_lower88  992
    u[95]     primal_lower89  712
    u[95]     primal_lower90  230
    u[95]     primal_lower91  677
    u[95]     primal_lower92  749
    u[95]     primal_lower93  337
    u[95]     primal_lower94  310
    u[95]     primal_lower95  417
    u[95]     primal_lower96  320
    u[95]     primal_lower97  273
    u[95]     primal_lower98  195
    u[95]     primal_lower99  772
    u[95]     interdiction[95]  1
    u[95]     mccormick1[95]  -1
    u[95]     mccormick3[95]  1
    u[96]     primal_lower0  782
    u[96]     primal_lower1  710
    u[96]     primal_lower2  698
    u[96]     primal_lower3  827
    u[96]     primal_lower4  865
    u[96]     primal_lower5  178
    u[96]     primal_lower6  982
    u[96]     primal_lower7  927
    u[96]     primal_lower8  514
    u[96]     primal_lower9  892
    u[96]     primal_lower10  22
    u[96]     primal_lower11  335
    u[96]     primal_lower12  666
    u[96]     primal_lower13  495
    u[96]     primal_lower14  543
    u[96]     primal_lower15  74
    u[96]     primal_lower16  183
    u[96]     primal_lower17  354
    u[96]     primal_lower18  119
    u[96]     primal_lower19  898
    u[96]     primal_lower20  193
    u[96]     primal_lower21  62
    u[96]     primal_lower22  12
    u[96]     primal_lower23  142
    u[96]     primal_lower24  192
    u[96]     primal_lower25  780
    u[96]     primal_lower26  399
    u[96]     primal_lower27  696
    u[96]     primal_lower28  794
    u[96]     primal_lower29  106
    u[96]     primal_lower30  473
    u[96]     primal_lower31  836
    u[96]     primal_lower32  141
    u[96]     primal_lower33  385
    u[96]     primal_lower34  622
    u[96]     primal_lower35  699
    u[96]     primal_lower36  927
    u[96]     primal_lower37  744
    u[96]     primal_lower38  30
    u[96]     primal_lower39  651
    u[96]     primal_lower40  199
    u[96]     primal_lower41  641
    u[96]     primal_lower42  779
    u[96]     primal_lower43  46
    u[96]     primal_lower44  379
    u[96]     primal_lower45  916
    u[96]     primal_lower46  27
    u[96]     primal_lower47  642
    u[96]     primal_lower48  846
    u[96]     primal_lower49  646
    u[96]     primal_lower50  867
    u[96]     primal_lower51  426
    u[96]     primal_lower52  142
    u[96]     primal_lower53  686
    u[96]     primal_lower54  301
    u[96]     primal_lower55  42
    u[96]     primal_lower56  227
    u[96]     primal_lower57  480
    u[96]     primal_lower58  367
    u[96]     primal_lower59  128
    u[96]     primal_lower60  371
    u[96]     primal_lower61  710
    u[96]     primal_lower62  34
    u[96]     primal_lower63  856
    u[96]     primal_lower64  13
    u[96]     primal_lower65  190
    u[96]     primal_lower66  984
    u[96]     primal_lower67  475
    u[96]     primal_lower68  782
    u[96]     primal_lower69  193
    u[96]     primal_lower70  220
    u[96]     primal_lower71  908
    u[96]     primal_lower72  425
    u[96]     primal_lower73  217
    u[96]     primal_lower74  528
    u[96]     primal_lower75  512
    u[96]     primal_lower76  171
    u[96]     primal_lower77  52
    u[96]     primal_lower78  777
    u[96]     primal_lower79  643
    u[96]     primal_lower80  16
    u[96]     primal_lower81  233
    u[96]     primal_lower82  162
    u[96]     primal_lower83  541
    u[96]     primal_lower84  22
    u[96]     primal_lower85  861
    u[96]     primal_lower86  446
    u[96]     primal_lower87  100
    u[96]     primal_lower88  768
    u[96]     primal_lower89  680
    u[96]     primal_lower90  746
    u[96]     primal_lower91  825
    u[96]     primal_lower92  481
    u[96]     primal_lower93  37
    u[96]     primal_lower94  986
    u[96]     primal_lower95  469
    u[96]     primal_lower96  764
    u[96]     primal_lower97  145
    u[96]     primal_lower98  979
    u[96]     primal_lower99  820
    u[96]     interdiction[96]  1
    u[96]     mccormick1[96]  -1
    u[96]     mccormick3[96]  1
    u[97]     primal_lower0  926
    u[97]     primal_lower1  105
    u[97]     primal_lower2  554
    u[97]     primal_lower3  222
    u[97]     primal_lower4  908
    u[97]     primal_lower5  138
    u[97]     primal_lower6  633
    u[97]     primal_lower7  866
    u[97]     primal_lower8  709
    u[97]     primal_lower9  140
    u[97]     primal_lower10  702
    u[97]     primal_lower11  287
    u[97]     primal_lower12  490
    u[97]     primal_lower13  266
    u[97]     primal_lower14  306
    u[97]     primal_lower15  461
    u[97]     primal_lower16  503
    u[97]     primal_lower17  314
    u[97]     primal_lower18  522
    u[97]     primal_lower19  666
    u[97]     primal_lower20  961
    u[97]     primal_lower21  809
    u[97]     primal_lower22  791
    u[97]     primal_lower23  353
    u[97]     primal_lower24  883
    u[97]     primal_lower25  924
    u[97]     primal_lower26  959
    u[97]     primal_lower27  816
    u[97]     primal_lower28  917
    u[97]     primal_lower29  954
    u[97]     primal_lower30  353
    u[97]     primal_lower31  884
    u[97]     primal_lower32  896
    u[97]     primal_lower33  273
    u[97]     primal_lower34  174
    u[97]     primal_lower35  126
    u[97]     primal_lower36  311
    u[97]     primal_lower37  59
    u[97]     primal_lower38  409
    u[97]     primal_lower39  451
    u[97]     primal_lower40  743
    u[97]     primal_lower41  817
    u[97]     primal_lower42  678
    u[97]     primal_lower43  113
    u[97]     primal_lower44  798
    u[97]     primal_lower45  423
    u[97]     primal_lower46  107
    u[97]     primal_lower47  154
    u[97]     primal_lower48  241
    u[97]     primal_lower49  209
    u[97]     primal_lower50  678
    u[97]     primal_lower51  626
    u[97]     primal_lower52  198
    u[97]     primal_lower53  401
    u[97]     primal_lower54  440
    u[97]     primal_lower55  562
    u[97]     primal_lower56  723
    u[97]     primal_lower57  91
    u[97]     primal_lower58  7
    u[97]     primal_lower59  691
    u[97]     primal_lower60  131
    u[97]     primal_lower61  470
    u[97]     primal_lower62  693
    u[97]     primal_lower63  811
    u[97]     primal_lower64  944
    u[97]     primal_lower65  169
    u[97]     primal_lower66  707
    u[97]     primal_lower67  694
    u[97]     primal_lower68  49
    u[97]     primal_lower69  492
    u[97]     primal_lower70  156
    u[97]     primal_lower71  652
    u[97]     primal_lower72  529
    u[97]     primal_lower73  873
    u[97]     primal_lower74  139
    u[97]     primal_lower75  851
    u[97]     primal_lower76  230
    u[97]     primal_lower77  628
    u[97]     primal_lower78  681
    u[97]     primal_lower79  102
    u[97]     primal_lower80  704
    u[97]     primal_lower81  761
    u[97]     primal_lower82  141
    u[97]     primal_lower83  909
    u[97]     primal_lower84  630
    u[97]     primal_lower85  456
    u[97]     primal_lower86  801
    u[97]     primal_lower87  351
    u[97]     primal_lower88  187
    u[97]     primal_lower89  59
    u[97]     primal_lower90  178
    u[97]     primal_lower91  873
    u[97]     primal_lower92  433
    u[97]     primal_lower93  445
    u[97]     primal_lower94  674
    u[97]     primal_lower95  869
    u[97]     primal_lower96  76
    u[97]     primal_lower97  236
    u[97]     primal_lower98  118
    u[97]     primal_lower99  23
    u[97]     interdiction[97]  1
    u[97]     mccormick1[97]  -1
    u[97]     mccormick3[97]  1
    u[98]     primal_lower0  297
    u[98]     primal_lower1  41
    u[98]     primal_lower2  661
    u[98]     primal_lower3  246
    u[98]     primal_lower4  276
    u[98]     primal_lower5  197
    u[98]     primal_lower6  593
    u[98]     primal_lower7  490
    u[98]     primal_lower8  341
    u[98]     primal_lower9  935
    u[98]     primal_lower10  625
    u[98]     primal_lower11  546
    u[98]     primal_lower12  765
    u[98]     primal_lower13  114
    u[98]     primal_lower14  226
    u[98]     primal_lower15  725
    u[98]     primal_lower16  650
    u[98]     primal_lower17  261
    u[98]     primal_lower18  994
    u[98]     primal_lower19  245
    u[98]     primal_lower20  900
    u[98]     primal_lower21  57
    u[98]     primal_lower22  423
    u[98]     primal_lower23  889
    u[98]     primal_lower24  587
    u[98]     primal_lower25  511
    u[98]     primal_lower26  634
    u[98]     primal_lower27  883
    u[98]     primal_lower28  93
    u[98]     primal_lower29  501
    u[98]     primal_lower30  620
    u[98]     primal_lower31  159
    u[98]     primal_lower32  144
    u[98]     primal_lower33  524
    u[98]     primal_lower34  345
    u[98]     primal_lower35  238
    u[98]     primal_lower36  466
    u[98]     primal_lower37  715
    u[98]     primal_lower38  729
    u[98]     primal_lower39  390
    u[98]     primal_lower40  378
    u[98]     primal_lower41  12
    u[98]     primal_lower42  878
    u[98]     primal_lower43  905
    u[98]     primal_lower44  430
    u[98]     primal_lower45  839
    u[98]     primal_lower46  214
    u[98]     primal_lower47  189
    u[98]     primal_lower48  121
    u[98]     primal_lower49  609
    u[98]     primal_lower50  518
    u[98]     primal_lower51  557
    u[98]     primal_lower52  921
    u[98]     primal_lower53  873
    u[98]     primal_lower54  40
    u[98]     primal_lower55  293
    u[98]     primal_lower56  798
    u[98]     primal_lower57  915
    u[98]     primal_lower58  746
    u[98]     primal_lower59  403
    u[98]     primal_lower60  910
    u[98]     primal_lower61  337
    u[98]     primal_lower62  197
    u[98]     primal_lower63  323
    u[98]     primal_lower64  576
    u[98]     primal_lower65  489
    u[98]     primal_lower66  251
    u[98]     primal_lower67  166
    u[98]     primal_lower68  161
    u[98]     primal_lower69  20
    u[98]     primal_lower70  479
    u[98]     primal_lower71  927
    u[98]     primal_lower72  180
    u[98]     primal_lower73  524
    u[98]     primal_lower74  59
    u[98]     primal_lower75  803
    u[98]     primal_lower76  878
    u[98]     primal_lower77  463
    u[98]     primal_lower78  52
    u[98]     primal_lower79  974
    u[98]     primal_lower80  835
    u[98]     primal_lower81  860
    u[98]     primal_lower82  957
    u[98]     primal_lower83  536
    u[98]     primal_lower84  977
    u[98]     primal_lower85  624
    u[98]     primal_lower86  305
    u[98]     primal_lower87  839
    u[98]     primal_lower88  427
    u[98]     primal_lower89  27
    u[98]     primal_lower90  69
    u[98]     primal_lower91  668
    u[98]     primal_lower92  652
    u[98]     primal_lower93  840
    u[98]     primal_lower94  885
    u[98]     primal_lower95  88
    u[98]     primal_lower96  671
    u[98]     primal_lower97  788
    u[98]     primal_lower98  94
    u[98]     primal_lower99  103
    u[98]     interdiction[98]  1
    u[98]     mccormick1[98]  -1
    u[98]     mccormick3[98]  1
    u[99]     primal_lower0  649
    u[99]     primal_lower1  61
    u[99]     primal_lower2  357
    u[99]     primal_lower3  466
    u[99]     primal_lower4  104
    u[99]     primal_lower5  349
    u[99]     primal_lower6  453
    u[99]     primal_lower7  302
    u[99]     primal_lower8  345
    u[99]     primal_lower9  55
    u[99]     primal_lower10  937
    u[99]     primal_lower11  946
    u[99]     primal_lower12  253
    u[99]     primal_lower13  6
    u[99]     primal_lower14  382
    u[99]     primal_lower15  249
    u[99]     primal_lower16  298
    u[99]     primal_lower17  477
    u[99]     primal_lower18  574
    u[99]     primal_lower19  685
    u[99]     primal_lower20  52
    u[99]     primal_lower21  405
    u[99]     primal_lower22  707
    u[99]     primal_lower23  333
    u[99]     primal_lower24  815
    u[99]     primal_lower25  951
    u[99]     primal_lower26  994
    u[99]     primal_lower27  811
    u[99]     primal_lower28  857
    u[99]     primal_lower29  373
    u[99]     primal_lower30  460
    u[99]     primal_lower31  87
    u[99]     primal_lower32  388
    u[99]     primal_lower33  404
    u[99]     primal_lower34  721
    u[99]     primal_lower35  186
    u[99]     primal_lower36  170
    u[99]     primal_lower37  551
    u[99]     primal_lower38  741
    u[99]     primal_lower39  846
    u[99]     primal_lower40  538
    u[99]     primal_lower41  492
    u[99]     primal_lower42  346
    u[99]     primal_lower43  757
    u[99]     primal_lower44  674
    u[99]     primal_lower45  979
    u[99]     primal_lower46  662
    u[99]     primal_lower47  581
    u[99]     primal_lower48  701
    u[99]     primal_lower49  885
    u[99]     primal_lower50  698
    u[99]     primal_lower51  413
    u[99]     primal_lower52  673
    u[99]     primal_lower53  965
    u[99]     primal_lower54  844
    u[99]     primal_lower55  877
    u[99]     primal_lower56  606
    u[99]     primal_lower57  343
    u[99]     primal_lower58  394
    u[99]     primal_lower59  687
    u[99]     primal_lower60  774
    u[99]     primal_lower61  353
    u[99]     primal_lower62  81
    u[99]     primal_lower63  271
    u[99]     primal_lower64  404
    u[99]     primal_lower65  901
    u[99]     primal_lower66  687
    u[99]     primal_lower67  914
    u[99]     primal_lower68  829
    u[99]     primal_lower69  680
    u[99]     primal_lower70  95
    u[99]     primal_lower71  807
    u[99]     primal_lower72  596
    u[99]     primal_lower73  484
    u[99]     primal_lower74  15
    u[99]     primal_lower75  135
    u[99]     primal_lower76  986
    u[99]     primal_lower77  767
    u[99]     primal_lower78  684
    u[99]     primal_lower79  874
    u[99]     primal_lower80  619
    u[99]     primal_lower81  204
    u[99]     primal_lower82  449
    u[99]     primal_lower83  248
    u[99]     primal_lower84  465
    u[99]     primal_lower85  708
    u[99]     primal_lower86  861
    u[99]     primal_lower87  747
    u[99]     primal_lower88  559
    u[99]     primal_lower89  311
    u[99]     primal_lower90  733
    u[99]     primal_lower91  716
    u[99]     primal_lower92  988
    u[99]     primal_lower93  64
    u[99]     primal_lower94  77
    u[99]     primal_lower95  760
    u[99]     primal_lower96  575
    u[99]     primal_lower97  472
    u[99]     primal_lower98  930
    u[99]     primal_lower99  123
    u[99]     interdiction[99]  1
    u[99]     mccormick1[99]  -1
    u[99]     mccormick3[99]  1
    z[0]      primal_upper  25
    z[0]      mccormick1[0]  1
    z[0]      mccormick2[0]  1
    z[0]      mccormick3[0]  -1
    z[1]      primal_upper  4
    z[1]      mccormick1[1]  1
    z[1]      mccormick2[1]  1
    z[1]      mccormick3[1]  -1
    z[2]      primal_upper  82
    z[2]      mccormick1[2]  1
    z[2]      mccormick2[2]  1
    z[2]      mccormick3[2]  -1
    z[3]      primal_upper  39
    z[3]      mccormick1[3]  1
    z[3]      mccormick2[3]  1
    z[3]      mccormick3[3]  -1
    z[4]      primal_upper  21
    z[4]      mccormick1[4]  1
    z[4]      mccormick2[4]  1
    z[4]      mccormick3[4]  -1
    z[5]      primal_upper  91
    z[5]      mccormick1[5]  1
    z[5]      mccormick2[5]  1
    z[5]      mccormick3[5]  -1
    z[6]      primal_upper  18
    z[6]      mccormick1[6]  1
    z[6]      mccormick2[6]  1
    z[6]      mccormick3[6]  -1
    z[7]      primal_upper  52
    z[7]      mccormick1[7]  1
    z[7]      mccormick2[7]  1
    z[7]      mccormick3[7]  -1
    z[8]      primal_upper  81
    z[8]      mccormick1[8]  1
    z[8]      mccormick2[8]  1
    z[8]      mccormick3[8]  -1
    z[9]      primal_upper  76
    z[9]      mccormick1[9]  1
    z[9]      mccormick2[9]  1
    z[9]      mccormick3[9]  -1
    z[10]     primal_upper  6
    z[10]     mccormick1[10]  1
    z[10]     mccormick2[10]  1
    z[10]     mccormick3[10]  -1
    z[11]     primal_upper  84
    z[11]     mccormick1[11]  1
    z[11]     mccormick2[11]  1
    z[11]     mccormick3[11]  -1
    z[12]     primal_upper  44
    z[12]     mccormick1[12]  1
    z[12]     mccormick2[12]  1
    z[12]     mccormick3[12]  -1
    z[13]     primal_upper  60
    z[13]     mccormick1[13]  1
    z[13]     mccormick2[13]  1
    z[13]     mccormick3[13]  -1
    z[14]     primal_upper  38
    z[14]     mccormick1[14]  1
    z[14]     mccormick2[14]  1
    z[14]     mccormick3[14]  -1
    z[15]     primal_upper  72
    z[15]     mccormick1[15]  1
    z[15]     mccormick2[15]  1
    z[15]     mccormick3[15]  -1
    z[16]     primal_upper  56
    z[16]     mccormick1[16]  1
    z[16]     mccormick2[16]  1
    z[16]     mccormick3[16]  -1
    z[17]     primal_upper  49
    z[17]     mccormick1[17]  1
    z[17]     mccormick2[17]  1
    z[17]     mccormick3[17]  -1
    z[18]     primal_upper  21
    z[18]     mccormick1[18]  1
    z[18]     mccormick2[18]  1
    z[18]     mccormick3[18]  -1
    z[19]     primal_upper  90
    z[19]     mccormick1[19]  1
    z[19]     mccormick2[19]  1
    z[19]     mccormick3[19]  -1
    z[20]     primal_upper  69
    z[20]     mccormick1[20]  1
    z[20]     mccormick2[20]  1
    z[20]     mccormick3[20]  -1
    z[21]     primal_upper  52
    z[21]     mccormick1[21]  1
    z[21]     mccormick2[21]  1
    z[21]     mccormick3[21]  -1
    z[22]     primal_upper  45
    z[22]     mccormick1[22]  1
    z[22]     mccormick2[22]  1
    z[22]     mccormick3[22]  -1
    z[23]     primal_upper  42
    z[23]     mccormick1[23]  1
    z[23]     mccormick2[23]  1
    z[23]     mccormick3[23]  -1
    z[24]     primal_upper  49
    z[24]     mccormick1[24]  1
    z[24]     mccormick2[24]  1
    z[24]     mccormick3[24]  -1
    z[25]     primal_upper  69
    z[25]     mccormick1[25]  1
    z[25]     mccormick2[25]  1
    z[25]     mccormick3[25]  -1
    z[26]     primal_upper  9
    z[26]     mccormick1[26]  1
    z[26]     mccormick2[26]  1
    z[26]     mccormick3[26]  -1
    z[27]     primal_upper  53
    z[27]     mccormick1[27]  1
    z[27]     mccormick2[27]  1
    z[27]     mccormick3[27]  -1
    z[28]     primal_upper  99
    z[28]     mccormick1[28]  1
    z[28]     mccormick2[28]  1
    z[28]     mccormick3[28]  -1
    z[29]     primal_upper  13
    z[29]     mccormick1[29]  1
    z[29]     mccormick2[29]  1
    z[29]     mccormick3[29]  -1
    z[30]     primal_upper  79
    z[30]     mccormick1[30]  1
    z[30]     mccormick2[30]  1
    z[30]     mccormick3[30]  -1
    z[31]     primal_upper  30
    z[31]     mccormick1[31]  1
    z[31]     mccormick2[31]  1
    z[31]     mccormick3[31]  -1
    z[32]     primal_upper  79
    z[32]     mccormick1[32]  1
    z[32]     mccormick2[32]  1
    z[32]     mccormick3[32]  -1
    z[33]     primal_upper  70
    z[33]     mccormick1[33]  1
    z[33]     mccormick2[33]  1
    z[33]     mccormick3[33]  -1
    z[34]     primal_upper  66
    z[34]     mccormick1[34]  1
    z[34]     mccormick2[34]  1
    z[34]     mccormick3[34]  -1
    z[35]     primal_upper  5
    z[35]     mccormick1[35]  1
    z[35]     mccormick2[35]  1
    z[35]     mccormick3[35]  -1
    z[36]     primal_upper  4
    z[36]     mccormick1[36]  1
    z[36]     mccormick2[36]  1
    z[36]     mccormick3[36]  -1
    z[37]     primal_upper  45
    z[37]     mccormick1[37]  1
    z[37]     mccormick2[37]  1
    z[37]     mccormick3[37]  -1
    z[38]     primal_upper  28
    z[38]     mccormick1[38]  1
    z[38]     mccormick2[38]  1
    z[38]     mccormick3[38]  -1
    z[39]     primal_upper  58
    z[39]     mccormick1[39]  1
    z[39]     mccormick2[39]  1
    z[39]     mccormick3[39]  -1
    z[40]     primal_upper  86
    z[40]     mccormick1[40]  1
    z[40]     mccormick2[40]  1
    z[40]     mccormick3[40]  -1
    z[41]     primal_upper  81
    z[41]     mccormick1[41]  1
    z[41]     mccormick2[41]  1
    z[41]     mccormick3[41]  -1
    z[42]     primal_upper  57
    z[42]     mccormick1[42]  1
    z[42]     mccormick2[42]  1
    z[42]     mccormick3[42]  -1
    z[43]     primal_upper  59
    z[43]     mccormick1[43]  1
    z[43]     mccormick2[43]  1
    z[43]     mccormick3[43]  -1
    z[44]     primal_upper  47
    z[44]     mccormick1[44]  1
    z[44]     mccormick2[44]  1
    z[44]     mccormick3[44]  -1
    z[45]     primal_upper  88
    z[45]     mccormick1[45]  1
    z[45]     mccormick2[45]  1
    z[45]     mccormick3[45]  -1
    z[46]     primal_upper  84
    z[46]     mccormick1[46]  1
    z[46]     mccormick2[46]  1
    z[46]     mccormick3[46]  -1
    z[47]     primal_upper  5
    z[47]     mccormick1[47]  1
    z[47]     mccormick2[47]  1
    z[47]     mccormick3[47]  -1
    z[48]     primal_upper  54
    z[48]     mccormick1[48]  1
    z[48]     mccormick2[48]  1
    z[48]     mccormick3[48]  -1
    z[49]     primal_upper  58
    z[49]     mccormick1[49]  1
    z[49]     mccormick2[49]  1
    z[49]     mccormick3[49]  -1
    z[50]     primal_upper  50
    z[50]     mccormick1[50]  1
    z[50]     mccormick2[50]  1
    z[50]     mccormick3[50]  -1
    z[51]     primal_upper  85
    z[51]     mccormick1[51]  1
    z[51]     mccormick2[51]  1
    z[51]     mccormick3[51]  -1
    z[52]     primal_upper  3
    z[52]     mccormick1[52]  1
    z[52]     mccormick2[52]  1
    z[52]     mccormick3[52]  -1
    z[53]     primal_upper  96
    z[53]     mccormick1[53]  1
    z[53]     mccormick2[53]  1
    z[53]     mccormick3[53]  -1
    z[54]     primal_upper  32
    z[54]     mccormick1[54]  1
    z[54]     mccormick2[54]  1
    z[54]     mccormick3[54]  -1
    z[55]     primal_upper  94
    z[55]     mccormick1[55]  1
    z[55]     mccormick2[55]  1
    z[55]     mccormick3[55]  -1
    z[56]     primal_upper  77
    z[56]     mccormick1[56]  1
    z[56]     mccormick2[56]  1
    z[56]     mccormick3[56]  -1
    z[57]     primal_upper  45
    z[57]     mccormick1[57]  1
    z[57]     mccormick2[57]  1
    z[57]     mccormick3[57]  -1
    z[58]     primal_upper  48
    z[58]     mccormick1[58]  1
    z[58]     mccormick2[58]  1
    z[58]     mccormick3[58]  -1
    z[59]     primal_upper  97
    z[59]     mccormick1[59]  1
    z[59]     mccormick2[59]  1
    z[59]     mccormick3[59]  -1
    z[60]     primal_upper  75
    z[60]     mccormick1[60]  1
    z[60]     mccormick2[60]  1
    z[60]     mccormick3[60]  -1
    z[61]     primal_upper  26
    z[61]     mccormick1[61]  1
    z[61]     mccormick2[61]  1
    z[61]     mccormick3[61]  -1
    z[62]     primal_upper  83
    z[62]     mccormick1[62]  1
    z[62]     mccormick2[62]  1
    z[62]     mccormick3[62]  -1
    z[63]     primal_upper  85
    z[63]     mccormick1[63]  1
    z[63]     mccormick2[63]  1
    z[63]     mccormick3[63]  -1
    z[64]     primal_upper  61
    z[64]     mccormick1[64]  1
    z[64]     mccormick2[64]  1
    z[64]     mccormick3[64]  -1
    z[65]     primal_upper  16
    z[65]     mccormick1[65]  1
    z[65]     mccormick2[65]  1
    z[65]     mccormick3[65]  -1
    z[66]     primal_upper  89
    z[66]     mccormick1[66]  1
    z[66]     mccormick2[66]  1
    z[66]     mccormick3[66]  -1
    z[67]     primal_upper  23
    z[67]     mccormick1[67]  1
    z[67]     mccormick2[67]  1
    z[67]     mccormick3[67]  -1
    z[68]     primal_upper  73
    z[68]     mccormick1[68]  1
    z[68]     mccormick2[68]  1
    z[68]     mccormick3[68]  -1
    z[69]     primal_upper  61
    z[69]     mccormick1[69]  1
    z[69]     mccormick2[69]  1
    z[69]     mccormick3[69]  -1
    z[70]     primal_upper  64
    z[70]     mccormick1[70]  1
    z[70]     mccormick2[70]  1
    z[70]     mccormick3[70]  -1
    z[71]     primal_upper  92
    z[71]     mccormick1[71]  1
    z[71]     mccormick2[71]  1
    z[71]     mccormick3[71]  -1
    z[72]     primal_upper  30
    z[72]     mccormick1[72]  1
    z[72]     mccormick2[72]  1
    z[72]     mccormick3[72]  -1
    z[73]     primal_upper  25
    z[73]     mccormick1[73]  1
    z[73]     mccormick2[73]  1
    z[73]     mccormick3[73]  -1
    z[74]     primal_upper  50
    z[74]     mccormick1[74]  1
    z[74]     mccormick2[74]  1
    z[74]     mccormick3[74]  -1
    z[75]     primal_upper  30
    z[75]     mccormick1[75]  1
    z[75]     mccormick2[75]  1
    z[75]     mccormick3[75]  -1
    z[76]     primal_upper  96
    z[76]     mccormick1[76]  1
    z[76]     mccormick2[76]  1
    z[76]     mccormick3[76]  -1
    z[77]     primal_upper  7
    z[77]     mccormick1[77]  1
    z[77]     mccormick2[77]  1
    z[77]     mccormick3[77]  -1
    z[78]     primal_upper  23
    z[78]     mccormick1[78]  1
    z[78]     mccormick2[78]  1
    z[78]     mccormick3[78]  -1
    z[79]     primal_upper  48
    z[79]     mccormick1[79]  1
    z[79]     mccormick2[79]  1
    z[79]     mccormick3[79]  -1
    z[80]     primal_upper  12
    z[80]     mccormick1[80]  1
    z[80]     mccormick2[80]  1
    z[80]     mccormick3[80]  -1
    z[81]     primal_upper  9
    z[81]     mccormick1[81]  1
    z[81]     mccormick2[81]  1
    z[81]     mccormick3[81]  -1
    z[82]     primal_upper  88
    z[82]     mccormick1[82]  1
    z[82]     mccormick2[82]  1
    z[82]     mccormick3[82]  -1
    z[83]     primal_upper  77
    z[83]     mccormick1[83]  1
    z[83]     mccormick2[83]  1
    z[83]     mccormick3[83]  -1
    z[84]     primal_upper  82
    z[84]     mccormick1[84]  1
    z[84]     mccormick2[84]  1
    z[84]     mccormick3[84]  -1
    z[85]     primal_upper  68
    z[85]     mccormick1[85]  1
    z[85]     mccormick2[85]  1
    z[85]     mccormick3[85]  -1
    z[86]     primal_upper  18
    z[86]     mccormick1[86]  1
    z[86]     mccormick2[86]  1
    z[86]     mccormick3[86]  -1
    z[87]     primal_upper  97
    z[87]     mccormick1[87]  1
    z[87]     mccormick2[87]  1
    z[87]     mccormick3[87]  -1
    z[88]     primal_upper  96
    z[88]     mccormick1[88]  1
    z[88]     mccormick2[88]  1
    z[88]     mccormick3[88]  -1
    z[89]     primal_upper  43
    z[89]     mccormick1[89]  1
    z[89]     mccormick2[89]  1
    z[89]     mccormick3[89]  -1
    z[90]     primal_upper  2
    z[90]     mccormick1[90]  1
    z[90]     mccormick2[90]  1
    z[90]     mccormick3[90]  -1
    z[91]     primal_upper  98
    z[91]     mccormick1[91]  1
    z[91]     mccormick2[91]  1
    z[91]     mccormick3[91]  -1
    z[92]     primal_upper  79
    z[92]     mccormick1[92]  1
    z[92]     mccormick2[92]  1
    z[92]     mccormick3[92]  -1
    z[93]     primal_upper  70
    z[93]     mccormick1[93]  1
    z[93]     mccormick2[93]  1
    z[93]     mccormick3[93]  -1
    z[94]     primal_upper  78
    z[94]     mccormick1[94]  1
    z[94]     mccormick2[94]  1
    z[94]     mccormick3[94]  -1
    z[95]     primal_upper  25
    z[95]     mccormick1[95]  1
    z[95]     mccormick2[95]  1
    z[95]     mccormick3[95]  -1
    z[96]     primal_upper  25
    z[96]     mccormick1[96]  1
    z[96]     mccormick2[96]  1
    z[96]     mccormick3[96]  -1
    z[97]     primal_upper  72
    z[97]     mccormick1[97]  1
    z[97]     mccormick2[97]  1
    z[97]     mccormick3[97]  -1
    z[98]     primal_upper  98
    z[98]     mccormick1[98]  1
    z[98]     mccormick2[98]  1
    z[98]     mccormick3[98]  -1
    z[99]     primal_upper  86
    z[99]     mccormick1[99]  1
    z[99]     mccormick2[99]  1
    z[99]     mccormick3[99]  -1
    MARKER    'MARKER'                 'INTEND'
RHS
    RHS1      primal_upper  18331
    RHS1      primal_lower0  995
    RHS1      primal_lower1  17356
    RHS1      primal_lower2  999
    RHS1      primal_lower3  991
    RHS1      primal_lower4  969
    RHS1      primal_lower5  990
    RHS1      primal_lower6  985
    RHS1      primal_lower7  980
    RHS1      primal_lower8  16231
    RHS1      primal_lower9  998
    RHS1      primal_lower10  992
    RHS1      primal_lower11  1000
    RHS1      primal_lower12  998
    RHS1      primal_lower13  17419
    RHS1      primal_lower14  979
    RHS1      primal_lower15  998
    RHS1      primal_lower16  17556
    RHS1      primal_lower17  969
    RHS1      primal_lower18  994
    RHS1      primal_lower19  980
    RHS1      primal_lower20  995
    RHS1      primal_lower21  1000
    RHS1      primal_lower22  992
    RHS1      primal_lower23  960
    RHS1      primal_lower24  17111
    RHS1      primal_lower25  992
    RHS1      primal_lower26  1000
    RHS1      primal_lower27  16342
    RHS1      primal_lower28  17623
    RHS1      primal_lower29  998
    RHS1      primal_lower30  986
    RHS1      primal_lower31  986
    RHS1      primal_lower32  16678
    RHS1      primal_lower33  992
    RHS1      primal_lower34  17774
    RHS1      primal_lower35  16859
    RHS1      primal_lower36  994
    RHS1      primal_lower37  999
    RHS1      primal_lower38  15754
    RHS1      primal_lower39  966
    RHS1      primal_lower40  16170
    RHS1      primal_lower41  16735
    RHS1      primal_lower42  15806
    RHS1      primal_lower43  995
    RHS1      primal_lower44  18347
    RHS1      primal_lower45  17122
    RHS1      primal_lower46  1000
    RHS1      primal_lower47  16811
    RHS1      primal_lower48  993
    RHS1      primal_lower49  966
    RHS1      primal_lower50  970
    RHS1      primal_lower51  16648
    RHS1      primal_lower52  930
    RHS1      primal_lower53  992
    RHS1      primal_lower54  987
    RHS1      primal_lower55  989
    RHS1      primal_lower56  999
    RHS1      primal_lower57  987
    RHS1      primal_lower58  17276
    RHS1      primal_lower59  999
    RHS1      primal_lower60  16959
    RHS1      primal_lower61  17355
    RHS1      primal_lower62  16202
    RHS1      primal_lower63  17994
    RHS1      primal_lower64  14192
    RHS1      primal_lower65  993
    RHS1      primal_lower66  16946
    RHS1      primal_lower67  990
    RHS1      primal_lower68  998
    RHS1      primal_lower69  16454
    RHS1      primal_lower70  15883
    RHS1      primal_lower71  953
    RHS1      primal_lower72  982
    RHS1      primal_lower73  996
    RHS1      primal_lower74  15191
    RHS1      primal_lower75  978
    RHS1      primal_lower76  15712
    RHS1      primal_lower77  995
    RHS1      primal_lower78  15666
    RHS1      primal_lower79  1000
    RHS1      primal_lower80  980
    RHS1      primal_lower81  988
    RHS1      primal_lower82  15231
    RHS1      primal_lower83  990
    RHS1      primal_lower84  17675
    RHS1      primal_lower85  16590
    RHS1      primal_lower86  17359
    RHS1      primal_lower87  16527
    RHS1      primal_lower88  992
    RHS1      primal_lower89  16868
    RHS1      primal_lower90  995
    RHS1      primal_lower91  17836
    RHS1      primal_lower92  15908
    RHS1      primal_lower93  986
    RHS1      primal_lower94  15664
    RHS1      primal_lower95  999
    RHS1      primal_lower96  17246
    RHS1      primal_lower97  15771
    RHS1      primal_lower98  17598
    RHS1      primal_lower99  16426
    RHS1      interdiction[0]  1
    RHS1      interdiction[1]  1
    RHS1      interdiction[2]  1
    RHS1      interdiction[3]  1
    RHS1      interdiction[4]  1
    RHS1      interdiction[5]  1
    RHS1      interdiction[6]  1
    RHS1      interdiction[7]  1
    RHS1      interdiction[8]  1
    RHS1      interdiction[9]  1
    RHS1      interdiction[10]  1
    RHS1      interdiction[11]  1
    RHS1      interdiction[12]  1
    RHS1      interdiction[13]  1
    RHS1      interdiction[14]  1
    RHS1      interdiction[15]  1
    RHS1      interdiction[16]  1
    RHS1      interdiction[17]  1
    RHS1      interdiction[18]  1
    RHS1      interdiction[19]  1
    RHS1      interdiction[20]  1
    RHS1      interdiction[21]  1
    RHS1      interdiction[22]  1
    RHS1      interdiction[23]  1
    RHS1      interdiction[24]  1
    RHS1      interdiction[25]  1
    RHS1      interdiction[26]  1
    RHS1      interdiction[27]  1
    RHS1      interdiction[28]  1
    RHS1      interdiction[29]  1
    RHS1      interdiction[30]  1
    RHS1      interdiction[31]  1
    RHS1      interdiction[32]  1
    RHS1      interdiction[33]  1
    RHS1      interdiction[34]  1
    RHS1      interdiction[35]  1
    RHS1      interdiction[36]  1
    RHS1      interdiction[37]  1
    RHS1      interdiction[38]  1
    RHS1      interdiction[39]  1
    RHS1      interdiction[40]  1
    RHS1      interdiction[41]  1
    RHS1      interdiction[42]  1
    RHS1      interdiction[43]  1
    RHS1      interdiction[44]  1
    RHS1      interdiction[45]  1
    RHS1      interdiction[46]  1
    RHS1      interdiction[47]  1
    RHS1      interdiction[48]  1
    RHS1      interdiction[49]  1
    RHS1      interdiction[50]  1
    RHS1      interdiction[51]  1
    RHS1      interdiction[52]  1
    RHS1      interdiction[53]  1
    RHS1      interdiction[54]  1
    RHS1      interdiction[55]  1
    RHS1      interdiction[56]  1
    RHS1      interdiction[57]  1
    RHS1      interdiction[58]  1
    RHS1      interdiction[59]  1
    RHS1      interdiction[60]  1
    RHS1      interdiction[61]  1
    RHS1      interdiction[62]  1
    RHS1      interdiction[63]  1
    RHS1      interdiction[64]  1
    RHS1      interdiction[65]  1
    RHS1      interdiction[66]  1
    RHS1      interdiction[67]  1
    RHS1      interdiction[68]  1
    RHS1      interdiction[69]  1
    RHS1      interdiction[70]  1
    RHS1      interdiction[71]  1
    RHS1      interdiction[72]  1
    RHS1      interdiction[73]  1
    RHS1      interdiction[74]  1
    RHS1      interdiction[75]  1
    RHS1      interdiction[76]  1
    RHS1      interdiction[77]  1
    RHS1      interdiction[78]  1
    RHS1      interdiction[79]  1
    RHS1      interdiction[80]  1
    RHS1      interdiction[81]  1
    RHS1      interdiction[82]  1
    RHS1      interdiction[83]  1
    RHS1      interdiction[84]  1
    RHS1      interdiction[85]  1
    RHS1      interdiction[86]  1
    RHS1      interdiction[87]  1
    RHS1      interdiction[88]  1
    RHS1      interdiction[89]  1
    RHS1      interdiction[90]  1
    RHS1      interdiction[91]  1
    RHS1      interdiction[92]  1
    RHS1      interdiction[93]  1
    RHS1      interdiction[94]  1
    RHS1      interdiction[95]  1
    RHS1      interdiction[96]  1
    RHS1      interdiction[97]  1
    RHS1      interdiction[98]  1
    RHS1      interdiction[99]  1
    RHS1      mccormick3[0]  1
    RHS1      mccormick3[1]  1
    RHS1      mccormick3[2]  1
    RHS1      mccormick3[3]  1
    RHS1      mccormick3[4]  1
    RHS1      mccormick3[5]  1
    RHS1      mccormick3[6]  1
    RHS1      mccormick3[7]  1
    RHS1      mccormick3[8]  1
    RHS1      mccormick3[9]  1
    RHS1      mccormick3[10]  1
    RHS1      mccormick3[11]  1
    RHS1      mccormick3[12]  1
    RHS1      mccormick3[13]  1
    RHS1      mccormick3[14]  1
    RHS1      mccormick3[15]  1
    RHS1      mccormick3[16]  1
    RHS1      mccormick3[17]  1
    RHS1      mccormick3[18]  1
    RHS1      mccormick3[19]  1
    RHS1      mccormick3[20]  1
    RHS1      mccormick3[21]  1
    RHS1      mccormick3[22]  1
    RHS1      mccormick3[23]  1
    RHS1      mccormick3[24]  1
    RHS1      mccormick3[25]  1
    RHS1      mccormick3[26]  1
    RHS1      mccormick3[27]  1
    RHS1      mccormick3[28]  1
    RHS1      mccormick3[29]  1
    RHS1      mccormick3[30]  1
    RHS1      mccormick3[31]  1
    RHS1      mccormick3[32]  1
    RHS1      mccormick3[33]  1
    RHS1      mccormick3[34]  1
    RHS1      mccormick3[35]  1
    RHS1      mccormick3[36]  1
    RHS1      mccormick3[37]  1
    RHS1      mccormick3[38]  1
    RHS1      mccormick3[39]  1
    RHS1      mccormick3[40]  1
    RHS1      mccormick3[41]  1
    RHS1      mccormick3[42]  1
    RHS1      mccormick3[43]  1
    RHS1      mccormick3[44]  1
    RHS1      mccormick3[45]  1
    RHS1      mccormick3[46]  1
    RHS1      mccormick3[47]  1
    RHS1      mccormick3[48]  1
    RHS1      mccormick3[49]  1
    RHS1      mccormick3[50]  1
    RHS1      mccormick3[51]  1
    RHS1      mccormick3[52]  1
    RHS1      mccormick3[53]  1
    RHS1      mccormick3[54]  1
    RHS1      mccormick3[55]  1
    RHS1      mccormick3[56]  1
    RHS1      mccormick3[57]  1
    RHS1      mccormick3[58]  1
    RHS1      mccormick3[59]  1
    RHS1      mccormick3[60]  1
    RHS1      mccormick3[61]  1
    RHS1      mccormick3[62]  1
    RHS1      mccormick3[63]  1
    RHS1      mccormick3[64]  1
    RHS1      mccormick3[65]  1
    RHS1      mccormick3[66]  1
    RHS1      mccormick3[67]  1
    RHS1      mccormick3[68]  1
    RHS1      mccormick3[69]  1
    RHS1      mccormick3[70]  1
    RHS1      mccormick3[71]  1
    RHS1      mccormick3[72]  1
    RHS1      mccormick3[73]  1
    RHS1      mccormick3[74]  1
    RHS1      mccormick3[75]  1
    RHS1      mccormick3[76]  1
    RHS1      mccormick3[77]  1
    RHS1      mccormick3[78]  1
    RHS1      mccormick3[79]  1
    RHS1      mccormick3[80]  1
    RHS1      mccormick3[81]  1
    RHS1      mccormick3[82]  1
    RHS1      mccormick3[83]  1
    RHS1      mccormick3[84]  1
    RHS1      mccormick3[85]  1
    RHS1      mccormick3[86]  1
    RHS1      mccormick3[87]  1
    RHS1      mccormick3[88]  1
    RHS1      mccormick3[89]  1
    RHS1      mccormick3[90]  1
    RHS1      mccormick3[91]  1
    RHS1      mccormick3[92]  1
    RHS1      mccormick3[93]  1
    RHS1      mccormick3[94]  1
    RHS1      mccormick3[95]  1
    RHS1      mccormick3[96]  1
    RHS1      mccormick3[97]  1
    RHS1      mccormick3[98]  1
    RHS1      mccormick3[99]  1
BOUNDS
 BV BND1      x[0]    
 BV BND1      x[1]    
 BV BND1      x[2]    
 BV BND1      x[3]    
 BV BND1      x[4]    
 BV BND1      x[5]    
 BV BND1      x[6]    
 BV BND1      x[7]    
 BV BND1      x[8]    
 BV BND1      x[9]    
 BV BND1      x[10]   
 BV BND1      x[11]   
 BV BND1      x[12]   
 BV BND1      x[13]   
 BV BND1      x[14]   
 BV BND1      x[15]   
 BV BND1      x[16]   
 BV BND1      x[17]   
 BV BND1      x[18]   
 BV BND1      x[19]   
 BV BND1      x[20]   
 BV BND1      x[21]   
 BV BND1      x[22]   
 BV BND1      x[23]   
 BV BND1      x[24]   
 BV BND1      x[25]   
 BV BND1      x[26]   
 BV BND1      x[27]   
 BV BND1      x[28]   
 BV BND1      x[29]   
 BV BND1      x[30]   
 BV BND1      x[31]   
 BV BND1      x[32]   
 BV BND1      x[33]   
 BV BND1      x[34]   
 BV BND1      x[35]   
 BV BND1      x[36]   
 BV BND1      x[37]   
 BV BND1      x[38]   
 BV BND1      x[39]   
 BV BND1      x[40]   
 BV BND1      x[41]   
 BV BND1      x[42]   
 BV BND1      x[43]   
 BV BND1      x[44]   
 BV BND1      x[45]   
 BV BND1      x[46]   
 BV BND1      x[47]   
 BV BND1      x[48]   
 BV BND1      x[49]   
 BV BND1      x[50]   
 BV BND1      x[51]   
 BV BND1      x[52]   
 BV BND1      x[53]   
 BV BND1      x[54]   
 BV BND1      x[55]   
 BV BND1      x[56]   
 BV BND1      x[57]   
 BV BND1      x[58]   
 BV BND1      x[59]   
 BV BND1      x[60]   
 BV BND1      x[61]   
 BV BND1      x[62]   
 BV BND1      x[63]   
 BV BND1      x[64]   
 BV BND1      x[65]   
 BV BND1      x[66]   
 BV BND1      x[67]   
 BV BND1      x[68]   
 BV BND1      x[69]   
 BV BND1      x[70]   
 BV BND1      x[71]   
 BV BND1      x[72]   
 BV BND1      x[73]   
 BV BND1      x[74]   
 BV BND1      x[75]   
 BV BND1      x[76]   
 BV BND1      x[77]   
 BV BND1      x[78]   
 BV BND1      x[79]   
 BV BND1      x[80]   
 BV BND1      x[81]   
 BV BND1      x[82]   
 BV BND1      x[83]   
 BV BND1      x[84]   
 BV BND1      x[85]   
 BV BND1      x[86]   
 BV BND1      x[87]   
 BV BND1      x[88]   
 BV BND1      x[89]   
 BV BND1      x[90]   
 BV BND1      x[91]   
 BV BND1      x[92]   
 BV BND1      x[93]   
 BV BND1      x[94]   
 BV BND1      x[95]   
 BV BND1      x[96]   
 BV BND1      x[97]   
 BV BND1      x[98]   
 BV BND1      x[99]   
 BV BND1      y[0]    
 BV BND1      y[1]    
 BV BND1      y[2]    
 BV BND1      y[3]    
 BV BND1      y[4]    
 BV BND1      y[5]    
 BV BND1      y[6]    
 BV BND1      y[7]    
 BV BND1      y[8]    
 BV BND1      y[9]    
 BV BND1      y[10]   
 BV BND1      y[11]   
 BV BND1      y[12]   
 BV BND1      y[13]   
 BV BND1      y[14]   
 BV BND1      y[15]   
 BV BND1      y[16]   
 BV BND1      y[17]   
 BV BND1      y[18]   
 BV BND1      y[19]   
 BV BND1      y[20]   
 BV BND1      y[21]   
 BV BND1      y[22]   
 BV BND1      y[23]   
 BV BND1      y[24]   
 BV BND1      y[25]   
 BV BND1      y[26]   
 BV BND1      y[27]   
 BV BND1      y[28]   
 BV BND1      y[29]   
 BV BND1      y[30]   
 BV BND1      y[31]   
 BV BND1      y[32]   
 BV BND1      y[33]   
 BV BND1      y[34]   
 BV BND1      y[35]   
 BV BND1      y[36]   
 BV BND1      y[37]   
 BV BND1      y[38]   
 BV BND1      y[39]   
 BV BND1      y[40]   
 BV BND1      y[41]   
 BV BND1      y[42]   
 BV BND1      y[43]   
 BV BND1      y[44]   
 BV BND1      y[45]   
 BV BND1      y[46]   
 BV BND1      y[47]   
 BV BND1      y[48]   
 BV BND1      y[49]   
 BV BND1      y[50]   
 BV BND1      y[51]   
 BV BND1      y[52]   
 BV BND1      y[53]   
 BV BND1      y[54]   
 BV BND1      y[55]   
 BV BND1      y[56]   
 BV BND1      y[57]   
 BV BND1      y[58]   
 BV BND1      y[59]   
 BV BND1      y[60]   
 BV BND1      y[61]   
 BV BND1      y[62]   
 BV BND1      y[63]   
 BV BND1      y[64]   
 BV BND1      y[65]   
 BV BND1      y[66]   
 BV BND1      y[67]   
 BV BND1      y[68]   
 BV BND1      y[69]   
 BV BND1      y[70]   
 BV BND1      y[71]   
 BV BND1      y[72]   
 BV BND1      y[73]   
 BV BND1      y[74]   
 BV BND1      y[75]   
 BV BND1      y[76]   
 BV BND1      y[77]   
 BV BND1      y[78]   
 BV BND1      y[79]   
 BV BND1      y[80]   
 BV BND1      y[81]   
 BV BND1      y[82]   
 BV BND1      y[83]   
 BV BND1      y[84]   
 BV BND1      y[85]   
 BV BND1      y[86]   
 BV BND1      y[87]   
 BV BND1      y[88]   
 BV BND1      y[89]   
 BV BND1      y[90]   
 BV BND1      y[91]   
 BV BND1      y[92]   
 BV BND1      y[93]   
 BV BND1      y[94]   
 BV BND1      y[95]   
 BV BND1      y[96]   
 BV BND1      y[97]   
 BV BND1      y[98]   
 BV BND1      y[99]   
 BV BND1      u[0]    
 BV BND1      u[1]    
 BV BND1      u[2]    
 BV BND1      u[3]    
 BV BND1      u[4]    
 BV BND1      u[5]    
 BV BND1      u[6]    
 BV BND1      u[7]    
 BV BND1      u[8]    
 BV BND1      u[9]    
 BV BND1      u[10]   
 BV BND1      u[11]   
 BV BND1      u[12]   
 BV BND1      u[13]   
 BV BND1      u[14]   
 BV BND1      u[15]   
 BV BND1      u[16]   
 BV BND1      u[17]   
 BV BND1      u[18]   
 BV BND1      u[19]   
 BV BND1      u[20]   
 BV BND1      u[21]   
 BV BND1      u[22]   
 BV BND1      u[23]   
 BV BND1      u[24]   
 BV BND1      u[25]   
 BV BND1      u[26]   
 BV BND1      u[27]   
 BV BND1      u[28]   
 BV BND1      u[29]   
 BV BND1      u[30]   
 BV BND1      u[31]   
 BV BND1      u[32]   
 BV BND1      u[33]   
 BV BND1      u[34]   
 BV BND1      u[35]   
 BV BND1      u[36]   
 BV BND1      u[37]   
 BV BND1      u[38]   
 BV BND1      u[39]   
 BV BND1      u[40]   
 BV BND1      u[41]   
 BV BND1      u[42]   
 BV BND1      u[43]   
 BV BND1      u[44]   
 BV BND1      u[45]   
 BV BND1      u[46]   
 BV BND1      u[47]   
 BV BND1      u[48]   
 BV BND1      u[49]   
 BV BND1      u[50]   
 BV BND1      u[51]   
 BV BND1      u[52]   
 BV BND1      u[53]   
 BV BND1      u[54]   
 BV BND1      u[55]   
 BV BND1      u[56]   
 BV BND1      u[57]   
 BV BND1      u[58]   
 BV BND1      u[59]   
 BV BND1      u[60]   
 BV BND1      u[61]   
 BV BND1      u[62]   
 BV BND1      u[63]   
 BV BND1      u[64]   
 BV BND1      u[65]   
 BV BND1      u[66]   
 BV BND1      u[67]   
 BV BND1      u[68]   
 BV BND1      u[69]   
 BV BND1      u[70]   
 BV BND1      u[71]   
 BV BND1      u[72]   
 BV BND1      u[73]   
 BV BND1      u[74]   
 BV BND1      u[75]   
 BV BND1      u[76]   
 BV BND1      u[77]   
 BV BND1      u[78]   
 BV BND1      u[79]   
 BV BND1      u[80]   
 BV BND1      u[81]   
 BV BND1      u[82]   
 BV BND1      u[83]   
 BV BND1      u[84]   
 BV BND1      u[85]   
 BV BND1      u[86]   
 BV BND1      u[87]   
 BV BND1      u[88]   
 BV BND1      u[89]   
 BV BND1      u[90]   
 BV BND1      u[91]   
 BV BND1      u[92]   
 BV BND1      u[93]   
 BV BND1      u[94]   
 BV BND1      u[95]   
 BV BND1      u[96]   
 BV BND1      u[97]   
 BV BND1      u[98]   
 BV BND1      u[99]   
 BV BND1      z[0]    
 BV BND1      z[1]    
 BV BND1      z[2]    
 BV BND1      z[3]    
 BV BND1      z[4]    
 BV BND1      z[5]    
 BV BND1      z[6]    
 BV BND1      z[7]    
 BV BND1      z[8]    
 BV BND1      z[9]    
 BV BND1      z[10]   
 BV BND1      z[11]   
 BV BND1      z[12]   
 BV BND1      z[13]   
 BV BND1      z[14]   
 BV BND1      z[15]   
 BV BND1      z[16]   
 BV BND1      z[17]   
 BV BND1      z[18]   
 BV BND1      z[19]   
 BV BND1      z[20]   
 BV BND1      z[21]   
 BV BND1      z[22]   
 BV BND1      z[23]   
 BV BND1      z[24]   
 BV BND1      z[25]   
 BV BND1      z[26]   
 BV BND1      z[27]   
 BV BND1      z[28]   
 BV BND1      z[29]   
 BV BND1      z[30]   
 BV BND1      z[31]   
 BV BND1      z[32]   
 BV BND1      z[33]   
 BV BND1      z[34]   
 BV BND1      z[35]   
 BV BND1      z[36]   
 BV BND1      z[37]   
 BV BND1      z[38]   
 BV BND1      z[39]   
 BV BND1      z[40]   
 BV BND1      z[41]   
 BV BND1      z[42]   
 BV BND1      z[43]   
 BV BND1      z[44]   
 BV BND1      z[45]   
 BV BND1      z[46]   
 BV BND1      z[47]   
 BV BND1      z[48]   
 BV BND1      z[49]   
 BV BND1      z[50]   
 BV BND1      z[51]   
 BV BND1      z[52]   
 BV BND1      z[53]   
 BV BND1      z[54]   
 BV BND1      z[55]   
 BV BND1      z[56]   
 BV BND1      z[57]   
 BV BND1      z[58]   
 BV BND1      z[59]   
 BV BND1      z[60]   
 BV BND1      z[61]   
 BV BND1      z[62]   
 BV BND1      z[63]   
 BV BND1      z[64]   
 BV BND1      z[65]   
 BV BND1      z[66]   
 BV BND1      z[67]   
 BV BND1      z[68]   
 BV BND1      z[69]   
 BV BND1      z[70]   
 BV BND1      z[71]   
 BV BND1      z[72]   
 BV BND1      z[73]   
 BV BND1      z[74]   
 BV BND1      z[75]   
 BV BND1      z[76]   
 BV BND1      z[77]   
 BV BND1      z[78]   
 BV BND1      z[79]   
 BV BND1      z[80]   
 BV BND1      z[81]   
 BV BND1      z[82]   
 BV BND1      z[83]   
 BV BND1      z[84]   
 BV BND1      z[85]   
 BV BND1      z[86]   
 BV BND1      z[87]   
 BV BND1      z[88]   
 BV BND1      z[89]   
 BV BND1      z[90]   
 BV BND1      z[91]   
 BV BND1      z[92]   
 BV BND1      z[93]   
 BV BND1      z[94]   
 BV BND1      z[95]   
 BV BND1      z[96]   
 BV BND1      z[97]   
 BV BND1      z[98]   
 BV BND1      z[99]   
ENDATA
