\ Model knapsack_100_10_4
\ LP format - for model browsing. Use MPS format to capture full model detail.
\ Signature: 0x4be735ad6dc0b2e2
Minimize
  10 x[0] + 10 x[1] + 10 x[2] + 10 x[3] + 10 x[4] + 10 x[5] + 10 x[6]
   + 10 x[7] + 10 x[8] + 10 x[9] + 10 x[10] + 10 x[11] + 10 x[12]
   + 10 x[13] + 10 x[14] + 10 x[15] + 10 x[16] + 10 x[17] + 10 x[18]
   + 10 x[19] + 10 x[20] + 10 x[21] + 10 x[22] + 10 x[23] + 10 x[24]
   + 10 x[25] + 10 x[26] + 10 x[27] + 10 x[28] + 10 x[29] + 10 x[30]
   + 10 x[31] + 10 x[32] + 10 x[33] + 10 x[34] + 10 x[35] + 10 x[36]
   + 10 x[37] + 10 x[38] + 10 x[39] + 10 x[40] + 10 x[41] + 10 x[42]
   + 10 x[43] + 10 x[44] + 10 x[45] + 10 x[46] + 10 x[47] + 10 x[48]
   + 10 x[49] + 10 x[50] + 10 x[51] + 10 x[52] + 10 x[53] + 10 x[54]
   + 10 x[55] + 10 x[56] + 10 x[57] + 10 x[58] + 10 x[59] + 10 x[60]
   + 10 x[61] + 10 x[62] + 10 x[63] + 10 x[64] + 10 x[65] + 10 x[66]
   + 10 x[67] + 10 x[68] + 10 x[69] + 10 x[70] + 10 x[71] + 10 x[72]
   + 10 x[73] + 10 x[74] + 10 x[75] + 10 x[76] + 10 x[77] + 10 x[78]
   + 10 x[79] + 10 x[80] + 10 x[81] + 10 x[82] + 10 x[83] + 10 x[84]
   + 10 x[85] + 10 x[86] + 10 x[87] + 10 x[88] + 10 x[89] + 10 x[90]
   + 10 x[91] + 10 x[92] + 10 x[93] + 10 x[94] + 10 x[95] + 10 x[96]
   + 10 x[97] + 10 x[98] + 10 x[99] - 248 y[0] - 924 y[1] - 418 y[2]
   - 506 y[3] - 931 y[4] - 631 y[5] - 683 y[6] - 737 y[7] - 936 y[8]
   - 408 y[9] - 289 y[10] - 825 y[11] - 997 y[12] - 752 y[13] - 569 y[14]
   - 74 y[15] - 448 y[16] - 24 y[17] - 68 y[18] - 679 y[19] - 971 y[20]
   - 365 y[21] - 334 y[22] - 342 y[23] - 499 y[24] - 844 y[25] - 386 y[26]
   - 517 y[27] - 980 y[28] - 14 y[29] - 247 y[30] - 206 y[31] - 910 y[32]
   - 269 y[33] - 485 y[34] - 611 y[35] - 819 y[36] - 973 y[37] - 544 y[38]
   - 225 y[39] - 422 y[40] - 851 y[41] - 315 y[42] - 737 y[43] - 196 y[44]
   - 137 y[45] - 262 y[46] - 330 y[47] - 278 y[48] - 711 y[49] - 897 y[50]
   - 16 y[51] - 533 y[52] - 27 y[53] - 262 y[54] - 896 y[55] - 956 y[56]
   - 442 y[57] - 418 y[58] - 601 y[59] - 242 y[60] - 708 y[61] - 243 y[62]
   - 395 y[63] - 156 y[64] - 291 y[65] - 907 y[66] - 451 y[67] - 982 y[68]
   - 555 y[69] - 507 y[70] - 101 y[71] - 755 y[72] - 291 y[73] - 912 y[74]
   - 760 y[75] - 720 y[76] - 379 y[77] - 762 y[78] - 829 y[79] - 773 y[80]
   - 964 y[81] - 599 y[82] - 800 y[83] - 883 y[84] - 818 y[85] - 708 y[86]
   - 589 y[87] - 662 y[88] - 812 y[89] - 548 y[90] - 211 y[91] - 3 y[92]
   - 18 y[93] - 734 y[94] - 60 y[95] - 91 y[96] - 446 y[97] - 82 y[98]
   - 146 y[99]
Subject To
 primal_upper: 287 y[0] + 304 y[1] + 466 y[2] + 911 y[3] + 412 y[4]
   + 357 y[5] + 525 y[6] + 95 y[7] + 133 y[8] + 294 y[9] + 347 y[10]
   + 119 y[11] + 356 y[12] + 440 y[13] + 124 y[14] + 864 y[15] + 373 y[16]
   + 620 y[17] + 401 y[18] + 98 y[19] + 277 y[20] + 795 y[21] + 60 y[22]
   + 986 y[23] + 228 y[24] + 356 y[25] + 978 y[26] + 91 y[27] + 77 y[28]
   + 211 y[29] + 849 y[30] + 687 y[31] + 83 y[32] + 529 y[33] + 44 y[34]
   + 645 y[35] + 372 y[36] + 240 y[37] + 652 y[38] + 578 y[39] + 591 y[40]
   + 461 y[41] + 462 y[42] + 937 y[43] + 175 y[44] + 926 y[45] + 969 y[46]
   + 957 y[47] + 127 y[48] + 588 y[49] + 38 y[50] + 540 y[51] + 413 y[52]
   + 192 y[53] + 96 y[54] + 331 y[55] + 641 y[56] + 70 y[57] + 156 y[58]
   + 326 y[59] + 820 y[60] + 166 y[61] + 807 y[62] + 6 y[63] + 667 y[64]
   + 328 y[65] + 20 y[66] + 962 y[67] + 244 y[68] + 957 y[69] + 117 y[70]
   + 561 y[71] + 406 y[72] + 435 y[73] + 839 y[74] + 708 y[75] + 554 y[76]
   + 959 y[77] + 1000 y[78] + 318 y[79] + 493 y[80] + 121 y[81] + 410 y[82]
   + 429 y[83] + 405 y[84] + 573 y[85] + 415 y[86] + 344 y[87] + 202 y[88]
   + 71 y[89] + 412 y[90] + 16 y[91] + 876 y[92] + 547 y[93] + 352 y[94]
   + 809 y[95] + 257 y[96] + 228 y[97] + 508 y[98] + 768 y[99] + 29 z[0]
   + 30 z[1] + 47 z[2] + 91 z[3] + 41 z[4] + 36 z[5] + 52 z[6] + 10 z[7]
   + 13 z[8] + 29 z[9] + 35 z[10] + 12 z[11] + 36 z[12] + 44 z[13]
   + 12 z[14] + 86 z[15] + 37 z[16] + 62 z[17] + 40 z[18] + 10 z[19]
   + 28 z[20] + 80 z[21] + 6 z[22] + 99 z[23] + 23 z[24] + 36 z[25]
   + 98 z[26] + 9 z[27] + 8 z[28] + 21 z[29] + 85 z[30] + 69 z[31]
   + 8 z[32] + 53 z[33] + 4 z[34] + 64 z[35] + 37 z[36] + 24 z[37]
   + 65 z[38] + 58 z[39] + 59 z[40] + 46 z[41] + 46 z[42] + 94 z[43]
   + 18 z[44] + 93 z[45] + 97 z[46] + 96 z[47] + 13 z[48] + 59 z[49]
   + 4 z[50] + 54 z[51] + 41 z[52] + 19 z[53] + 10 z[54] + 33 z[55]
   + 64 z[56] + 7 z[57] + 16 z[58] + 33 z[59] + 82 z[60] + 17 z[61]
   + 81 z[62] + z[63] + 67 z[64] + 33 z[65] + 2 z[66] + 96 z[67] + 24 z[68]
   + 96 z[69] + 12 z[70] + 56 z[71] + 41 z[72] + 44 z[73] + 84 z[74]
   + 71 z[75] + 55 z[76] + 96 z[77] + 100 z[78] + 32 z[79] + 49 z[80]
   + 12 z[81] + 41 z[82] + 43 z[83] + 40 z[84] + 57 z[85] + 42 z[86]
   + 34 z[87] + 20 z[88] + 7 z[89] + 41 z[90] + 2 z[91] + 88 z[92]
   + 55 z[93] + 35 z[94] + 81 z[95] + 26 z[96] + 23 z[97] + 51 z[98]
   + 77 z[99] <= 8874
 primal_lower0: 185 u[0] + 533 u[1] + 867 u[2] + 428 u[3] + 677 u[4]
   + 851 u[5] + 782 u[6] + 173 u[7] + 854 u[8] + 387 u[9] + 309 u[10]
   + 284 u[11] + 181 u[12] + 101 u[13] + 646 u[14] + 38 u[15] + 454 u[16]
   + 633 u[17] + 634 u[18] + 839 u[19] + 902 u[20] + 641 u[21] + 933 u[22]
   + 912 u[23] + 118 u[24] + 649 u[25] + 571 u[26] + 849 u[27] + 175 u[28]
   + 496 u[29] + 51 u[30] + 781 u[31] + 613 u[32] + 654 u[33] + 197 u[34]
   + 90 u[35] + 157 u[36] + 270 u[37] + 101 u[38] + 656 u[39] + 440 u[40]
   + 403 u[41] + 95 u[42] + 855 u[43] + 448 u[44] + 292 u[45] + 155 u[46]
   + 507 u[47] + 632 u[48] + 73 u[49] + 216 u[50] + 161 u[51] + 678 u[52]
   + 693 u[53] + 338 u[54] + 201 u[55] + 626 u[56] + 580 u[57] + 933 u[58]
   + 411 u[59] + 110 u[60] + 940 u[61] + 657 u[62] + 636 u[63] + 589 u[64]
   + 309 u[65] + 390 u[66] + 312 u[67] + 629 u[68] + 51 u[69] + 55 u[70]
   + 919 u[71] + 671 u[72] + 360 u[73] + 529 u[74] + 146 u[75] + 916 u[76]
   + 860 u[77] + 66 u[78] + 52 u[79] + 95 u[80] + 375 u[81] + 524 u[82]
   + 811 u[83] + 23 u[84] + 459 u[85] + 369 u[86] + 453 u[87] + 963 u[88]
   + 804 u[89] + 302 u[90] + 934 u[91] + 198 u[92] + 249 u[93] + 849 u[94]
   + 974 u[95] + 218 u[96] + 402 u[97] + 693 u[98] + 645 u[99] <= 974
 primal_lower1: 490 u[0] + 334 u[1] + 428 u[2] + 765 u[3] + 86 u[4]
   + 684 u[5] + 215 u[6] + 182 u[7] + 743 u[8] + 812 u[9] + 598 u[10]
   + 661 u[11] + 374 u[12] + 974 u[13] + 575 u[14] + 239 u[15] + 23 u[16]
   + 610 u[17] + 323 u[18] + 32 u[19] + 95 u[20] + 378 u[21] + 966 u[22]
   + 425 u[23] + 207 u[24] + 322 u[25] + 740 u[26] + 834 u[27] + 544 u[28]
   + 585 u[29] + 580 u[30] + 438 u[31] + 390 u[32] + 63 u[33] + 198 u[34]
   + 843 u[35] + 286 u[36] + 855 u[37] + 630 u[38] + 729 u[39] + 361 u[40]
   + 100 u[41] + 408 u[42] + 800 u[43] + 769 u[44] + 829 u[45] + 124 u[46]
   + 12 u[47] + 609 u[48] + 730 u[49] + 825 u[50] + 674 u[51] + 807 u[52]
   + 822 u[53] + 683 u[54] + 458 u[55] + 787 u[56] + 437 u[57] + 350 u[58]
   + 628 u[59] + 367 u[60] + 325 u[61] + 314 u[62] + 917 u[63] + 534 u[64]
   + 190 u[65] + 423 u[66] + 313 u[67] + 502 u[68] + 604 u[69] + 472 u[70]
   + 712 u[71] + 960 u[72] + 249 u[73] + 122 u[74] + 251 u[75] + 221 u[76]
   + 757 u[77] + 83 u[78] + 261 u[79] + 816 u[80] + 312 u[81] + 557 u[82]
   + 892 u[83] + 200 u[84] + 604 u[85] + 418 u[86] + 814 u[87] + 500 u[88]
   + 949 u[89] + 967 u[90] + 591 u[91] + 807 u[92] + 418 u[93] + 890 u[94]
   + 447 u[95] + 699 u[96] + 11 u[97] + 406 u[98] + 302 u[99] <= 20258
 primal_lower2: 348 u[0] + 669 u[1] + 519 u[2] + 412 u[3] + 209 u[4]
   + 170 u[5] + 410 u[6] + 556 u[7] + 266 u[8] + 675 u[9] + 728 u[10]
   + 372 u[11] + 545 u[12] + 509 u[13] + 561 u[14] + 509 u[15] + 82 u[16]
   + 873 u[17] + 246 u[18] + 959 u[19] + 690 u[20] + 472 u[21] + 825 u[22]
   + 215 u[23] + 25 u[24] + 673 u[25] + 7 u[26] + 888 u[27] + 522 u[28]
   + 1000 u[29] + 150 u[30] + 828 u[31] + 464 u[32] + 638 u[33] + 113 u[34]
   + 626 u[35] + 113 u[36] + 237 u[37] + 225 u[38] + 143 u[39] + 292 u[40]
   + 770 u[41] + 955 u[42] + 830 u[43] + 932 u[44] + 851 u[45] + 46 u[46]
   + 570 u[47] + 980 u[48] + 793 u[49] + 771 u[50] + 817 u[51] + 946 u[52]
   + 941 u[53] + 173 u[54] + 112 u[55] + 990 u[56] + 579 u[57] + 841 u[58]
   + 835 u[59] + 785 u[60] + 91 u[61] + 452 u[62] + 363 u[63] + 936 u[64]
   + 613 u[65] + 345 u[66] + 399 u[67] + 73 u[68] + 74 u[69] + 882 u[70]
   + 726 u[71] + 291 u[72] + 528 u[73] + 892 u[74] + 777 u[75] + 359 u[76]
   + 364 u[77] + 517 u[78] + 835 u[79] + 754 u[80] + 566 u[81] + 727 u[82]
   + 378 u[83] + 98 u[84] + 410 u[85] + 580 u[86] + 61 u[87] + 575 u[88]
   + 84 u[89] + 545 u[90] + 45 u[91] + 281 u[92] + 440 u[93] + 469 u[94]
   + 694 u[95] + 694 u[96] + 393 u[97] + 609 u[98] + 877 u[99] <= 1000
 primal_lower3: 754 u[0] + 614 u[1] + 764 u[2] + 349 u[3] + 942 u[4]
   + 964 u[5] + 327 u[6] + 510 u[7] + 775 u[8] + 332 u[9] + 78 u[10]
   + 405 u[11] + 758 u[12] + 158 u[13] + 71 u[14] + 327 u[15] + 775 u[16]
   + 738 u[17] + 155 u[18] + 536 u[19] + 511 u[20] + 866 u[21] + 582 u[22]
   + 641 u[23] + 23 u[24] + 642 u[25] + 268 u[26] + 290 u[27] + 288 u[28]
   + 329 u[29] + 92 u[30] + 798 u[31] + 310 u[32] + 55 u[33] + 446 u[34]
   + 171 u[35] + 486 u[36] + 535 u[37] + 166 u[38] + 9 u[39] + 121 u[40]
   + 332 u[41] + 904 u[42] + 640 u[43] + 609 u[44] + 301 u[45] + 732 u[46]
   + 276 u[47] + 721 u[48] + 442 u[49] + 193 u[50] + 274 u[51] + 255 u[52]
   + 438 u[53] + 795 u[54] + 810 u[55] + 139 u[56] + 253 u[57] + 310 u[58]
   + 532 u[59] + 375 u[60] + 445 u[61] + 234 u[62] + 21 u[63] + 566 u[64]
   + 998 u[65] + 903 u[66] + u[67] + 590 u[68] + 460 u[69] + 616 u[70]
   + 288 u[71] + 344 u[72] + 281 u[73] + 522 u[74] + 747 u[75] + 629 u[76]
   + 381 u[77] + 331 u[78] + 165 u[79] + 984 u[80] + 960 u[81] + 253 u[82]
   + 140 u[83] + 832 u[84] + 964 u[85] + 450 u[86] + 838 u[87] + 12 u[88]
   + 573 u[89] + 103 u[90] + 991 u[91] + 319 u[92] + 194 u[93] + 58 u[94]
   + 335 u[95] + 27 u[96] + 699 u[97] + 318 u[98] + 894 u[99] <= 27454
 primal_lower4: 728 u[0] + 292 u[1] + 298 u[2] + 171 u[3] + 700 u[4]
   + 26 u[5] + 229 u[6] + 692 u[7] + 365 u[8] + 738 u[9] + 764 u[10]
   + 747 u[11] + 508 u[12] + 44 u[13] + 501 u[14] + 141 u[15] + 101 u[16]
   + 368 u[17] + 185 u[18] + 822 u[19] + 765 u[20] + 336 u[21] + 620 u[22]
   + 975 u[23] + 805 u[24] + 688 u[25] + 578 u[26] + 352 u[27] + 134 u[28]
   + 415 u[29] + 522 u[30] + 700 u[31] + 260 u[32] + 629 u[33] + 820 u[34]
   + 137 u[35] + 764 u[36] + 653 u[37] + 644 u[38] + 903 u[39] + 847 u[40]
   + 290 u[41] + 462 u[42] + 638 u[43] + 799 u[44] + 379 u[45] + 306 u[46]
   + 938 u[47] + 679 u[48] + 56 u[49] + 39 u[50] + 120 u[51] + 821 u[52]
   + 964 u[53] + 657 u[54] + 832 u[55] + 705 u[56] + 883 u[57] + 948 u[58]
   + 90 u[59] + 765 u[60] + 923 u[61] + 528 u[62] + 971 u[63] + 284 u[64]
   + 316 u[65] + 453 u[66] + 119 u[67] + 556 u[68] + 170 u[69] + 670 u[70]
   + 686 u[71] + 742 u[72] + 839 u[73] + 360 u[74] + 337 u[75] + 323 u[76]
   + 995 u[77] + 449 u[78] + 523 u[79] + 22 u[80] + 30 u[81] + 347 u[82]
   + 122 u[83] + 534 u[84] + 946 u[85] + 888 u[86] + 388 u[87] + 90 u[88]
   + 395 u[89] + 37 u[90] + 733 u[91] + 37 u[92] + 832 u[93] + 832 u[94]
   + 237 u[95] + 289 u[96] + 41 u[97] + 348 u[98] + 868 u[99] <= 20239
 primal_lower5: 881 u[0] + 845 u[1] + 963 u[2] + 940 u[3] + 85 u[4]
   + 355 u[5] + 958 u[6] + 341 u[7] + 6 u[8] + 275 u[9] + 413 u[10]
   + 884 u[11] + 509 u[12] + 805 u[13] + 806 u[14] + 518 u[15] + 950 u[16]
   + 713 u[17] + 298 u[18] + 759 u[19] + 350 u[20] + 345 u[21] + 661 u[22]
   + 552 u[23] + 878 u[24] + 193 u[25] + 403 u[26] + 857 u[27] + 63 u[28]
   + 680 u[29] + 75 u[30] + 941 u[31] + 285 u[32] + 702 u[33] + 309 u[34]
   + 362 u[35] + 141 u[36] + 14 u[37] + 749 u[38] + 384 u[39] + 192 u[40]
   + 803 u[41] + 903 u[42] + 431 u[43] + 344 u[44] + 492 u[45] + 427 u[46]
   + 411 u[47] + 528 u[48] + 89 u[49] + 312 u[50] + 505 u[51] + 534 u[52]
   + 597 u[53] + 994 u[54] + 465 u[55] + 626 u[56] + 364 u[57] + 669 u[58]
   + 451 u[59] + 862 u[60] + 172 u[61] + 25 u[62] + 820 u[63] + 701 u[64]
   + 461 u[65] + 190 u[66] + 736 u[67] + 597 u[68] + 435 u[69] + 311 u[70]
   + 463 u[71] + 151 u[72] + 608 u[73] + 129 u[74] + 458 u[75] + 460 u[76]
   + 780 u[77] + 82 u[78] + 284 u[79] + 871 u[80] + 415 u[81] + 580 u[82]
   + 155 u[83] + 799 u[84] + 571 u[85] + 113 u[86] + 117 u[87] + 603 u[88]
   + 876 u[89] + 134 u[90] + 766 u[91] + 646 u[92] + 449 u[93] + 465 u[94]
   + 766 u[95] + 626 u[96] + 738 u[97] + 141 u[98] + 741 u[99] <= 30409
 primal_lower6: 570 u[0] + 854 u[1] + 244 u[2] + 213 u[3] + 454 u[4]
   + 884 u[5] + 63 u[6] + 710 u[7] + 527 u[8] + 388 u[9] + 214 u[10]
   + 597 u[11] + 742 u[12] + 470 u[13] + 399 u[14] + 495 u[15] + 663 u[16]
   + 794 u[17] + 315 u[18] + 440 u[19] + 223 u[20] + 210 u[21] + 806 u[22]
   + 417 u[23] + 607 u[24] + 98 u[25] + 508 u[26] + 794 u[27] + 928 u[28]
   + 225 u[29] + 772 u[30] + 870 u[31] + 126 u[32] + 343 u[33] + 94 u[34]
   + 915 u[35] + 894 u[36] + 519 u[37] + 94 u[38] + 649 u[39] + 593 u[40]
   + 372 u[41] + 600 u[42] + 760 u[43] + 297 u[44] + 413 u[45] + 516 u[46]
   + 660 u[47] + 665 u[48] + 122 u[49] + 185 u[50] + 10 u[51] + 135 u[52]
   + 910 u[53] + 819 u[54] + 482 u[55] + 675 u[56] + 429 u[57] + 934 u[58]
   + 292 u[59] + 719 u[60] + 333 u[61] + 690 u[62] + 717 u[63] + 926 u[64]
   + 518 u[65] + 511 u[66] + 233 u[67] + 438 u[68] + 172 u[69] + 648 u[70]
   + 848 u[71] + 472 u[72] + 697 u[73] + 538 u[74] + 627 u[75] + 573 u[76]
   + 229 u[77] + 635 u[78] + 421 u[79] + 760 u[80] + 912 u[81] + 205 u[82]
   + 404 u[83] + 952 u[84] + 868 u[85] + 106 u[86] + 638 u[87] + 868 u[88]
   + 973 u[89] + 375 u[90] + 343 u[91] + 271 u[92] + 882 u[93] + 210 u[94]
   + 183 u[95] + 731 u[96] + 979 u[97] + 574 u[98] + 630 u[99] <= 10561
 primal_lower7: 746 u[0] + 883 u[1] + 469 u[2] + 10 u[3] + 23 u[4]
   + 688 u[5] + 456 u[6] + 138 u[7] + 928 u[8] + 769 u[9] + 38 u[10]
   + 514 u[11] + 695 u[12] + 595 u[13] + 271 u[14] + 755 u[15] + 456 u[16]
   + 151 u[17] + 708 u[18] + 381 u[19] + 176 u[20] + 894 u[21] + 599 u[22]
   + 781 u[23] + 39 u[24] + 967 u[25] + 93 u[26] + 14 u[27] + 440 u[28]
   + 662 u[29] + 636 u[30] + 138 u[31] + 694 u[32] + 828 u[33] + 455 u[34]
   + 384 u[35] + 751 u[36] + 235 u[37] + 431 u[38] + 597 u[39] + 986 u[40]
   + 688 u[41] + 49 u[42] + 692 u[43] + 386 u[44] + 41 u[45] + 764 u[46]
   + 864 u[47] + 450 u[48] + 311 u[49] + 81 u[50] + 399 u[51] + 704 u[52]
   + 371 u[53] + 603 u[54] + 14 u[55] + 676 u[56] + 617 u[57] + 495 u[58]
   + 777 u[59] + 343 u[60] + 33 u[61] + 842 u[62] + 193 u[63] + 270 u[64]
   + 427 u[65] + 223 u[66] + 949 u[67] + 583 u[68] + 136 u[69] + 656 u[70]
   + 836 u[71] + 881 u[72] + 790 u[73] + 978 u[74] + 183 u[75] + 621 u[76]
   + 10 u[77] + 51 u[78] + 217 u[79] + 400 u[80] + 548 u[81] + 397 u[82]
   + 632 u[83] + 240 u[84] + 576 u[85] + 858 u[86] + 739 u[87] + 37 u[88]
   + 474 u[89] + 335 u[90] + 483 u[91] + 79 u[92] + 22 u[93] + 555 u[94]
   + 524 u[95] + 332 u[96] + 647 u[97] + 855 u[98] + 779 u[99] <= 19276
 primal_lower8: 518 u[0] + 647 u[1] + 753 u[2] + 422 u[3] + 275 u[4]
   + 700 u[5] + 996 u[6] + 150 u[7] + 980 u[8] + 485 u[9] + 850 u[10]
   + 166 u[11] + 859 u[12] + 455 u[13] + 691 u[14] + 47 u[15] + 460 u[16]
   + 275 u[17] + 136 u[18] + 665 u[19] + 732 u[20] + 114 u[21] + 323 u[22]
   + 25 u[23] + 443 u[24] + 131 u[25] + 457 u[26] + 2 u[27] + 52 u[28]
   + 410 u[29] + 88 u[30] + 910 u[31] + 18 u[32] + 896 u[33] + 203 u[34]
   + 580 u[35] + 859 u[36] + 279 u[37] + 467 u[38] + 193 u[39] + 966 u[40]
   + 516 u[41] + 77 u[42] + 504 u[43] + 750 u[44] + 917 u[45] + 1000 u[46]
   + 796 u[47] + 54 u[48] + 659 u[49] + 197 u[50] + 883 u[51] + 572 u[52]
   + 975 u[53] + 935 u[54] + 202 u[55] + 320 u[56] + 477 u[57] + 643 u[58]
   + 637 u[59] + 43 u[60] + 813 u[61] + 534 u[62] + 837 u[63] + 738 u[64]
   + 591 u[65] + 459 u[66] + 297 u[67] + 723 u[68] + 468 u[69] + 196 u[70]
   + 24 u[71] + 877 u[72] + 690 u[73] + 446 u[74] + 843 u[75] + 521 u[76]
   + 334 u[77] + 703 u[78] + 397 u[79] + 52 u[80] + 312 u[81] + 721 u[82]
   + 636 u[83] + 916 u[84] + 740 u[85] + 838 u[86] + 607 u[87] + 281 u[88]
   + 134 u[89] + 131 u[90] + 167 u[91] + 563 u[92] + 522 u[93] + 823 u[94]
   + 560 u[95] + 720 u[96] + 507 u[97] + 459 u[98] + 439 u[99] <= 1000
 primal_lower9: 950 u[0] + 242 u[1] + 456 u[2] + 977 u[3] + 714 u[4]
   + 40 u[5] + 123 u[6] + 530 u[7] + 19 u[8] + 952 u[9] + 402 u[10]
   + 137 u[11] + 802 u[12] + 378 u[13] + 731 u[14] + 707 u[15] + 251 u[16]
   + 6 u[17] + 399 u[18] + 620 u[19] + 147 u[20] + 366 u[21] + 186 u[22]
   + 701 u[23] + 691 u[24] + 30 u[25] + 240 u[26] + 470 u[27] + 764 u[28]
   + 29 u[29] + 336 u[30] + 474 u[31] + 778 u[32] + 355 u[33] + 706 u[34]
   + 983 u[35] + 234 u[36] + 435 u[37] + 354 u[38] + 77 u[39] + 653 u[40]
   + 648 u[41] + 28 u[42] + 300 u[43] + 541 u[44] + 489 u[45] + 328 u[46]
   + 624 u[47] + 557 u[48] + 846 u[49] + 605 u[50] + 62 u[51] + 675 u[52]
   + 442 u[53] + 895 u[54] + 438 u[55] + 71 u[56] + 465 u[57] + 794 u[58]
   + 736 u[59] + 51 u[60] + 209 u[61] + 918 u[62] + 505 u[63] + 634 u[64]
   + 114 u[65] + 739 u[66] + 13 u[67] + 250 u[68] + 928 u[69] + 676 u[70]
   + 612 u[71] + 940 u[72] + 221 u[73] + 222 u[74] + 623 u[75] + 905 u[76]
   + 753 u[77] + 447 u[78] + 657 u[79] + 444 u[80] + 444 u[81] + 945 u[82]
   + 464 u[83] + 500 u[84] + 392 u[85] + 694 u[86] + 378 u[87] + 768 u[88]
   + 257 u[89] + 323 u[90] + 451 u[91] + 643 u[92] + 390 u[93] + 206 u[94]
   + 507 u[95] + 143 u[96] + 119 u[97] + 170 u[98] + 890 u[99] <= 28520
 interdiction[0]: x[0] + u[0] <= 1
 interdiction[1]: x[1] + u[1] <= 1
 interdiction[2]: x[2] + u[2] <= 1
 interdiction[3]: x[3] + u[3] <= 1
 interdiction[4]: x[4] + u[4] <= 1
 interdiction[5]: x[5] + u[5] <= 1
 interdiction[6]: x[6] + u[6] <= 1
 interdiction[7]: x[7] + u[7] <= 1
 interdiction[8]: x[8] + u[8] <= 1
 interdiction[9]: x[9] + u[9] <= 1
 interdiction[10]: x[10] + u[10] <= 1
 interdiction[11]: x[11] + u[11] <= 1
 interdiction[12]: x[12] + u[12] <= 1
 interdiction[13]: x[13] + u[13] <= 1
 interdiction[14]: x[14] + u[14] <= 1
 interdiction[15]: x[15] + u[15] <= 1
 interdiction[16]: x[16] + u[16] <= 1
 interdiction[17]: x[17] + u[17] <= 1
 interdiction[18]: x[18] + u[18] <= 1
 interdiction[19]: x[19] + u[19] <= 1
 interdiction[20]: x[20] + u[20] <= 1
 interdiction[21]: x[21] + u[21] <= 1
 interdiction[22]: x[22] + u[22] <= 1
 interdiction[23]: x[23] + u[23] <= 1
 interdiction[24]: x[24] + u[24] <= 1
 interdiction[25]: x[25] + u[25] <= 1
 interdiction[26]: x[26] + u[26] <= 1
 interdiction[27]: x[27] + u[27] <= 1
 interdiction[28]: x[28] + u[28] <= 1
 interdiction[29]: x[29] + u[29] <= 1
 interdiction[30]: x[30] + u[30] <= 1
 interdiction[31]: x[31] + u[31] <= 1
 interdiction[32]: x[32] + u[32] <= 1
 interdiction[33]: x[33] + u[33] <= 1
 interdiction[34]: x[34] + u[34] <= 1
 interdiction[35]: x[35] + u[35] <= 1
 interdiction[36]: x[36] + u[36] <= 1
 interdiction[37]: x[37] + u[37] <= 1
 interdiction[38]: x[38] + u[38] <= 1
 interdiction[39]: x[39] + u[39] <= 1
 interdiction[40]: x[40] + u[40] <= 1
 interdiction[41]: x[41] + u[41] <= 1
 interdiction[42]: x[42] + u[42] <= 1
 interdiction[43]: x[43] + u[43] <= 1
 interdiction[44]: x[44] + u[44] <= 1
 interdiction[45]: x[45] + u[45] <= 1
 interdiction[46]: x[46] + u[46] <= 1
 interdiction[47]: x[47] + u[47] <= 1
 interdiction[48]: x[48] + u[48] <= 1
 interdiction[49]: x[49] + u[49] <= 1
 interdiction[50]: x[50] + u[50] <= 1
 interdiction[51]: x[51] + u[51] <= 1
 interdiction[52]: x[52] + u[52] <= 1
 interdiction[53]: x[53] + u[53] <= 1
 interdiction[54]: x[54] + u[54] <= 1
 interdiction[55]: x[55] + u[55] <= 1
 interdiction[56]: x[56] + u[56] <= 1
 interdiction[57]: x[57] + u[57] <= 1
 interdiction[58]: x[58] + u[58] <= 1
 interdiction[59]: x[59] + u[59] <= 1
 interdiction[60]: x[60] + u[60] <= 1
 interdiction[61]: x[61] + u[61] <= 1
 interdiction[62]: x[62] + u[62] <= 1
 interdiction[63]: x[63] + u[63] <= 1
 interdiction[64]: x[64] + u[64] <= 1
 interdiction[65]: x[65] + u[65] <= 1
 interdiction[66]: x[66] + u[66] <= 1
 interdiction[67]: x[67] + u[67] <= 1
 interdiction[68]: x[68] + u[68] <= 1
 interdiction[69]: x[69] + u[69] <= 1
 interdiction[70]: x[70] + u[70] <= 1
 interdiction[71]: x[71] + u[71] <= 1
 interdiction[72]: x[72] + u[72] <= 1
 interdiction[73]: x[73] + u[73] <= 1
 interdiction[74]: x[74] + u[74] <= 1
 interdiction[75]: x[75] + u[75] <= 1
 interdiction[76]: x[76] + u[76] <= 1
 interdiction[77]: x[77] + u[77] <= 1
 interdiction[78]: x[78] + u[78] <= 1
 interdiction[79]: x[79] + u[79] <= 1
 interdiction[80]: x[80] + u[80] <= 1
 interdiction[81]: x[81] + u[81] <= 1
 interdiction[82]: x[82] + u[82] <= 1
 interdiction[83]: x[83] + u[83] <= 1
 interdiction[84]: x[84] + u[84] <= 1
 interdiction[85]: x[85] + u[85] <= 1
 interdiction[86]: x[86] + u[86] <= 1
 interdiction[87]: x[87] + u[87] <= 1
 interdiction[88]: x[88] + u[88] <= 1
 interdiction[89]: x[89] + u[89] <= 1
 interdiction[90]: x[90] + u[90] <= 1
 interdiction[91]: x[91] + u[91] <= 1
 interdiction[92]: x[92] + u[92] <= 1
 interdiction[93]: x[93] + u[93] <= 1
 interdiction[94]: x[94] + u[94] <= 1
 interdiction[95]: x[95] + u[95] <= 1
 interdiction[96]: x[96] + u[96] <= 1
 interdiction[97]: x[97] + u[97] <= 1
 interdiction[98]: x[98] + u[98] <= 1
 interdiction[99]: x[99] + u[99] <= 1
 mccormick1[0]: - u[0] + z[0] <= 0
 mccormick1[1]: - u[1] + z[1] <= 0
 mccormick1[2]: - u[2] + z[2] <= 0
 mccormick1[3]: - u[3] + z[3] <= 0
 mccormick1[4]: - u[4] + z[4] <= 0
 mccormick1[5]: - u[5] + z[5] <= 0
 mccormick1[6]: - u[6] + z[6] <= 0
 mccormick1[7]: - u[7] + z[7] <= 0
 mccormick1[8]: - u[8] + z[8] <= 0
 mccormick1[9]: - u[9] + z[9] <= 0
 mccormick1[10]: - u[10] + z[10] <= 0
 mccormick1[11]: - u[11] + z[11] <= 0
 mccormick1[12]: - u[12] + z[12] <= 0
 mccormick1[13]: - u[13] + z[13] <= 0
 mccormick1[14]: - u[14] + z[14] <= 0
 mccormick1[15]: - u[15] + z[15] <= 0
 mccormick1[16]: - u[16] + z[16] <= 0
 mccormick1[17]: - u[17] + z[17] <= 0
 mccormick1[18]: - u[18] + z[18] <= 0
 mccormick1[19]: - u[19] + z[19] <= 0
 mccormick1[20]: - u[20] + z[20] <= 0
 mccormick1[21]: - u[21] + z[21] <= 0
 mccormick1[22]: - u[22] + z[22] <= 0
 mccormick1[23]: - u[23] + z[23] <= 0
 mccormick1[24]: - u[24] + z[24] <= 0
 mccormick1[25]: - u[25] + z[25] <= 0
 mccormick1[26]: - u[26] + z[26] <= 0
 mccormick1[27]: - u[27] + z[27] <= 0
 mccormick1[28]: - u[28] + z[28] <= 0
 mccormick1[29]: - u[29] + z[29] <= 0
 mccormick1[30]: - u[30] + z[30] <= 0
 mccormick1[31]: - u[31] + z[31] <= 0
 mccormick1[32]: - u[32] + z[32] <= 0
 mccormick1[33]: - u[33] + z[33] <= 0
 mccormick1[34]: - u[34] + z[34] <= 0
 mccormick1[35]: - u[35] + z[35] <= 0
 mccormick1[36]: - u[36] + z[36] <= 0
 mccormick1[37]: - u[37] + z[37] <= 0
 mccormick1[38]: - u[38] + z[38] <= 0
 mccormick1[39]: - u[39] + z[39] <= 0
 mccormick1[40]: - u[40] + z[40] <= 0
 mccormick1[41]: - u[41] + z[41] <= 0
 mccormick1[42]: - u[42] + z[42] <= 0
 mccormick1[43]: - u[43] + z[43] <= 0
 mccormick1[44]: - u[44] + z[44] <= 0
 mccormick1[45]: - u[45] + z[45] <= 0
 mccormick1[46]: - u[46] + z[46] <= 0
 mccormick1[47]: - u[47] + z[47] <= 0
 mccormick1[48]: - u[48] + z[48] <= 0
 mccormick1[49]: - u[49] + z[49] <= 0
 mccormick1[50]: - u[50] + z[50] <= 0
 mccormick1[51]: - u[51] + z[51] <= 0
 mccormick1[52]: - u[52] + z[52] <= 0
 mccormick1[53]: - u[53] + z[53] <= 0
 mccormick1[54]: - u[54] + z[54] <= 0
 mccormick1[55]: - u[55] + z[55] <= 0
 mccormick1[56]: - u[56] + z[56] <= 0
 mccormick1[57]: - u[57] + z[57] <= 0
 mccormick1[58]: - u[58] + z[58] <= 0
 mccormick1[59]: - u[59] + z[59] <= 0
 mccormick1[60]: - u[60] + z[60] <= 0
 mccormick1[61]: - u[61] + z[61] <= 0
 mccormick1[62]: - u[62] + z[62] <= 0
 mccormick1[63]: - u[63] + z[63] <= 0
 mccormick1[64]: - u[64] + z[64] <= 0
 mccormick1[65]: - u[65] + z[65] <= 0
 mccormick1[66]: - u[66] + z[66] <= 0
 mccormick1[67]: - u[67] + z[67] <= 0
 mccormick1[68]: - u[68] + z[68] <= 0
 mccormick1[69]: - u[69] + z[69] <= 0
 mccormick1[70]: - u[70] + z[70] <= 0
 mccormick1[71]: - u[71] + z[71] <= 0
 mccormick1[72]: - u[72] + z[72] <= 0
 mccormick1[73]: - u[73] + z[73] <= 0
 mccormick1[74]: - u[74] + z[74] <= 0
 mccormick1[75]: - u[75] + z[75] <= 0
 mccormick1[76]: - u[76] + z[76] <= 0
 mccormick1[77]: - u[77] + z[77] <= 0
 mccormick1[78]: - u[78] + z[78] <= 0
 mccormick1[79]: - u[79] + z[79] <= 0
 mccormick1[80]: - u[80] + z[80] <= 0
 mccormick1[81]: - u[81] + z[81] <= 0
 mccormick1[82]: - u[82] + z[82] <= 0
 mccormick1[83]: - u[83] + z[83] <= 0
 mccormick1[84]: - u[84] + z[84] <= 0
 mccormick1[85]: - u[85] + z[85] <= 0
 mccormick1[86]: - u[86] + z[86] <= 0
 mccormick1[87]: - u[87] + z[87] <= 0
 mccormick1[88]: - u[88] + z[88] <= 0
 mccormick1[89]: - u[89] + z[89] <= 0
 mccormick1[90]: - u[90] + z[90] <= 0
 mccormick1[91]: - u[91] + z[91] <= 0
 mccormick1[92]: - u[92] + z[92] <= 0
 mccormick1[93]: - u[93] + z[93] <= 0
 mccormick1[94]: - u[94] + z[94] <= 0
 mccormick1[95]: - u[95] + z[95] <= 0
 mccormick1[96]: - u[96] + z[96] <= 0
 mccormick1[97]: - u[97] + z[97] <= 0
 mccormick1[98]: - u[98] + z[98] <= 0
 mccormick1[99]: - u[99] + z[99] <= 0
 mccormick2[0]: - y[0] + z[0] <= 0
 mccormick2[1]: - y[1] + z[1] <= 0
 mccormick2[2]: - y[2] + z[2] <= 0
 mccormick2[3]: - y[3] + z[3] <= 0
 mccormick2[4]: - y[4] + z[4] <= 0
 mccormick2[5]: - y[5] + z[5] <= 0
 mccormick2[6]: - y[6] + z[6] <= 0
 mccormick2[7]: - y[7] + z[7] <= 0
 mccormick2[8]: - y[8] + z[8] <= 0
 mccormick2[9]: - y[9] + z[9] <= 0
 mccormick2[10]: - y[10] + z[10] <= 0
 mccormick2[11]: - y[11] + z[11] <= 0
 mccormick2[12]: - y[12] + z[12] <= 0
 mccormick2[13]: - y[13] + z[13] <= 0
 mccormick2[14]: - y[14] + z[14] <= 0
 mccormick2[15]: - y[15] + z[15] <= 0
 mccormick2[16]: - y[16] + z[16] <= 0
 mccormick2[17]: - y[17] + z[17] <= 0
 mccormick2[18]: - y[18] + z[18] <= 0
 mccormick2[19]: - y[19] + z[19] <= 0
 mccormick2[20]: - y[20] + z[20] <= 0
 mccormick2[21]: - y[21] + z[21] <= 0
 mccormick2[22]: - y[22] + z[22] <= 0
 mccormick2[23]: - y[23] + z[23] <= 0
 mccormick2[24]: - y[24] + z[24] <= 0
 mccormick2[25]: - y[25] + z[25] <= 0
 mccormick2[26]: - y[26] + z[26] <= 0
 mccormick2[27]: - y[27] + z[27] <= 0
 mccormick2[28]: - y[28] + z[28] <= 0
 mccormick2[29]: - y[29] + z[29] <= 0
 mccormick2[30]: - y[30] + z[30] <= 0
 mccormick2[31]: - y[31] + z[31] <= 0
 mccormick2[32]: - y[32] + z[32] <= 0
 mccormick2[33]: - y[33] + z[33] <= 0
 mccormick2[34]: - y[34] + z[34] <= 0
 mccormick2[35]: - y[35] + z[35] <= 0
 mccormick2[36]: - y[36] + z[36] <= 0
 mccormick2[37]: - y[37] + z[37] <= 0
 mccormick2[38]: - y[38] + z[38] <= 0
 mccormick2[39]: - y[39] + z[39] <= 0
 mccormick2[40]: - y[40] + z[40] <= 0
 mccormick2[41]: - y[41] + z[41] <= 0
 mccormick2[42]: - y[42] + z[42] <= 0
 mccormick2[43]: - y[43] + z[43] <= 0
 mccormick2[44]: - y[44] + z[44] <= 0
 mccormick2[45]: - y[45] + z[45] <= 0
 mccormick2[46]: - y[46] + z[46] <= 0
 mccormick2[47]: - y[47] + z[47] <= 0
 mccormick2[48]: - y[48] + z[48] <= 0
 mccormick2[49]: - y[49] + z[49] <= 0
 mccormick2[50]: - y[50] + z[50] <= 0
 mccormick2[51]: - y[51] + z[51] <= 0
 mccormick2[52]: - y[52] + z[52] <= 0
 mccormick2[53]: - y[53] + z[53] <= 0
 mccormick2[54]: - y[54] + z[54] <= 0
 mccormick2[55]: - y[55] + z[55] <= 0
 mccormick2[56]: - y[56] + z[56] <= 0
 mccormick2[57]: - y[57] + z[57] <= 0
 mccormick2[58]: - y[58] + z[58] <= 0
 mccormick2[59]: - y[59] + z[59] <= 0
 mccormick2[60]: - y[60] + z[60] <= 0
 mccormick2[61]: - y[61] + z[61] <= 0
 mccormick2[62]: - y[62] + z[62] <= 0
 mccormick2[63]: - y[63] + z[63] <= 0
 mccormick2[64]: - y[64] + z[64] <= 0
 mccormick2[65]: - y[65] + z[65] <= 0
 mccormick2[66]: - y[66] + z[66] <= 0
 mccormick2[67]: - y[67] + z[67] <= 0
 mccormick2[68]: - y[68] + z[68] <= 0
 mccormick2[69]: - y[69] + z[69] <= 0
 mccormick2[70]: - y[70] + z[70] <= 0
 mccormick2[71]: - y[71] + z[71] <= 0
 mccormick2[72]: - y[72] + z[72] <= 0
 mccormick2[73]: - y[73] + z[73] <= 0
 mccormick2[74]: - y[74] + z[74] <= 0
 mccormick2[75]: - y[75] + z[75] <= 0
 mccormick2[76]: - y[76] + z[76] <= 0
 mccormick2[77]: - y[77] + z[77] <= 0
 mccormick2[78]: - y[78] + z[78] <= 0
 mccormick2[79]: - y[79] + z[79] <= 0
 mccormick2[80]: - y[80] + z[80] <= 0
 mccormick2[81]: - y[81] + z[81] <= 0
 mccormick2[82]: - y[82] + z[82] <= 0
 mccormick2[83]: - y[83] + z[83] <= 0
 mccormick2[84]: - y[84] + z[84] <= 0
 mccormick2[85]: - y[85] + z[85] <= 0
 mccormick2[86]: - y[86] + z[86] <= 0
 mccormick2[87]: - y[87] + z[87] <= 0
 mccormick2[88]: - y[88] + z[88] <= 0
 mccormick2[89]: - y[89] + z[89] <= 0
 mccormick2[90]: - y[90] + z[90] <= 0
 mccormick2[91]: - y[91] + z[91] <= 0
 mccormick2[92]: - y[92] + z[92] <= 0
 mccormick2[93]: - y[93] + z[93] <= 0
 mccormick2[94]: - y[94] + z[94] <= 0
 mccormick2[95]: - y[95] + z[95] <= 0
 mccormick2[96]: - y[96] + z[96] <= 0
 mccormick2[97]: - y[97] + z[97] <= 0
 mccormick2[98]: - y[98] + z[98] <= 0
 mccormick2[99]: - y[99] + z[99] <= 0
 mccormick3[0]: y[0] + u[0] - z[0] <= 1
 mccormick3[1]: y[1] + u[1] - z[1] <= 1
 mccormick3[2]: y[2] + u[2] - z[2] <= 1
 mccormick3[3]: y[3] + u[3] - z[3] <= 1
 mccormick3[4]: y[4] + u[4] - z[4] <= 1
 mccormick3[5]: y[5] + u[5] - z[5] <= 1
 mccormick3[6]: y[6] + u[6] - z[6] <= 1
 mccormick3[7]: y[7] + u[7] - z[7] <= 1
 mccormick3[8]: y[8] + u[8] - z[8] <= 1
 mccormick3[9]: y[9] + u[9] - z[9] <= 1
 mccormick3[10]: y[10] + u[10] - z[10] <= 1
 mccormick3[11]: y[11] + u[11] - z[11] <= 1
 mccormick3[12]: y[12] + u[12] - z[12] <= 1
 mccormick3[13]: y[13] + u[13] - z[13] <= 1
 mccormick3[14]: y[14] + u[14] - z[14] <= 1
 mccormick3[15]: y[15] + u[15] - z[15] <= 1
 mccormick3[16]: y[16] + u[16] - z[16] <= 1
 mccormick3[17]: y[17] + u[17] - z[17] <= 1
 mccormick3[18]: y[18] + u[18] - z[18] <= 1
 mccormick3[19]: y[19] + u[19] - z[19] <= 1
 mccormick3[20]: y[20] + u[20] - z[20] <= 1
 mccormick3[21]: y[21] + u[21] - z[21] <= 1
 mccormick3[22]: y[22] + u[22] - z[22] <= 1
 mccormick3[23]: y[23] + u[23] - z[23] <= 1
 mccormick3[24]: y[24] + u[24] - z[24] <= 1
 mccormick3[25]: y[25] + u[25] - z[25] <= 1
 mccormick3[26]: y[26] + u[26] - z[26] <= 1
 mccormick3[27]: y[27] + u[27] - z[27] <= 1
 mccormick3[28]: y[28] + u[28] - z[28] <= 1
 mccormick3[29]: y[29] + u[29] - z[29] <= 1
 mccormick3[30]: y[30] + u[30] - z[30] <= 1
 mccormick3[31]: y[31] + u[31] - z[31] <= 1
 mccormick3[32]: y[32] + u[32] - z[32] <= 1
 mccormick3[33]: y[33] + u[33] - z[33] <= 1
 mccormick3[34]: y[34] + u[34] - z[34] <= 1
 mccormick3[35]: y[35] + u[35] - z[35] <= 1
 mccormick3[36]: y[36] + u[36] - z[36] <= 1
 mccormick3[37]: y[37] + u[37] - z[37] <= 1
 mccormick3[38]: y[38] + u[38] - z[38] <= 1
 mccormick3[39]: y[39] + u[39] - z[39] <= 1
 mccormick3[40]: y[40] + u[40] - z[40] <= 1
 mccormick3[41]: y[41] + u[41] - z[41] <= 1
 mccormick3[42]: y[42] + u[42] - z[42] <= 1
 mccormick3[43]: y[43] + u[43] - z[43] <= 1
 mccormick3[44]: y[44] + u[44] - z[44] <= 1
 mccormick3[45]: y[45] + u[45] - z[45] <= 1
 mccormick3[46]: y[46] + u[46] - z[46] <= 1
 mccormick3[47]: y[47] + u[47] - z[47] <= 1
 mccormick3[48]: y[48] + u[48] - z[48] <= 1
 mccormick3[49]: y[49] + u[49] - z[49] <= 1
 mccormick3[50]: y[50] + u[50] - z[50] <= 1
 mccormick3[51]: y[51] + u[51] - z[51] <= 1
 mccormick3[52]: y[52] + u[52] - z[52] <= 1
 mccormick3[53]: y[53] + u[53] - z[53] <= 1
 mccormick3[54]: y[54] + u[54] - z[54] <= 1
 mccormick3[55]: y[55] + u[55] - z[55] <= 1
 mccormick3[56]: y[56] + u[56] - z[56] <= 1
 mccormick3[57]: y[57] + u[57] - z[57] <= 1
 mccormick3[58]: y[58] + u[58] - z[58] <= 1
 mccormick3[59]: y[59] + u[59] - z[59] <= 1
 mccormick3[60]: y[60] + u[60] - z[60] <= 1
 mccormick3[61]: y[61] + u[61] - z[61] <= 1
 mccormick3[62]: y[62] + u[62] - z[62] <= 1
 mccormick3[63]: y[63] + u[63] - z[63] <= 1
 mccormick3[64]: y[64] + u[64] - z[64] <= 1
 mccormick3[65]: y[65] + u[65] - z[65] <= 1
 mccormick3[66]: y[66] + u[66] - z[66] <= 1
 mccormick3[67]: y[67] + u[67] - z[67] <= 1
 mccormick3[68]: y[68] + u[68] - z[68] <= 1
 mccormick3[69]: y[69] + u[69] - z[69] <= 1
 mccormick3[70]: y[70] + u[70] - z[70] <= 1
 mccormick3[71]: y[71] + u[71] - z[71] <= 1
 mccormick3[72]: y[72] + u[72] - z[72] <= 1
 mccormick3[73]: y[73] + u[73] - z[73] <= 1
 mccormick3[74]: y[74] + u[74] - z[74] <= 1
 mccormick3[75]: y[75] + u[75] - z[75] <= 1
 mccormick3[76]: y[76] + u[76] - z[76] <= 1
 mccormick3[77]: y[77] + u[77] - z[77] <= 1
 mccormick3[78]: y[78] + u[78] - z[78] <= 1
 mccormick3[79]: y[79] + u[79] - z[79] <= 1
 mccormick3[80]: y[80] + u[80] - z[80] <= 1
 mccormick3[81]: y[81] + u[81] - z[81] <= 1
 mccormick3[82]: y[82] + u[82] - z[82] <= 1
 mccormick3[83]: y[83] + u[83] - z[83] <= 1
 mccormick3[84]: y[84] + u[84] - z[84] <= 1
 mccormick3[85]: y[85] + u[85] - z[85] <= 1
 mccormick3[86]: y[86] + u[86] - z[86] <= 1
 mccormick3[87]: y[87] + u[87] - z[87] <= 1
 mccormick3[88]: y[88] + u[88] - z[88] <= 1
 mccormick3[89]: y[89] + u[89] - z[89] <= 1
 mccormick3[90]: y[90] + u[90] - z[90] <= 1
 mccormick3[91]: y[91] + u[91] - z[91] <= 1
 mccormick3[92]: y[92] + u[92] - z[92] <= 1
 mccormick3[93]: y[93] + u[93] - z[93] <= 1
 mccormick3[94]: y[94] + u[94] - z[94] <= 1
 mccormick3[95]: y[95] + u[95] - z[95] <= 1
 mccormick3[96]: y[96] + u[96] - z[96] <= 1
 mccormick3[97]: y[97] + u[97] - z[97] <= 1
 mccormick3[98]: y[98] + u[98] - z[98] <= 1
 mccormick3[99]: y[99] + u[99] - z[99] <= 1
Bounds
Binaries
 x[0] x[1] x[2] x[3] x[4] x[5] x[6] x[7] x[8] x[9] x[10] x[11] x[12] x[13]
 x[14] x[15] x[16] x[17] x[18] x[19] x[20] x[21] x[22] x[23] x[24] x[25]
 x[26] x[27] x[28] x[29] x[30] x[31] x[32] x[33] x[34] x[35] x[36] x[37]
 x[38] x[39] x[40] x[41] x[42] x[43] x[44] x[45] x[46] x[47] x[48] x[49]
 x[50] x[51] x[52] x[53] x[54] x[55] x[56] x[57] x[58] x[59] x[60] x[61]
 x[62] x[63] x[64] x[65] x[66] x[67] x[68] x[69] x[70] x[71] x[72] x[73]
 x[74] x[75] x[76] x[77] x[78] x[79] x[80] x[81] x[82] x[83] x[84] x[85]
 x[86] x[87] x[88] x[89] x[90] x[91] x[92] x[93] x[94] x[95] x[96] x[97]
 x[98] x[99] y[0] y[1] y[2] y[3] y[4] y[5] y[6] y[7] y[8] y[9] y[10] y[11]
 y[12] y[13] y[14] y[15] y[16] y[17] y[18] y[19] y[20] y[21] y[22] y[23]
 y[24] y[25] y[26] y[27] y[28] y[29] y[30] y[31] y[32] y[33] y[34] y[35]
 y[36] y[37] y[38] y[39] y[40] y[41] y[42] y[43] y[44] y[45] y[46] y[47]
 y[48] y[49] y[50] y[51] y[52] y[53] y[54] y[55] y[56] y[57] y[58] y[59]
 y[60] y[61] y[62] y[63] y[64] y[65] y[66] y[67] y[68] y[69] y[70] y[71]
 y[72] y[73] y[74] y[75] y[76] y[77] y[78] y[79] y[80] y[81] y[82] y[83]
 y[84] y[85] y[86] y[87] y[88] y[89] y[90] y[91] y[92] y[93] y[94] y[95]
 y[96] y[97] y[98] y[99] u[0] u[1] u[2] u[3] u[4] u[5] u[6] u[7] u[8] u[9]
 u[10] u[11] u[12] u[13] u[14] u[15] u[16] u[17] u[18] u[19] u[20] u[21]
 u[22] u[23] u[24] u[25] u[26] u[27] u[28] u[29] u[30] u[31] u[32] u[33]
 u[34] u[35] u[36] u[37] u[38] u[39] u[40] u[41] u[42] u[43] u[44] u[45]
 u[46] u[47] u[48] u[49] u[50] u[51] u[52] u[53] u[54] u[55] u[56] u[57]
 u[58] u[59] u[60] u[61] u[62] u[63] u[64] u[65] u[66] u[67] u[68] u[69]
 u[70] u[71] u[72] u[73] u[74] u[75] u[76] u[77] u[78] u[79] u[80] u[81]
 u[82] u[83] u[84] u[85] u[86] u[87] u[88] u[89] u[90] u[91] u[92] u[93]
 u[94] u[95] u[96] u[97] u[98] u[99] z[0] z[1] z[2] z[3] z[4] z[5] z[6]
 z[7] z[8] z[9] z[10] z[11] z[12] z[13] z[14] z[15] z[16] z[17] z[18] z[19]
 z[20] z[21] z[22] z[23] z[24] z[25] z[26] z[27] z[28] z[29] z[30] z[31]
 z[32] z[33] z[34] z[35] z[36] z[37] z[38] z[39] z[40] z[41] z[42] z[43]
 z[44] z[45] z[46] z[47] z[48] z[49] z[50] z[51] z[52] z[53] z[54] z[55]
 z[56] z[57] z[58] z[59] z[60] z[61] z[62] z[63] z[64] z[65] z[66] z[67]
 z[68] z[69] z[70] z[71] z[72] z[73] z[74] z[75] z[76] z[77] z[78] z[79]
 z[80] z[81] z[82] z[83] z[84] z[85] z[86] z[87] z[88] z[89] z[90] z[91]
 z[92] z[93] z[94] z[95] z[96] z[97] z[98] z[99]
End
