* Signature: 0xba60f4f0ca1d3fbc
NAME knapsack_40_100_3
ROWS
 N  OBJ
 L  primal_upper
 L  primal_lower0
 L  primal_lower1
 L  primal_lower2
 L  primal_lower3
 L  primal_lower4
 L  primal_lower5
 L  primal_lower6
 L  primal_lower7
 L  primal_lower8
 L  primal_lower9
 L  primal_lower10
 L  primal_lower11
 L  primal_lower12
 L  primal_lower13
 L  primal_lower14
 L  primal_lower15
 L  primal_lower16
 L  primal_lower17
 L  primal_lower18
 L  primal_lower19
 L  primal_lower20
 L  primal_lower21
 L  primal_lower22
 L  primal_lower23
 L  primal_lower24
 L  primal_lower25
 L  primal_lower26
 L  primal_lower27
 L  primal_lower28
 L  primal_lower29
 L  primal_lower30
 L  primal_lower31
 L  primal_lower32
 L  primal_lower33
 L  primal_lower34
 L  primal_lower35
 L  primal_lower36
 L  primal_lower37
 L  primal_lower38
 L  primal_lower39
 L  primal_lower40
 L  primal_lower41
 L  primal_lower42
 L  primal_lower43
 L  primal_lower44
 L  primal_lower45
 L  primal_lower46
 L  primal_lower47
 L  primal_lower48
 L  primal_lower49
 L  primal_lower50
 L  primal_lower51
 L  primal_lower52
 L  primal_lower53
 L  primal_lower54
 L  primal_lower55
 L  primal_lower56
 L  primal_lower57
 L  primal_lower58
 L  primal_lower59
 L  primal_lower60
 L  primal_lower61
 L  primal_lower62
 L  primal_lower63
 L  primal_lower64
 L  primal_lower65
 L  primal_lower66
 L  primal_lower67
 L  primal_lower68
 L  primal_lower69
 L  primal_lower70
 L  primal_lower71
 L  primal_lower72
 L  primal_lower73
 L  primal_lower74
 L  primal_lower75
 L  primal_lower76
 L  primal_lower77
 L  primal_lower78
 L  primal_lower79
 L  primal_lower80
 L  primal_lower81
 L  primal_lower82
 L  primal_lower83
 L  primal_lower84
 L  primal_lower85
 L  primal_lower86
 L  primal_lower87
 L  primal_lower88
 L  primal_lower89
 L  primal_lower90
 L  primal_lower91
 L  primal_lower92
 L  primal_lower93
 L  primal_lower94
 L  primal_lower95
 L  primal_lower96
 L  primal_lower97
 L  primal_lower98
 L  primal_lower99
 L  interdiction[0]
 L  interdiction[1]
 L  interdiction[2]
 L  interdiction[3]
 L  interdiction[4]
 L  interdiction[5]
 L  interdiction[6]
 L  interdiction[7]
 L  interdiction[8]
 L  interdiction[9]
 L  interdiction[10]
 L  interdiction[11]
 L  interdiction[12]
 L  interdiction[13]
 L  interdiction[14]
 L  interdiction[15]
 L  interdiction[16]
 L  interdiction[17]
 L  interdiction[18]
 L  interdiction[19]
 L  interdiction[20]
 L  interdiction[21]
 L  interdiction[22]
 L  interdiction[23]
 L  interdiction[24]
 L  interdiction[25]
 L  interdiction[26]
 L  interdiction[27]
 L  interdiction[28]
 L  interdiction[29]
 L  interdiction[30]
 L  interdiction[31]
 L  interdiction[32]
 L  interdiction[33]
 L  interdiction[34]
 L  interdiction[35]
 L  interdiction[36]
 L  interdiction[37]
 L  interdiction[38]
 L  interdiction[39]
 L  mccormick1[0]
 L  mccormick1[1]
 L  mccormick1[2]
 L  mccormick1[3]
 L  mccormick1[4]
 L  mccormick1[5]
 L  mccormick1[6]
 L  mccormick1[7]
 L  mccormick1[8]
 L  mccormick1[9]
 L  mccormick1[10]
 L  mccormick1[11]
 L  mccormick1[12]
 L  mccormick1[13]
 L  mccormick1[14]
 L  mccormick1[15]
 L  mccormick1[16]
 L  mccormick1[17]
 L  mccormick1[18]
 L  mccormick1[19]
 L  mccormick1[20]
 L  mccormick1[21]
 L  mccormick1[22]
 L  mccormick1[23]
 L  mccormick1[24]
 L  mccormick1[25]
 L  mccormick1[26]
 L  mccormick1[27]
 L  mccormick1[28]
 L  mccormick1[29]
 L  mccormick1[30]
 L  mccormick1[31]
 L  mccormick1[32]
 L  mccormick1[33]
 L  mccormick1[34]
 L  mccormick1[35]
 L  mccormick1[36]
 L  mccormick1[37]
 L  mccormick1[38]
 L  mccormick1[39]
 L  mccormick2[0]
 L  mccormick2[1]
 L  mccormick2[2]
 L  mccormick2[3]
 L  mccormick2[4]
 L  mccormick2[5]
 L  mccormick2[6]
 L  mccormick2[7]
 L  mccormick2[8]
 L  mccormick2[9]
 L  mccormick2[10]
 L  mccormick2[11]
 L  mccormick2[12]
 L  mccormick2[13]
 L  mccormick2[14]
 L  mccormick2[15]
 L  mccormick2[16]
 L  mccormick2[17]
 L  mccormick2[18]
 L  mccormick2[19]
 L  mccormick2[20]
 L  mccormick2[21]
 L  mccormick2[22]
 L  mccormick2[23]
 L  mccormick2[24]
 L  mccormick2[25]
 L  mccormick2[26]
 L  mccormick2[27]
 L  mccormick2[28]
 L  mccormick2[29]
 L  mccormick2[30]
 L  mccormick2[31]
 L  mccormick2[32]
 L  mccormick2[33]
 L  mccormick2[34]
 L  mccormick2[35]
 L  mccormick2[36]
 L  mccormick2[37]
 L  mccormick2[38]
 L  mccormick2[39]
 L  mccormick3[0]
 L  mccormick3[1]
 L  mccormick3[2]
 L  mccormick3[3]
 L  mccormick3[4]
 L  mccormick3[5]
 L  mccormick3[6]
 L  mccormick3[7]
 L  mccormick3[8]
 L  mccormick3[9]
 L  mccormick3[10]
 L  mccormick3[11]
 L  mccormick3[12]
 L  mccormick3[13]
 L  mccormick3[14]
 L  mccormick3[15]
 L  mccormick3[16]
 L  mccormick3[17]
 L  mccormick3[18]
 L  mccormick3[19]
 L  mccormick3[20]
 L  mccormick3[21]
 L  mccormick3[22]
 L  mccormick3[23]
 L  mccormick3[24]
 L  mccormick3[25]
 L  mccormick3[26]
 L  mccormick3[27]
 L  mccormick3[28]
 L  mccormick3[29]
 L  mccormick3[30]
 L  mccormick3[31]
 L  mccormick3[32]
 L  mccormick3[33]
 L  mccormick3[34]
 L  mccormick3[35]
 L  mccormick3[36]
 L  mccormick3[37]
 L  mccormick3[38]
 L  mccormick3[39]
COLUMNS
    MARKER    'MARKER'                 'INTORG'
    x[0]      OBJ       10
    x[0]      interdiction[0]  1
    x[1]      OBJ       10
    x[1]      interdiction[1]  1
    x[2]      OBJ       10
    x[2]      interdiction[2]  1
    x[3]      OBJ       10
    x[3]      interdiction[3]  1
    x[4]      OBJ       10
    x[4]      interdiction[4]  1
    x[5]      OBJ       10
    x[5]      interdiction[5]  1
    x[6]      OBJ       10
    x[6]      interdiction[6]  1
    x[7]      OBJ       10
    x[7]      interdiction[7]  1
    x[8]      OBJ       10
    x[8]      interdiction[8]  1
    x[9]      OBJ       10
    x[9]      interdiction[9]  1
    x[10]     OBJ       10
    x[10]     interdiction[10]  1
    x[11]     OBJ       10
    x[11]     interdiction[11]  1
    x[12]     OBJ       10
    x[12]     interdiction[12]  1
    x[13]     OBJ       10
    x[13]     interdiction[13]  1
    x[14]     OBJ       10
    x[14]     interdiction[14]  1
    x[15]     OBJ       10
    x[15]     interdiction[15]  1
    x[16]     OBJ       10
    x[16]     interdiction[16]  1
    x[17]     OBJ       10
    x[17]     interdiction[17]  1
    x[18]     OBJ       10
    x[18]     interdiction[18]  1
    x[19]     OBJ       10
    x[19]     interdiction[19]  1
    x[20]     OBJ       10
    x[20]     interdiction[20]  1
    x[21]     OBJ       10
    x[21]     interdiction[21]  1
    x[22]     OBJ       10
    x[22]     interdiction[22]  1
    x[23]     OBJ       10
    x[23]     interdiction[23]  1
    x[24]     OBJ       10
    x[24]     interdiction[24]  1
    x[25]     OBJ       10
    x[25]     interdiction[25]  1
    x[26]     OBJ       10
    x[26]     interdiction[26]  1
    x[27]     OBJ       10
    x[27]     interdiction[27]  1
    x[28]     OBJ       10
    x[28]     interdiction[28]  1
    x[29]     OBJ       10
    x[29]     interdiction[29]  1
    x[30]     OBJ       10
    x[30]     interdiction[30]  1
    x[31]     OBJ       10
    x[31]     interdiction[31]  1
    x[32]     OBJ       10
    x[32]     interdiction[32]  1
    x[33]     OBJ       10
    x[33]     interdiction[33]  1
    x[34]     OBJ       10
    x[34]     interdiction[34]  1
    x[35]     OBJ       10
    x[35]     interdiction[35]  1
    x[36]     OBJ       10
    x[36]     interdiction[36]  1
    x[37]     OBJ       10
    x[37]     interdiction[37]  1
    x[38]     OBJ       10
    x[38]     interdiction[38]  1
    x[39]     OBJ       10
    x[39]     interdiction[39]  1
    y[0]      OBJ       -966
    y[0]      primal_upper  741
    y[0]      mccormick2[0]  -1
    y[0]      mccormick3[0]  1
    y[1]      OBJ       -418
    y[1]      primal_upper  934
    y[1]      mccormick2[1]  -1
    y[1]      mccormick3[1]  1
    y[2]      OBJ       -808
    y[2]      primal_upper  504
    y[2]      mccormick2[2]  -1
    y[2]      mccormick3[2]  1
    y[3]      OBJ       -808
    y[3]      primal_upper  397
    y[3]      mccormick2[3]  -1
    y[3]      mccormick3[3]  1
    y[4]      OBJ       -145
    y[4]      primal_upper  562
    y[4]      mccormick2[4]  -1
    y[4]      mccormick3[4]  1
    y[5]      OBJ       -381
    y[5]      primal_upper  611
    y[5]      mccormick2[5]  -1
    y[5]      mccormick3[5]  1
    y[6]      OBJ       -761
    y[6]      primal_upper  595
    y[6]      mccormick2[6]  -1
    y[6]      mccormick3[6]  1
    y[7]      OBJ       -247
    y[7]      primal_upper  853
    y[7]      mccormick2[7]  -1
    y[7]      mccormick3[7]  1
    y[8]      OBJ       -798
    y[8]      primal_upper  771
    y[8]      mccormick2[8]  -1
    y[8]      mccormick3[8]  1
    y[9]      OBJ       -934
    y[9]      primal_upper  76
    y[9]      mccormick2[9]  -1
    y[9]      mccormick3[9]  1
    y[10]     OBJ       -415
    y[10]     primal_upper  409
    y[10]     mccormick2[10]  -1
    y[10]     mccormick3[10]  1
    y[11]     OBJ       -943
    y[11]     primal_upper  805
    y[11]     mccormick2[11]  -1
    y[11]     mccormick3[11]  1
    y[12]     OBJ       -499
    y[12]     primal_upper  634
    y[12]     mccormick2[12]  -1
    y[12]     mccormick3[12]  1
    y[13]     OBJ       -430
    y[13]     primal_upper  990
    y[13]     mccormick2[13]  -1
    y[13]     mccormick3[13]  1
    y[14]     OBJ       -359
    y[14]     primal_upper  682
    y[14]     mccormick2[14]  -1
    y[14]     mccormick3[14]  1
    y[15]     OBJ       -232
    y[15]     primal_upper  878
    y[15]     mccormick2[15]  -1
    y[15]     mccormick3[15]  1
    y[16]     OBJ       -566
    y[16]     primal_upper  619
    y[16]     mccormick2[16]  -1
    y[16]     mccormick3[16]  1
    y[17]     OBJ       -462
    y[17]     primal_upper  810
    y[17]     mccormick2[17]  -1
    y[17]     mccormick3[17]  1
    y[18]     OBJ       -930
    y[18]     primal_upper  823
    y[18]     mccormick2[18]  -1
    y[18]     mccormick3[18]  1
    y[19]     OBJ       -677
    y[19]     primal_upper  280
    y[19]     mccormick2[19]  -1
    y[19]     mccormick3[19]  1
    y[20]     OBJ       -177
    y[20]     primal_upper  571
    y[20]     mccormick2[20]  -1
    y[20]     mccormick3[20]  1
    y[21]     OBJ       -91
    y[21]     primal_upper  569
    y[21]     mccormick2[21]  -1
    y[21]     mccormick3[21]  1
    y[22]     OBJ       -252
    y[22]     primal_upper  578
    y[22]     mccormick2[22]  -1
    y[22]     mccormick3[22]  1
    y[23]     OBJ       -940
    y[23]     primal_upper  520
    y[23]     mccormick2[23]  -1
    y[23]     mccormick3[23]  1
    y[24]     OBJ       -177
    y[24]     primal_upper  378
    y[24]     mccormick2[24]  -1
    y[24]     mccormick3[24]  1
    y[25]     OBJ       -146
    y[25]     primal_upper  810
    y[25]     mccormick2[25]  -1
    y[25]     mccormick3[25]  1
    y[26]     OBJ       -792
    y[26]     primal_upper  688
    y[26]     mccormick2[26]  -1
    y[26]     mccormick3[26]  1
    y[27]     OBJ       -787
    y[27]     primal_upper  153
    y[27]     mccormick2[27]  -1
    y[27]     mccormick3[27]  1
    y[28]     OBJ       -754
    y[28]     primal_upper  939
    y[28]     mccormick2[28]  -1
    y[28]     mccormick3[28]  1
    y[29]     OBJ       -652
    y[29]     primal_upper  161
    y[29]     mccormick2[29]  -1
    y[29]     mccormick3[29]  1
    y[30]     OBJ       -325
    y[30]     primal_upper  927
    y[30]     mccormick2[30]  -1
    y[30]     mccormick3[30]  1
    y[31]     OBJ       -316
    y[31]     primal_upper  965
    y[31]     mccormick2[31]  -1
    y[31]     mccormick3[31]  1
    y[32]     OBJ       -972
    y[32]     primal_upper  881
    y[32]     mccormick2[32]  -1
    y[32]     mccormick3[32]  1
    y[33]     OBJ       -595
    y[33]     primal_upper  327
    y[33]     mccormick2[33]  -1
    y[33]     mccormick3[33]  1
    y[34]     OBJ       -387
    y[34]     primal_upper  570
    y[34]     mccormick2[34]  -1
    y[34]     mccormick3[34]  1
    y[35]     OBJ       -193
    y[35]     primal_upper  827
    y[35]     mccormick2[35]  -1
    y[35]     mccormick3[35]  1
    y[36]     OBJ       -273
    y[36]     primal_upper  26
    y[36]     mccormick2[36]  -1
    y[36]     mccormick3[36]  1
    y[37]     OBJ       -483
    y[37]     primal_upper  638
    y[37]     mccormick2[37]  -1
    y[37]     mccormick3[37]  1
    y[38]     OBJ       -382
    y[38]     primal_upper  170
    y[38]     mccormick2[38]  -1
    y[38]     mccormick3[38]  1
    y[39]     OBJ       -871
    y[39]     primal_upper  24
    y[39]     mccormick2[39]  -1
    y[39]     mccormick3[39]  1
    u[0]      primal_lower0  803
    u[0]      primal_lower1  19
    u[0]      primal_lower2  845
    u[0]      primal_lower3  928
    u[0]      primal_lower4  900
    u[0]      primal_lower5  928
    u[0]      primal_lower6  498
    u[0]      primal_lower7  543
    u[0]      primal_lower8  175
    u[0]      primal_lower9  350
    u[0]      primal_lower10  582
    u[0]      primal_lower11  303
    u[0]      primal_lower12  576
    u[0]      primal_lower13  495
    u[0]      primal_lower14  248
    u[0]      primal_lower15  853
    u[0]      primal_lower16  312
    u[0]      primal_lower17  572
    u[0]      primal_lower18  193
    u[0]      primal_lower19  663
    u[0]      primal_lower20  423
    u[0]      primal_lower21  285
    u[0]      primal_lower22  997
    u[0]      primal_lower23  209
    u[0]      primal_lower24  2
    u[0]      primal_lower25  817
    u[0]      primal_lower26  182
    u[0]      primal_lower27  284
    u[0]      primal_lower28  252
    u[0]      primal_lower29  302
    u[0]      primal_lower30  967
    u[0]      primal_lower31  450
    u[0]      primal_lower32  920
    u[0]      primal_lower33  944
    u[0]      primal_lower34  907
    u[0]      primal_lower35  21
    u[0]      primal_lower36  563
    u[0]      primal_lower37  554
    u[0]      primal_lower38  891
    u[0]      primal_lower39  190
    u[0]      primal_lower40  381
    u[0]      primal_lower41  961
    u[0]      primal_lower42  473
    u[0]      primal_lower43  593
    u[0]      primal_lower44  50
    u[0]      primal_lower45  877
    u[0]      primal_lower46  839
    u[0]      primal_lower47  669
    u[0]      primal_lower48  935
    u[0]      primal_lower49  997
    u[0]      primal_lower50  649
    u[0]      primal_lower51  692
    u[0]      primal_lower52  98
    u[0]      primal_lower53  603
    u[0]      primal_lower54  889
    u[0]      primal_lower55  891
    u[0]      primal_lower56  704
    u[0]      primal_lower57  301
    u[0]      primal_lower58  937
    u[0]      primal_lower59  193
    u[0]      primal_lower60  11
    u[0]      primal_lower61  234
    u[0]      primal_lower62  64
    u[0]      primal_lower63  924
    u[0]      primal_lower64  384
    u[0]      primal_lower65  157
    u[0]      primal_lower66  17
    u[0]      primal_lower67  272
    u[0]      primal_lower68  18
    u[0]      primal_lower69  305
    u[0]      primal_lower70  28
    u[0]      primal_lower71  546
    u[0]      primal_lower72  135
    u[0]      primal_lower73  604
    u[0]      primal_lower74  101
    u[0]      primal_lower75  516
    u[0]      primal_lower76  919
    u[0]      primal_lower77  109
    u[0]      primal_lower78  307
    u[0]      primal_lower79  801
    u[0]      primal_lower80  428
    u[0]      primal_lower81  1000
    u[0]      primal_lower82  154
    u[0]      primal_lower83  998
    u[0]      primal_lower84  21
    u[0]      primal_lower85  46
    u[0]      primal_lower86  421
    u[0]      primal_lower87  909
    u[0]      primal_lower88  549
    u[0]      primal_lower89  873
    u[0]      primal_lower90  708
    u[0]      primal_lower91  586
    u[0]      primal_lower92  547
    u[0]      primal_lower93  573
    u[0]      primal_lower94  48
    u[0]      primal_lower95  267
    u[0]      primal_lower96  165
    u[0]      primal_lower97  363
    u[0]      primal_lower98  619
    u[0]      primal_lower99  947
    u[0]      interdiction[0]  1
    u[0]      mccormick1[0]  -1
    u[0]      mccormick3[0]  1
    u[1]      primal_lower0  7
    u[1]      primal_lower1  279
    u[1]      primal_lower2  273
    u[1]      primal_lower3  764
    u[1]      primal_lower4  704
    u[1]      primal_lower5  545
    u[1]      primal_lower6  899
    u[1]      primal_lower7  256
    u[1]      primal_lower8  323
    u[1]      primal_lower9  695
    u[1]      primal_lower10  535
    u[1]      primal_lower11  347
    u[1]      primal_lower12  540
    u[1]      primal_lower13  464
    u[1]      primal_lower14  249
    u[1]      primal_lower15  1
    u[1]      primal_lower16  953
    u[1]      primal_lower17  813
    u[1]      primal_lower18  66
    u[1]      primal_lower19  712
    u[1]      primal_lower20  728
    u[1]      primal_lower21  129
    u[1]      primal_lower22  753
    u[1]      primal_lower23  901
    u[1]      primal_lower24  758
    u[1]      primal_lower25  853
    u[1]      primal_lower26  919
    u[1]      primal_lower27  509
    u[1]      primal_lower28  413
    u[1]      primal_lower29  487
    u[1]      primal_lower30  211
    u[1]      primal_lower31  275
    u[1]      primal_lower32  772
    u[1]      primal_lower33  73
    u[1]      primal_lower34  276
    u[1]      primal_lower35  737
    u[1]      primal_lower36  863
    u[1]      primal_lower37  502
    u[1]      primal_lower38  748
    u[1]      primal_lower39  327
    u[1]      primal_lower40  406
    u[1]      primal_lower41  66
    u[1]      primal_lower42  981
    u[1]      primal_lower43  437
    u[1]      primal_lower44  83
    u[1]      primal_lower45  358
    u[1]      primal_lower46  160
    u[1]      primal_lower47  177
    u[1]      primal_lower48  755
    u[1]      primal_lower49  225
    u[1]      primal_lower50  706
    u[1]      primal_lower51  176
    u[1]      primal_lower52  347
    u[1]      primal_lower53  36
    u[1]      primal_lower54  546
    u[1]      primal_lower55  727
    u[1]      primal_lower56  1
    u[1]      primal_lower57  225
    u[1]      primal_lower58  165
    u[1]      primal_lower59  170
    u[1]      primal_lower60  900
    u[1]      primal_lower61  958
    u[1]      primal_lower62  324
    u[1]      primal_lower63  160
    u[1]      primal_lower64  924
    u[1]      primal_lower65  254
    u[1]      primal_lower66  834
    u[1]      primal_lower67  785
    u[1]      primal_lower68  654
    u[1]      primal_lower69  386
    u[1]      primal_lower70  104
    u[1]      primal_lower71  35
    u[1]      primal_lower72  515
    u[1]      primal_lower73  893
    u[1]      primal_lower74  25
    u[1]      primal_lower75  389
    u[1]      primal_lower76  680
    u[1]      primal_lower77  470
    u[1]      primal_lower78  343
    u[1]      primal_lower79  930
    u[1]      primal_lower80  773
    u[1]      primal_lower81  700
    u[1]      primal_lower82  331
    u[1]      primal_lower83  823
    u[1]      primal_lower84  177
    u[1]      primal_lower85  103
    u[1]      primal_lower86  342
    u[1]      primal_lower87  198
    u[1]      primal_lower88  470
    u[1]      primal_lower89  557
    u[1]      primal_lower90  997
    u[1]      primal_lower91  294
    u[1]      primal_lower92  260
    u[1]      primal_lower93  54
    u[1]      primal_lower94  652
    u[1]      primal_lower95  652
    u[1]      primal_lower96  846
    u[1]      primal_lower97  407
    u[1]      primal_lower98  215
    u[1]      primal_lower99  668
    u[1]      interdiction[1]  1
    u[1]      mccormick1[1]  -1
    u[1]      mccormick3[1]  1
    u[2]      primal_lower0  485
    u[2]      primal_lower1  629
    u[2]      primal_lower2  591
    u[2]      primal_lower3  674
    u[2]      primal_lower4  558
    u[2]      primal_lower5  635
    u[2]      primal_lower6  245
    u[2]      primal_lower7  394
    u[2]      primal_lower8  473
    u[2]      primal_lower9  569
    u[2]      primal_lower10  313
    u[2]      primal_lower11  177
    u[2]      primal_lower12  18
    u[2]      primal_lower13  378
    u[2]      primal_lower14  291
    u[2]      primal_lower15  215
    u[2]      primal_lower16  811
    u[2]      primal_lower17  967
    u[2]      primal_lower18  436
    u[2]      primal_lower19  530
    u[2]      primal_lower20  418
    u[2]      primal_lower21  375
    u[2]      primal_lower22  383
    u[2]      primal_lower23  123
    u[2]      primal_lower24  660
    u[2]      primal_lower25  155
    u[2]      primal_lower26  665
    u[2]      primal_lower27  87
    u[2]      primal_lower28  399
    u[2]      primal_lower29  537
    u[2]      primal_lower30  497
    u[2]      primal_lower31  469
    u[2]      primal_lower32  602
    u[2]      primal_lower33  531
    u[2]      primal_lower34  574
    u[2]      primal_lower35  31
    u[2]      primal_lower36  621
    u[2]      primal_lower37  628
    u[2]      primal_lower38  486
    u[2]      primal_lower39  673
    u[2]      primal_lower40  808
    u[2]      primal_lower41  748
    u[2]      primal_lower42  891
    u[2]      primal_lower43  835
    u[2]      primal_lower44  133
    u[2]      primal_lower45  648
    u[2]      primal_lower46  170
    u[2]      primal_lower47  231
    u[2]      primal_lower48  297
    u[2]      primal_lower49  631
    u[2]      primal_lower50  108
    u[2]      primal_lower51  566
    u[2]      primal_lower52  669
    u[2]      primal_lower53  350
    u[2]      primal_lower54  964
    u[2]      primal_lower55  173
    u[2]      primal_lower56  779
    u[2]      primal_lower57  919
    u[2]      primal_lower58  35
    u[2]      primal_lower59  796
    u[2]      primal_lower60  614
    u[2]      primal_lower61  916
    u[2]      primal_lower62  394
    u[2]      primal_lower63  454
    u[2]      primal_lower64  610
    u[2]      primal_lower65  520
    u[2]      primal_lower66  700
    u[2]      primal_lower67  979
    u[2]      primal_lower68  636
    u[2]      primal_lower69  164
    u[2]      primal_lower70  302
    u[2]      primal_lower71  53
    u[2]      primal_lower72  961
    u[2]      primal_lower73  127
    u[2]      primal_lower74  143
    u[2]      primal_lower75  727
    u[2]      primal_lower76  258
    u[2]      primal_lower77  72
    u[2]      primal_lower78  45
    u[2]      primal_lower79  828
    u[2]      primal_lower80  399
    u[2]      primal_lower81  282
    u[2]      primal_lower82  797
    u[2]      primal_lower83  1
    u[2]      primal_lower84  143
    u[2]      primal_lower85  65
    u[2]      primal_lower86  856
    u[2]      primal_lower87  264
    u[2]      primal_lower88  920
    u[2]      primal_lower89  643
    u[2]      primal_lower90  647
    u[2]      primal_lower91  500
    u[2]      primal_lower92  830
    u[2]      primal_lower93  352
    u[2]      primal_lower94  162
    u[2]      primal_lower95  166
    u[2]      primal_lower96  376
    u[2]      primal_lower97  965
    u[2]      primal_lower98  829
    u[2]      primal_lower99  342
    u[2]      interdiction[2]  1
    u[2]      mccormick1[2]  -1
    u[2]      mccormick3[2]  1
    u[3]      primal_lower0  526
    u[3]      primal_lower1  38
    u[3]      primal_lower2  448
    u[3]      primal_lower3  811
    u[3]      primal_lower4  415
    u[3]      primal_lower5  568
    u[3]      primal_lower6  610
    u[3]      primal_lower7  319
    u[3]      primal_lower8  514
    u[3]      primal_lower9  214
    u[3]      primal_lower10  166
    u[3]      primal_lower11  834
    u[3]      primal_lower12  563
    u[3]      primal_lower13  703
    u[3]      primal_lower14  576
    u[3]      primal_lower15  1000
    u[3]      primal_lower16  400
    u[3]      primal_lower17  348
    u[3]      primal_lower18  385
    u[3]      primal_lower19  551
    u[3]      primal_lower20  343
    u[3]      primal_lower21  320
    u[3]      primal_lower22  416
    u[3]      primal_lower23  740
    u[3]      primal_lower24  213
    u[3]      primal_lower25  884
    u[3]      primal_lower26  870
    u[3]      primal_lower27  28
    u[3]      primal_lower28  164
    u[3]      primal_lower29  438
    u[3]      primal_lower30  850
    u[3]      primal_lower31  514
    u[3]      primal_lower32  347
    u[3]      primal_lower33  800
    u[3]      primal_lower34  315
    u[3]      primal_lower35  752
    u[3]      primal_lower36  206
    u[3]      primal_lower37  37
    u[3]      primal_lower38  83
    u[3]      primal_lower39  846
    u[3]      primal_lower40  429
    u[3]      primal_lower41  321
    u[3]      primal_lower42  268
    u[3]      primal_lower43  500
    u[3]      primal_lower44  594
    u[3]      primal_lower45  637
    u[3]      primal_lower46  263
    u[3]      primal_lower47  984
    u[3]      primal_lower48  818
    u[3]      primal_lower49  920
    u[3]      primal_lower50  81
    u[3]      primal_lower51  591
    u[3]      primal_lower52  362
    u[3]      primal_lower53  659
    u[3]      primal_lower54  225
    u[3]      primal_lower55  222
    u[3]      primal_lower56  256
    u[3]      primal_lower57  640
    u[3]      primal_lower58  244
    u[3]      primal_lower59  857
    u[3]      primal_lower60  139
    u[3]      primal_lower61  333
    u[3]      primal_lower62  707
    u[3]      primal_lower63  255
    u[3]      primal_lower64  595
    u[3]      primal_lower65  981
    u[3]      primal_lower66  481
    u[3]      primal_lower67  216
    u[3]      primal_lower68  477
    u[3]      primal_lower69  441
    u[3]      primal_lower70  847
    u[3]      primal_lower71  450
    u[3]      primal_lower72  498
    u[3]      primal_lower73  268
    u[3]      primal_lower74  800
    u[3]      primal_lower75  572
    u[3]      primal_lower76  551
    u[3]      primal_lower77  229
    u[3]      primal_lower78  902
    u[3]      primal_lower79  193
    u[3]      primal_lower80  348
    u[3]      primal_lower81  875
    u[3]      primal_lower82  978
    u[3]      primal_lower83  406
    u[3]      primal_lower84  720
    u[3]      primal_lower85  926
    u[3]      primal_lower86  565
    u[3]      primal_lower87  645
    u[3]      primal_lower88  165
    u[3]      primal_lower89  164
    u[3]      primal_lower90  324
    u[3]      primal_lower91  917
    u[3]      primal_lower92  443
    u[3]      primal_lower93  933
    u[3]      primal_lower94  955
    u[3]      primal_lower95  683
    u[3]      primal_lower96  69
    u[3]      primal_lower97  702
    u[3]      primal_lower98  46
    u[3]      primal_lower99  819
    u[3]      interdiction[3]  1
    u[3]      mccormick1[3]  -1
    u[3]      mccormick3[3]  1
    u[4]      primal_lower0  495
    u[4]      primal_lower1  255
    u[4]      primal_lower2  257
    u[4]      primal_lower3  372
    u[4]      primal_lower4  720
    u[4]      primal_lower5  821
    u[4]      primal_lower6  279
    u[4]      primal_lower7  476
    u[4]      primal_lower8  779
    u[4]      primal_lower9  131
    u[4]      primal_lower10  643
    u[4]      primal_lower11  795
    u[4]      primal_lower12  964
    u[4]      primal_lower13  772
    u[4]      primal_lower14  701
    u[4]      primal_lower15  633
    u[4]      primal_lower16  493
    u[4]      primal_lower17  969
    u[4]      primal_lower18  702
    u[4]      primal_lower19  684
    u[4]      primal_lower20  148
    u[4]      primal_lower21  697
    u[4]      primal_lower22  969
    u[4]      primal_lower23  309
    u[4]      primal_lower24  62
    u[4]      primal_lower25  325
    u[4]      primal_lower26  499
    u[4]      primal_lower27  817
    u[4]      primal_lower28  1
    u[4]      primal_lower29  515
    u[4]      primal_lower30  795
    u[4]      primal_lower31  207
    u[4]      primal_lower32  852
    u[4]      primal_lower33  885
    u[4]      primal_lower34  240
    u[4]      primal_lower35  577
    u[4]      primal_lower36  127
    u[4]      primal_lower37  902
    u[4]      primal_lower38  176
    u[4]      primal_lower39  475
    u[4]      primal_lower40  754
    u[4]      primal_lower41  166
    u[4]      primal_lower42  717
    u[4]      primal_lower43  733
    u[4]      primal_lower44  583
    u[4]      primal_lower45  490
    u[4]      primal_lower46  60
    u[4]      primal_lower47  281
    u[4]      primal_lower48  699
    u[4]      primal_lower49  57
    u[4]      primal_lower50  830
    u[4]      primal_lower51  16
    u[4]      primal_lower52  831
    u[4]      primal_lower53  368
    u[4]      primal_lower54  742
    u[4]      primal_lower55  327
    u[4]      primal_lower56  285
    u[4]      primal_lower57  361
    u[4]      primal_lower58  101
    u[4]      primal_lower59  446
    u[4]      primal_lower60  736
    u[4]      primal_lower61  854
    u[4]      primal_lower62  932
    u[4]      primal_lower63  608
    u[4]      primal_lower64  612
    u[4]      primal_lower65  474
    u[4]      primal_lower66  70
    u[4]      primal_lower67  773
    u[4]      primal_lower68  662
    u[4]      primal_lower69  310
    u[4]      primal_lower70  504
    u[4]      primal_lower71  583
    u[4]      primal_lower72  339
    u[4]      primal_lower73  297
    u[4]      primal_lower74  65
    u[4]      primal_lower75  209
    u[4]      primal_lower76  884
    u[4]      primal_lower77  834
    u[4]      primal_lower78  271
    u[4]      primal_lower79  654
    u[4]      primal_lower80  121
    u[4]      primal_lower81  708
    u[4]      primal_lower82  935
    u[4]      primal_lower83  123
    u[4]      primal_lower84  233
    u[4]      primal_lower85  859
    u[4]      primal_lower86  138
    u[4]      primal_lower87  418
    u[4]      primal_lower88  898
    u[4]      primal_lower89  173
    u[4]      primal_lower90  761
    u[4]      primal_lower91  262
    u[4]      primal_lower92  400
    u[4]      primal_lower93  730
    u[4]      primal_lower94  980
    u[4]      primal_lower95  736
    u[4]      primal_lower96  218
    u[4]      primal_lower97  943
    u[4]      primal_lower98  575
    u[4]      primal_lower99  224
    u[4]      interdiction[4]  1
    u[4]      mccormick1[4]  -1
    u[4]      mccormick3[4]  1
    u[5]      primal_lower0  765
    u[5]      primal_lower1  421
    u[5]      primal_lower2  583
    u[5]      primal_lower3  714
    u[5]      primal_lower4  398
    u[5]      primal_lower5  702
    u[5]      primal_lower6  72
    u[5]      primal_lower7  557
    u[5]      primal_lower8  585
    u[5]      primal_lower9  76
    u[5]      primal_lower10  428
    u[5]      primal_lower11  705
    u[5]      primal_lower12  114
    u[5]      primal_lower13  813
    u[5]      primal_lower14  238
    u[5]      primal_lower15  919
    u[5]      primal_lower16  974
    u[5]      primal_lower17  74
    u[5]      primal_lower18  55
    u[5]      primal_lower19  453
    u[5]      primal_lower20  205
    u[5]      primal_lower21  287
    u[5]      primal_lower22  847
    u[5]      primal_lower23  339
    u[5]      primal_lower24  692
    u[5]      primal_lower25  579
    u[5]      primal_lower26  148
    u[5]      primal_lower27  602
    u[5]      primal_lower28  778
    u[5]      primal_lower29  68
    u[5]      primal_lower30  409
    u[5]      primal_lower31  312
    u[5]      primal_lower32  250
    u[5]      primal_lower33  830
    u[5]      primal_lower34  697
    u[5]      primal_lower35  279
    u[5]      primal_lower36  701
    u[5]      primal_lower37  260
    u[5]      primal_lower38  761
    u[5]      primal_lower39  364
    u[5]      primal_lower40  619
    u[5]      primal_lower41  79
    u[5]      primal_lower42  939
    u[5]      primal_lower43  835
    u[5]      primal_lower44  464
    u[5]      primal_lower45  267
    u[5]      primal_lower46  949
    u[5]      primal_lower47  63
    u[5]      primal_lower48  89
    u[5]      primal_lower49  367
    u[5]      primal_lower50  823
    u[5]      primal_lower51  574
    u[5]      primal_lower52  432
    u[5]      primal_lower53  513
    u[5]      primal_lower54  351
    u[5]      primal_lower55  821
    u[5]      primal_lower56  734
    u[5]      primal_lower57  463
    u[5]      primal_lower58  563
    u[5]      primal_lower59  399
    u[5]      primal_lower60  929
    u[5]      primal_lower61  540
    u[5]      primal_lower62  306
    u[5]      primal_lower63  542
    u[5]      primal_lower64  986
    u[5]      primal_lower65  331
    u[5]      primal_lower66  927
    u[5]      primal_lower67  518
    u[5]      primal_lower68  996
    u[5]      primal_lower69  871
    u[5]      primal_lower70  510
    u[5]      primal_lower71  816
    u[5]      primal_lower72  817
    u[5]      primal_lower73  210
    u[5]      primal_lower74  911
    u[5]      primal_lower75  522
    u[5]      primal_lower76  853
    u[5]      primal_lower77  459
    u[5]      primal_lower78  453
    u[5]      primal_lower79  639
    u[5]      primal_lower80  618
    u[5]      primal_lower81  898
    u[5]      primal_lower82  160
    u[5]      primal_lower83  452
    u[5]      primal_lower84  103
    u[5]      primal_lower85  916
    u[5]      primal_lower86  611
    u[5]      primal_lower87  451
    u[5]      primal_lower88  75
    u[5]      primal_lower89  651
    u[5]      primal_lower90  482
    u[5]      primal_lower91  356
    u[5]      primal_lower92  985
    u[5]      primal_lower93  443
    u[5]      primal_lower94  754
    u[5]      primal_lower95  257
    u[5]      primal_lower96  923
    u[5]      primal_lower97  509
    u[5]      primal_lower98  797
    u[5]      primal_lower99  905
    u[5]      interdiction[5]  1
    u[5]      mccormick1[5]  -1
    u[5]      mccormick3[5]  1
    u[6]      primal_lower0  656
    u[6]      primal_lower1  288
    u[6]      primal_lower2  274
    u[6]      primal_lower3  5
    u[6]      primal_lower4  489
    u[6]      primal_lower5  302
    u[6]      primal_lower6  760
    u[6]      primal_lower7  525
    u[6]      primal_lower8  428
    u[6]      primal_lower9  316
    u[6]      primal_lower10  796
    u[6]      primal_lower11  868
    u[6]      primal_lower12  861
    u[6]      primal_lower13  413
    u[6]      primal_lower14  350
    u[6]      primal_lower15  618
    u[6]      primal_lower16  286
    u[6]      primal_lower17  242
    u[6]      primal_lower18  599
    u[6]      primal_lower19  925
    u[6]      primal_lower20  5
    u[6]      primal_lower21  978
    u[6]      primal_lower22  402
    u[6]      primal_lower23  710
    u[6]      primal_lower24  327
    u[6]      primal_lower25  758
    u[6]      primal_lower26  772
    u[6]      primal_lower27  178
    u[6]      primal_lower28  906
    u[6]      primal_lower29  332
    u[6]      primal_lower30  876
    u[6]      primal_lower31  872
    u[6]      primal_lower32  333
    u[6]      primal_lower33  726
    u[6]      primal_lower34  465
    u[6]      primal_lower35  930
    u[6]      primal_lower36  656
    u[6]      primal_lower37  583
    u[6]      primal_lower38  849
    u[6]      primal_lower39  540
    u[6]      primal_lower40  515
    u[6]      primal_lower41  847
    u[6]      primal_lower42  286
    u[6]      primal_lower43  686
    u[6]      primal_lower44  480
    u[6]      primal_lower45  75
    u[6]      primal_lower46  941
    u[6]      primal_lower47  346
    u[6]      primal_lower48  604
    u[6]      primal_lower49  370
    u[6]      primal_lower50  743
    u[6]      primal_lower51  65
    u[6]      primal_lower52  336
    u[6]      primal_lower53  641
    u[6]      primal_lower54  807
    u[6]      primal_lower55  8
    u[6]      primal_lower56  238
    u[6]      primal_lower57  858
    u[6]      primal_lower58  686
    u[6]      primal_lower59  31
    u[6]      primal_lower60  505
    u[6]      primal_lower61  807
    u[6]      primal_lower62  389
    u[6]      primal_lower63  985
    u[6]      primal_lower64  229
    u[6]      primal_lower65  179
    u[6]      primal_lower66  175
    u[6]      primal_lower67  502
    u[6]      primal_lower68  479
    u[6]      primal_lower69  887
    u[6]      primal_lower70  601
    u[6]      primal_lower71  816
    u[6]      primal_lower72  452
    u[6]      primal_lower73  650
    u[6]      primal_lower74  546
    u[6]      primal_lower75  82
    u[6]      primal_lower76  565
    u[6]      primal_lower77  795
    u[6]      primal_lower78  392
    u[6]      primal_lower79  79
    u[6]      primal_lower80  354
    u[6]      primal_lower81  917
    u[6]      primal_lower82  32
    u[6]      primal_lower83  68
    u[6]      primal_lower84  394
    u[6]      primal_lower85  788
    u[6]      primal_lower86  291
    u[6]      primal_lower87  747
    u[6]      primal_lower88  355
    u[6]      primal_lower89  78
    u[6]      primal_lower90  762
    u[6]      primal_lower91  111
    u[6]      primal_lower92  585
    u[6]      primal_lower93  651
    u[6]      primal_lower94  333
    u[6]      primal_lower95  585
    u[6]      primal_lower96  811
    u[6]      primal_lower97  744
    u[6]      primal_lower98  888
    u[6]      primal_lower99  345
    u[6]      interdiction[6]  1
    u[6]      mccormick1[6]  -1
    u[6]      mccormick3[6]  1
    u[7]      primal_lower0  47
    u[7]      primal_lower1  479
    u[7]      primal_lower2  833
    u[7]      primal_lower3  572
    u[7]      primal_lower4  376
    u[7]      primal_lower5  320
    u[7]      primal_lower6  818
    u[7]      primal_lower7  799
    u[7]      primal_lower8  59
    u[7]      primal_lower9  462
    u[7]      primal_lower10  366
    u[7]      primal_lower11  523
    u[7]      primal_lower12  676
    u[7]      primal_lower13  31
    u[7]      primal_lower14  216
    u[7]      primal_lower15  465
    u[7]      primal_lower16  128
    u[7]      primal_lower17  844
    u[7]      primal_lower18  873
    u[7]      primal_lower19  807
    u[7]      primal_lower20  583
    u[7]      primal_lower21  641
    u[7]      primal_lower22  577
    u[7]      primal_lower23  485
    u[7]      primal_lower24  6
    u[7]      primal_lower25  205
    u[7]      primal_lower26  518
    u[7]      primal_lower27  876
    u[7]      primal_lower28  124
    u[7]      primal_lower29  118
    u[7]      primal_lower30  707
    u[7]      primal_lower31  978
    u[7]      primal_lower32  868
    u[7]      primal_lower33  600
    u[7]      primal_lower34  707
    u[7]      primal_lower35  833
    u[7]      primal_lower36  759
    u[7]      primal_lower37  366
    u[7]      primal_lower38  427
    u[7]      primal_lower39  102
    u[7]      primal_lower40  461
    u[7]      primal_lower41  905
    u[7]      primal_lower42  445
    u[7]      primal_lower43  453
    u[7]      primal_lower44  378
    u[7]      primal_lower45  341
    u[7]      primal_lower46  47
    u[7]      primal_lower47  825
    u[7]      primal_lower48  523
    u[7]      primal_lower49  601
    u[7]      primal_lower50  585
    u[7]      primal_lower51  448
    u[7]      primal_lower52  674
    u[7]      primal_lower53  251
    u[7]      primal_lower54  585
    u[7]      primal_lower55  39
    u[7]      primal_lower56  216
    u[7]      primal_lower57  281
    u[7]      primal_lower58  989
    u[7]      primal_lower59  905
    u[7]      primal_lower60  147
    u[7]      primal_lower61  534
    u[7]      primal_lower62  612
    u[7]      primal_lower63  464
    u[7]      primal_lower64  588
    u[7]      primal_lower65  917
    u[7]      primal_lower66  257
    u[7]      primal_lower67  72
    u[7]      primal_lower68  278
    u[7]      primal_lower69  257
    u[7]      primal_lower70  144
    u[7]      primal_lower71  954
    u[7]      primal_lower72  627
    u[7]      primal_lower73  724
    u[7]      primal_lower74  977
    u[7]      primal_lower75  164
    u[7]      primal_lower76  271
    u[7]      primal_lower77  709
    u[7]      primal_lower78  695
    u[7]      primal_lower79  625
    u[7]      primal_lower80  396
    u[7]      primal_lower81  468
    u[7]      primal_lower82  346
    u[7]      primal_lower83  606
    u[7]      primal_lower84  33
    u[7]      primal_lower85  966
    u[7]      primal_lower86  245
    u[7]      primal_lower87  389
    u[7]      primal_lower88  741
    u[7]      primal_lower89  909
    u[7]      primal_lower90  580
    u[7]      primal_lower91  22
    u[7]      primal_lower92  531
    u[7]      primal_lower93  373
    u[7]      primal_lower94  220
    u[7]      primal_lower95  291
    u[7]      primal_lower96  805
    u[7]      primal_lower97  943
    u[7]      primal_lower98  231
    u[7]      primal_lower99  259
    u[7]      interdiction[7]  1
    u[7]      mccormick1[7]  -1
    u[7]      mccormick3[7]  1
    u[8]      primal_lower0  168
    u[8]      primal_lower1  224
    u[8]      primal_lower2  146
    u[8]      primal_lower3  573
    u[8]      primal_lower4  89
    u[8]      primal_lower5  294
    u[8]      primal_lower6  760
    u[8]      primal_lower7  925
    u[8]      primal_lower8  172
    u[8]      primal_lower9  236
    u[8]      primal_lower10  724
    u[8]      primal_lower11  244
    u[8]      primal_lower12  781
    u[8]      primal_lower13  581
    u[8]      primal_lower14  622
    u[8]      primal_lower15  154
    u[8]      primal_lower16  230
    u[8]      primal_lower17  50
    u[8]      primal_lower18  215
    u[8]      primal_lower19  493
    u[8]      primal_lower20  901
    u[8]      primal_lower21  170
    u[8]      primal_lower22  354
    u[8]      primal_lower23  558
    u[8]      primal_lower24  447
    u[8]      primal_lower25  854
    u[8]      primal_lower26  164
    u[8]      primal_lower27  146
    u[8]      primal_lower28  242
    u[8]      primal_lower29  956
    u[8]      primal_lower30  388
    u[8]      primal_lower31  576
    u[8]      primal_lower32  509
    u[8]      primal_lower33  766
    u[8]      primal_lower34  641
    u[8]      primal_lower35  266
    u[8]      primal_lower36  424
    u[8]      primal_lower37  727
    u[8]      primal_lower38  169
    u[8]      primal_lower39  324
    u[8]      primal_lower40  179
    u[8]      primal_lower41  575
    u[8]      primal_lower42  126
    u[8]      primal_lower43  694
    u[8]      primal_lower44  768
    u[8]      primal_lower45  347
    u[8]      primal_lower46  637
    u[8]      primal_lower47  298
    u[8]      primal_lower48  676
    u[8]      primal_lower49  386
    u[8]      primal_lower50  655
    u[8]      primal_lower51  561
    u[8]      primal_lower52  792
    u[8]      primal_lower53  985
    u[8]      primal_lower54  527
    u[8]      primal_lower55  184
    u[8]      primal_lower56  742
    u[8]      primal_lower57  570
    u[8]      primal_lower58  894
    u[8]      primal_lower59  975
    u[8]      primal_lower60  865
    u[8]      primal_lower61  743
    u[8]      primal_lower62  53
    u[8]      primal_lower63  225
    u[8]      primal_lower64  973
    u[8]      primal_lower65  283
    u[8]      primal_lower66  55
    u[8]      primal_lower67  486
    u[8]      primal_lower68  383
    u[8]      primal_lower69  543
    u[8]      primal_lower70  489
    u[8]      primal_lower71  776
    u[8]      primal_lower72  428
    u[8]      primal_lower73  434
    u[8]      primal_lower74  282
    u[8]      primal_lower75  402
    u[8]      primal_lower76  261
    u[8]      primal_lower77  403
    u[8]      primal_lower78  896
    u[8]      primal_lower79  271
    u[8]      primal_lower80  146
    u[8]      primal_lower81  173
    u[8]      primal_lower82  904
    u[8]      primal_lower83  740
    u[8]      primal_lower84  994
    u[8]      primal_lower85  284
    u[8]      primal_lower86  315
    u[8]      primal_lower87  851
    u[8]      primal_lower88  955
    u[8]      primal_lower89  534
    u[8]      primal_lower90  394
    u[8]      primal_lower91  759
    u[8]      primal_lower92  41
    u[8]      primal_lower93  291
    u[8]      primal_lower94  213
    u[8]      primal_lower95  1
    u[8]      primal_lower96  579
    u[8]      primal_lower97  736
    u[8]      primal_lower98  808
    u[8]      primal_lower99  289
    u[8]      interdiction[8]  1
    u[8]      mccormick1[8]  -1
    u[8]      mccormick3[8]  1
    u[9]      primal_lower0  141
    u[9]      primal_lower1  757
    u[9]      primal_lower2  919
    u[9]      primal_lower3  642
    u[9]      primal_lower4  366
    u[9]      primal_lower5  159
    u[9]      primal_lower6  145
    u[9]      primal_lower7  430
    u[9]      primal_lower8  801
    u[9]      primal_lower9  349
    u[9]      primal_lower10  645
    u[9]      primal_lower11  985
    u[9]      primal_lower12  698
    u[9]      primal_lower13  70
    u[9]      primal_lower14  335
    u[9]      primal_lower15  159
    u[9]      primal_lower16  799
    u[9]      primal_lower17  3
    u[9]      primal_lower18  304
    u[9]      primal_lower19  910
    u[9]      primal_lower20  310
    u[9]      primal_lower21  519
    u[9]      primal_lower22  367
    u[9]      primal_lower23  755
    u[9]      primal_lower24  492
    u[9]      primal_lower25  963
    u[9]      primal_lower26  197
    u[9]      primal_lower27  731
    u[9]      primal_lower28  931
    u[9]      primal_lower29  685
    u[9]      primal_lower30  745
    u[9]      primal_lower31  225
    u[9]      primal_lower32  970
    u[9]      primal_lower33  279
    u[9]      primal_lower34  410
    u[9]      primal_lower35  943
    u[9]      primal_lower36  765
    u[9]      primal_lower37  60
    u[9]      primal_lower38  290
    u[9]      primal_lower39  125
    u[9]      primal_lower40  908
    u[9]      primal_lower41  232
    u[9]      primal_lower42  179
    u[9]      primal_lower43  659
    u[9]      primal_lower44  937
    u[9]      primal_lower45  92
    u[9]      primal_lower46  870
    u[9]      primal_lower47  479
    u[9]      primal_lower48  265
    u[9]      primal_lower49  55
    u[9]      primal_lower50  504
    u[9]      primal_lower51  6
    u[9]      primal_lower52  225
    u[9]      primal_lower53  618
    u[9]      primal_lower54  824
    u[9]      primal_lower55  453
    u[9]      primal_lower56  783
    u[9]      primal_lower57  319
    u[9]      primal_lower58  971
    u[9]      primal_lower59  408
    u[9]      primal_lower60  714
    u[9]      primal_lower61  468
    u[9]      primal_lower62  82
    u[9]      primal_lower63  630
    u[9]      primal_lower64  298
    u[9]      primal_lower65  436
    u[9]      primal_lower66  456
    u[9]      primal_lower67  335
    u[9]      primal_lower68  388
    u[9]      primal_lower69  592
    u[9]      primal_lower70  246
    u[9]      primal_lower71  977
    u[9]      primal_lower72  209
    u[9]      primal_lower73  595
    u[9]      primal_lower74  151
    u[9]      primal_lower75  203
    u[9]      primal_lower76  302
    u[9]      primal_lower77  980
    u[9]      primal_lower78  949
    u[9]      primal_lower79  424
    u[9]      primal_lower80  995
    u[9]      primal_lower81  354
    u[9]      primal_lower82  609
    u[9]      primal_lower83  733
    u[9]      primal_lower84  359
    u[9]      primal_lower85  229
    u[9]      primal_lower86  956
    u[9]      primal_lower87  172
    u[9]      primal_lower88  52
    u[9]      primal_lower89  451
    u[9]      primal_lower90  747
    u[9]      primal_lower91  612
    u[9]      primal_lower92  490
    u[9]      primal_lower93  772
    u[9]      primal_lower94  442
    u[9]      primal_lower95  946
    u[9]      primal_lower96  252
    u[9]      primal_lower97  69
    u[9]      primal_lower98  733
    u[9]      primal_lower99  938
    u[9]      interdiction[9]  1
    u[9]      mccormick1[9]  -1
    u[9]      mccormick3[9]  1
    u[10]     primal_lower0  167
    u[10]     primal_lower1  255
    u[10]     primal_lower2  425
    u[10]     primal_lower3  940
    u[10]     primal_lower4  480
    u[10]     primal_lower5  620
    u[10]     primal_lower6  726
    u[10]     primal_lower7  579
    u[10]     primal_lower8  499
    u[10]     primal_lower9  514
    u[10]     primal_lower10  882
    u[10]     primal_lower11  723
    u[10]     primal_lower12  956
    u[10]     primal_lower13  715
    u[10]     primal_lower14  572
    u[10]     primal_lower15  481
    u[10]     primal_lower16  132
    u[10]     primal_lower17  96
    u[10]     primal_lower18  573
    u[10]     primal_lower19  499
    u[10]     primal_lower20  739
    u[10]     primal_lower21  937
    u[10]     primal_lower22  929
    u[10]     primal_lower23  949
    u[10]     primal_lower24  334
    u[10]     primal_lower25  829
    u[10]     primal_lower26  842
    u[10]     primal_lower27  392
    u[10]     primal_lower28  696
    u[10]     primal_lower29  930
    u[10]     primal_lower30  907
    u[10]     primal_lower31  614
    u[10]     primal_lower32  492
    u[10]     primal_lower33  844
    u[10]     primal_lower34  295
    u[10]     primal_lower35  289
    u[10]     primal_lower36  79
    u[10]     primal_lower37  462
    u[10]     primal_lower38  879
    u[10]     primal_lower39  10
    u[10]     primal_lower40  705
    u[10]     primal_lower41  69
    u[10]     primal_lower42  429
    u[10]     primal_lower43  349
    u[10]     primal_lower44  910
    u[10]     primal_lower45  801
    u[10]     primal_lower46  643
    u[10]     primal_lower47  697
    u[10]     primal_lower48  75
    u[10]     primal_lower49  41
    u[10]     primal_lower50  701
    u[10]     primal_lower51  168
    u[10]     primal_lower52  270
    u[10]     primal_lower53  455
    u[10]     primal_lower54  429
    u[10]     primal_lower55  143
    u[10]     primal_lower56  252
    u[10]     primal_lower57  297
    u[10]     primal_lower58  525
    u[10]     primal_lower59  741
    u[10]     primal_lower60  439
    u[10]     primal_lower61  646
    u[10]     primal_lower62  940
    u[10]     primal_lower63  952
    u[10]     primal_lower64  532
    u[10]     primal_lower65  337
    u[10]     primal_lower66  765
    u[10]     primal_lower67  964
    u[10]     primal_lower68  502
    u[10]     primal_lower69  437
    u[10]     primal_lower70  176
    u[10]     primal_lower71  198
    u[10]     primal_lower72  467
    u[10]     primal_lower73  264
    u[10]     primal_lower74  849
    u[10]     primal_lower75  624
    u[10]     primal_lower76  643
    u[10]     primal_lower77  281
    u[10]     primal_lower78  903
    u[10]     primal_lower79  813
    u[10]     primal_lower80  8
    u[10]     primal_lower81  300
    u[10]     primal_lower82  686
    u[10]     primal_lower83  754
    u[10]     primal_lower84  345
    u[10]     primal_lower85  450
    u[10]     primal_lower86  817
    u[10]     primal_lower87  913
    u[10]     primal_lower88  209
    u[10]     primal_lower89  413
    u[10]     primal_lower90  432
    u[10]     primal_lower91  798
    u[10]     primal_lower92  759
    u[10]     primal_lower93  377
    u[10]     primal_lower94  108
    u[10]     primal_lower95  863
    u[10]     primal_lower96  977
    u[10]     primal_lower97  239
    u[10]     primal_lower98  439
    u[10]     primal_lower99  991
    u[10]     interdiction[10]  1
    u[10]     mccormick1[10]  -1
    u[10]     mccormick3[10]  1
    u[11]     primal_lower0  134
    u[11]     primal_lower1  318
    u[11]     primal_lower2  40
    u[11]     primal_lower3  571
    u[11]     primal_lower4  639
    u[11]     primal_lower5  592
    u[11]     primal_lower6  706
    u[11]     primal_lower7  263
    u[11]     primal_lower8  250
    u[11]     primal_lower9  886
    u[11]     primal_lower10  198
    u[11]     primal_lower11  482
    u[11]     primal_lower12  971
    u[11]     primal_lower13  999
    u[11]     primal_lower14  648
    u[11]     primal_lower15  56
    u[11]     primal_lower16  368
    u[11]     primal_lower17  460
    u[11]     primal_lower18  617
    u[11]     primal_lower19  495
    u[11]     primal_lower20  895
    u[11]     primal_lower21  152
    u[11]     primal_lower22  432
    u[11]     primal_lower23  372
    u[11]     primal_lower24  229
    u[11]     primal_lower25  652
    u[11]     primal_lower26  750
    u[11]     primal_lower27  956
    u[11]     primal_lower28  852
    u[11]     primal_lower29  78
    u[11]     primal_lower30  482
    u[11]     primal_lower31  626
    u[11]     primal_lower32  131
    u[11]     primal_lower33  760
    u[11]     primal_lower34  843
    u[11]     primal_lower35  40
    u[11]     primal_lower36  246
    u[11]     primal_lower37  765
    u[11]     primal_lower38  867
    u[11]     primal_lower39  462
    u[11]     primal_lower40  901
    u[11]     primal_lower41  17
    u[11]     primal_lower42  948
    u[11]     primal_lower43  180
    u[11]     primal_lower44  618
    u[11]     primal_lower45  581
    u[11]     primal_lower46  559
    u[11]     primal_lower47  472
    u[11]     primal_lower48  922
    u[11]     primal_lower49  792
    u[11]     primal_lower50  689
    u[11]     primal_lower51  327
    u[11]     primal_lower52  514
    u[11]     primal_lower53  987
    u[11]     primal_lower54  209
    u[11]     primal_lower55  446
    u[11]     primal_lower56  88
    u[11]     primal_lower57  728
    u[11]     primal_lower58  996
    u[11]     primal_lower59  545
    u[11]     primal_lower60  923
    u[11]     primal_lower61  997
    u[11]     primal_lower62  339
    u[11]     primal_lower63  799
    u[11]     primal_lower64  387
    u[11]     primal_lower65  373
    u[11]     primal_lower66  577
    u[11]     primal_lower67  920
    u[11]     primal_lower68  829
    u[11]     primal_lower69  249
    u[11]     primal_lower70  183
    u[11]     primal_lower71  570
    u[11]     primal_lower72  66
    u[11]     primal_lower73  708
    u[11]     primal_lower74  16
    u[11]     primal_lower75  420
    u[11]     primal_lower76  767
    u[11]     primal_lower77  277
    u[11]     primal_lower78  502
    u[11]     primal_lower79  825
    u[11]     primal_lower80  844
    u[11]     primal_lower81  923
    u[11]     primal_lower82  178
    u[11]     primal_lower83  782
    u[11]     primal_lower84  608
    u[11]     primal_lower85  534
    u[11]     primal_lower86  117
    u[11]     primal_lower87  429
    u[11]     primal_lower88  277
    u[11]     primal_lower89  244
    u[11]     primal_lower90  108
    u[11]     primal_lower91  501
    u[11]     primal_lower92  451
    u[11]     primal_lower93  469
    u[11]     primal_lower94  203
    u[11]     primal_lower95  899
    u[11]     primal_lower96  397
    u[11]     primal_lower97  278
    u[11]     primal_lower98  342
    u[11]     primal_lower99  755
    u[11]     interdiction[11]  1
    u[11]     mccormick1[11]  -1
    u[11]     mccormick3[11]  1
    u[12]     primal_lower0  559
    u[12]     primal_lower1  591
    u[12]     primal_lower2  281
    u[12]     primal_lower3  484
    u[12]     primal_lower4  456
    u[12]     primal_lower5  429
    u[12]     primal_lower6  927
    u[12]     primal_lower7  276
    u[12]     primal_lower8  195
    u[12]     primal_lower9  291
    u[12]     primal_lower10  867
    u[12]     primal_lower11  707
    u[12]     primal_lower12  588
    u[12]     primal_lower13  492
    u[12]     primal_lower14  917
    u[12]     primal_lower15  49
    u[12]     primal_lower16  573
    u[12]     primal_lower17  569
    u[12]     primal_lower18  846
    u[12]     primal_lower19  612
    u[12]     primal_lower20  732
    u[12]     primal_lower21  769
    u[12]     primal_lower22  81
    u[12]     primal_lower23  85
    u[12]     primal_lower24  118
    u[12]     primal_lower25  557
    u[12]     primal_lower26  491
    u[12]     primal_lower27  417
    u[12]     primal_lower28  745
    u[12]     primal_lower29  835
    u[12]     primal_lower30  643
    u[12]     primal_lower31  319
    u[12]     primal_lower32  572
    u[12]     primal_lower33  365
    u[12]     primal_lower34  800
    u[12]     primal_lower35  857
    u[12]     primal_lower36  759
    u[12]     primal_lower37  958
    u[12]     primal_lower38  56
    u[12]     primal_lower39  747
    u[12]     primal_lower40  34
    u[12]     primal_lower41  158
    u[12]     primal_lower42  77
    u[12]     primal_lower43  413
    u[12]     primal_lower44  679
    u[12]     primal_lower45  10
    u[12]     primal_lower46  12
    u[12]     primal_lower47  409
    u[12]     primal_lower48  659
    u[12]     primal_lower49  593
    u[12]     primal_lower50  694
    u[12]     primal_lower51  232
    u[12]     primal_lower52  303
    u[12]     primal_lower53  624
    u[12]     primal_lower54  158
    u[12]     primal_lower55  399
    u[12]     primal_lower56  101
    u[12]     primal_lower57  993
    u[12]     primal_lower58  669
    u[12]     primal_lower59  462
    u[12]     primal_lower60  56
    u[12]     primal_lower61  390
    u[12]     primal_lower62  20
    u[12]     primal_lower63  744
    u[12]     primal_lower64  756
    u[12]     primal_lower65  98
    u[12]     primal_lower66  70
    u[12]     primal_lower67  805
    u[12]     primal_lower68  950
    u[12]     primal_lower69  718
    u[12]     primal_lower70  320
    u[12]     primal_lower71  175
    u[12]     primal_lower72  931
    u[12]     primal_lower73  393
    u[12]     primal_lower74  617
    u[12]     primal_lower75  985
    u[12]     primal_lower76  900
    u[12]     primal_lower77  706
    u[12]     primal_lower78  551
    u[12]     primal_lower79  934
    u[12]     primal_lower80  761
    u[12]     primal_lower81  156
    u[12]     primal_lower82  783
    u[12]     primal_lower83  923
    u[12]     primal_lower84  961
    u[12]     primal_lower85  395
    u[12]     primal_lower86  482
    u[12]     primal_lower87  122
    u[12]     primal_lower88  610
    u[12]     primal_lower89  653
    u[12]     primal_lower90  753
    u[12]     primal_lower91  294
    u[12]     primal_lower92  320
    u[12]     primal_lower93  274
    u[12]     primal_lower94  532
    u[12]     primal_lower95  392
    u[12]     primal_lower96  706
    u[12]     primal_lower97  631
    u[12]     primal_lower98  327
    u[12]     primal_lower99  912
    u[12]     interdiction[12]  1
    u[12]     mccormick1[12]  -1
    u[12]     mccormick3[12]  1
    u[13]     primal_lower0  783
    u[13]     primal_lower1  431
    u[13]     primal_lower2  841
    u[13]     primal_lower3  860
    u[13]     primal_lower4  432
    u[13]     primal_lower5  833
    u[13]     primal_lower6  299
    u[13]     primal_lower7  824
    u[13]     primal_lower8  755
    u[13]     primal_lower9  167
    u[13]     primal_lower10  639
    u[13]     primal_lower11  275
    u[13]     primal_lower12  108
    u[13]     primal_lower13  576
    u[13]     primal_lower14  865
    u[13]     primal_lower15  665
    u[13]     primal_lower16  313
    u[13]     primal_lower17  901
    u[13]     primal_lower18  802
    u[13]     primal_lower19  160
    u[13]     primal_lower20  624
    u[13]     primal_lower21  529
    u[13]     primal_lower22  457
    u[13]     primal_lower23  805
    u[13]     primal_lower24  94
    u[13]     primal_lower25  893
    u[13]     primal_lower26  663
    u[13]     primal_lower27  197
    u[13]     primal_lower28  669
    u[13]     primal_lower29  367
    u[13]     primal_lower30  507
    u[13]     primal_lower31  259
    u[13]     primal_lower32  484
    u[13]     primal_lower33  153
    u[13]     primal_lower34  860
    u[13]     primal_lower35  665
    u[13]     primal_lower36  679
    u[13]     primal_lower37  742
    u[13]     primal_lower38  348
    u[13]     primal_lower39  279
    u[13]     primal_lower40  726
    u[13]     primal_lower41  762
    u[13]     primal_lower42  37
    u[13]     primal_lower43  373
    u[13]     primal_lower44  475
    u[13]     primal_lower45  174
    u[13]     primal_lower46  456
    u[13]     primal_lower47  681
    u[13]     primal_lower48  651
    u[13]     primal_lower49  537
    u[13]     primal_lower50  674
    u[13]     primal_lower51  824
    u[13]     primal_lower52  923
    u[13]     primal_lower53  236
    u[13]     primal_lower54  98
    u[13]     primal_lower55  991
    u[13]     primal_lower56  225
    u[13]     primal_lower57  465
    u[13]     primal_lower58  925
    u[13]     primal_lower59  410
    u[13]     primal_lower60  4
    u[13]     primal_lower61  86
    u[13]     primal_lower62  516
    u[13]     primal_lower63  528
    u[13]     primal_lower64  820
    u[13]     primal_lower65  262
    u[13]     primal_lower66  674
    u[13]     primal_lower67  969
    u[13]     primal_lower68  78
    u[13]     primal_lower69  338
    u[13]     primal_lower70  688
    u[13]     primal_lower71  851
    u[13]     primal_lower72  931
    u[13]     primal_lower73  213
    u[13]     primal_lower74  465
    u[13]     primal_lower75  173
    u[13]     primal_lower76  72
    u[13]     primal_lower77  966
    u[13]     primal_lower78  871
    u[13]     primal_lower79  498
    u[13]     primal_lower80  765
    u[13]     primal_lower81  884
    u[13]     primal_lower82  123
    u[13]     primal_lower83  551
    u[13]     primal_lower84  193
    u[13]     primal_lower85  215
    u[13]     primal_lower86  446
    u[13]     primal_lower87  910
    u[13]     primal_lower88  574
    u[13]     primal_lower89  701
    u[13]     primal_lower90  821
    u[13]     primal_lower91  398
    u[13]     primal_lower92  372
    u[13]     primal_lower93  758
    u[13]     primal_lower94  772
    u[13]     primal_lower95  628
    u[13]     primal_lower96  806
    u[13]     primal_lower97  79
    u[13]     primal_lower98  351
    u[13]     primal_lower99  444
    u[13]     interdiction[13]  1
    u[13]     mccormick1[13]  -1
    u[13]     mccormick3[13]  1
    u[14]     primal_lower0  88
    u[14]     primal_lower1  192
    u[14]     primal_lower2  178
    u[14]     primal_lower3  413
    u[14]     primal_lower4  121
    u[14]     primal_lower5  949
    u[14]     primal_lower6  959
    u[14]     primal_lower7  700
    u[14]     primal_lower8  844
    u[14]     primal_lower9  771
    u[14]     primal_lower10  595
    u[14]     primal_lower11  484
    u[14]     primal_lower12  277
    u[14]     primal_lower13  228
    u[14]     primal_lower14  93
    u[14]     primal_lower15  818
    u[14]     primal_lower16  389
    u[14]     primal_lower17  441
    u[14]     primal_lower18  934
    u[14]     primal_lower19  580
    u[14]     primal_lower20  444
    u[14]     primal_lower21  970
    u[14]     primal_lower22  866
    u[14]     primal_lower23  574
    u[14]     primal_lower24  879
    u[14]     primal_lower25  614
    u[14]     primal_lower26  707
    u[14]     primal_lower27  929
    u[14]     primal_lower28  361
    u[14]     primal_lower29  411
    u[14]     primal_lower30  412
    u[14]     primal_lower31  927
    u[14]     primal_lower32  845
    u[14]     primal_lower33  605
    u[14]     primal_lower34  64
    u[14]     primal_lower35  626
    u[14]     primal_lower36  240
    u[14]     primal_lower37  599
    u[14]     primal_lower38  408
    u[14]     primal_lower39  139
    u[14]     primal_lower40  930
    u[14]     primal_lower41  206
    u[14]     primal_lower42  510
    u[14]     primal_lower43  198
    u[14]     primal_lower44  463
    u[14]     primal_lower45  2
    u[14]     primal_lower46  668
    u[14]     primal_lower47  138
    u[14]     primal_lower48  380
    u[14]     primal_lower49  154
    u[14]     primal_lower50  342
    u[14]     primal_lower51  801
    u[14]     primal_lower52  439
    u[14]     primal_lower53  952
    u[14]     primal_lower54  342
    u[14]     primal_lower55  648
    u[14]     primal_lower56  541
    u[14]     primal_lower57  594
    u[14]     primal_lower58  166
    u[14]     primal_lower59  6
    u[14]     primal_lower60  248
    u[14]     primal_lower61  167
    u[14]     primal_lower62  333
    u[14]     primal_lower63  169
    u[14]     primal_lower64  997
    u[14]     primal_lower65  82
    u[14]     primal_lower66  742
    u[14]     primal_lower67  269
    u[14]     primal_lower68  751
    u[14]     primal_lower69  702
    u[14]     primal_lower70  561
    u[14]     primal_lower71  751
    u[14]     primal_lower72  996
    u[14]     primal_lower73  673
    u[14]     primal_lower74  194
    u[14]     primal_lower75  9
    u[14]     primal_lower76  516
    u[14]     primal_lower77  362
    u[14]     primal_lower78  696
    u[14]     primal_lower79  854
    u[14]     primal_lower80  521
    u[14]     primal_lower81  165
    u[14]     primal_lower82  895
    u[14]     primal_lower83  683
    u[14]     primal_lower84  410
    u[14]     primal_lower85  611
    u[14]     primal_lower86  770
    u[14]     primal_lower87  202
    u[14]     primal_lower88  482
    u[14]     primal_lower89  142
    u[14]     primal_lower90  753
    u[14]     primal_lower91  127
    u[14]     primal_lower92  664
    u[14]     primal_lower93  522
    u[14]     primal_lower94  133
    u[14]     primal_lower95  264
    u[14]     primal_lower96  930
    u[14]     primal_lower97  472
    u[14]     primal_lower98  912
    u[14]     primal_lower99  48
    u[14]     interdiction[14]  1
    u[14]     mccormick1[14]  -1
    u[14]     mccormick3[14]  1
    u[15]     primal_lower0  32
    u[15]     primal_lower1  872
    u[15]     primal_lower2  602
    u[15]     primal_lower3  597
    u[15]     primal_lower4  569
    u[15]     primal_lower5  913
    u[15]     primal_lower6  707
    u[15]     primal_lower7  16
    u[15]     primal_lower8  748
    u[15]     primal_lower9  671
    u[15]     primal_lower10  943
    u[15]     primal_lower11  932
    u[15]     primal_lower12  293
    u[15]     primal_lower13  88
    u[15]     primal_lower14  329
    u[15]     primal_lower15  194
    u[15]     primal_lower16  81
    u[15]     primal_lower17  749
    u[15]     primal_lower18  266
    u[15]     primal_lower19  48
    u[15]     primal_lower20  792
    u[15]     primal_lower21  98
    u[15]     primal_lower22  58
    u[15]     primal_lower23  870
    u[15]     primal_lower24  7
    u[15]     primal_lower25  742
    u[15]     primal_lower26  367
    u[15]     primal_lower27  221
    u[15]     primal_lower28  797
    u[15]     primal_lower29  31
    u[15]     primal_lower30  524
    u[15]     primal_lower31  483
    u[15]     primal_lower32  981
    u[15]     primal_lower33  905
    u[15]     primal_lower34  676
    u[15]     primal_lower35  58
    u[15]     primal_lower36  16
    u[15]     primal_lower37  575
    u[15]     primal_lower38  684
    u[15]     primal_lower39  375
    u[15]     primal_lower40  150
    u[15]     primal_lower41  234
    u[15]     primal_lower42  78
    u[15]     primal_lower43  110
    u[15]     primal_lower44  371
    u[15]     primal_lower45  998
    u[15]     primal_lower46  872
    u[15]     primal_lower47  242
    u[15]     primal_lower48  76
    u[15]     primal_lower49  714
    u[15]     primal_lower50  386
    u[15]     primal_lower51  441
    u[15]     primal_lower52  83
    u[15]     primal_lower53  324
    u[15]     primal_lower54  450
    u[15]     primal_lower55  344
    u[15]     primal_lower56  209
    u[15]     primal_lower57  66
    u[15]     primal_lower58  774
    u[15]     primal_lower59  826
    u[15]     primal_lower60  764
    u[15]     primal_lower61  111
    u[15]     primal_lower62  965
    u[15]     primal_lower63  33
    u[15]     primal_lower64  309
    u[15]     primal_lower65  518
    u[15]     primal_lower66  442
    u[15]     primal_lower67  865
    u[15]     primal_lower68  903
    u[15]     primal_lower69  554
    u[15]     primal_lower70  705
    u[15]     primal_lower71  539
    u[15]     primal_lower72  364
    u[15]     primal_lower73  53
    u[15]     primal_lower74  682
    u[15]     primal_lower75  933
    u[15]     primal_lower76  640
    u[15]     primal_lower77  662
    u[15]     primal_lower78  696
    u[15]     primal_lower79  698
    u[15]     primal_lower80  181
    u[15]     primal_lower81  285
    u[15]     primal_lower82  803
    u[15]     primal_lower83  23
    u[15]     primal_lower84  962
    u[15]     primal_lower85  855
    u[15]     primal_lower86  606
    u[15]     primal_lower87  278
    u[15]     primal_lower88  158
    u[15]     primal_lower89  214
    u[15]     primal_lower90  165
    u[15]     primal_lower91  47
    u[15]     primal_lower92  852
    u[15]     primal_lower93  502
    u[15]     primal_lower94  653
    u[15]     primal_lower95  844
    u[15]     primal_lower96  478
    u[15]     primal_lower97  680
    u[15]     primal_lower98  640
    u[15]     primal_lower99  476
    u[15]     interdiction[15]  1
    u[15]     mccormick1[15]  -1
    u[15]     mccormick3[15]  1
    u[16]     primal_lower0  936
    u[16]     primal_lower1  440
    u[16]     primal_lower2  906
    u[16]     primal_lower3  213
    u[16]     primal_lower4  337
    u[16]     primal_lower5  62
    u[16]     primal_lower6  760
    u[16]     primal_lower7  541
    u[16]     primal_lower8  444
    u[16]     primal_lower9  412
    u[16]     primal_lower10  820
    u[16]     primal_lower11  60
    u[16]     primal_lower12  173
    u[16]     primal_lower13  373
    u[16]     primal_lower14  38
    u[16]     primal_lower15  154
    u[16]     primal_lower16  814
    u[16]     primal_lower17  738
    u[16]     primal_lower18  631
    u[16]     primal_lower19  221
    u[16]     primal_lower20  621
    u[16]     primal_lower21  218
    u[16]     primal_lower22  178
    u[16]     primal_lower23  654
    u[16]     primal_lower24  783
    u[16]     primal_lower25  918
    u[16]     primal_lower26  276
    u[16]     primal_lower27  682
    u[16]     primal_lower28  234
    u[16]     primal_lower29  364
    u[16]     primal_lower30  540
    u[16]     primal_lower31  768
    u[16]     primal_lower32  661
    u[16]     primal_lower33  606
    u[16]     primal_lower34  897
    u[16]     primal_lower35  930
    u[16]     primal_lower36  88
    u[16]     primal_lower37  839
    u[16]     primal_lower38  353
    u[16]     primal_lower39  580
    u[16]     primal_lower40  883
    u[16]     primal_lower41  783
    u[16]     primal_lower42  542
    u[16]     primal_lower43  222
    u[16]     primal_lower44  840
    u[16]     primal_lower45  867
    u[16]     primal_lower46  29
    u[16]     primal_lower47  858
    u[16]     primal_lower48  788
    u[16]     primal_lower49  698
    u[16]     primal_lower50  799
    u[16]     primal_lower51  361
    u[16]     primal_lower52  656
    u[16]     primal_lower53  281
    u[16]     primal_lower54  303
    u[16]     primal_lower55  344
    u[16]     primal_lower56  742
    u[16]     primal_lower57  410
    u[16]     primal_lower58  502
    u[16]     primal_lower59  175
    u[16]     primal_lower60  689
    u[16]     primal_lower61  303
    u[16]     primal_lower62  821
    u[16]     primal_lower63  801
    u[16]     primal_lower64  125
    u[16]     primal_lower65  427
    u[16]     primal_lower66  967
    u[16]     primal_lower67  414
    u[16]     primal_lower68  303
    u[16]     primal_lower69  727
    u[16]     primal_lower70  345
    u[16]     primal_lower71  760
    u[16]     primal_lower72  964
    u[16]     primal_lower73  906
    u[16]     primal_lower74  210
    u[16]     primal_lower75  450
    u[16]     primal_lower76  605
    u[16]     primal_lower77  123
    u[16]     primal_lower78  272
    u[16]     primal_lower79  439
    u[16]     primal_lower80  586
    u[16]     primal_lower81  573
    u[16]     primal_lower82  920
    u[16]     primal_lower83  940
    u[16]     primal_lower84  954
    u[16]     primal_lower85  36
    u[16]     primal_lower86  987
    u[16]     primal_lower87  683
    u[16]     primal_lower88  339
    u[16]     primal_lower89  726
    u[16]     primal_lower90  762
    u[16]     primal_lower91  751
    u[16]     primal_lower92  425
    u[16]     primal_lower93  619
    u[16]     primal_lower94  245
    u[16]     primal_lower95  993
    u[16]     primal_lower96  315
    u[16]     primal_lower97  256
    u[16]     primal_lower98  136
    u[16]     primal_lower99  433
    u[16]     interdiction[16]  1
    u[16]     mccormick1[16]  -1
    u[16]     mccormick3[16]  1
    u[17]     primal_lower0  531
    u[17]     primal_lower1  171
    u[17]     primal_lower2  741
    u[17]     primal_lower3  144
    u[17]     primal_lower4  524
    u[17]     primal_lower5  101
    u[17]     primal_lower6  631
    u[17]     primal_lower7  572
    u[17]     primal_lower8  887
    u[17]     primal_lower9  419
    u[17]     primal_lower10  723
    u[17]     primal_lower11  991
    u[17]     primal_lower12  16
    u[17]     primal_lower13  508
    u[17]     primal_lower14  501
    u[17]     primal_lower15  901
    u[17]     primal_lower16  581
    u[17]     primal_lower17  649
    u[17]     primal_lower18  366
    u[17]     primal_lower19  884
    u[17]     primal_lower20  580
    u[17]     primal_lower21  957
    u[17]     primal_lower22  229
    u[17]     primal_lower23  945
    u[17]     primal_lower24  818
    u[17]     primal_lower25  185
    u[17]     primal_lower26  323
    u[17]     primal_lower27  561
    u[17]     primal_lower28  89
    u[17]     primal_lower29  171
    u[17]     primal_lower30  831
    u[17]     primal_lower31  351
    u[17]     primal_lower32  96
    u[17]     primal_lower33  717
    u[17]     primal_lower34  344
    u[17]     primal_lower35  141
    u[17]     primal_lower36  515
    u[17]     primal_lower37  746
    u[17]     primal_lower38  536
    u[17]     primal_lower39  403
    u[17]     primal_lower40  122
    u[17]     primal_lower41  542
    u[17]     primal_lower42  849
    u[17]     primal_lower43  353
    u[17]     primal_lower44  207
    u[17]     primal_lower45  962
    u[17]     primal_lower46  892
    u[17]     primal_lower47  693
    u[17]     primal_lower48  423
    u[17]     primal_lower49  509
    u[17]     primal_lower50  710
    u[17]     primal_lower51  284
    u[17]     primal_lower52  895
    u[17]     primal_lower53  488
    u[17]     primal_lower54  230
    u[17]     primal_lower55  347
    u[17]     primal_lower56  533
    u[17]     primal_lower57  341
    u[17]     primal_lower58  521
    u[17]     primal_lower59  486
    u[17]     primal_lower60  352
    u[17]     primal_lower61  58
    u[17]     primal_lower62  200
    u[17]     primal_lower63  716
    u[17]     primal_lower64  136
    u[17]     primal_lower65  778
    u[17]     primal_lower66  822
    u[17]     primal_lower67  405
    u[17]     primal_lower68  786
    u[17]     primal_lower69  502
    u[17]     primal_lower70  804
    u[17]     primal_lower71  391
    u[17]     primal_lower72  647
    u[17]     primal_lower73  881
    u[17]     primal_lower74  469
    u[17]     primal_lower75  721
    u[17]     primal_lower76  420
    u[17]     primal_lower77  130
    u[17]     primal_lower78  987
    u[17]     primal_lower79  534
    u[17]     primal_lower80  25
    u[17]     primal_lower81  640
    u[17]     primal_lower82  983
    u[17]     primal_lower83  59
    u[17]     primal_lower84  789
    u[17]     primal_lower85  795
    u[17]     primal_lower86  98
    u[17]     primal_lower87  770
    u[17]     primal_lower88  322
    u[17]     primal_lower89  393
    u[17]     primal_lower90  337
    u[17]     primal_lower91  530
    u[17]     primal_lower92  792
    u[17]     primal_lower93  442
    u[17]     primal_lower94  72
    u[17]     primal_lower95  80
    u[17]     primal_lower96  34
    u[17]     primal_lower97  979
    u[17]     primal_lower98  955
    u[17]     primal_lower99  552
    u[17]     interdiction[17]  1
    u[17]     mccormick1[17]  -1
    u[17]     mccormick3[17]  1
    u[18]     primal_lower0  828
    u[18]     primal_lower1  740
    u[18]     primal_lower2  950
    u[18]     primal_lower3  473
    u[18]     primal_lower4  997
    u[18]     primal_lower5  898
    u[18]     primal_lower6  204
    u[18]     primal_lower7  401
    u[18]     primal_lower8  952
    u[18]     primal_lower9  624
    u[18]     primal_lower10  456
    u[18]     primal_lower11  392
    u[18]     primal_lower12  321
    u[18]     primal_lower13  89
    u[18]     primal_lower14  274
    u[18]     primal_lower15  430
    u[18]     primal_lower16  554
    u[18]     primal_lower17  974
    u[18]     primal_lower18  955
    u[18]     primal_lower19  985
    u[18]     primal_lower20  553
    u[18]     primal_lower21  134
    u[18]     primal_lower22  414
    u[18]     primal_lower23  298
    u[18]     primal_lower24  91
    u[18]     primal_lower25  522
    u[18]     primal_lower26  640
    u[18]     primal_lower27  334
    u[18]     primal_lower28  190
    u[18]     primal_lower29  376
    u[18]     primal_lower30  736
    u[18]     primal_lower31  28
    u[18]     primal_lower32  985
    u[18]     primal_lower33  930
    u[18]     primal_lower34  77
    u[18]     primal_lower35  334
    u[18]     primal_lower36  148
    u[18]     primal_lower37  3
    u[18]     primal_lower38  45
    u[18]     primal_lower39  248
    u[18]     primal_lower40  639
    u[18]     primal_lower41  683
    u[18]     primal_lower42  618
    u[18]     primal_lower43  202
    u[18]     primal_lower44  844
    u[18]     primal_lower45  167
    u[18]     primal_lower46  465
    u[18]     primal_lower47  838
    u[18]     primal_lower48  640
    u[18]     primal_lower49  326
    u[18]     primal_lower50  43
    u[18]     primal_lower51  845
    u[18]     primal_lower52  884
    u[18]     primal_lower53  981
    u[18]     primal_lower54  755
    u[18]     primal_lower55  404
    u[18]     primal_lower56  138
    u[18]     primal_lower57  142
    u[18]     primal_lower58  578
    u[18]     primal_lower59  595
    u[18]     primal_lower60  661
    u[18]     primal_lower61  683
    u[18]     primal_lower62  457
    u[18]     primal_lower63  21
    u[18]     primal_lower64  569
    u[18]     primal_lower65  391
    u[18]     primal_lower66  459
    u[18]     primal_lower67  74
    u[18]     primal_lower68  395
    u[18]     primal_lower69  899
    u[18]     primal_lower70  477
    u[18]     primal_lower71  188
    u[18]     primal_lower72  616
    u[18]     primal_lower73  838
    u[18]     primal_lower74  630
    u[18]     primal_lower75  54
    u[18]     primal_lower76  273
    u[18]     primal_lower77  591
    u[18]     primal_lower78  172
    u[18]     primal_lower79  11
    u[18]     primal_lower80  118
    u[18]     primal_lower81  145
    u[18]     primal_lower82  268
    u[18]     primal_lower83  648
    u[18]     primal_lower84  62
    u[18]     primal_lower85  160
    u[18]     primal_lower86  223
    u[18]     primal_lower87  815
    u[18]     primal_lower88  303
    u[18]     primal_lower89  546
    u[18]     primal_lower90  918
    u[18]     primal_lower91  179
    u[18]     primal_lower92  693
    u[18]     primal_lower93  575
    u[18]     primal_lower94  81
    u[18]     primal_lower95  341
    u[18]     primal_lower96  39
    u[18]     primal_lower97  140
    u[18]     primal_lower98  804
    u[18]     primal_lower99  485
    u[18]     interdiction[18]  1
    u[18]     mccormick1[18]  -1
    u[18]     mccormick3[18]  1
    u[19]     primal_lower0  529
    u[19]     primal_lower1  81
    u[19]     primal_lower2  603
    u[19]     primal_lower3  598
    u[19]     primal_lower4  778
    u[19]     primal_lower5  779
    u[19]     primal_lower6  45
    u[19]     primal_lower7  722
    u[19]     primal_lower8  645
    u[19]     primal_lower9  49
    u[19]     primal_lower10  697
    u[19]     primal_lower11  261
    u[19]     primal_lower12  198
    u[19]     primal_lower13  154
    u[19]     primal_lower14  19
    u[19]     primal_lower15  131
    u[19]     primal_lower16  595
    u[19]     primal_lower17  815
    u[19]     primal_lower18  740
    u[19]     primal_lower19  266
    u[19]     primal_lower20  386
    u[19]     primal_lower21  723
    u[19]     primal_lower22  299
    u[19]     primal_lower23  255
    u[19]     primal_lower24  328
    u[19]     primal_lower25  383
    u[19]     primal_lower26  377
    u[19]     primal_lower27  807
    u[19]     primal_lower28  863
    u[19]     primal_lower29  961
    u[19]     primal_lower30  813
    u[19]     primal_lower31  253
    u[19]     primal_lower32  118
    u[19]     primal_lower33  627
    u[19]     primal_lower34  510
    u[19]     primal_lower35  555
    u[19]     primal_lower36  569
    u[19]     primal_lower37  536
    u[19]     primal_lower38  662
    u[19]     primal_lower39  561
    u[19]     primal_lower40  384
    u[19]     primal_lower41  12
    u[19]     primal_lower42  55
    u[19]     primal_lower43  599
    u[19]     primal_lower44  341
    u[19]     primal_lower45  568
    u[19]     primal_lower46  538
    u[19]     primal_lower47  947
    u[19]     primal_lower48  469
    u[19]     primal_lower49  931
    u[19]     primal_lower50  332
    u[19]     primal_lower51  810
    u[19]     primal_lower52  165
    u[19]     primal_lower53  838
    u[19]     primal_lower54  628
    u[19]     primal_lower55  905
    u[19]     primal_lower56  275
    u[19]     primal_lower57  187
    u[19]     primal_lower58  343
    u[19]     primal_lower59  268
    u[19]     primal_lower60  542
    u[19]     primal_lower61  376
    u[19]     primal_lower62  582
    u[19]     primal_lower63  666
    u[19]     primal_lower64  670
    u[19]     primal_lower65  392
    u[19]     primal_lower66  36
    u[19]     primal_lower67  211
    u[19]     primal_lower68  280
    u[19]     primal_lower69  596
    u[19]     primal_lower70  42
    u[19]     primal_lower71  149
    u[19]     primal_lower72  853
    u[19]     primal_lower73  703
    u[19]     primal_lower74  907
    u[19]     primal_lower75  703
    u[19]     primal_lower76  570
    u[19]     primal_lower77  336
    u[19]     primal_lower78  329
    u[19]     primal_lower79  588
    u[19]     primal_lower80  663
    u[19]     primal_lower81  502
    u[19]     primal_lower82  381
    u[19]     primal_lower83  73
    u[19]     primal_lower84  451
    u[19]     primal_lower85  953
    u[19]     primal_lower86  704
    u[19]     primal_lower87  72
    u[19]     primal_lower88  40
    u[19]     primal_lower89  127
    u[19]     primal_lower90  343
    u[19]     primal_lower91  816
    u[19]     primal_lower92  302
    u[19]     primal_lower93  648
    u[19]     primal_lower94  526
    u[19]     primal_lower95  654
    u[19]     primal_lower96  32
    u[19]     primal_lower97  849
    u[19]     primal_lower98  889
    u[19]     primal_lower99  406
    u[19]     interdiction[19]  1
    u[19]     mccormick1[19]  -1
    u[19]     mccormick3[19]  1
    u[20]     primal_lower0  376
    u[20]     primal_lower1  152
    u[20]     primal_lower2  842
    u[20]     primal_lower3  53
    u[20]     primal_lower4  81
    u[20]     primal_lower5  254
    u[20]     primal_lower6  752
    u[20]     primal_lower7  493
    u[20]     primal_lower8  196
    u[20]     primal_lower9  620
    u[20]     primal_lower10  164
    u[20]     primal_lower11  796
    u[20]     primal_lower12  325
    u[20]     primal_lower13  557
    u[20]     primal_lower14  998
    u[20]     primal_lower15  890
    u[20]     primal_lower16  286
    u[20]     primal_lower17  746
    u[20]     primal_lower18  663
    u[20]     primal_lower19  485
    u[20]     primal_lower20  885
    u[20]     primal_lower21  242
    u[20]     primal_lower22  506
    u[20]     primal_lower23  334
    u[20]     primal_lower24  375
    u[20]     primal_lower25  78
    u[20]     primal_lower26  964
    u[20]     primal_lower27  482
    u[20]     primal_lower28  2
    u[20]     primal_lower29  820
    u[20]     primal_lower30  684
    u[20]     primal_lower31  752
    u[20]     primal_lower32  749
    u[20]     primal_lower33  966
    u[20]     primal_lower34  145
    u[20]     primal_lower35  298
    u[20]     primal_lower36  672
    u[20]     primal_lower37  159
    u[20]     primal_lower38  433
    u[20]     primal_lower39  468
    u[20]     primal_lower40  155
    u[20]     primal_lower41  207
    u[20]     primal_lower42  254
    u[20]     primal_lower43  246
    u[20]     primal_lower44  440
    u[20]     primal_lower45  179
    u[20]     primal_lower46  925
    u[20]     primal_lower47  482
    u[20]     primal_lower48  604
    u[20]     primal_lower49  970
    u[20]     primal_lower50  871
    u[20]     primal_lower51  705
    u[20]     primal_lower52  312
    u[20]     primal_lower53  993
    u[20]     primal_lower54  47
    u[20]     primal_lower55  16
    u[20]     primal_lower56  542
    u[20]     primal_lower57  546
    u[20]     primal_lower58  838
    u[20]     primal_lower59  839
    u[20]     primal_lower60  89
    u[20]     primal_lower61  519
    u[20]     primal_lower62  61
    u[20]     primal_lower63  145
    u[20]     primal_lower64  773
    u[20]     primal_lower65  939
    u[20]     primal_lower66  263
    u[20]     primal_lower67  366
    u[20]     primal_lower68  183
    u[20]     primal_lower69  455
    u[20]     primal_lower70  633
    u[20]     primal_lower71  936
    u[20]     primal_lower72  876
    u[20]     primal_lower73  682
    u[20]     primal_lower74  562
    u[20]     primal_lower75  82
    u[20]     primal_lower76  717
    u[20]     primal_lower77  499
    u[20]     primal_lower78  864
    u[20]     primal_lower79  775
    u[20]     primal_lower80  810
    u[20]     primal_lower81  885
    u[20]     primal_lower82  264
    u[20]     primal_lower83  780
    u[20]     primal_lower84  202
    u[20]     primal_lower85  388
    u[20]     primal_lower86  355
    u[20]     primal_lower87  707
    u[20]     primal_lower88  131
    u[20]     primal_lower89  206
    u[20]     primal_lower90  610
    u[20]     primal_lower91  111
    u[20]     primal_lower92  249
    u[20]     primal_lower93  267
    u[20]     primal_lower94  453
    u[20]     primal_lower95  617
    u[20]     primal_lower96  587
    u[20]     primal_lower97  928
    u[20]     primal_lower98  720
    u[20]     primal_lower99  265
    u[20]     interdiction[20]  1
    u[20]     mccormick1[20]  -1
    u[20]     mccormick3[20]  1
    u[21]     primal_lower0  195
    u[21]     primal_lower1  971
    u[21]     primal_lower2  773
    u[21]     primal_lower3  872
    u[21]     primal_lower4  124
    u[21]     primal_lower5  724
    u[21]     primal_lower6  494
    u[21]     primal_lower7  243
    u[21]     primal_lower8  31
    u[21]     primal_lower9  850
    u[21]     primal_lower10  506
    u[21]     primal_lower11  703
    u[21]     primal_lower12  1000
    u[21]     primal_lower13  787
    u[21]     primal_lower14  324
    u[21]     primal_lower15  853
    u[21]     primal_lower16  548
    u[21]     primal_lower17  136
    u[21]     primal_lower18  829
    u[21]     primal_lower19  555
    u[21]     primal_lower20  219
    u[21]     primal_lower21  421
    u[21]     primal_lower22  317
    u[21]     primal_lower23  505
    u[21]     primal_lower24  986
    u[21]     primal_lower25  417
    u[21]     primal_lower26  410
    u[21]     primal_lower27  288
    u[21]     primal_lower28  152
    u[21]     primal_lower29  250
    u[21]     primal_lower30  231
    u[21]     primal_lower31  910
    u[21]     primal_lower32  376
    u[21]     primal_lower33  980
    u[21]     primal_lower34  55
    u[21]     primal_lower35  861
    u[21]     primal_lower36  595
    u[21]     primal_lower37  586
    u[21]     primal_lower38  799
    u[21]     primal_lower39  506
    u[21]     primal_lower40  105
    u[21]     primal_lower41  101
    u[21]     primal_lower42  649
    u[21]     primal_lower43  961
    u[21]     primal_lower44  950
    u[21]     primal_lower45  993
    u[21]     primal_lower46  731
    u[21]     primal_lower47  637
    u[21]     primal_lower48  487
    u[21]     primal_lower49  453
    u[21]     primal_lower50  261
    u[21]     primal_lower51  180
    u[21]     primal_lower52  278
    u[21]     primal_lower53  343
    u[21]     primal_lower54  789
    u[21]     primal_lower55  435
    u[21]     primal_lower56  828
    u[21]     primal_lower57  165
    u[21]     primal_lower58  729
    u[21]     primal_lower59  13
    u[21]     primal_lower60  39
    u[21]     primal_lower61  250
    u[21]     primal_lower62  304
    u[21]     primal_lower63  996
    u[21]     primal_lower64  176
    u[21]     primal_lower65  553
    u[21]     primal_lower66  365
    u[21]     primal_lower67  444
    u[21]     primal_lower68  386
    u[21]     primal_lower69  101
    u[21]     primal_lower70  772
    u[21]     primal_lower71  190
    u[21]     primal_lower72  727
    u[21]     primal_lower73  904
    u[21]     primal_lower74  877
    u[21]     primal_lower75  568
    u[21]     primal_lower76  107
    u[21]     primal_lower77  441
    u[21]     primal_lower78  659
    u[21]     primal_lower79  733
    u[21]     primal_lower80  704
    u[21]     primal_lower81  328
    u[21]     primal_lower82  798
    u[21]     primal_lower83  210
    u[21]     primal_lower84  909
    u[21]     primal_lower85  906
    u[21]     primal_lower86  41
    u[21]     primal_lower87  249
    u[21]     primal_lower88  897
    u[21]     primal_lower89  121
    u[21]     primal_lower90  592
    u[21]     primal_lower91  650
    u[21]     primal_lower92  543
    u[21]     primal_lower93  209
    u[21]     primal_lower94  696
    u[21]     primal_lower95  143
    u[21]     primal_lower96  817
    u[21]     primal_lower97  427
    u[21]     primal_lower98  259
    u[21]     primal_lower99  951
    u[21]     interdiction[21]  1
    u[21]     mccormick1[21]  -1
    u[21]     mccormick3[21]  1
    u[22]     primal_lower0  431
    u[22]     primal_lower1  991
    u[22]     primal_lower2  169
    u[22]     primal_lower3  492
    u[22]     primal_lower4  616
    u[22]     primal_lower5  125
    u[22]     primal_lower6  151
    u[22]     primal_lower7  828
    u[22]     primal_lower8  179
    u[22]     primal_lower9  627
    u[22]     primal_lower10  3
    u[22]     primal_lower11  555
    u[22]     primal_lower12  12
    u[22]     primal_lower13  116
    u[22]     primal_lower14  429
    u[22]     primal_lower15  513
    u[22]     primal_lower16  341
    u[22]     primal_lower17  625
    u[22]     primal_lower18  446
    u[22]     primal_lower19  284
    u[22]     primal_lower20  828
    u[22]     primal_lower21  705
    u[22]     primal_lower22  129
    u[22]     primal_lower23  637
    u[22]     primal_lower24  454
    u[22]     primal_lower25  957
    u[22]     primal_lower26  307
    u[22]     primal_lower27  497
    u[22]     primal_lower28  449
    u[22]     primal_lower29  275
    u[22]     primal_lower30  35
    u[22]     primal_lower31  63
    u[22]     primal_lower32  444
    u[22]     primal_lower33  165
    u[22]     primal_lower34  208
    u[22]     primal_lower35  865
    u[22]     primal_lower36  647
    u[22]     primal_lower37  526
    u[22]     primal_lower38  168
    u[22]     primal_lower39  91
    u[22]     primal_lower40  786
    u[22]     primal_lower41  550
    u[22]     primal_lower42  53
    u[22]     primal_lower43  509
    u[22]     primal_lower44  495
    u[22]     primal_lower45  346
    u[22]     primal_lower46  452
    u[22]     primal_lower47  393
    u[22]     primal_lower48  651
    u[22]     primal_lower49  169
    u[22]     primal_lower50  430
    u[22]     primal_lower51  832
    u[22]     primal_lower52  959
    u[22]     primal_lower53  600
    u[22]     primal_lower54  798
    u[22]     primal_lower55  463
    u[22]     primal_lower56  829
    u[22]     primal_lower57  865
    u[22]     primal_lower58  325
    u[22]     primal_lower59  566
    u[22]     primal_lower60  400
    u[22]     primal_lower61  358
    u[22]     primal_lower62  52
    u[22]     primal_lower63  200
    u[22]     primal_lower64  332
    u[22]     primal_lower65  882
    u[22]     primal_lower66  718
    u[22]     primal_lower67  757
    u[22]     primal_lower68  222
    u[22]     primal_lower69  862
    u[22]     primal_lower70  952
    u[22]     primal_lower71  959
    u[22]     primal_lower72  315
    u[22]     primal_lower73  241
    u[22]     primal_lower74  737
    u[22]     primal_lower75  649
    u[22]     primal_lower76  196
    u[22]     primal_lower77  370
    u[22]     primal_lower78  951
    u[22]     primal_lower79  886
    u[22]     primal_lower80  929
    u[22]     primal_lower81  884
    u[22]     primal_lower82  663
    u[22]     primal_lower83  539
    u[22]     primal_lower84  137
    u[22]     primal_lower85  435
    u[22]     primal_lower86  498
    u[22]     primal_lower87  890
    u[22]     primal_lower88  994
    u[22]     primal_lower89  781
    u[22]     primal_lower90  225
    u[22]     primal_lower91  158
    u[22]     primal_lower92  424
    u[22]     primal_lower93  234
    u[22]     primal_lower94  828
    u[22]     primal_lower95  968
    u[22]     primal_lower96  242
    u[22]     primal_lower97  399
    u[22]     primal_lower98  79
    u[22]     primal_lower99  528
    u[22]     interdiction[22]  1
    u[22]     mccormick1[22]  -1
    u[22]     mccormick3[22]  1
    u[23]     primal_lower0  954
    u[23]     primal_lower1  466
    u[23]     primal_lower2  28
    u[23]     primal_lower3  623
    u[23]     primal_lower4  243
    u[23]     primal_lower5  907
    u[23]     primal_lower6  989
    u[23]     primal_lower7  202
    u[23]     primal_lower8  334
    u[23]     primal_lower9  337
    u[23]     primal_lower10  537
    u[23]     primal_lower11  998
    u[23]     primal_lower12  303
    u[23]     primal_lower13  634
    u[23]     primal_lower14  459
    u[23]     primal_lower15  692
    u[23]     primal_lower16  443
    u[23]     primal_lower17  551
    u[23]     primal_lower18  188
    u[23]     primal_lower19  402
    u[23]     primal_lower20  730
    u[23]     primal_lower21  524
    u[23]     primal_lower22  436
    u[23]     primal_lower23  728
    u[23]     primal_lower24  633
    u[23]     primal_lower25  456
    u[23]     primal_lower26  313
    u[23]     primal_lower27  247
    u[23]     primal_lower28  959
    u[23]     primal_lower29  257
    u[23]     primal_lower30  142
    u[23]     primal_lower31  101
    u[23]     primal_lower32  679
    u[23]     primal_lower33  507
    u[23]     primal_lower34  86
    u[23]     primal_lower35  52
    u[23]     primal_lower36  570
    u[23]     primal_lower37  865
    u[23]     primal_lower38  678
    u[23]     primal_lower39  65
    u[23]     primal_lower40  720
    u[23]     primal_lower41  276
    u[23]     primal_lower42  272
    u[23]     primal_lower43  472
    u[23]     primal_lower44  357
    u[23]     primal_lower45  456
    u[23]     primal_lower46  770
    u[23]     primal_lower47  676
    u[23]     primal_lower48  470
    u[23]     primal_lower49  372
    u[23]     primal_lower50  380
    u[23]     primal_lower51  731
    u[23]     primal_lower52  565
    u[23]     primal_lower53  342
    u[23]     primal_lower54  508
    u[23]     primal_lower55  546
    u[23]     primal_lower56  715
    u[23]     primal_lower57  468
    u[23]     primal_lower58  112
    u[23]     primal_lower59  260
    u[23]     primal_lower60  622
    u[23]     primal_lower61  217
    u[23]     primal_lower62  943
    u[23]     primal_lower63  987
    u[23]     primal_lower64  719
    u[23]     primal_lower65  8
    u[23]     primal_lower66  444
    u[23]     primal_lower67  955
    u[23]     primal_lower68  905
    u[23]     primal_lower69  580
    u[23]     primal_lower70  435
    u[23]     primal_lower71  797
    u[23]     primal_lower72  38
    u[23]     primal_lower73  887
    u[23]     primal_lower74  764
    u[23]     primal_lower75  919
    u[23]     primal_lower76  466
    u[23]     primal_lower77  112
    u[23]     primal_lower78  818
    u[23]     primal_lower79  988
    u[23]     primal_lower80  399
    u[23]     primal_lower81  519
    u[23]     primal_lower82  61
    u[23]     primal_lower83  225
    u[23]     primal_lower84  188
    u[23]     primal_lower85  385
    u[23]     primal_lower86  224
    u[23]     primal_lower87  136
    u[23]     primal_lower88  152
    u[23]     primal_lower89  24
    u[23]     primal_lower90  535
    u[23]     primal_lower91  89
    u[23]     primal_lower92  502
    u[23]     primal_lower93  104
    u[23]     primal_lower94  287
    u[23]     primal_lower95  358
    u[23]     primal_lower96  288
    u[23]     primal_lower97  66
    u[23]     primal_lower98  930
    u[23]     primal_lower99  574
    u[23]     interdiction[23]  1
    u[23]     mccormick1[23]  -1
    u[23]     mccormick3[23]  1
    u[24]     primal_lower0  88
    u[24]     primal_lower1  520
    u[24]     primal_lower2  58
    u[24]     primal_lower3  661
    u[24]     primal_lower4  633
    u[24]     primal_lower5  661
    u[24]     primal_lower6  847
    u[24]     primal_lower7  740
    u[24]     primal_lower8  652
    u[24]     primal_lower9  555
    u[24]     primal_lower10  59
    u[24]     primal_lower11  260
    u[24]     primal_lower12  629
    u[24]     primal_lower13  988
    u[24]     primal_lower14  917
    u[24]     primal_lower15  482
    u[24]     primal_lower16  853
    u[24]     primal_lower17  57
    u[24]     primal_lower18  982
    u[24]     primal_lower19  164
    u[24]     primal_lower20  228
    u[24]     primal_lower21  338
    u[24]     primal_lower22  594
    u[24]     primal_lower23  702
    u[24]     primal_lower24  455
    u[24]     primal_lower25  238
    u[24]     primal_lower26  587
    u[24]     primal_lower27  577
    u[24]     primal_lower28  377
    u[24]     primal_lower29  619
    u[24]     primal_lower30  524
    u[24]     primal_lower31  711
    u[24]     primal_lower32  901
    u[24]     primal_lower33  405
    u[24]     primal_lower34  128
    u[24]     primal_lower35  122
    u[24]     primal_lower36  736
    u[24]     primal_lower37  975
    u[24]     primal_lower38  192
    u[24]     primal_lower39  355
    u[24]     primal_lower40  866
    u[24]     primal_lower41  870
    u[24]     primal_lower42  950
    u[24]     primal_lower43  374
    u[24]     primal_lower44  815
    u[24]     primal_lower45  378
    u[24]     primal_lower46  164
    u[24]     primal_lower47  546
    u[24]     primal_lower48  532
    u[24]     primal_lower49  994
    u[24]     primal_lower50  790
    u[24]     primal_lower51  513
    u[24]     primal_lower52  143
    u[24]     primal_lower53  96
    u[24]     primal_lower54  550
    u[24]     primal_lower55  312
    u[24]     primal_lower56  317
    u[24]     primal_lower57  202
    u[24]     primal_lower58  486
    u[24]     primal_lower59  830
    u[24]     primal_lower60  24
    u[24]     primal_lower61  943
    u[24]     primal_lower62  445
    u[24]     primal_lower63  369
    u[24]     primal_lower64  677
    u[24]     primal_lower65  90
    u[24]     primal_lower66  246
    u[24]     primal_lower67  309
    u[24]     primal_lower68  751
    u[24]     primal_lower69  294
    u[24]     primal_lower70  113
    u[24]     primal_lower71  503
    u[24]     primal_lower72  92
    u[24]     primal_lower73  369
    u[24]     primal_lower74  194
    u[24]     primal_lower75  601
    u[24]     primal_lower76  740
    u[24]     primal_lower77  906
    u[24]     primal_lower78  104
    u[24]     primal_lower79  366
    u[24]     primal_lower80  417
    u[24]     primal_lower81  165
    u[24]     primal_lower82  959
    u[24]     primal_lower83  11
    u[24]     primal_lower84  570
    u[24]     primal_lower85  35
    u[24]     primal_lower86  714
    u[24]     primal_lower87  618
    u[24]     primal_lower88  362
    u[24]     primal_lower89  94
    u[24]     primal_lower90  161
    u[24]     primal_lower91  391
    u[24]     primal_lower92  152
    u[24]     primal_lower93  578
    u[24]     primal_lower94  157
    u[24]     primal_lower95  160
    u[24]     primal_lower96  538
    u[24]     primal_lower97  768
    u[24]     primal_lower98  104
    u[24]     primal_lower99  488
    u[24]     interdiction[24]  1
    u[24]     mccormick1[24]  -1
    u[24]     mccormick3[24]  1
    u[25]     primal_lower0  995
    u[25]     primal_lower1  107
    u[25]     primal_lower2  877
    u[25]     primal_lower3  256
    u[25]     primal_lower4  676
    u[25]     primal_lower5  317
    u[25]     primal_lower6  551
    u[25]     primal_lower7  844
    u[25]     primal_lower8  503
    u[25]     primal_lower9  179
    u[25]     primal_lower10  123
    u[25]     primal_lower11  223
    u[25]     primal_lower12  568
    u[25]     primal_lower13  708
    u[25]     primal_lower14  389
    u[25]     primal_lower15  493
    u[25]     primal_lower16  477
    u[25]     primal_lower17  785
    u[25]     primal_lower18  590
    u[25]     primal_lower19  780
    u[25]     primal_lower20  908
    u[25]     primal_lower21  789
    u[25]     primal_lower22  69
    u[25]     primal_lower23  481
    u[25]     primal_lower24  274
    u[25]     primal_lower25  537
    u[25]     primal_lower26  83
    u[25]     primal_lower27  753
    u[25]     primal_lower28  305
    u[25]     primal_lower29  235
    u[25]     primal_lower30  959
    u[25]     primal_lower31  487
    u[25]     primal_lower32  304
    u[25]     primal_lower33  125
    u[25]     primal_lower34  184
    u[25]     primal_lower35  565
    u[25]     primal_lower36  603
    u[25]     primal_lower37  338
    u[25]     primal_lower38  568
    u[25]     primal_lower39  155
    u[25]     primal_lower40  170
    u[25]     primal_lower41  934
    u[25]     primal_lower42  561
    u[25]     primal_lower43  497
    u[25]     primal_lower44  807
    u[25]     primal_lower45  362
    u[25]     primal_lower46  828
    u[25]     primal_lower47  997
    u[25]     primal_lower48  943
    u[25]     primal_lower49  45
    u[25]     primal_lower50  718
    u[25]     primal_lower51  516
    u[25]     primal_lower52  607
    u[25]     primal_lower53  968
    u[25]     primal_lower54  206
    u[25]     primal_lower55  555
    u[25]     primal_lower56  229
    u[25]     primal_lower57  453
    u[25]     primal_lower58  89
    u[25]     primal_lower59  566
    u[25]     primal_lower60  600
    u[25]     primal_lower61  978
    u[25]     primal_lower62  448
    u[25]     primal_lower63  340
    u[25]     primal_lower64  664
    u[25]     primal_lower65  322
    u[25]     primal_lower66  926
    u[25]     primal_lower67  293
    u[25]     primal_lower68  698
    u[25]     primal_lower69  502
    u[25]     primal_lower70  300
    u[25]     primal_lower71  303
    u[25]     primal_lower72  79
    u[25]     primal_lower73  89
    u[25]     primal_lower74  125
    u[25]     primal_lower75  913
    u[25]     primal_lower76  100
    u[25]     primal_lower77  42
    u[25]     primal_lower78  875
    u[25]     primal_lower79  814
    u[25]     primal_lower80  329
    u[25]     primal_lower81  600
    u[25]     primal_lower82  479
    u[25]     primal_lower83  659
    u[25]     primal_lower84  565
    u[25]     primal_lower85  795
    u[25]     primal_lower86  642
    u[25]     primal_lower87  714
    u[25]     primal_lower88  338
    u[25]     primal_lower89  577
    u[25]     primal_lower90  73
    u[25]     primal_lower91  882
    u[25]     primal_lower92  736
    u[25]     primal_lower93  50
    u[25]     primal_lower94  952
    u[25]     primal_lower95  40
    u[25]     primal_lower96  298
    u[25]     primal_lower97  179
    u[25]     primal_lower98  475
    u[25]     primal_lower99  488
    u[25]     interdiction[25]  1
    u[25]     mccormick1[25]  -1
    u[25]     mccormick3[25]  1
    u[26]     primal_lower0  37
    u[26]     primal_lower1  405
    u[26]     primal_lower2  495
    u[26]     primal_lower3  138
    u[26]     primal_lower4  14
    u[26]     primal_lower5  747
    u[26]     primal_lower6  605
    u[26]     primal_lower7  650
    u[26]     primal_lower8  185
    u[26]     primal_lower9  497
    u[26]     primal_lower10  897
    u[26]     primal_lower11  617
    u[26]     primal_lower12  794
    u[26]     primal_lower13  66
    u[26]     primal_lower14  299
    u[26]     primal_lower15  855
    u[26]     primal_lower16  3
    u[26]     primal_lower17  695
    u[26]     primal_lower18  116
    u[26]     primal_lower19  74
    u[26]     primal_lower20  746
    u[26]     primal_lower21  23
    u[26]     primal_lower22  479
    u[26]     primal_lower23  251
    u[26]     primal_lower24  108
    u[26]     primal_lower25  699
    u[26]     primal_lower26  473
    u[26]     primal_lower27  767
    u[26]     primal_lower28  727
    u[26]     primal_lower29  209
    u[26]     primal_lower30  137
    u[26]     primal_lower31  557
    u[26]     primal_lower32  378
    u[26]     primal_lower33  947
    u[26]     primal_lower34  726
    u[26]     primal_lower35  47
    u[26]     primal_lower36  29
    u[26]     primal_lower37  52
    u[26]     primal_lower38  718
    u[26]     primal_lower39  993
    u[26]     primal_lower40  64
    u[26]     primal_lower41  228
    u[26]     primal_lower42  787
    u[26]     primal_lower43  211
    u[26]     primal_lower44  885
    u[26]     primal_lower45  456
    u[26]     primal_lower46  234
    u[26]     primal_lower47  607
    u[26]     primal_lower48  425
    u[26]     primal_lower49  271
    u[26]     primal_lower50  924
    u[26]     primal_lower51  70
    u[26]     primal_lower52  589
    u[26]     primal_lower53  886
    u[26]     primal_lower54  484
    u[26]     primal_lower55  957
    u[26]     primal_lower56  555
    u[26]     primal_lower57  71
    u[26]     primal_lower58  163
    u[26]     primal_lower59  244
    u[26]     primal_lower60  694
    u[26]     primal_lower61  988
    u[26]     primal_lower62  818
    u[26]     primal_lower63  566
    u[26]     primal_lower64  106
    u[26]     primal_lower65  56
    u[26]     primal_lower66  204
    u[26]     primal_lower67  515
    u[26]     primal_lower68  780
    u[26]     primal_lower69  684
    u[26]     primal_lower70  182
    u[26]     primal_lower71  605
    u[26]     primal_lower72  177
    u[26]     primal_lower73  479
    u[26]     primal_lower74  983
    u[26]     primal_lower75  999
    u[26]     primal_lower76  138
    u[26]     primal_lower77  656
    u[26]     primal_lower78  509
    u[26]     primal_lower79  500
    u[26]     primal_lower80  15
    u[26]     primal_lower81  778
    u[26]     primal_lower82  141
    u[26]     primal_lower83  617
    u[26]     primal_lower84  383
    u[26]     primal_lower85  385
    u[26]     primal_lower86  584
    u[26]     primal_lower87  88
    u[26]     primal_lower88  144
    u[26]     primal_lower89  379
    u[26]     primal_lower90  639
    u[26]     primal_lower91  644
    u[26]     primal_lower92  726
    u[26]     primal_lower93  400
    u[26]     primal_lower94  714
    u[26]     primal_lower95  182
    u[26]     primal_lower96  312
    u[26]     primal_lower97  725
    u[26]     primal_lower98  437
    u[26]     primal_lower99  974
    u[26]     interdiction[26]  1
    u[26]     mccormick1[26]  -1
    u[26]     mccormick3[26]  1
    u[27]     primal_lower0  651
    u[27]     primal_lower1  163
    u[27]     primal_lower2  965
    u[27]     primal_lower3  720
    u[27]     primal_lower4  516
    u[27]     primal_lower5  940
    u[27]     primal_lower6  390
    u[27]     primal_lower7  979
    u[27]     primal_lower8  815
    u[27]     primal_lower9  778
    u[27]     primal_lower10  930
    u[27]     primal_lower11  959
    u[27]     primal_lower12  528
    u[27]     primal_lower13  947
    u[27]     primal_lower14  180
    u[27]     primal_lower15  565
    u[27]     primal_lower16  796
    u[27]     primal_lower17  232
    u[27]     primal_lower18  581
    u[27]     primal_lower19  923
    u[27]     primal_lower20  323
    u[27]     primal_lower21  549
    u[27]     primal_lower22  365
    u[27]     primal_lower23  417
    u[27]     primal_lower24  930
    u[27]     primal_lower25  649
    u[27]     primal_lower26  546
    u[27]     primal_lower27  536
    u[27]     primal_lower28  368
    u[27]     primal_lower29  122
    u[27]     primal_lower30  535
    u[27]     primal_lower31  694
    u[27]     primal_lower32  352
    u[27]     primal_lower33  660
    u[27]     primal_lower34  335
    u[27]     primal_lower35  877
    u[27]     primal_lower36  67
    u[27]     primal_lower37  66
    u[27]     primal_lower38  807
    u[27]     primal_lower39  762
    u[27]     primal_lower40  305
    u[27]     primal_lower41  445
    u[27]     primal_lower42  937
    u[27]     primal_lower43  689
    u[27]     primal_lower44  478
    u[27]     primal_lower45  385
    u[27]     primal_lower46  859
    u[27]     primal_lower47  293
    u[27]     primal_lower48  255
    u[27]     primal_lower49  917
    u[27]     primal_lower50  749
    u[27]     primal_lower51  420
    u[27]     primal_lower52  30
    u[27]     primal_lower53  231
    u[27]     primal_lower54  733
    u[27]     primal_lower55  571
    u[27]     primal_lower56  756
    u[27]     primal_lower57  445
    u[27]     primal_lower58  169
    u[27]     primal_lower59  85
    u[27]     primal_lower60  151
    u[27]     primal_lower61  2
    u[27]     primal_lower62  216
    u[27]     primal_lower63  580
    u[27]     primal_lower64  984
    u[27]     primal_lower65  57
    u[27]     primal_lower66  589
    u[27]     primal_lower67  84
    u[27]     primal_lower68  698
    u[27]     primal_lower69  957
    u[27]     primal_lower70  588
    u[27]     primal_lower71  526
    u[27]     primal_lower72  23
    u[27]     primal_lower73  392
    u[27]     primal_lower74  917
    u[27]     primal_lower75  416
    u[27]     primal_lower76  595
    u[27]     primal_lower77  153
    u[27]     primal_lower78  3
    u[27]     primal_lower79  317
    u[27]     primal_lower80  808
    u[27]     primal_lower81  248
    u[27]     primal_lower82  86
    u[27]     primal_lower83  850
    u[27]     primal_lower84  637
    u[27]     primal_lower85  410
    u[27]     primal_lower86  321
    u[27]     primal_lower87  721
    u[27]     primal_lower88  969
    u[27]     primal_lower89  209
    u[27]     primal_lower90  608
    u[27]     primal_lower91  826
    u[27]     primal_lower92  959
    u[27]     primal_lower93  641
    u[27]     primal_lower94  296
    u[27]     primal_lower95  103
    u[27]     primal_lower96  201
    u[27]     primal_lower97  707
    u[27]     primal_lower98  363
    u[27]     primal_lower99  87
    u[27]     interdiction[27]  1
    u[27]     mccormick1[27]  -1
    u[27]     mccormick3[27]  1
    u[28]     primal_lower0  801
    u[28]     primal_lower1  81
    u[28]     primal_lower2  515
    u[28]     primal_lower3  870
    u[28]     primal_lower4  594
    u[28]     primal_lower5  102
    u[28]     primal_lower6  264
    u[28]     primal_lower7  749
    u[28]     primal_lower8  389
    u[28]     primal_lower9  444
    u[28]     primal_lower10  276
    u[28]     primal_lower11  413
    u[28]     primal_lower12  486
    u[28]     primal_lower13  77
    u[28]     primal_lower14  550
    u[28]     primal_lower15  579
    u[28]     primal_lower16  382
    u[28]     primal_lower17  882
    u[28]     primal_lower18  71
    u[28]     primal_lower19  501
    u[28]     primal_lower20  181
    u[28]     primal_lower21  331
    u[28]     primal_lower22  563
    u[28]     primal_lower23  415
    u[28]     primal_lower24  64
    u[28]     primal_lower25  855
    u[28]     primal_lower26  20
    u[28]     primal_lower27  698
    u[28]     primal_lower28  394
    u[28]     primal_lower29  388
    u[28]     primal_lower30  181
    u[28]     primal_lower31  208
    u[28]     primal_lower32  582
    u[28]     primal_lower33  46
    u[28]     primal_lower34  433
    u[28]     primal_lower35  395
    u[28]     primal_lower36  113
    u[28]     primal_lower37  168
    u[28]     primal_lower38  681
    u[28]     primal_lower39  116
    u[28]     primal_lower40  275
    u[28]     primal_lower41  63
    u[28]     primal_lower42  143
    u[28]     primal_lower43  703
    u[28]     primal_lower44  968
    u[28]     primal_lower45  43
    u[28]     primal_lower46  797
    u[28]     primal_lower47  227
    u[28]     primal_lower48  685
    u[28]     primal_lower49  371
    u[28]     primal_lower50  271
    u[28]     primal_lower51  2
    u[28]     primal_lower52  216
    u[28]     primal_lower53  129
    u[28]     primal_lower54  767
    u[28]     primal_lower55  57
    u[28]     primal_lower56  942
    u[28]     primal_lower57  883
    u[28]     primal_lower58  591
    u[28]     primal_lower59  479
    u[28]     primal_lower60  241
    u[28]     primal_lower61  88
    u[28]     primal_lower62  550
    u[28]     primal_lower63  426
    u[28]     primal_lower64  630
    u[28]     primal_lower65  131
    u[28]     primal_lower66  799
    u[28]     primal_lower67  406
    u[28]     primal_lower68  408
    u[28]     primal_lower69  751
    u[28]     primal_lower70  818
    u[28]     primal_lower71  312
    u[28]     primal_lower72  797
    u[28]     primal_lower73  178
    u[28]     primal_lower74  171
    u[28]     primal_lower75  946
    u[28]     primal_lower76  949
    u[28]     primal_lower77  475
    u[28]     primal_lower78  641
    u[28]     primal_lower79  919
    u[28]     primal_lower80  98
    u[28]     primal_lower81  742
    u[28]     primal_lower82  552
    u[28]     primal_lower83  876
    u[28]     primal_lower84  995
    u[28]     primal_lower85  132
    u[28]     primal_lower86  875
    u[28]     primal_lower87  947
    u[28]     primal_lower88  307
    u[28]     primal_lower89  791
    u[28]     primal_lower90  170
    u[28]     primal_lower91  88
    u[28]     primal_lower92  185
    u[28]     primal_lower93  339
    u[28]     primal_lower94  14
    u[28]     primal_lower95  897
    u[28]     primal_lower96  427
    u[28]     primal_lower97  193
    u[28]     primal_lower98  41
    u[28]     primal_lower99  217
    u[28]     interdiction[28]  1
    u[28]     mccormick1[28]  -1
    u[28]     mccormick3[28]  1
    u[29]     primal_lower0  106
    u[29]     primal_lower1  298
    u[29]     primal_lower2  476
    u[29]     primal_lower3  679
    u[29]     primal_lower4  467
    u[29]     primal_lower5  4
    u[29]     primal_lower6  406
    u[29]     primal_lower7  979
    u[29]     primal_lower8  862
    u[29]     primal_lower9  570
    u[29]     primal_lower10  394
    u[29]     primal_lower11  894
    u[29]     primal_lower12  791
    u[29]     primal_lower13  339
    u[29]     primal_lower14  660
    u[29]     primal_lower15  380
    u[29]     primal_lower16  436
    u[29]     primal_lower17  624
    u[29]     primal_lower18  445
    u[29]     primal_lower19  595
    u[29]     primal_lower20  195
    u[29]     primal_lower21  900
    u[29]     primal_lower22  148
    u[29]     primal_lower23  200
    u[29]     primal_lower24  881
    u[29]     primal_lower25  184
    u[29]     primal_lower26  602
    u[29]     primal_lower27  872
    u[29]     primal_lower28  648
    u[29]     primal_lower29  234
    u[29]     primal_lower30  14
    u[29]     primal_lower31  206
    u[29]     primal_lower32  447
    u[29]     primal_lower33  788
    u[29]     primal_lower34  487
    u[29]     primal_lower35  500
    u[29]     primal_lower36  578
    u[29]     primal_lower37  505
    u[29]     primal_lower38  703
    u[29]     primal_lower39  890
    u[29]     primal_lower40  209
    u[29]     primal_lower41  493
    u[29]     primal_lower42  800
    u[29]     primal_lower43  224
    u[29]     primal_lower44  614
    u[29]     primal_lower45  145
    u[29]     primal_lower46  659
    u[29]     primal_lower47  60
    u[29]     primal_lower48  326
    u[29]     primal_lower49  436
    u[29]     primal_lower50  389
    u[29]     primal_lower51  923
    u[29]     primal_lower52  182
    u[29]     primal_lower53  399
    u[29]     primal_lower54  69
    u[29]     primal_lower55  746
    u[29]     primal_lower56  452
    u[29]     primal_lower57  52
    u[29]     primal_lower58  888
    u[29]     primal_lower59  317
    u[29]     primal_lower60  279
    u[29]     primal_lower61  977
    u[29]     primal_lower62  71
    u[29]     primal_lower63  107
    u[29]     primal_lower64  23
    u[29]     primal_lower65  609
    u[29]     primal_lower66  269
    u[29]     primal_lower67  804
    u[29]     primal_lower68  81
    u[29]     primal_lower69  85
    u[29]     primal_lower70  515
    u[29]     primal_lower71  190
    u[29]     primal_lower72  502
    u[29]     primal_lower73  104
    u[29]     primal_lower74  292
    u[29]     primal_lower75  352
    u[29]     primal_lower76  131
    u[29]     primal_lower77  113
    u[29]     primal_lower78  250
    u[29]     primal_lower79  301
    u[29]     primal_lower80  776
    u[29]     primal_lower81  799
    u[29]     primal_lower82  678
    u[29]     primal_lower83  138
    u[29]     primal_lower84  84
    u[29]     primal_lower85  834
    u[29]     primal_lower86  353
    u[29]     primal_lower87  993
    u[29]     primal_lower88  257
    u[29]     primal_lower89  552
    u[29]     primal_lower90  808
    u[29]     primal_lower91  73
    u[29]     primal_lower92  479
    u[29]     primal_lower93  681
    u[29]     primal_lower94  735
    u[29]     primal_lower95  95
    u[29]     primal_lower96  105
    u[29]     primal_lower97  250
    u[29]     primal_lower98  490
    u[29]     primal_lower99  983
    u[29]     interdiction[29]  1
    u[29]     mccormick1[29]  -1
    u[29]     mccormick3[29]  1
    u[30]     primal_lower0  453
    u[30]     primal_lower1  925
    u[30]     primal_lower2  935
    u[30]     primal_lower3  978
    u[30]     primal_lower4  870
    u[30]     primal_lower5  554
    u[30]     primal_lower6  404
    u[30]     primal_lower7  385
    u[30]     primal_lower8  89
    u[30]     primal_lower9  32
    u[30]     primal_lower10  744
    u[30]     primal_lower11  921
    u[30]     primal_lower12  978
    u[30]     primal_lower13  953
    u[30]     primal_lower14  154
    u[30]     primal_lower15  383
    u[30]     primal_lower16  946
    u[30]     primal_lower17  158
    u[30]     primal_lower18  491
    u[30]     primal_lower19  25
    u[30]     primal_lower20  201
    u[30]     primal_lower21  855
    u[30]     primal_lower22  711
    u[30]     primal_lower23  91
    u[30]     primal_lower24  580
    u[30]     primal_lower25  963
    u[30]     primal_lower26  784
    u[30]     primal_lower27  726
    u[30]     primal_lower28  238
    u[30]     primal_lower29  768
    u[30]     primal_lower30  89
    u[30]     primal_lower31  476
    u[30]     primal_lower32  66
    u[30]     primal_lower33  802
    u[30]     primal_lower34  957
    u[30]     primal_lower35  831
    u[30]     primal_lower36  821
    u[30]     primal_lower37  140
    u[30]     primal_lower38  517
    u[30]     primal_lower39  360
    u[30]     primal_lower40  559
    u[30]     primal_lower41  163
    u[30]     primal_lower42  547
    u[30]     primal_lower43  187
    u[30]     primal_lower44  236
    u[30]     primal_lower45  279
    u[30]     primal_lower46  561
    u[30]     primal_lower47  767
    u[30]     primal_lower48  737
    u[30]     primal_lower49  727
    u[30]     primal_lower50  899
    u[30]     primal_lower51  846
    u[30]     primal_lower52  660
    u[30]     primal_lower53  309
    u[30]     primal_lower54  19
    u[30]     primal_lower55  917
    u[30]     primal_lower56  74
    u[30]     primal_lower57  79
    u[30]     primal_lower58  899
    u[30]     primal_lower59  587
    u[30]     primal_lower60  837
    u[30]     primal_lower61  964
    u[30]     primal_lower62  338
    u[30]     primal_lower63  814
    u[30]     primal_lower64  674
    u[30]     primal_lower65  135
    u[30]     primal_lower66  203
    u[30]     primal_lower67  698
    u[30]     primal_lower68  748
    u[30]     primal_lower69  155
    u[30]     primal_lower70  566
    u[30]     primal_lower71  316
    u[30]     primal_lower72  513
    u[30]     primal_lower73  454
    u[30]     primal_lower74  223
    u[30]     primal_lower75  238
    u[30]     primal_lower76  113
    u[30]     primal_lower77  951
    u[30]     primal_lower78  501
    u[30]     primal_lower79  459
    u[30]     primal_lower80  870
    u[30]     primal_lower81  146
    u[30]     primal_lower82  500
    u[30]     primal_lower83  400
    u[30]     primal_lower84  103
    u[30]     primal_lower85  16
    u[30]     primal_lower86  839
    u[30]     primal_lower87  551
    u[30]     primal_lower88  767
    u[30]     primal_lower89  707
    u[30]     primal_lower90  654
    u[30]     primal_lower91  308
    u[30]     primal_lower92  21
    u[30]     primal_lower93  415
    u[30]     primal_lower94  834
    u[30]     primal_lower95  317
    u[30]     primal_lower96  767
    u[30]     primal_lower97  749
    u[30]     primal_lower98  389
    u[30]     primal_lower99  869
    u[30]     interdiction[30]  1
    u[30]     mccormick1[30]  -1
    u[30]     mccormick3[30]  1
    u[31]     primal_lower0  879
    u[31]     primal_lower1  319
    u[31]     primal_lower2  425
    u[31]     primal_lower3  620
    u[31]     primal_lower4  192
    u[31]     primal_lower5  48
    u[31]     primal_lower6  498
    u[31]     primal_lower7  343
    u[31]     primal_lower8  827
    u[31]     primal_lower9  198
    u[31]     primal_lower10  702
    u[31]     primal_lower11  171
    u[31]     primal_lower12  284
    u[31]     primal_lower13  999
    u[31]     primal_lower14  792
    u[31]     primal_lower15  89
    u[31]     primal_lower16  392
    u[31]     primal_lower17  860
    u[31]     primal_lower18  449
    u[31]     primal_lower19  831
    u[31]     primal_lower20  199
    u[31]     primal_lower21  121
    u[31]     primal_lower22  305
    u[31]     primal_lower23  973
    u[31]     primal_lower24  246
    u[31]     primal_lower25  309
    u[31]     primal_lower26  982
    u[31]     primal_lower27  500
    u[31]     primal_lower28  644
    u[31]     primal_lower29  398
    u[31]     primal_lower30  395
    u[31]     primal_lower31  850
    u[31]     primal_lower32  220
    u[31]     primal_lower33  840
    u[31]     primal_lower34  771
    u[31]     primal_lower35  33
    u[31]     primal_lower36  639
    u[31]     primal_lower37  382
    u[31]     primal_lower38  979
    u[31]     primal_lower39  230
    u[31]     primal_lower40  693
    u[31]     primal_lower41  337
    u[31]     primal_lower42  253
    u[31]     primal_lower43  741
    u[31]     primal_lower44  866
    u[31]     primal_lower45  669
    u[31]     primal_lower46  751
    u[31]     primal_lower47  585
    u[31]     primal_lower48  851
    u[31]     primal_lower49  729
    u[31]     primal_lower50  793
    u[31]     primal_lower51  112
    u[31]     primal_lower52  626
    u[31]     primal_lower53  51
    u[31]     primal_lower54  113
    u[31]     primal_lower55  399
    u[31]     primal_lower56  56
    u[31]     primal_lower57  569
    u[31]     primal_lower58  677
    u[31]     primal_lower59  297
    u[31]     primal_lower60  739
    u[31]     primal_lower61  246
    u[31]     primal_lower62  356
    u[31]     primal_lower63  536
    u[31]     primal_lower64  452
    u[31]     primal_lower65  781
    u[31]     primal_lower66  113
    u[31]     primal_lower67  872
    u[31]     primal_lower68  614
    u[31]     primal_lower69  233
    u[31]     primal_lower70  920
    u[31]     primal_lower71  642
    u[31]     primal_lower72  187
    u[31]     primal_lower73  20
    u[31]     primal_lower74  1
    u[31]     primal_lower75  84
    u[31]     primal_lower76  983
    u[31]     primal_lower77  517
    u[31]     primal_lower78  327
    u[31]     primal_lower79  441
    u[31]     primal_lower80  412
    u[31]     primal_lower81  492
    u[31]     primal_lower82  170
    u[31]     primal_lower83  134
    u[31]     primal_lower84  265
    u[31]     primal_lower85  590
    u[31]     primal_lower86  949
    u[31]     primal_lower87  485
    u[31]     primal_lower88  141
    u[31]     primal_lower89  509
    u[31]     primal_lower90  20
    u[31]     primal_lower91  510
    u[31]     primal_lower92  387
    u[31]     primal_lower93  101
    u[31]     primal_lower94  452
    u[31]     primal_lower95  315
    u[31]     primal_lower96  221
    u[31]     primal_lower97  223
    u[31]     primal_lower98  759
    u[31]     primal_lower99  947
    u[31]     interdiction[31]  1
    u[31]     mccormick1[31]  -1
    u[31]     mccormick3[31]  1
    u[32]     primal_lower0  255
    u[32]     primal_lower1  63
    u[32]     primal_lower2  609
    u[32]     primal_lower3  468
    u[32]     primal_lower4  848
    u[32]     primal_lower5  908
    u[32]     primal_lower6  710
    u[32]     primal_lower7  739
    u[32]     primal_lower8  899
    u[32]     primal_lower9  810
    u[32]     primal_lower10  746
    u[32]     primal_lower11  203
    u[32]     primal_lower12  596
    u[32]     primal_lower13  763
    u[32]     primal_lower14  972
    u[32]     primal_lower15  993
    u[32]     primal_lower16  716
    u[32]     primal_lower17  360
    u[32]     primal_lower18  765
    u[32]     primal_lower19  315
    u[32]     primal_lower20  907
    u[32]     primal_lower21  521
    u[32]     primal_lower22  273
    u[32]     primal_lower23  765
    u[32]     primal_lower24  758
    u[32]     primal_lower25  589
    u[32]     primal_lower26  826
    u[32]     primal_lower27  736
    u[32]     primal_lower28  8
    u[32]     primal_lower29  762
    u[32]     primal_lower30  323
    u[32]     primal_lower31  766
    u[32]     primal_lower32  276
    u[32]     primal_lower33  316
    u[32]     primal_lower34  639
    u[32]     primal_lower35  873
    u[32]     primal_lower36  399
    u[32]     primal_lower37  326
    u[32]     primal_lower38  423
    u[32]     primal_lower39  106
    u[32]     primal_lower40  881
    u[32]     primal_lower41  189
    u[32]     primal_lower42  309
    u[32]     primal_lower43  693
    u[32]     primal_lower44  502
    u[32]     primal_lower45  897
    u[32]     primal_lower46  819
    u[32]     primal_lower47  929
    u[32]     primal_lower48  387
    u[32]     primal_lower49  841
    u[32]     primal_lower50  149
    u[32]     primal_lower51  392
    u[32]     primal_lower52  222
    u[32]     primal_lower53  103
    u[32]     primal_lower54  661
    u[32]     primal_lower55  327
    u[32]     primal_lower56  892
    u[32]     primal_lower57  81
    u[32]     primal_lower58  269
    u[32]     primal_lower59  557
    u[32]     primal_lower60  271
    u[32]     primal_lower61  902
    u[32]     primal_lower62  988
    u[32]     primal_lower63  208
    u[32]     primal_lower64  892
    u[32]     primal_lower65  433
    u[32]     primal_lower66  413
    u[32]     primal_lower67  156
    u[32]     primal_lower68  942
    u[32]     primal_lower69  77
    u[32]     primal_lower70  136
    u[32]     primal_lower71  502
    u[32]     primal_lower72  547
    u[32]     primal_lower73  312
    u[32]     primal_lower74  889
    u[32]     primal_lower75  584
    u[32]     primal_lower76  731
    u[32]     primal_lower77  833
    u[32]     primal_lower78  207
    u[32]     primal_lower79  573
    u[32]     primal_lower80  496
    u[32]     primal_lower81  68
    u[32]     primal_lower82  966
    u[32]     primal_lower83  762
    u[32]     primal_lower84  97
    u[32]     primal_lower85  258
    u[32]     primal_lower86  353
    u[32]     primal_lower87  193
    u[32]     primal_lower88  449
    u[32]     primal_lower89  125
    u[32]     primal_lower90  896
    u[32]     primal_lower91  326
    u[32]     primal_lower92  311
    u[32]     primal_lower93  929
    u[32]     primal_lower94  700
    u[32]     primal_lower95  551
    u[32]     primal_lower96  313
    u[32]     primal_lower97  775
    u[32]     primal_lower98  727
    u[32]     primal_lower99  95
    u[32]     interdiction[32]  1
    u[32]     mccormick1[32]  -1
    u[32]     mccormick3[32]  1
    u[33]     primal_lower0  608
    u[33]     primal_lower1  80
    u[33]     primal_lower2  122
    u[33]     primal_lower3  877
    u[33]     primal_lower4  33
    u[33]     primal_lower5  386
    u[33]     primal_lower6  740
    u[33]     primal_lower7  201
    u[33]     primal_lower8  908
    u[33]     primal_lower9  120
    u[33]     primal_lower10  72
    u[33]     primal_lower11  444
    u[33]     primal_lower12  693
    u[33]     primal_lower13  25
    u[33]     primal_lower14  98
    u[33]     primal_lower15  586
    u[33]     primal_lower16  858
    u[33]     primal_lower17  438
    u[33]     primal_lower18  355
    u[33]     primal_lower19  769
    u[33]     primal_lower20  913
    u[33]     primal_lower21  706
    u[33]     primal_lower22  482
    u[33]     primal_lower23  318
    u[33]     primal_lower24  831
    u[33]     primal_lower25  542
    u[33]     primal_lower26  856
    u[33]     primal_lower27  886
    u[33]     primal_lower28  758
    u[33]     primal_lower29  168
    u[33]     primal_lower30  356
    u[33]     primal_lower31  348
    u[33]     primal_lower32  565
    u[33]     primal_lower33  842
    u[33]     primal_lower34  445
    u[33]     primal_lower35  826
    u[33]     primal_lower36  728
    u[33]     primal_lower37  399
    u[33]     primal_lower38  989
    u[33]     primal_lower39  608
    u[33]     primal_lower40  359
    u[33]     primal_lower41  571
    u[33]     primal_lower42  406
    u[33]     primal_lower43  166
    u[33]     primal_lower44  476
    u[33]     primal_lower45  903
    u[33]     primal_lower46  649
    u[33]     primal_lower47  442
    u[33]     primal_lower48  492
    u[33]     primal_lower49  962
    u[33]     primal_lower50  3
    u[33]     primal_lower51  705
    u[33]     primal_lower52  468
    u[33]     primal_lower53  565
    u[33]     primal_lower54  995
    u[33]     primal_lower55  24
    u[33]     primal_lower56  634
    u[33]     primal_lower57  898
    u[33]     primal_lower58  438
    u[33]     primal_lower59  195
    u[33]     primal_lower60  861
    u[33]     primal_lower61  711
    u[33]     primal_lower62  557
    u[33]     primal_lower63  857
    u[33]     primal_lower64  285
    u[33]     primal_lower65  511
    u[33]     primal_lower66  59
    u[33]     primal_lower67  354
    u[33]     primal_lower68  119
    u[33]     primal_lower69  795
    u[33]     primal_lower70  985
    u[33]     primal_lower71  164
    u[33]     primal_lower72  140
    u[33]     primal_lower73  886
    u[33]     primal_lower74  890
    u[33]     primal_lower75  54
    u[33]     primal_lower76  265
    u[33]     primal_lower77  431
    u[33]     primal_lower78  512
    u[33]     primal_lower79  419
    u[33]     primal_lower80  478
    u[33]     primal_lower81  229
    u[33]     primal_lower82  492
    u[33]     primal_lower83  944
    u[33]     primal_lower84  994
    u[33]     primal_lower85  232
    u[33]     primal_lower86  695
    u[33]     primal_lower87  87
    u[33]     primal_lower88  879
    u[33]     primal_lower89  598
    u[33]     primal_lower90  702
    u[33]     primal_lower91  447
    u[33]     primal_lower92  173
    u[33]     primal_lower93  79
    u[33]     primal_lower94  901
    u[33]     primal_lower95  437
    u[33]     primal_lower96  679
    u[33]     primal_lower97  968
    u[33]     primal_lower98  776
    u[33]     primal_lower99  581
    u[33]     interdiction[33]  1
    u[33]     mccormick1[33]  -1
    u[33]     mccormick3[33]  1
    u[34]     primal_lower0  71
    u[34]     primal_lower1  263
    u[34]     primal_lower2  769
    u[34]     primal_lower3  852
    u[34]     primal_lower4  96
    u[34]     primal_lower5  837
    u[34]     primal_lower6  903
    u[34]     primal_lower7  428
    u[34]     primal_lower8  963
    u[34]     primal_lower9  203
    u[34]     primal_lower10  971
    u[34]     primal_lower11  491
    u[34]     primal_lower12  172
    u[34]     primal_lower13  972
    u[34]     primal_lower14  485
    u[34]     primal_lower15  537
    u[34]     primal_lower16  141
    u[34]     primal_lower17  793
    u[34]     primal_lower18  550
    u[34]     primal_lower19  508
    u[34]     primal_lower20  796
    u[34]     primal_lower21  745
    u[34]     primal_lower22  153
    u[34]     primal_lower23  93
    u[34]     primal_lower24  318
    u[34]     primal_lower25  981
    u[34]     primal_lower26  931
    u[34]     primal_lower27  81
    u[34]     primal_lower28  417
    u[34]     primal_lower29  435
    u[34]     primal_lower30  123
    u[34]     primal_lower31  151
    u[34]     primal_lower32  228
    u[34]     primal_lower33  733
    u[34]     primal_lower34  464
    u[34]     primal_lower35  745
    u[34]     primal_lower36  519
    u[34]     primal_lower37  118
    u[34]     primal_lower38  568
    u[34]     primal_lower39  539
    u[34]     primal_lower40  818
    u[34]     primal_lower41  942
    u[34]     primal_lower42  149
    u[34]     primal_lower43  229
    u[34]     primal_lower44  287
    u[34]     primal_lower45  322
    u[34]     primal_lower46  76
    u[34]     primal_lower47  825
    u[34]     primal_lower48  235
    u[34]     primal_lower49  417
    u[34]     primal_lower50  758
    u[34]     primal_lower51  944
    u[34]     primal_lower52  527
    u[34]     primal_lower53  544
    u[34]     primal_lower54  558
    u[34]     primal_lower55  999
    u[34]     primal_lower56  253
    u[34]     primal_lower57  249
    u[34]     primal_lower58  341
    u[34]     primal_lower59  590
    u[34]     primal_lower60  896
    u[34]     primal_lower61  310
    u[34]     primal_lower62  652
    u[34]     primal_lower63  144
    u[34]     primal_lower64  740
    u[34]     primal_lower65  426
    u[34]     primal_lower66  446
    u[34]     primal_lower67  85
    u[34]     primal_lower68  630
    u[34]     primal_lower69  766
    u[34]     primal_lower70  736
    u[34]     primal_lower71  311
    u[34]     primal_lower72  939
    u[34]     primal_lower73  377
    u[34]     primal_lower74  769
    u[34]     primal_lower75  721
    u[34]     primal_lower76  300
    u[34]     primal_lower77  354
    u[34]     primal_lower78  719
    u[34]     primal_lower79  478
    u[34]     primal_lower80  833
    u[34]     primal_lower81  740
    u[34]     primal_lower82  631
    u[34]     primal_lower83  339
    u[34]     primal_lower84  521
    u[34]     primal_lower85  659
    u[34]     primal_lower86  674
    u[34]     primal_lower87  514
    u[34]     primal_lower88  242
    u[34]     primal_lower89  317
    u[34]     primal_lower90  481
    u[34]     primal_lower91  222
    u[34]     primal_lower92  848
    u[34]     primal_lower93  930
    u[34]     primal_lower94  324
    u[34]     primal_lower95  896
    u[34]     primal_lower96  146
    u[34]     primal_lower97  759
    u[34]     primal_lower98  39
    u[34]     primal_lower99  504
    u[34]     interdiction[34]  1
    u[34]     mccormick1[34]  -1
    u[34]     mccormick3[34]  1
    u[35]     primal_lower0  756
    u[35]     primal_lower1  740
    u[35]     primal_lower2  822
    u[35]     primal_lower3  57
    u[35]     primal_lower4  525
    u[35]     primal_lower5  278
    u[35]     primal_lower6  152
    u[35]     primal_lower7  493
    u[35]     primal_lower8  816
    u[35]     primal_lower9  580
    u[35]     primal_lower10  260
    u[35]     primal_lower11  536
    u[35]     primal_lower12  777
    u[35]     primal_lower13  525
    u[35]     primal_lower14  638
    u[35]     primal_lower15  14
    u[35]     primal_lower16  598
    u[35]     primal_lower17  770
    u[35]     primal_lower18  879
    u[35]     primal_lower19  173
    u[35]     primal_lower20  733
    u[35]     primal_lower21  414
    u[35]     primal_lower22  582
    u[35]     primal_lower23  58
    u[35]     primal_lower24  555
    u[35]     primal_lower25  426
    u[35]     primal_lower26  916
    u[35]     primal_lower27  346
    u[35]     primal_lower28  186
    u[35]     primal_lower29  716
    u[35]     primal_lower30  776
    u[35]     primal_lower31  720
    u[35]     primal_lower32  65
    u[35]     primal_lower33  742
    u[35]     primal_lower34  249
    u[35]     primal_lower35  638
    u[35]     primal_lower36  28
    u[35]     primal_lower37  595
    u[35]     primal_lower38  785
    u[35]     primal_lower39  476
    u[35]     primal_lower40  635
    u[35]     primal_lower41  911
    u[35]     primal_lower42  2
    u[35]     primal_lower43  682
    u[35]     primal_lower44  328
    u[35]     primal_lower45  915
    u[35]     primal_lower46  805
    u[35]     primal_lower47  62
    u[35]     primal_lower48  944
    u[35]     primal_lower49  374
    u[35]     primal_lower50  23
    u[35]     primal_lower51  589
    u[35]     primal_lower52  416
    u[35]     primal_lower53  657
    u[35]     primal_lower54  495
    u[35]     primal_lower55  812
    u[35]     primal_lower56  230
    u[35]     primal_lower57  126
    u[35]     primal_lower58  138
    u[35]     primal_lower59  807
    u[35]     primal_lower60  17
    u[35]     primal_lower61  715
    u[35]     primal_lower62  441
    u[35]     primal_lower63  373
    u[35]     primal_lower64  353
    u[35]     primal_lower65  779
    u[35]     primal_lower66  295
    u[35]     primal_lower67  758
    u[35]     primal_lower68  883
    u[35]     primal_lower69  271
    u[35]     primal_lower70  773
    u[35]     primal_lower71  128
    u[35]     primal_lower72  648
    u[35]     primal_lower73  74
    u[35]     primal_lower74  478
    u[35]     primal_lower75  66
    u[35]     primal_lower76  205
    u[35]     primal_lower77  195
    u[35]     primal_lower78  932
    u[35]     primal_lower79  367
    u[35]     primal_lower80  746
    u[35]     primal_lower81  561
    u[35]     primal_lower82  176
    u[35]     primal_lower83  172
    u[35]     primal_lower84  582
    u[35]     primal_lower85  116
    u[35]     primal_lower86  915
    u[35]     primal_lower87  467
    u[35]     primal_lower88  563
    u[35]     primal_lower89  114
    u[35]     primal_lower90  434
    u[35]     primal_lower91  115
    u[35]     primal_lower92  81
    u[35]     primal_lower93  907
    u[35]     primal_lower94  489
    u[35]     primal_lower95  673
    u[35]     primal_lower96  867
    u[35]     primal_lower97  772
    u[35]     primal_lower98  652
    u[35]     primal_lower99  849
    u[35]     interdiction[35]  1
    u[35]     mccormick1[35]  -1
    u[35]     mccormick3[35]  1
    u[36]     primal_lower0  639
    u[36]     primal_lower1  879
    u[36]     primal_lower2  233
    u[36]     primal_lower3  444
    u[36]     primal_lower4  992
    u[36]     primal_lower5  973
    u[36]     primal_lower6  863
    u[36]     primal_lower7  596
    u[36]     primal_lower8  459
    u[36]     primal_lower9  147
    u[36]     primal_lower10  355
    u[36]     primal_lower11  563
    u[36]     primal_lower12  60
    u[36]     primal_lower13  284
    u[36]     primal_lower14  389
    u[36]     primal_lower15  145
    u[36]     primal_lower16  405
    u[36]     primal_lower17  577
    u[36]     primal_lower18  54
    u[36]     primal_lower19  620
    u[36]     primal_lower20  916
    u[36]     primal_lower21  41
    u[36]     primal_lower22  665
    u[36]     primal_lower23  501
    u[36]     primal_lower24  14
    u[36]     primal_lower25  333
    u[36]     primal_lower26  595
    u[36]     primal_lower27  345
    u[36]     primal_lower28  281
    u[36]     primal_lower29  763
    u[36]     primal_lower30  235
    u[36]     primal_lower31  703
    u[36]     primal_lower32  460
    u[36]     primal_lower33  261
    u[36]     primal_lower34  480
    u[36]     primal_lower35  209
    u[36]     primal_lower36  615
    u[36]     primal_lower37  766
    u[36]     primal_lower38  192
    u[36]     primal_lower39  355
    u[36]     primal_lower40  314
    u[36]     primal_lower41  718
    u[36]     primal_lower42  381
    u[36]     primal_lower43  405
    u[36]     primal_lower44  847
    u[36]     primal_lower45  570
    u[36]     primal_lower46  76
    u[36]     primal_lower47  25
    u[36]     primal_lower48  723
    u[36]     primal_lower49  65
    u[36]     primal_lower50  606
    u[36]     primal_lower51  312
    u[36]     primal_lower52  239
    u[36]     primal_lower53  824
    u[36]     primal_lower54  806
    u[36]     primal_lower55  559
    u[36]     primal_lower56  573
    u[36]     primal_lower57  225
    u[36]     primal_lower58  853
    u[36]     primal_lower59  70
    u[36]     primal_lower60  392
    u[36]     primal_lower61  670
    u[36]     primal_lower62  852
    u[36]     primal_lower63  128
    u[36]     primal_lower64  764
    u[36]     primal_lower65  234
    u[36]     primal_lower66  566
    u[36]     primal_lower67  501
    u[36]     primal_lower68  70
    u[36]     primal_lower69  102
    u[36]     primal_lower70  192
    u[36]     primal_lower71  783
    u[36]     primal_lower72  195
    u[36]     primal_lower73  609
    u[36]     primal_lower74  329
    u[36]     primal_lower75  849
    u[36]     primal_lower76  172
    u[36]     primal_lower77  50
    u[36]     primal_lower78  495
    u[36]     primal_lower79  902
    u[36]     primal_lower80  753
    u[36]     primal_lower81  620
    u[36]     primal_lower82  735
    u[36]     primal_lower83  11
    u[36]     primal_lower84  633
    u[36]     primal_lower85  243
    u[36]     primal_lower86  242
    u[36]     primal_lower87  690
    u[36]     primal_lower88  170
    u[36]     primal_lower89  653
    u[36]     primal_lower90  505
    u[36]     primal_lower91  6
    u[36]     primal_lower92  848
    u[36]     primal_lower93  970
    u[36]     primal_lower94  572
    u[36]     primal_lower95  488
    u[36]     primal_lower96  282
    u[36]     primal_lower97  775
    u[36]     primal_lower98  687
    u[36]     primal_lower99  968
    u[36]     interdiction[36]  1
    u[36]     mccormick1[36]  -1
    u[36]     mccormick3[36]  1
    u[37]     primal_lower0  968
    u[37]     primal_lower1  160
    u[37]     primal_lower2  706
    u[37]     primal_lower3  621
    u[37]     primal_lower4  761
    u[37]     primal_lower5  769
    u[37]     primal_lower6  451
    u[37]     primal_lower7  624
    u[37]     primal_lower8  940
    u[37]     primal_lower9  95
    u[37]     primal_lower10  607
    u[37]     primal_lower11  572
    u[37]     primal_lower12  101
    u[37]     primal_lower13  392
    u[37]     primal_lower14  505
    u[37]     primal_lower15  602
    u[37]     primal_lower16  489
    u[37]     primal_lower17  765
    u[37]     primal_lower18  762
    u[37]     primal_lower19  448
    u[37]     primal_lower20  984
    u[37]     primal_lower21  546
    u[37]     primal_lower22  642
    u[37]     primal_lower23  302
    u[37]     primal_lower24  407
    u[37]     primal_lower25  150
    u[37]     primal_lower26  263
    u[37]     primal_lower27  485
    u[37]     primal_lower28  557
    u[37]     primal_lower29  807
    u[37]     primal_lower30  156
    u[37]     primal_lower31  915
    u[37]     primal_lower32  765
    u[37]     primal_lower33  377
    u[37]     primal_lower34  20
    u[37]     primal_lower35  530
    u[37]     primal_lower36  608
    u[37]     primal_lower37  455
    u[37]     primal_lower38  604
    u[37]     primal_lower39  367
    u[37]     primal_lower40  78
    u[37]     primal_lower41  354
    u[37]     primal_lower42  182
    u[37]     primal_lower43  6
    u[37]     primal_lower44  811
    u[37]     primal_lower45  382
    u[37]     primal_lower46  816
    u[37]     primal_lower47  570
    u[37]     primal_lower48  532
    u[37]     primal_lower49  58
    u[37]     primal_lower50  370
    u[37]     primal_lower51  113
    u[37]     primal_lower52  267
    u[37]     primal_lower53  68
    u[37]     primal_lower54  202
    u[37]     primal_lower55  752
    u[37]     primal_lower56  641
    u[37]     primal_lower57  642
    u[37]     primal_lower58  342
    u[37]     primal_lower59  490
    u[37]     primal_lower60  900
    u[37]     primal_lower61  615
    u[37]     primal_lower62  5
    u[37]     primal_lower63  65
    u[37]     primal_lower64  13
    u[37]     primal_lower65  750
    u[37]     primal_lower66  650
    u[37]     primal_lower67  425
    u[37]     primal_lower68  703
    u[37]     primal_lower69  290
    u[37]     primal_lower70  737
    u[37]     primal_lower71  923
    u[37]     primal_lower72  572
    u[37]     primal_lower73  237
    u[37]     primal_lower74  290
    u[37]     primal_lower75  709
    u[37]     primal_lower76  288
    u[37]     primal_lower77  318
    u[37]     primal_lower78  736
    u[37]     primal_lower79  146
    u[37]     primal_lower80  653
    u[37]     primal_lower81  637
    u[37]     primal_lower82  11
    u[37]     primal_lower83  807
    u[37]     primal_lower84  842
    u[37]     primal_lower85  911
    u[37]     primal_lower86  430
    u[37]     primal_lower87  150
    u[37]     primal_lower88  790
    u[37]     primal_lower89  622
    u[37]     primal_lower90  997
    u[37]     primal_lower91  855
    u[37]     primal_lower92  780
    u[37]     primal_lower93  270
    u[37]     primal_lower94  957
    u[37]     primal_lower95  484
    u[37]     primal_lower96  6
    u[37]     primal_lower97  96
    u[37]     primal_lower98  848
    u[37]     primal_lower99  332
    u[37]     interdiction[37]  1
    u[37]     mccormick1[37]  -1
    u[37]     mccormick3[37]  1
    u[38]     primal_lower0  255
    u[38]     primal_lower1  783
    u[38]     primal_lower2  513
    u[38]     primal_lower3  156
    u[38]     primal_lower4  528
    u[38]     primal_lower5  29
    u[38]     primal_lower6  519
    u[38]     primal_lower7  788
    u[38]     primal_lower8  187
    u[38]     primal_lower9  651
    u[38]     primal_lower10  899
    u[38]     primal_lower11  67
    u[38]     primal_lower12  324
    u[38]     primal_lower13  548
    u[38]     primal_lower14  357
    u[38]     primal_lower15  697
    u[38]     primal_lower16  581
    u[38]     primal_lower17  849
    u[38]     primal_lower18  926
    u[38]     primal_lower19  732
    u[38]     primal_lower20  292
    u[38]     primal_lower21  937
    u[38]     primal_lower22  737
    u[38]     primal_lower23  557
    u[38]     primal_lower24  326
    u[38]     primal_lower25  709
    u[38]     primal_lower26  803
    u[38]     primal_lower27  505
    u[38]     primal_lower28  865
    u[38]     primal_lower29  99
    u[38]     primal_lower30  187
    u[38]     primal_lower31  959
    u[38]     primal_lower32  164
    u[38]     primal_lower33  949
    u[38]     primal_lower34  376
    u[38]     primal_lower35  745
    u[38]     primal_lower36  687
    u[38]     primal_lower37  142
    u[38]     primal_lower38  456
    u[38]     primal_lower39  803
    u[38]     primal_lower40  706
    u[38]     primal_lower41  742
    u[38]     primal_lower42  853
    u[38]     primal_lower43  797
    u[38]     primal_lower44  919
    u[38]     primal_lower45  810
    u[38]     primal_lower46  436
    u[38]     primal_lower47  505
    u[38]     primal_lower48  563
    u[38]     primal_lower49  73
    u[38]     primal_lower50  342
    u[38]     primal_lower51  216
    u[38]     primal_lower52  991
    u[38]     primal_lower53  848
    u[38]     primal_lower54  62
    u[38]     primal_lower55  239
    u[38]     primal_lower56  429
    u[38]     primal_lower57  321
    u[38]     primal_lower58  933
    u[38]     primal_lower59  38
    u[38]     primal_lower60  936
    u[38]     primal_lower61  750
    u[38]     primal_lower62  156
    u[38]     primal_lower63  872
    u[38]     primal_lower64  684
    u[38]     primal_lower65  154
    u[38]     primal_lower66  494
    u[38]     primal_lower67  109
    u[38]     primal_lower68  662
    u[38]     primal_lower69  662
    u[38]     primal_lower70  616
    u[38]     primal_lower71  711
    u[38]     primal_lower72  891
    u[38]     primal_lower73  457
    u[38]     primal_lower74  409
    u[38]     primal_lower75  745
    u[38]     primal_lower76  396
    u[38]     primal_lower77  346
    u[38]     primal_lower78  87
    u[38]     primal_lower79  190
    u[38]     primal_lower80  681
    u[38]     primal_lower81  340
    u[38]     primal_lower82  511
    u[38]     primal_lower83  323
    u[38]     primal_lower84  521
    u[38]     primal_lower85  427
    u[38]     primal_lower86  690
    u[38]     primal_lower87  882
    u[38]     primal_lower88  682
    u[38]     primal_lower89  149
    u[38]     primal_lower90  641
    u[38]     primal_lower91  934
    u[38]     primal_lower92  48
    u[38]     primal_lower93  714
    u[38]     primal_lower94  828
    u[38]     primal_lower95  832
    u[38]     primal_lower96  362
    u[38]     primal_lower97  207
    u[38]     primal_lower98  623
    u[38]     primal_lower99  856
    u[38]     interdiction[38]  1
    u[38]     mccormick1[38]  -1
    u[38]     mccormick3[38]  1
    u[39]     primal_lower0  778
    u[39]     primal_lower1  906
    u[39]     primal_lower2  268
    u[39]     primal_lower3  879
    u[39]     primal_lower4  171
    u[39]     primal_lower5  683
    u[39]     primal_lower6  77
    u[39]     primal_lower7  642
    u[39]     primal_lower8  118
    u[39]     primal_lower9  505
    u[39]     primal_lower10  825
    u[39]     primal_lower11  774
    u[39]     primal_lower12  215
    u[39]     primal_lower13  442
    u[39]     primal_lower14  251
    u[39]     primal_lower15  820
    u[39]     primal_lower16  499
    u[39]     primal_lower17  863
    u[39]     primal_lower18  156
    u[39]     primal_lower19  602
    u[39]     primal_lower20  66
    u[39]     primal_lower21  220
    u[39]     primal_lower22  716
    u[39]     primal_lower23  16
    u[39]     primal_lower24  385
    u[39]     primal_lower25  888
    u[39]     primal_lower26  297
    u[39]     primal_lower27  271
    u[39]     primal_lower28  359
    u[39]     primal_lower29  345
    u[39]     primal_lower30  22
    u[39]     primal_lower31  445
    u[39]     primal_lower32  999
    u[39]     primal_lower33  403
    u[39]     primal_lower34  14
    u[39]     primal_lower35  556
    u[39]     primal_lower36  90
    u[39]     primal_lower37  601
    u[39]     primal_lower38  294
    u[39]     primal_lower39  649
    u[39]     primal_lower40  288
    u[39]     primal_lower41  684
    u[39]     primal_lower42  776
    u[39]     primal_lower43  736
    u[39]     primal_lower44  101
    u[39]     primal_lower45  512
    u[39]     primal_lower46  74
    u[39]     primal_lower47  364
    u[39]     primal_lower48  438
    u[39]     primal_lower49  476
    u[39]     primal_lower50  148
    u[39]     primal_lower51  115
    u[39]     primal_lower52  549
    u[39]     primal_lower53  262
    u[39]     primal_lower54  452
    u[39]     primal_lower55  202
    u[39]     primal_lower56  627
    u[39]     primal_lower57  652
    u[39]     primal_lower58  616
    u[39]     primal_lower59  916
    u[39]     primal_lower60  870
    u[39]     primal_lower61  377
    u[39]     primal_lower62  375
    u[39]     primal_lower63  771
    u[39]     primal_lower64  695
    u[39]     primal_lower65  752
    u[39]     primal_lower66  532
    u[39]     primal_lower67  987
    u[39]     primal_lower68  297
    u[39]     primal_lower69  900
    u[39]     primal_lower70  827
    u[39]     primal_lower71  621
    u[39]     primal_lower72  278
    u[39]     primal_lower73  639
    u[39]     primal_lower74  812
    u[39]     primal_lower75  63
    u[39]     primal_lower76  290
    u[39]     primal_lower77  72
    u[39]     primal_lower78  506
    u[39]     primal_lower79  788
    u[39]     primal_lower80  399
    u[39]     primal_lower81  71
    u[39]     primal_lower82  541
    u[39]     primal_lower83  409
    u[39]     primal_lower84  364
    u[39]     primal_lower85  185
    u[39]     primal_lower86  32
    u[39]     primal_lower87  808
    u[39]     primal_lower88  256
    u[39]     primal_lower89  640
    u[39]     primal_lower90  359
    u[39]     primal_lower91  129
    u[39]     primal_lower92  894
    u[39]     primal_lower93  952
    u[39]     primal_lower94  127
    u[39]     primal_lower95  414
    u[39]     primal_lower96  296
    u[39]     primal_lower97  634
    u[39]     primal_lower98  466
    u[39]     primal_lower99  382
    u[39]     interdiction[39]  1
    u[39]     mccormick1[39]  -1
    u[39]     mccormick3[39]  1
    z[0]      primal_upper  74
    z[0]      mccormick1[0]  1
    z[0]      mccormick2[0]  1
    z[0]      mccormick3[0]  -1
    z[1]      primal_upper  93
    z[1]      mccormick1[1]  1
    z[1]      mccormick2[1]  1
    z[1]      mccormick3[1]  -1
    z[2]      primal_upper  50
    z[2]      mccormick1[2]  1
    z[2]      mccormick2[2]  1
    z[2]      mccormick3[2]  -1
    z[3]      primal_upper  40
    z[3]      mccormick1[3]  1
    z[3]      mccormick2[3]  1
    z[3]      mccormick3[3]  -1
    z[4]      primal_upper  56
    z[4]      mccormick1[4]  1
    z[4]      mccormick2[4]  1
    z[4]      mccormick3[4]  -1
    z[5]      primal_upper  61
    z[5]      mccormick1[5]  1
    z[5]      mccormick2[5]  1
    z[5]      mccormick3[5]  -1
    z[6]      primal_upper  60
    z[6]      mccormick1[6]  1
    z[6]      mccormick2[6]  1
    z[6]      mccormick3[6]  -1
    z[7]      primal_upper  85
    z[7]      mccormick1[7]  1
    z[7]      mccormick2[7]  1
    z[7]      mccormick3[7]  -1
    z[8]      primal_upper  77
    z[8]      mccormick1[8]  1
    z[8]      mccormick2[8]  1
    z[8]      mccormick3[8]  -1
    z[9]      primal_upper  8
    z[9]      mccormick1[9]  1
    z[9]      mccormick2[9]  1
    z[9]      mccormick3[9]  -1
    z[10]     primal_upper  41
    z[10]     mccormick1[10]  1
    z[10]     mccormick2[10]  1
    z[10]     mccormick3[10]  -1
    z[11]     primal_upper  80
    z[11]     mccormick1[11]  1
    z[11]     mccormick2[11]  1
    z[11]     mccormick3[11]  -1
    z[12]     primal_upper  63
    z[12]     mccormick1[12]  1
    z[12]     mccormick2[12]  1
    z[12]     mccormick3[12]  -1
    z[13]     primal_upper  99
    z[13]     mccormick1[13]  1
    z[13]     mccormick2[13]  1
    z[13]     mccormick3[13]  -1
    z[14]     primal_upper  68
    z[14]     mccormick1[14]  1
    z[14]     mccormick2[14]  1
    z[14]     mccormick3[14]  -1
    z[15]     primal_upper  88
    z[15]     mccormick1[15]  1
    z[15]     mccormick2[15]  1
    z[15]     mccormick3[15]  -1
    z[16]     primal_upper  62
    z[16]     mccormick1[16]  1
    z[16]     mccormick2[16]  1
    z[16]     mccormick3[16]  -1
    z[17]     primal_upper  81
    z[17]     mccormick1[17]  1
    z[17]     mccormick2[17]  1
    z[17]     mccormick3[17]  -1
    z[18]     primal_upper  82
    z[18]     mccormick1[18]  1
    z[18]     mccormick2[18]  1
    z[18]     mccormick3[18]  -1
    z[19]     primal_upper  28
    z[19]     mccormick1[19]  1
    z[19]     mccormick2[19]  1
    z[19]     mccormick3[19]  -1
    z[20]     primal_upper  57
    z[20]     mccormick1[20]  1
    z[20]     mccormick2[20]  1
    z[20]     mccormick3[20]  -1
    z[21]     primal_upper  57
    z[21]     mccormick1[21]  1
    z[21]     mccormick2[21]  1
    z[21]     mccormick3[21]  -1
    z[22]     primal_upper  58
    z[22]     mccormick1[22]  1
    z[22]     mccormick2[22]  1
    z[22]     mccormick3[22]  -1
    z[23]     primal_upper  52
    z[23]     mccormick1[23]  1
    z[23]     mccormick2[23]  1
    z[23]     mccormick3[23]  -1
    z[24]     primal_upper  38
    z[24]     mccormick1[24]  1
    z[24]     mccormick2[24]  1
    z[24]     mccormick3[24]  -1
    z[25]     primal_upper  81
    z[25]     mccormick1[25]  1
    z[25]     mccormick2[25]  1
    z[25]     mccormick3[25]  -1
    z[26]     primal_upper  69
    z[26]     mccormick1[26]  1
    z[26]     mccormick2[26]  1
    z[26]     mccormick3[26]  -1
    z[27]     primal_upper  15
    z[27]     mccormick1[27]  1
    z[27]     mccormick2[27]  1
    z[27]     mccormick3[27]  -1
    z[28]     primal_upper  94
    z[28]     mccormick1[28]  1
    z[28]     mccormick2[28]  1
    z[28]     mccormick3[28]  -1
    z[29]     primal_upper  16
    z[29]     mccormick1[29]  1
    z[29]     mccormick2[29]  1
    z[29]     mccormick3[29]  -1
    z[30]     primal_upper  93
    z[30]     mccormick1[30]  1
    z[30]     mccormick2[30]  1
    z[30]     mccormick3[30]  -1
    z[31]     primal_upper  96
    z[31]     mccormick1[31]  1
    z[31]     mccormick2[31]  1
    z[31]     mccormick3[31]  -1
    z[32]     primal_upper  88
    z[32]     mccormick1[32]  1
    z[32]     mccormick2[32]  1
    z[32]     mccormick3[32]  -1
    z[33]     primal_upper  33
    z[33]     mccormick1[33]  1
    z[33]     mccormick2[33]  1
    z[33]     mccormick3[33]  -1
    z[34]     primal_upper  57
    z[34]     mccormick1[34]  1
    z[34]     mccormick2[34]  1
    z[34]     mccormick3[34]  -1
    z[35]     primal_upper  83
    z[35]     mccormick1[35]  1
    z[35]     mccormick2[35]  1
    z[35]     mccormick3[35]  -1
    z[36]     primal_upper  3
    z[36]     mccormick1[36]  1
    z[36]     mccormick2[36]  1
    z[36]     mccormick3[36]  -1
    z[37]     primal_upper  64
    z[37]     mccormick1[37]  1
    z[37]     mccormick2[37]  1
    z[37]     mccormick3[37]  -1
    z[38]     primal_upper  17
    z[38]     mccormick1[38]  1
    z[38]     mccormick2[38]  1
    z[38]     mccormick3[38]  -1
    z[39]     primal_upper  2
    z[39]     mccormick1[39]  1
    z[39]     mccormick2[39]  1
    z[39]     mccormick3[39]  -1
    MARKER    'MARKER'                 'INTEND'
RHS
    RHS1      primal_upper  5924
    RHS1      primal_lower0  4744
    RHS1      primal_lower1  4188
    RHS1      primal_lower2  965
    RHS1      primal_lower3  5666
    RHS1      primal_lower4  4832
    RHS1      primal_lower5  973
    RHS1      primal_lower6  5454
    RHS1      primal_lower7  5516
    RHS1      primal_lower8  963
    RHS1      primal_lower9  4250
    RHS1      primal_lower10  5522
    RHS1      primal_lower11  5562
    RHS1      primal_lower12  4832
    RHS1      primal_lower13  10032
    RHS1      primal_lower14  4482
    RHS1      primal_lower15  5016
    RHS1      primal_lower16  974
    RHS1      primal_lower17  974
    RHS1      primal_lower18  5214
    RHS1      primal_lower19  10632
    RHS1      primal_lower20  10840
    RHS1      primal_lower21  978
    RHS1      primal_lower22  4720
    RHS1      primal_lower23  4820
    RHS1      primal_lower24  8460
    RHS1      primal_lower25  981
    RHS1      primal_lower26  10964
    RHS1      primal_lower27  10176
    RHS1      primal_lower28  4600
    RHS1      primal_lower29  961
    RHS1      primal_lower30  967
    RHS1      primal_lower31  10264
    RHS1      primal_lower32  10404
    RHS1      primal_lower33  6200
    RHS1      primal_lower34  8900
    RHS1      primal_lower35  943
    RHS1      primal_lower36  863
    RHS1      primal_lower37  4752
    RHS1      primal_lower38  989
    RHS1      primal_lower39  993
    RHS1      primal_lower40  4980
    RHS1      primal_lower41  9072
    RHS1      primal_lower42  4678
    RHS1      primal_lower43  4738
    RHS1      primal_lower44  11200
    RHS1      primal_lower45  4816
    RHS1      primal_lower46  5388
    RHS1      primal_lower47  5080
    RHS1      primal_lower48  11012
    RHS1      primal_lower49  4906
    RHS1      primal_lower50  924
    RHS1      primal_lower51  4506
    RHS1      primal_lower52  4686
    RHS1      primal_lower53  5102
    RHS1      primal_lower54  9688
    RHS1      primal_lower55  4676
    RHS1      primal_lower56  4604
    RHS1      primal_lower57  993
    RHS1      primal_lower58  5370
    RHS1      primal_lower59  4610
    RHS1      primal_lower60  5024
    RHS1      primal_lower61  5446
    RHS1      primal_lower62  4416
    RHS1      primal_lower63  5040
    RHS1      primal_lower64  5534
    RHS1      primal_lower65  981
    RHS1      primal_lower66  4530
    RHS1      primal_lower67  5178
    RHS1      primal_lower68  996
    RHS1      primal_lower69  957
    RHS1      primal_lower70  9936
    RHS1      primal_lower71  977
    RHS1      primal_lower72  10176
    RHS1      primal_lower73  906
    RHS1      primal_lower74  9876
    RHS1      primal_lower75  999
    RHS1      primal_lower76  4708
    RHS1      primal_lower77  8664
    RHS1      primal_lower78  987
    RHS1      primal_lower79  11500
    RHS1      primal_lower80  995
    RHS1      primal_lower81  10400
    RHS1      primal_lower82  5170
    RHS1      primal_lower83  9796
    RHS1      primal_lower84  995
    RHS1      primal_lower85  9264
    RHS1      primal_lower86  10208
    RHS1      primal_lower87  5282
    RHS1      primal_lower88  994
    RHS1      primal_lower89  4340
    RHS1      primal_lower90  997
    RHS1      primal_lower91  4156
    RHS1      primal_lower92  5022
    RHS1      primal_lower93  970
    RHS1      primal_lower94  4850
    RHS1      primal_lower95  4878
    RHS1      primal_lower96  4378
    RHS1      primal_lower97  979
    RHS1      primal_lower98  5350
    RHS1      primal_lower99  991
    RHS1      interdiction[0]  1
    RHS1      interdiction[1]  1
    RHS1      interdiction[2]  1
    RHS1      interdiction[3]  1
    RHS1      interdiction[4]  1
    RHS1      interdiction[5]  1
    RHS1      interdiction[6]  1
    RHS1      interdiction[7]  1
    RHS1      interdiction[8]  1
    RHS1      interdiction[9]  1
    RHS1      interdiction[10]  1
    RHS1      interdiction[11]  1
    RHS1      interdiction[12]  1
    RHS1      interdiction[13]  1
    RHS1      interdiction[14]  1
    RHS1      interdiction[15]  1
    RHS1      interdiction[16]  1
    RHS1      interdiction[17]  1
    RHS1      interdiction[18]  1
    RHS1      interdiction[19]  1
    RHS1      interdiction[20]  1
    RHS1      interdiction[21]  1
    RHS1      interdiction[22]  1
    RHS1      interdiction[23]  1
    RHS1      interdiction[24]  1
    RHS1      interdiction[25]  1
    RHS1      interdiction[26]  1
    RHS1      interdiction[27]  1
    RHS1      interdiction[28]  1
    RHS1      interdiction[29]  1
    RHS1      interdiction[30]  1
    RHS1      interdiction[31]  1
    RHS1      interdiction[32]  1
    RHS1      interdiction[33]  1
    RHS1      interdiction[34]  1
    RHS1      interdiction[35]  1
    RHS1      interdiction[36]  1
    RHS1      interdiction[37]  1
    RHS1      interdiction[38]  1
    RHS1      interdiction[39]  1
    RHS1      mccormick3[0]  1
    RHS1      mccormick3[1]  1
    RHS1      mccormick3[2]  1
    RHS1      mccormick3[3]  1
    RHS1      mccormick3[4]  1
    RHS1      mccormick3[5]  1
    RHS1      mccormick3[6]  1
    RHS1      mccormick3[7]  1
    RHS1      mccormick3[8]  1
    RHS1      mccormick3[9]  1
    RHS1      mccormick3[10]  1
    RHS1      mccormick3[11]  1
    RHS1      mccormick3[12]  1
    RHS1      mccormick3[13]  1
    RHS1      mccormick3[14]  1
    RHS1      mccormick3[15]  1
    RHS1      mccormick3[16]  1
    RHS1      mccormick3[17]  1
    RHS1      mccormick3[18]  1
    RHS1      mccormick3[19]  1
    RHS1      mccormick3[20]  1
    RHS1      mccormick3[21]  1
    RHS1      mccormick3[22]  1
    RHS1      mccormick3[23]  1
    RHS1      mccormick3[24]  1
    RHS1      mccormick3[25]  1
    RHS1      mccormick3[26]  1
    RHS1      mccormick3[27]  1
    RHS1      mccormick3[28]  1
    RHS1      mccormick3[29]  1
    RHS1      mccormick3[30]  1
    RHS1      mccormick3[31]  1
    RHS1      mccormick3[32]  1
    RHS1      mccormick3[33]  1
    RHS1      mccormick3[34]  1
    RHS1      mccormick3[35]  1
    RHS1      mccormick3[36]  1
    RHS1      mccormick3[37]  1
    RHS1      mccormick3[38]  1
    RHS1      mccormick3[39]  1
BOUNDS
 BV BND1      x[0]    
 BV BND1      x[1]    
 BV BND1      x[2]    
 BV BND1      x[3]    
 BV BND1      x[4]    
 BV BND1      x[5]    
 BV BND1      x[6]    
 BV BND1      x[7]    
 BV BND1      x[8]    
 BV BND1      x[9]    
 BV BND1      x[10]   
 BV BND1      x[11]   
 BV BND1      x[12]   
 BV BND1      x[13]   
 BV BND1      x[14]   
 BV BND1      x[15]   
 BV BND1      x[16]   
 BV BND1      x[17]   
 BV BND1      x[18]   
 BV BND1      x[19]   
 BV BND1      x[20]   
 BV BND1      x[21]   
 BV BND1      x[22]   
 BV BND1      x[23]   
 BV BND1      x[24]   
 BV BND1      x[25]   
 BV BND1      x[26]   
 BV BND1      x[27]   
 BV BND1      x[28]   
 BV BND1      x[29]   
 BV BND1      x[30]   
 BV BND1      x[31]   
 BV BND1      x[32]   
 BV BND1      x[33]   
 BV BND1      x[34]   
 BV BND1      x[35]   
 BV BND1      x[36]   
 BV BND1      x[37]   
 BV BND1      x[38]   
 BV BND1      x[39]   
 BV BND1      y[0]    
 BV BND1      y[1]    
 BV BND1      y[2]    
 BV BND1      y[3]    
 BV BND1      y[4]    
 BV BND1      y[5]    
 BV BND1      y[6]    
 BV BND1      y[7]    
 BV BND1      y[8]    
 BV BND1      y[9]    
 BV BND1      y[10]   
 BV BND1      y[11]   
 BV BND1      y[12]   
 BV BND1      y[13]   
 BV BND1      y[14]   
 BV BND1      y[15]   
 BV BND1      y[16]   
 BV BND1      y[17]   
 BV BND1      y[18]   
 BV BND1      y[19]   
 BV BND1      y[20]   
 BV BND1      y[21]   
 BV BND1      y[22]   
 BV BND1      y[23]   
 BV BND1      y[24]   
 BV BND1      y[25]   
 BV BND1      y[26]   
 BV BND1      y[27]   
 BV BND1      y[28]   
 BV BND1      y[29]   
 BV BND1      y[30]   
 BV BND1      y[31]   
 BV BND1      y[32]   
 BV BND1      y[33]   
 BV BND1      y[34]   
 BV BND1      y[35]   
 BV BND1      y[36]   
 BV BND1      y[37]   
 BV BND1      y[38]   
 BV BND1      y[39]   
 BV BND1      u[0]    
 BV BND1      u[1]    
 BV BND1      u[2]    
 BV BND1      u[3]    
 BV BND1      u[4]    
 BV BND1      u[5]    
 BV BND1      u[6]    
 BV BND1      u[7]    
 BV BND1      u[8]    
 BV BND1      u[9]    
 BV BND1      u[10]   
 BV BND1      u[11]   
 BV BND1      u[12]   
 BV BND1      u[13]   
 BV BND1      u[14]   
 BV BND1      u[15]   
 BV BND1      u[16]   
 BV BND1      u[17]   
 BV BND1      u[18]   
 BV BND1      u[19]   
 BV BND1      u[20]   
 BV BND1      u[21]   
 BV BND1      u[22]   
 BV BND1      u[23]   
 BV BND1      u[24]   
 BV BND1      u[25]   
 BV BND1      u[26]   
 BV BND1      u[27]   
 BV BND1      u[28]   
 BV BND1      u[29]   
 BV BND1      u[30]   
 BV BND1      u[31]   
 BV BND1      u[32]   
 BV BND1      u[33]   
 BV BND1      u[34]   
 BV BND1      u[35]   
 BV BND1      u[36]   
 BV BND1      u[37]   
 BV BND1      u[38]   
 BV BND1      u[39]   
 BV BND1      z[0]    
 BV BND1      z[1]    
 BV BND1      z[2]    
 BV BND1      z[3]    
 BV BND1      z[4]    
 BV BND1      z[5]    
 BV BND1      z[6]    
 BV BND1      z[7]    
 BV BND1      z[8]    
 BV BND1      z[9]    
 BV BND1      z[10]   
 BV BND1      z[11]   
 BV BND1      z[12]   
 BV BND1      z[13]   
 BV BND1      z[14]   
 BV BND1      z[15]   
 BV BND1      z[16]   
 BV BND1      z[17]   
 BV BND1      z[18]   
 BV BND1      z[19]   
 BV BND1      z[20]   
 BV BND1      z[21]   
 BV BND1      z[22]   
 BV BND1      z[23]   
 BV BND1      z[24]   
 BV BND1      z[25]   
 BV BND1      z[26]   
 BV BND1      z[27]   
 BV BND1      z[28]   
 BV BND1      z[29]   
 BV BND1      z[30]   
 BV BND1      z[31]   
 BV BND1      z[32]   
 BV BND1      z[33]   
 BV BND1      z[34]   
 BV BND1      z[35]   
 BV BND1      z[36]   
 BV BND1      z[37]   
 BV BND1      z[38]   
 BV BND1      z[39]   
ENDATA
