\ Model knapsack_40_100_3
\ LP format - for model browsing. Use MPS format to capture full model detail.
\ Signature: 0xba60f4f0ca1d3fbc
Minimize
  10 x[0] + 10 x[1] + 10 x[2] + 10 x[3] + 10 x[4] + 10 x[5] + 10 x[6]
   + 10 x[7] + 10 x[8] + 10 x[9] + 10 x[10] + 10 x[11] + 10 x[12]
   + 10 x[13] + 10 x[14] + 10 x[15] + 10 x[16] + 10 x[17] + 10 x[18]
   + 10 x[19] + 10 x[20] + 10 x[21] + 10 x[22] + 10 x[23] + 10 x[24]
   + 10 x[25] + 10 x[26] + 10 x[27] + 10 x[28] + 10 x[29] + 10 x[30]
   + 10 x[31] + 10 x[32] + 10 x[33] + 10 x[34] + 10 x[35] + 10 x[36]
   + 10 x[37] + 10 x[38] + 10 x[39] - 966 y[0] - 418 y[1] - 808 y[2]
   - 808 y[3] - 145 y[4] - 381 y[5] - 761 y[6] - 247 y[7] - 798 y[8]
   - 934 y[9] - 415 y[10] - 943 y[11] - 499 y[12] - 430 y[13] - 359 y[14]
   - 232 y[15] - 566 y[16] - 462 y[17] - 930 y[18] - 677 y[19] - 177 y[20]
   - 91 y[21] - 252 y[22] - 940 y[23] - 177 y[24] - 146 y[25] - 792 y[26]
   - 787 y[27] - 754 y[28] - 652 y[29] - 325 y[30] - 316 y[31] - 972 y[32]
   - 595 y[33] - 387 y[34] - 193 y[35] - 273 y[36] - 483 y[37] - 382 y[38]
   - 871 y[39]
Subject To
 primal_upper: 741 y[0] + 934 y[1] + 504 y[2] + 397 y[3] + 562 y[4]
   + 611 y[5] + 595 y[6] + 853 y[7] + 771 y[8] + 76 y[9] + 409 y[10]
   + 805 y[11] + 634 y[12] + 990 y[13] + 682 y[14] + 878 y[15] + 619 y[16]
   + 810 y[17] + 823 y[18] + 280 y[19] + 571 y[20] + 569 y[21] + 578 y[22]
   + 520 y[23] + 378 y[24] + 810 y[25] + 688 y[26] + 153 y[27] + 939 y[28]
   + 161 y[29] + 927 y[30] + 965 y[31] + 881 y[32] + 327 y[33] + 570 y[34]
   + 827 y[35] + 26 y[36] + 638 y[37] + 170 y[38] + 24 y[39] + 74 z[0]
   + 93 z[1] + 50 z[2] + 40 z[3] + 56 z[4] + 61 z[5] + 60 z[6] + 85 z[7]
   + 77 z[8] + 8 z[9] + 41 z[10] + 80 z[11] + 63 z[12] + 99 z[13]
   + 68 z[14] + 88 z[15] + 62 z[16] + 81 z[17] + 82 z[18] + 28 z[19]
   + 57 z[20] + 57 z[21] + 58 z[22] + 52 z[23] + 38 z[24] + 81 z[25]
   + 69 z[26] + 15 z[27] + 94 z[28] + 16 z[29] + 93 z[30] + 96 z[31]
   + 88 z[32] + 33 z[33] + 57 z[34] + 83 z[35] + 3 z[36] + 64 z[37]
   + 17 z[38] + 2 z[39] <= 5924
 primal_lower0: 803 u[0] + 7 u[1] + 485 u[2] + 526 u[3] + 495 u[4]
   + 765 u[5] + 656 u[6] + 47 u[7] + 168 u[8] + 141 u[9] + 167 u[10]
   + 134 u[11] + 559 u[12] + 783 u[13] + 88 u[14] + 32 u[15] + 936 u[16]
   + 531 u[17] + 828 u[18] + 529 u[19] + 376 u[20] + 195 u[21] + 431 u[22]
   + 954 u[23] + 88 u[24] + 995 u[25] + 37 u[26] + 651 u[27] + 801 u[28]
   + 106 u[29] + 453 u[30] + 879 u[31] + 255 u[32] + 608 u[33] + 71 u[34]
   + 756 u[35] + 639 u[36] + 968 u[37] + 255 u[38] + 778 u[39] <= 4744
 primal_lower1: 19 u[0] + 279 u[1] + 629 u[2] + 38 u[3] + 255 u[4]
   + 421 u[5] + 288 u[6] + 479 u[7] + 224 u[8] + 757 u[9] + 255 u[10]
   + 318 u[11] + 591 u[12] + 431 u[13] + 192 u[14] + 872 u[15] + 440 u[16]
   + 171 u[17] + 740 u[18] + 81 u[19] + 152 u[20] + 971 u[21] + 991 u[22]
   + 466 u[23] + 520 u[24] + 107 u[25] + 405 u[26] + 163 u[27] + 81 u[28]
   + 298 u[29] + 925 u[30] + 319 u[31] + 63 u[32] + 80 u[33] + 263 u[34]
   + 740 u[35] + 879 u[36] + 160 u[37] + 783 u[38] + 906 u[39] <= 4188
 primal_lower2: 845 u[0] + 273 u[1] + 591 u[2] + 448 u[3] + 257 u[4]
   + 583 u[5] + 274 u[6] + 833 u[7] + 146 u[8] + 919 u[9] + 425 u[10]
   + 40 u[11] + 281 u[12] + 841 u[13] + 178 u[14] + 602 u[15] + 906 u[16]
   + 741 u[17] + 950 u[18] + 603 u[19] + 842 u[20] + 773 u[21] + 169 u[22]
   + 28 u[23] + 58 u[24] + 877 u[25] + 495 u[26] + 965 u[27] + 515 u[28]
   + 476 u[29] + 935 u[30] + 425 u[31] + 609 u[32] + 122 u[33] + 769 u[34]
   + 822 u[35] + 233 u[36] + 706 u[37] + 513 u[38] + 268 u[39] <= 965
 primal_lower3: 928 u[0] + 764 u[1] + 674 u[2] + 811 u[3] + 372 u[4]
   + 714 u[5] + 5 u[6] + 572 u[7] + 573 u[8] + 642 u[9] + 940 u[10]
   + 571 u[11] + 484 u[12] + 860 u[13] + 413 u[14] + 597 u[15] + 213 u[16]
   + 144 u[17] + 473 u[18] + 598 u[19] + 53 u[20] + 872 u[21] + 492 u[22]
   + 623 u[23] + 661 u[24] + 256 u[25] + 138 u[26] + 720 u[27] + 870 u[28]
   + 679 u[29] + 978 u[30] + 620 u[31] + 468 u[32] + 877 u[33] + 852 u[34]
   + 57 u[35] + 444 u[36] + 621 u[37] + 156 u[38] + 879 u[39] <= 5666
 primal_lower4: 900 u[0] + 704 u[1] + 558 u[2] + 415 u[3] + 720 u[4]
   + 398 u[5] + 489 u[6] + 376 u[7] + 89 u[8] + 366 u[9] + 480 u[10]
   + 639 u[11] + 456 u[12] + 432 u[13] + 121 u[14] + 569 u[15] + 337 u[16]
   + 524 u[17] + 997 u[18] + 778 u[19] + 81 u[20] + 124 u[21] + 616 u[22]
   + 243 u[23] + 633 u[24] + 676 u[25] + 14 u[26] + 516 u[27] + 594 u[28]
   + 467 u[29] + 870 u[30] + 192 u[31] + 848 u[32] + 33 u[33] + 96 u[34]
   + 525 u[35] + 992 u[36] + 761 u[37] + 528 u[38] + 171 u[39] <= 4832
 primal_lower5: 928 u[0] + 545 u[1] + 635 u[2] + 568 u[3] + 821 u[4]
   + 702 u[5] + 302 u[6] + 320 u[7] + 294 u[8] + 159 u[9] + 620 u[10]
   + 592 u[11] + 429 u[12] + 833 u[13] + 949 u[14] + 913 u[15] + 62 u[16]
   + 101 u[17] + 898 u[18] + 779 u[19] + 254 u[20] + 724 u[21] + 125 u[22]
   + 907 u[23] + 661 u[24] + 317 u[25] + 747 u[26] + 940 u[27] + 102 u[28]
   + 4 u[29] + 554 u[30] + 48 u[31] + 908 u[32] + 386 u[33] + 837 u[34]
   + 278 u[35] + 973 u[36] + 769 u[37] + 29 u[38] + 683 u[39] <= 973
 primal_lower6: 498 u[0] + 899 u[1] + 245 u[2] + 610 u[3] + 279 u[4]
   + 72 u[5] + 760 u[6] + 818 u[7] + 760 u[8] + 145 u[9] + 726 u[10]
   + 706 u[11] + 927 u[12] + 299 u[13] + 959 u[14] + 707 u[15] + 760 u[16]
   + 631 u[17] + 204 u[18] + 45 u[19] + 752 u[20] + 494 u[21] + 151 u[22]
   + 989 u[23] + 847 u[24] + 551 u[25] + 605 u[26] + 390 u[27] + 264 u[28]
   + 406 u[29] + 404 u[30] + 498 u[31] + 710 u[32] + 740 u[33] + 903 u[34]
   + 152 u[35] + 863 u[36] + 451 u[37] + 519 u[38] + 77 u[39] <= 5454
 primal_lower7: 543 u[0] + 256 u[1] + 394 u[2] + 319 u[3] + 476 u[4]
   + 557 u[5] + 525 u[6] + 799 u[7] + 925 u[8] + 430 u[9] + 579 u[10]
   + 263 u[11] + 276 u[12] + 824 u[13] + 700 u[14] + 16 u[15] + 541 u[16]
   + 572 u[17] + 401 u[18] + 722 u[19] + 493 u[20] + 243 u[21] + 828 u[22]
   + 202 u[23] + 740 u[24] + 844 u[25] + 650 u[26] + 979 u[27] + 749 u[28]
   + 979 u[29] + 385 u[30] + 343 u[31] + 739 u[32] + 201 u[33] + 428 u[34]
   + 493 u[35] + 596 u[36] + 624 u[37] + 788 u[38] + 642 u[39] <= 5516
 primal_lower8: 175 u[0] + 323 u[1] + 473 u[2] + 514 u[3] + 779 u[4]
   + 585 u[5] + 428 u[6] + 59 u[7] + 172 u[8] + 801 u[9] + 499 u[10]
   + 250 u[11] + 195 u[12] + 755 u[13] + 844 u[14] + 748 u[15] + 444 u[16]
   + 887 u[17] + 952 u[18] + 645 u[19] + 196 u[20] + 31 u[21] + 179 u[22]
   + 334 u[23] + 652 u[24] + 503 u[25] + 185 u[26] + 815 u[27] + 389 u[28]
   + 862 u[29] + 89 u[30] + 827 u[31] + 899 u[32] + 908 u[33] + 963 u[34]
   + 816 u[35] + 459 u[36] + 940 u[37] + 187 u[38] + 118 u[39] <= 963
 primal_lower9: 350 u[0] + 695 u[1] + 569 u[2] + 214 u[3] + 131 u[4]
   + 76 u[5] + 316 u[6] + 462 u[7] + 236 u[8] + 349 u[9] + 514 u[10]
   + 886 u[11] + 291 u[12] + 167 u[13] + 771 u[14] + 671 u[15] + 412 u[16]
   + 419 u[17] + 624 u[18] + 49 u[19] + 620 u[20] + 850 u[21] + 627 u[22]
   + 337 u[23] + 555 u[24] + 179 u[25] + 497 u[26] + 778 u[27] + 444 u[28]
   + 570 u[29] + 32 u[30] + 198 u[31] + 810 u[32] + 120 u[33] + 203 u[34]
   + 580 u[35] + 147 u[36] + 95 u[37] + 651 u[38] + 505 u[39] <= 4250
 primal_lower10: 582 u[0] + 535 u[1] + 313 u[2] + 166 u[3] + 643 u[4]
   + 428 u[5] + 796 u[6] + 366 u[7] + 724 u[8] + 645 u[9] + 882 u[10]
   + 198 u[11] + 867 u[12] + 639 u[13] + 595 u[14] + 943 u[15] + 820 u[16]
   + 723 u[17] + 456 u[18] + 697 u[19] + 164 u[20] + 506 u[21] + 3 u[22]
   + 537 u[23] + 59 u[24] + 123 u[25] + 897 u[26] + 930 u[27] + 276 u[28]
   + 394 u[29] + 744 u[30] + 702 u[31] + 746 u[32] + 72 u[33] + 971 u[34]
   + 260 u[35] + 355 u[36] + 607 u[37] + 899 u[38] + 825 u[39] <= 5522
 primal_lower11: 303 u[0] + 347 u[1] + 177 u[2] + 834 u[3] + 795 u[4]
   + 705 u[5] + 868 u[6] + 523 u[7] + 244 u[8] + 985 u[9] + 723 u[10]
   + 482 u[11] + 707 u[12] + 275 u[13] + 484 u[14] + 932 u[15] + 60 u[16]
   + 991 u[17] + 392 u[18] + 261 u[19] + 796 u[20] + 703 u[21] + 555 u[22]
   + 998 u[23] + 260 u[24] + 223 u[25] + 617 u[26] + 959 u[27] + 413 u[28]
   + 894 u[29] + 921 u[30] + 171 u[31] + 203 u[32] + 444 u[33] + 491 u[34]
   + 536 u[35] + 563 u[36] + 572 u[37] + 67 u[38] + 774 u[39] <= 5562
 primal_lower12: 576 u[0] + 540 u[1] + 18 u[2] + 563 u[3] + 964 u[4]
   + 114 u[5] + 861 u[6] + 676 u[7] + 781 u[8] + 698 u[9] + 956 u[10]
   + 971 u[11] + 588 u[12] + 108 u[13] + 277 u[14] + 293 u[15] + 173 u[16]
   + 16 u[17] + 321 u[18] + 198 u[19] + 325 u[20] + 1000 u[21] + 12 u[22]
   + 303 u[23] + 629 u[24] + 568 u[25] + 794 u[26] + 528 u[27] + 486 u[28]
   + 791 u[29] + 978 u[30] + 284 u[31] + 596 u[32] + 693 u[33] + 172 u[34]
   + 777 u[35] + 60 u[36] + 101 u[37] + 324 u[38] + 215 u[39] <= 4832
 primal_lower13: 495 u[0] + 464 u[1] + 378 u[2] + 703 u[3] + 772 u[4]
   + 813 u[5] + 413 u[6] + 31 u[7] + 581 u[8] + 70 u[9] + 715 u[10]
   + 999 u[11] + 492 u[12] + 576 u[13] + 228 u[14] + 88 u[15] + 373 u[16]
   + 508 u[17] + 89 u[18] + 154 u[19] + 557 u[20] + 787 u[21] + 116 u[22]
   + 634 u[23] + 988 u[24] + 708 u[25] + 66 u[26] + 947 u[27] + 77 u[28]
   + 339 u[29] + 953 u[30] + 999 u[31] + 763 u[32] + 25 u[33] + 972 u[34]
   + 525 u[35] + 284 u[36] + 392 u[37] + 548 u[38] + 442 u[39] <= 10032
 primal_lower14: 248 u[0] + 249 u[1] + 291 u[2] + 576 u[3] + 701 u[4]
   + 238 u[5] + 350 u[6] + 216 u[7] + 622 u[8] + 335 u[9] + 572 u[10]
   + 648 u[11] + 917 u[12] + 865 u[13] + 93 u[14] + 329 u[15] + 38 u[16]
   + 501 u[17] + 274 u[18] + 19 u[19] + 998 u[20] + 324 u[21] + 429 u[22]
   + 459 u[23] + 917 u[24] + 389 u[25] + 299 u[26] + 180 u[27] + 550 u[28]
   + 660 u[29] + 154 u[30] + 792 u[31] + 972 u[32] + 98 u[33] + 485 u[34]
   + 638 u[35] + 389 u[36] + 505 u[37] + 357 u[38] + 251 u[39] <= 4482
 primal_lower15: 853 u[0] + u[1] + 215 u[2] + 1000 u[3] + 633 u[4]
   + 919 u[5] + 618 u[6] + 465 u[7] + 154 u[8] + 159 u[9] + 481 u[10]
   + 56 u[11] + 49 u[12] + 665 u[13] + 818 u[14] + 194 u[15] + 154 u[16]
   + 901 u[17] + 430 u[18] + 131 u[19] + 890 u[20] + 853 u[21] + 513 u[22]
   + 692 u[23] + 482 u[24] + 493 u[25] + 855 u[26] + 565 u[27] + 579 u[28]
   + 380 u[29] + 383 u[30] + 89 u[31] + 993 u[32] + 586 u[33] + 537 u[34]
   + 14 u[35] + 145 u[36] + 602 u[37] + 697 u[38] + 820 u[39] <= 5016
 primal_lower16: 312 u[0] + 953 u[1] + 811 u[2] + 400 u[3] + 493 u[4]
   + 974 u[5] + 286 u[6] + 128 u[7] + 230 u[8] + 799 u[9] + 132 u[10]
   + 368 u[11] + 573 u[12] + 313 u[13] + 389 u[14] + 81 u[15] + 814 u[16]
   + 581 u[17] + 554 u[18] + 595 u[19] + 286 u[20] + 548 u[21] + 341 u[22]
   + 443 u[23] + 853 u[24] + 477 u[25] + 3 u[26] + 796 u[27] + 382 u[28]
   + 436 u[29] + 946 u[30] + 392 u[31] + 716 u[32] + 858 u[33] + 141 u[34]
   + 598 u[35] + 405 u[36] + 489 u[37] + 581 u[38] + 499 u[39] <= 974
 primal_lower17: 572 u[0] + 813 u[1] + 967 u[2] + 348 u[3] + 969 u[4]
   + 74 u[5] + 242 u[6] + 844 u[7] + 50 u[8] + 3 u[9] + 96 u[10]
   + 460 u[11] + 569 u[12] + 901 u[13] + 441 u[14] + 749 u[15] + 738 u[16]
   + 649 u[17] + 974 u[18] + 815 u[19] + 746 u[20] + 136 u[21] + 625 u[22]
   + 551 u[23] + 57 u[24] + 785 u[25] + 695 u[26] + 232 u[27] + 882 u[28]
   + 624 u[29] + 158 u[30] + 860 u[31] + 360 u[32] + 438 u[33] + 793 u[34]
   + 770 u[35] + 577 u[36] + 765 u[37] + 849 u[38] + 863 u[39] <= 974
 primal_lower18: 193 u[0] + 66 u[1] + 436 u[2] + 385 u[3] + 702 u[4]
   + 55 u[5] + 599 u[6] + 873 u[7] + 215 u[8] + 304 u[9] + 573 u[10]
   + 617 u[11] + 846 u[12] + 802 u[13] + 934 u[14] + 266 u[15] + 631 u[16]
   + 366 u[17] + 955 u[18] + 740 u[19] + 663 u[20] + 829 u[21] + 446 u[22]
   + 188 u[23] + 982 u[24] + 590 u[25] + 116 u[26] + 581 u[27] + 71 u[28]
   + 445 u[29] + 491 u[30] + 449 u[31] + 765 u[32] + 355 u[33] + 550 u[34]
   + 879 u[35] + 54 u[36] + 762 u[37] + 926 u[38] + 156 u[39] <= 5214
 primal_lower19: 663 u[0] + 712 u[1] + 530 u[2] + 551 u[3] + 684 u[4]
   + 453 u[5] + 925 u[6] + 807 u[7] + 493 u[8] + 910 u[9] + 499 u[10]
   + 495 u[11] + 612 u[12] + 160 u[13] + 580 u[14] + 48 u[15] + 221 u[16]
   + 884 u[17] + 985 u[18] + 266 u[19] + 485 u[20] + 555 u[21] + 284 u[22]
   + 402 u[23] + 164 u[24] + 780 u[25] + 74 u[26] + 923 u[27] + 501 u[28]
   + 595 u[29] + 25 u[30] + 831 u[31] + 315 u[32] + 769 u[33] + 508 u[34]
   + 173 u[35] + 620 u[36] + 448 u[37] + 732 u[38] + 602 u[39] <= 10632
 primal_lower20: 423 u[0] + 728 u[1] + 418 u[2] + 343 u[3] + 148 u[4]
   + 205 u[5] + 5 u[6] + 583 u[7] + 901 u[8] + 310 u[9] + 739 u[10]
   + 895 u[11] + 732 u[12] + 624 u[13] + 444 u[14] + 792 u[15] + 621 u[16]
   + 580 u[17] + 553 u[18] + 386 u[19] + 885 u[20] + 219 u[21] + 828 u[22]
   + 730 u[23] + 228 u[24] + 908 u[25] + 746 u[26] + 323 u[27] + 181 u[28]
   + 195 u[29] + 201 u[30] + 199 u[31] + 907 u[32] + 913 u[33] + 796 u[34]
   + 733 u[35] + 916 u[36] + 984 u[37] + 292 u[38] + 66 u[39] <= 10840
 primal_lower21: 285 u[0] + 129 u[1] + 375 u[2] + 320 u[3] + 697 u[4]
   + 287 u[5] + 978 u[6] + 641 u[7] + 170 u[8] + 519 u[9] + 937 u[10]
   + 152 u[11] + 769 u[12] + 529 u[13] + 970 u[14] + 98 u[15] + 218 u[16]
   + 957 u[17] + 134 u[18] + 723 u[19] + 242 u[20] + 421 u[21] + 705 u[22]
   + 524 u[23] + 338 u[24] + 789 u[25] + 23 u[26] + 549 u[27] + 331 u[28]
   + 900 u[29] + 855 u[30] + 121 u[31] + 521 u[32] + 706 u[33] + 745 u[34]
   + 414 u[35] + 41 u[36] + 546 u[37] + 937 u[38] + 220 u[39] <= 978
 primal_lower22: 997 u[0] + 753 u[1] + 383 u[2] + 416 u[3] + 969 u[4]
   + 847 u[5] + 402 u[6] + 577 u[7] + 354 u[8] + 367 u[9] + 929 u[10]
   + 432 u[11] + 81 u[12] + 457 u[13] + 866 u[14] + 58 u[15] + 178 u[16]
   + 229 u[17] + 414 u[18] + 299 u[19] + 506 u[20] + 317 u[21] + 129 u[22]
   + 436 u[23] + 594 u[24] + 69 u[25] + 479 u[26] + 365 u[27] + 563 u[28]
   + 148 u[29] + 711 u[30] + 305 u[31] + 273 u[32] + 482 u[33] + 153 u[34]
   + 582 u[35] + 665 u[36] + 642 u[37] + 737 u[38] + 716 u[39] <= 4720
 primal_lower23: 209 u[0] + 901 u[1] + 123 u[2] + 740 u[3] + 309 u[4]
   + 339 u[5] + 710 u[6] + 485 u[7] + 558 u[8] + 755 u[9] + 949 u[10]
   + 372 u[11] + 85 u[12] + 805 u[13] + 574 u[14] + 870 u[15] + 654 u[16]
   + 945 u[17] + 298 u[18] + 255 u[19] + 334 u[20] + 505 u[21] + 637 u[22]
   + 728 u[23] + 702 u[24] + 481 u[25] + 251 u[26] + 417 u[27] + 415 u[28]
   + 200 u[29] + 91 u[30] + 973 u[31] + 765 u[32] + 318 u[33] + 93 u[34]
   + 58 u[35] + 501 u[36] + 302 u[37] + 557 u[38] + 16 u[39] <= 4820
 primal_lower24: 2 u[0] + 758 u[1] + 660 u[2] + 213 u[3] + 62 u[4]
   + 692 u[5] + 327 u[6] + 6 u[7] + 447 u[8] + 492 u[9] + 334 u[10]
   + 229 u[11] + 118 u[12] + 94 u[13] + 879 u[14] + 7 u[15] + 783 u[16]
   + 818 u[17] + 91 u[18] + 328 u[19] + 375 u[20] + 986 u[21] + 454 u[22]
   + 633 u[23] + 455 u[24] + 274 u[25] + 108 u[26] + 930 u[27] + 64 u[28]
   + 881 u[29] + 580 u[30] + 246 u[31] + 758 u[32] + 831 u[33] + 318 u[34]
   + 555 u[35] + 14 u[36] + 407 u[37] + 326 u[38] + 385 u[39] <= 8460
 primal_lower25: 817 u[0] + 853 u[1] + 155 u[2] + 884 u[3] + 325 u[4]
   + 579 u[5] + 758 u[6] + 205 u[7] + 854 u[8] + 963 u[9] + 829 u[10]
   + 652 u[11] + 557 u[12] + 893 u[13] + 614 u[14] + 742 u[15] + 918 u[16]
   + 185 u[17] + 522 u[18] + 383 u[19] + 78 u[20] + 417 u[21] + 957 u[22]
   + 456 u[23] + 238 u[24] + 537 u[25] + 699 u[26] + 649 u[27] + 855 u[28]
   + 184 u[29] + 963 u[30] + 309 u[31] + 589 u[32] + 542 u[33] + 981 u[34]
   + 426 u[35] + 333 u[36] + 150 u[37] + 709 u[38] + 888 u[39] <= 981
 primal_lower26: 182 u[0] + 919 u[1] + 665 u[2] + 870 u[3] + 499 u[4]
   + 148 u[5] + 772 u[6] + 518 u[7] + 164 u[8] + 197 u[9] + 842 u[10]
   + 750 u[11] + 491 u[12] + 663 u[13] + 707 u[14] + 367 u[15] + 276 u[16]
   + 323 u[17] + 640 u[18] + 377 u[19] + 964 u[20] + 410 u[21] + 307 u[22]
   + 313 u[23] + 587 u[24] + 83 u[25] + 473 u[26] + 546 u[27] + 20 u[28]
   + 602 u[29] + 784 u[30] + 982 u[31] + 826 u[32] + 856 u[33] + 931 u[34]
   + 916 u[35] + 595 u[36] + 263 u[37] + 803 u[38] + 297 u[39] <= 10964
 primal_lower27: 284 u[0] + 509 u[1] + 87 u[2] + 28 u[3] + 817 u[4]
   + 602 u[5] + 178 u[6] + 876 u[7] + 146 u[8] + 731 u[9] + 392 u[10]
   + 956 u[11] + 417 u[12] + 197 u[13] + 929 u[14] + 221 u[15] + 682 u[16]
   + 561 u[17] + 334 u[18] + 807 u[19] + 482 u[20] + 288 u[21] + 497 u[22]
   + 247 u[23] + 577 u[24] + 753 u[25] + 767 u[26] + 536 u[27] + 698 u[28]
   + 872 u[29] + 726 u[30] + 500 u[31] + 736 u[32] + 886 u[33] + 81 u[34]
   + 346 u[35] + 345 u[36] + 485 u[37] + 505 u[38] + 271 u[39] <= 10176
 primal_lower28: 252 u[0] + 413 u[1] + 399 u[2] + 164 u[3] + u[4]
   + 778 u[5] + 906 u[6] + 124 u[7] + 242 u[8] + 931 u[9] + 696 u[10]
   + 852 u[11] + 745 u[12] + 669 u[13] + 361 u[14] + 797 u[15] + 234 u[16]
   + 89 u[17] + 190 u[18] + 863 u[19] + 2 u[20] + 152 u[21] + 449 u[22]
   + 959 u[23] + 377 u[24] + 305 u[25] + 727 u[26] + 368 u[27] + 394 u[28]
   + 648 u[29] + 238 u[30] + 644 u[31] + 8 u[32] + 758 u[33] + 417 u[34]
   + 186 u[35] + 281 u[36] + 557 u[37] + 865 u[38] + 359 u[39] <= 4600
 primal_lower29: 302 u[0] + 487 u[1] + 537 u[2] + 438 u[3] + 515 u[4]
   + 68 u[5] + 332 u[6] + 118 u[7] + 956 u[8] + 685 u[9] + 930 u[10]
   + 78 u[11] + 835 u[12] + 367 u[13] + 411 u[14] + 31 u[15] + 364 u[16]
   + 171 u[17] + 376 u[18] + 961 u[19] + 820 u[20] + 250 u[21] + 275 u[22]
   + 257 u[23] + 619 u[24] + 235 u[25] + 209 u[26] + 122 u[27] + 388 u[28]
   + 234 u[29] + 768 u[30] + 398 u[31] + 762 u[32] + 168 u[33] + 435 u[34]
   + 716 u[35] + 763 u[36] + 807 u[37] + 99 u[38] + 345 u[39] <= 961
 primal_lower30: 967 u[0] + 211 u[1] + 497 u[2] + 850 u[3] + 795 u[4]
   + 409 u[5] + 876 u[6] + 707 u[7] + 388 u[8] + 745 u[9] + 907 u[10]
   + 482 u[11] + 643 u[12] + 507 u[13] + 412 u[14] + 524 u[15] + 540 u[16]
   + 831 u[17] + 736 u[18] + 813 u[19] + 684 u[20] + 231 u[21] + 35 u[22]
   + 142 u[23] + 524 u[24] + 959 u[25] + 137 u[26] + 535 u[27] + 181 u[28]
   + 14 u[29] + 89 u[30] + 395 u[31] + 323 u[32] + 356 u[33] + 123 u[34]
   + 776 u[35] + 235 u[36] + 156 u[37] + 187 u[38] + 22 u[39] <= 967
 primal_lower31: 450 u[0] + 275 u[1] + 469 u[2] + 514 u[3] + 207 u[4]
   + 312 u[5] + 872 u[6] + 978 u[7] + 576 u[8] + 225 u[9] + 614 u[10]
   + 626 u[11] + 319 u[12] + 259 u[13] + 927 u[14] + 483 u[15] + 768 u[16]
   + 351 u[17] + 28 u[18] + 253 u[19] + 752 u[20] + 910 u[21] + 63 u[22]
   + 101 u[23] + 711 u[24] + 487 u[25] + 557 u[26] + 694 u[27] + 208 u[28]
   + 206 u[29] + 476 u[30] + 850 u[31] + 766 u[32] + 348 u[33] + 151 u[34]
   + 720 u[35] + 703 u[36] + 915 u[37] + 959 u[38] + 445 u[39] <= 10264
 primal_lower32: 920 u[0] + 772 u[1] + 602 u[2] + 347 u[3] + 852 u[4]
   + 250 u[5] + 333 u[6] + 868 u[7] + 509 u[8] + 970 u[9] + 492 u[10]
   + 131 u[11] + 572 u[12] + 484 u[13] + 845 u[14] + 981 u[15] + 661 u[16]
   + 96 u[17] + 985 u[18] + 118 u[19] + 749 u[20] + 376 u[21] + 444 u[22]
   + 679 u[23] + 901 u[24] + 304 u[25] + 378 u[26] + 352 u[27] + 582 u[28]
   + 447 u[29] + 66 u[30] + 220 u[31] + 276 u[32] + 565 u[33] + 228 u[34]
   + 65 u[35] + 460 u[36] + 765 u[37] + 164 u[38] + 999 u[39] <= 10404
 primal_lower33: 944 u[0] + 73 u[1] + 531 u[2] + 800 u[3] + 885 u[4]
   + 830 u[5] + 726 u[6] + 600 u[7] + 766 u[8] + 279 u[9] + 844 u[10]
   + 760 u[11] + 365 u[12] + 153 u[13] + 605 u[14] + 905 u[15] + 606 u[16]
   + 717 u[17] + 930 u[18] + 627 u[19] + 966 u[20] + 980 u[21] + 165 u[22]
   + 507 u[23] + 405 u[24] + 125 u[25] + 947 u[26] + 660 u[27] + 46 u[28]
   + 788 u[29] + 802 u[30] + 840 u[31] + 316 u[32] + 842 u[33] + 733 u[34]
   + 742 u[35] + 261 u[36] + 377 u[37] + 949 u[38] + 403 u[39] <= 6200
 primal_lower34: 907 u[0] + 276 u[1] + 574 u[2] + 315 u[3] + 240 u[4]
   + 697 u[5] + 465 u[6] + 707 u[7] + 641 u[8] + 410 u[9] + 295 u[10]
   + 843 u[11] + 800 u[12] + 860 u[13] + 64 u[14] + 676 u[15] + 897 u[16]
   + 344 u[17] + 77 u[18] + 510 u[19] + 145 u[20] + 55 u[21] + 208 u[22]
   + 86 u[23] + 128 u[24] + 184 u[25] + 726 u[26] + 335 u[27] + 433 u[28]
   + 487 u[29] + 957 u[30] + 771 u[31] + 639 u[32] + 445 u[33] + 464 u[34]
   + 249 u[35] + 480 u[36] + 20 u[37] + 376 u[38] + 14 u[39] <= 8900
 primal_lower35: 21 u[0] + 737 u[1] + 31 u[2] + 752 u[3] + 577 u[4]
   + 279 u[5] + 930 u[6] + 833 u[7] + 266 u[8] + 943 u[9] + 289 u[10]
   + 40 u[11] + 857 u[12] + 665 u[13] + 626 u[14] + 58 u[15] + 930 u[16]
   + 141 u[17] + 334 u[18] + 555 u[19] + 298 u[20] + 861 u[21] + 865 u[22]
   + 52 u[23] + 122 u[24] + 565 u[25] + 47 u[26] + 877 u[27] + 395 u[28]
   + 500 u[29] + 831 u[30] + 33 u[31] + 873 u[32] + 826 u[33] + 745 u[34]
   + 638 u[35] + 209 u[36] + 530 u[37] + 745 u[38] + 556 u[39] <= 943
 primal_lower36: 563 u[0] + 863 u[1] + 621 u[2] + 206 u[3] + 127 u[4]
   + 701 u[5] + 656 u[6] + 759 u[7] + 424 u[8] + 765 u[9] + 79 u[10]
   + 246 u[11] + 759 u[12] + 679 u[13] + 240 u[14] + 16 u[15] + 88 u[16]
   + 515 u[17] + 148 u[18] + 569 u[19] + 672 u[20] + 595 u[21] + 647 u[22]
   + 570 u[23] + 736 u[24] + 603 u[25] + 29 u[26] + 67 u[27] + 113 u[28]
   + 578 u[29] + 821 u[30] + 639 u[31] + 399 u[32] + 728 u[33] + 519 u[34]
   + 28 u[35] + 615 u[36] + 608 u[37] + 687 u[38] + 90 u[39] <= 863
 primal_lower37: 554 u[0] + 502 u[1] + 628 u[2] + 37 u[3] + 902 u[4]
   + 260 u[5] + 583 u[6] + 366 u[7] + 727 u[8] + 60 u[9] + 462 u[10]
   + 765 u[11] + 958 u[12] + 742 u[13] + 599 u[14] + 575 u[15] + 839 u[16]
   + 746 u[17] + 3 u[18] + 536 u[19] + 159 u[20] + 586 u[21] + 526 u[22]
   + 865 u[23] + 975 u[24] + 338 u[25] + 52 u[26] + 66 u[27] + 168 u[28]
   + 505 u[29] + 140 u[30] + 382 u[31] + 326 u[32] + 399 u[33] + 118 u[34]
   + 595 u[35] + 766 u[36] + 455 u[37] + 142 u[38] + 601 u[39] <= 4752
 primal_lower38: 891 u[0] + 748 u[1] + 486 u[2] + 83 u[3] + 176 u[4]
   + 761 u[5] + 849 u[6] + 427 u[7] + 169 u[8] + 290 u[9] + 879 u[10]
   + 867 u[11] + 56 u[12] + 348 u[13] + 408 u[14] + 684 u[15] + 353 u[16]
   + 536 u[17] + 45 u[18] + 662 u[19] + 433 u[20] + 799 u[21] + 168 u[22]
   + 678 u[23] + 192 u[24] + 568 u[25] + 718 u[26] + 807 u[27] + 681 u[28]
   + 703 u[29] + 517 u[30] + 979 u[31] + 423 u[32] + 989 u[33] + 568 u[34]
   + 785 u[35] + 192 u[36] + 604 u[37] + 456 u[38] + 294 u[39] <= 989
 primal_lower39: 190 u[0] + 327 u[1] + 673 u[2] + 846 u[3] + 475 u[4]
   + 364 u[5] + 540 u[6] + 102 u[7] + 324 u[8] + 125 u[9] + 10 u[10]
   + 462 u[11] + 747 u[12] + 279 u[13] + 139 u[14] + 375 u[15] + 580 u[16]
   + 403 u[17] + 248 u[18] + 561 u[19] + 468 u[20] + 506 u[21] + 91 u[22]
   + 65 u[23] + 355 u[24] + 155 u[25] + 993 u[26] + 762 u[27] + 116 u[28]
   + 890 u[29] + 360 u[30] + 230 u[31] + 106 u[32] + 608 u[33] + 539 u[34]
   + 476 u[35] + 355 u[36] + 367 u[37] + 803 u[38] + 649 u[39] <= 993
 primal_lower40: 381 u[0] + 406 u[1] + 808 u[2] + 429 u[3] + 754 u[4]
   + 619 u[5] + 515 u[6] + 461 u[7] + 179 u[8] + 908 u[9] + 705 u[10]
   + 901 u[11] + 34 u[12] + 726 u[13] + 930 u[14] + 150 u[15] + 883 u[16]
   + 122 u[17] + 639 u[18] + 384 u[19] + 155 u[20] + 105 u[21] + 786 u[22]
   + 720 u[23] + 866 u[24] + 170 u[25] + 64 u[26] + 305 u[27] + 275 u[28]
   + 209 u[29] + 559 u[30] + 693 u[31] + 881 u[32] + 359 u[33] + 818 u[34]
   + 635 u[35] + 314 u[36] + 78 u[37] + 706 u[38] + 288 u[39] <= 4980
 primal_lower41: 961 u[0] + 66 u[1] + 748 u[2] + 321 u[3] + 166 u[4]
   + 79 u[5] + 847 u[6] + 905 u[7] + 575 u[8] + 232 u[9] + 69 u[10]
   + 17 u[11] + 158 u[12] + 762 u[13] + 206 u[14] + 234 u[15] + 783 u[16]
   + 542 u[17] + 683 u[18] + 12 u[19] + 207 u[20] + 101 u[21] + 550 u[22]
   + 276 u[23] + 870 u[24] + 934 u[25] + 228 u[26] + 445 u[27] + 63 u[28]
   + 493 u[29] + 163 u[30] + 337 u[31] + 189 u[32] + 571 u[33] + 942 u[34]
   + 911 u[35] + 718 u[36] + 354 u[37] + 742 u[38] + 684 u[39] <= 9072
 primal_lower42: 473 u[0] + 981 u[1] + 891 u[2] + 268 u[3] + 717 u[4]
   + 939 u[5] + 286 u[6] + 445 u[7] + 126 u[8] + 179 u[9] + 429 u[10]
   + 948 u[11] + 77 u[12] + 37 u[13] + 510 u[14] + 78 u[15] + 542 u[16]
   + 849 u[17] + 618 u[18] + 55 u[19] + 254 u[20] + 649 u[21] + 53 u[22]
   + 272 u[23] + 950 u[24] + 561 u[25] + 787 u[26] + 937 u[27] + 143 u[28]
   + 800 u[29] + 547 u[30] + 253 u[31] + 309 u[32] + 406 u[33] + 149 u[34]
   + 2 u[35] + 381 u[36] + 182 u[37] + 853 u[38] + 776 u[39] <= 4678
 primal_lower43: 593 u[0] + 437 u[1] + 835 u[2] + 500 u[3] + 733 u[4]
   + 835 u[5] + 686 u[6] + 453 u[7] + 694 u[8] + 659 u[9] + 349 u[10]
   + 180 u[11] + 413 u[12] + 373 u[13] + 198 u[14] + 110 u[15] + 222 u[16]
   + 353 u[17] + 202 u[18] + 599 u[19] + 246 u[20] + 961 u[21] + 509 u[22]
   + 472 u[23] + 374 u[24] + 497 u[25] + 211 u[26] + 689 u[27] + 703 u[28]
   + 224 u[29] + 187 u[30] + 741 u[31] + 693 u[32] + 166 u[33] + 229 u[34]
   + 682 u[35] + 405 u[36] + 6 u[37] + 797 u[38] + 736 u[39] <= 4738
 primal_lower44: 50 u[0] + 83 u[1] + 133 u[2] + 594 u[3] + 583 u[4]
   + 464 u[5] + 480 u[6] + 378 u[7] + 768 u[8] + 937 u[9] + 910 u[10]
   + 618 u[11] + 679 u[12] + 475 u[13] + 463 u[14] + 371 u[15] + 840 u[16]
   + 207 u[17] + 844 u[18] + 341 u[19] + 440 u[20] + 950 u[21] + 495 u[22]
   + 357 u[23] + 815 u[24] + 807 u[25] + 885 u[26] + 478 u[27] + 968 u[28]
   + 614 u[29] + 236 u[30] + 866 u[31] + 502 u[32] + 476 u[33] + 287 u[34]
   + 328 u[35] + 847 u[36] + 811 u[37] + 919 u[38] + 101 u[39] <= 11200
 primal_lower45: 877 u[0] + 358 u[1] + 648 u[2] + 637 u[3] + 490 u[4]
   + 267 u[5] + 75 u[6] + 341 u[7] + 347 u[8] + 92 u[9] + 801 u[10]
   + 581 u[11] + 10 u[12] + 174 u[13] + 2 u[14] + 998 u[15] + 867 u[16]
   + 962 u[17] + 167 u[18] + 568 u[19] + 179 u[20] + 993 u[21] + 346 u[22]
   + 456 u[23] + 378 u[24] + 362 u[25] + 456 u[26] + 385 u[27] + 43 u[28]
   + 145 u[29] + 279 u[30] + 669 u[31] + 897 u[32] + 903 u[33] + 322 u[34]
   + 915 u[35] + 570 u[36] + 382 u[37] + 810 u[38] + 512 u[39] <= 4816
 primal_lower46: 839 u[0] + 160 u[1] + 170 u[2] + 263 u[3] + 60 u[4]
   + 949 u[5] + 941 u[6] + 47 u[7] + 637 u[8] + 870 u[9] + 643 u[10]
   + 559 u[11] + 12 u[12] + 456 u[13] + 668 u[14] + 872 u[15] + 29 u[16]
   + 892 u[17] + 465 u[18] + 538 u[19] + 925 u[20] + 731 u[21] + 452 u[22]
   + 770 u[23] + 164 u[24] + 828 u[25] + 234 u[26] + 859 u[27] + 797 u[28]
   + 659 u[29] + 561 u[30] + 751 u[31] + 819 u[32] + 649 u[33] + 76 u[34]
   + 805 u[35] + 76 u[36] + 816 u[37] + 436 u[38] + 74 u[39] <= 5388
 primal_lower47: 669 u[0] + 177 u[1] + 231 u[2] + 984 u[3] + 281 u[4]
   + 63 u[5] + 346 u[6] + 825 u[7] + 298 u[8] + 479 u[9] + 697 u[10]
   + 472 u[11] + 409 u[12] + 681 u[13] + 138 u[14] + 242 u[15] + 858 u[16]
   + 693 u[17] + 838 u[18] + 947 u[19] + 482 u[20] + 637 u[21] + 393 u[22]
   + 676 u[23] + 546 u[24] + 997 u[25] + 607 u[26] + 293 u[27] + 227 u[28]
   + 60 u[29] + 767 u[30] + 585 u[31] + 929 u[32] + 442 u[33] + 825 u[34]
   + 62 u[35] + 25 u[36] + 570 u[37] + 505 u[38] + 364 u[39] <= 5080
 primal_lower48: 935 u[0] + 755 u[1] + 297 u[2] + 818 u[3] + 699 u[4]
   + 89 u[5] + 604 u[6] + 523 u[7] + 676 u[8] + 265 u[9] + 75 u[10]
   + 922 u[11] + 659 u[12] + 651 u[13] + 380 u[14] + 76 u[15] + 788 u[16]
   + 423 u[17] + 640 u[18] + 469 u[19] + 604 u[20] + 487 u[21] + 651 u[22]
   + 470 u[23] + 532 u[24] + 943 u[25] + 425 u[26] + 255 u[27] + 685 u[28]
   + 326 u[29] + 737 u[30] + 851 u[31] + 387 u[32] + 492 u[33] + 235 u[34]
   + 944 u[35] + 723 u[36] + 532 u[37] + 563 u[38] + 438 u[39] <= 11012
 primal_lower49: 997 u[0] + 225 u[1] + 631 u[2] + 920 u[3] + 57 u[4]
   + 367 u[5] + 370 u[6] + 601 u[7] + 386 u[8] + 55 u[9] + 41 u[10]
   + 792 u[11] + 593 u[12] + 537 u[13] + 154 u[14] + 714 u[15] + 698 u[16]
   + 509 u[17] + 326 u[18] + 931 u[19] + 970 u[20] + 453 u[21] + 169 u[22]
   + 372 u[23] + 994 u[24] + 45 u[25] + 271 u[26] + 917 u[27] + 371 u[28]
   + 436 u[29] + 727 u[30] + 729 u[31] + 841 u[32] + 962 u[33] + 417 u[34]
   + 374 u[35] + 65 u[36] + 58 u[37] + 73 u[38] + 476 u[39] <= 4906
 primal_lower50: 649 u[0] + 706 u[1] + 108 u[2] + 81 u[3] + 830 u[4]
   + 823 u[5] + 743 u[6] + 585 u[7] + 655 u[8] + 504 u[9] + 701 u[10]
   + 689 u[11] + 694 u[12] + 674 u[13] + 342 u[14] + 386 u[15] + 799 u[16]
   + 710 u[17] + 43 u[18] + 332 u[19] + 871 u[20] + 261 u[21] + 430 u[22]
   + 380 u[23] + 790 u[24] + 718 u[25] + 924 u[26] + 749 u[27] + 271 u[28]
   + 389 u[29] + 899 u[30] + 793 u[31] + 149 u[32] + 3 u[33] + 758 u[34]
   + 23 u[35] + 606 u[36] + 370 u[37] + 342 u[38] + 148 u[39] <= 924
 primal_lower51: 692 u[0] + 176 u[1] + 566 u[2] + 591 u[3] + 16 u[4]
   + 574 u[5] + 65 u[6] + 448 u[7] + 561 u[8] + 6 u[9] + 168 u[10]
   + 327 u[11] + 232 u[12] + 824 u[13] + 801 u[14] + 441 u[15] + 361 u[16]
   + 284 u[17] + 845 u[18] + 810 u[19] + 705 u[20] + 180 u[21] + 832 u[22]
   + 731 u[23] + 513 u[24] + 516 u[25] + 70 u[26] + 420 u[27] + 2 u[28]
   + 923 u[29] + 846 u[30] + 112 u[31] + 392 u[32] + 705 u[33] + 944 u[34]
   + 589 u[35] + 312 u[36] + 113 u[37] + 216 u[38] + 115 u[39] <= 4506
 primal_lower52: 98 u[0] + 347 u[1] + 669 u[2] + 362 u[3] + 831 u[4]
   + 432 u[5] + 336 u[6] + 674 u[7] + 792 u[8] + 225 u[9] + 270 u[10]
   + 514 u[11] + 303 u[12] + 923 u[13] + 439 u[14] + 83 u[15] + 656 u[16]
   + 895 u[17] + 884 u[18] + 165 u[19] + 312 u[20] + 278 u[21] + 959 u[22]
   + 565 u[23] + 143 u[24] + 607 u[25] + 589 u[26] + 30 u[27] + 216 u[28]
   + 182 u[29] + 660 u[30] + 626 u[31] + 222 u[32] + 468 u[33] + 527 u[34]
   + 416 u[35] + 239 u[36] + 267 u[37] + 991 u[38] + 549 u[39] <= 4686
 primal_lower53: 603 u[0] + 36 u[1] + 350 u[2] + 659 u[3] + 368 u[4]
   + 513 u[5] + 641 u[6] + 251 u[7] + 985 u[8] + 618 u[9] + 455 u[10]
   + 987 u[11] + 624 u[12] + 236 u[13] + 952 u[14] + 324 u[15] + 281 u[16]
   + 488 u[17] + 981 u[18] + 838 u[19] + 993 u[20] + 343 u[21] + 600 u[22]
   + 342 u[23] + 96 u[24] + 968 u[25] + 886 u[26] + 231 u[27] + 129 u[28]
   + 399 u[29] + 309 u[30] + 51 u[31] + 103 u[32] + 565 u[33] + 544 u[34]
   + 657 u[35] + 824 u[36] + 68 u[37] + 848 u[38] + 262 u[39] <= 5102
 primal_lower54: 889 u[0] + 546 u[1] + 964 u[2] + 225 u[3] + 742 u[4]
   + 351 u[5] + 807 u[6] + 585 u[7] + 527 u[8] + 824 u[9] + 429 u[10]
   + 209 u[11] + 158 u[12] + 98 u[13] + 342 u[14] + 450 u[15] + 303 u[16]
   + 230 u[17] + 755 u[18] + 628 u[19] + 47 u[20] + 789 u[21] + 798 u[22]
   + 508 u[23] + 550 u[24] + 206 u[25] + 484 u[26] + 733 u[27] + 767 u[28]
   + 69 u[29] + 19 u[30] + 113 u[31] + 661 u[32] + 995 u[33] + 558 u[34]
   + 495 u[35] + 806 u[36] + 202 u[37] + 62 u[38] + 452 u[39] <= 9688
 primal_lower55: 891 u[0] + 727 u[1] + 173 u[2] + 222 u[3] + 327 u[4]
   + 821 u[5] + 8 u[6] + 39 u[7] + 184 u[8] + 453 u[9] + 143 u[10]
   + 446 u[11] + 399 u[12] + 991 u[13] + 648 u[14] + 344 u[15] + 344 u[16]
   + 347 u[17] + 404 u[18] + 905 u[19] + 16 u[20] + 435 u[21] + 463 u[22]
   + 546 u[23] + 312 u[24] + 555 u[25] + 957 u[26] + 571 u[27] + 57 u[28]
   + 746 u[29] + 917 u[30] + 399 u[31] + 327 u[32] + 24 u[33] + 999 u[34]
   + 812 u[35] + 559 u[36] + 752 u[37] + 239 u[38] + 202 u[39] <= 4676
 primal_lower56: 704 u[0] + u[1] + 779 u[2] + 256 u[3] + 285 u[4]
   + 734 u[5] + 238 u[6] + 216 u[7] + 742 u[8] + 783 u[9] + 252 u[10]
   + 88 u[11] + 101 u[12] + 225 u[13] + 541 u[14] + 209 u[15] + 742 u[16]
   + 533 u[17] + 138 u[18] + 275 u[19] + 542 u[20] + 828 u[21] + 829 u[22]
   + 715 u[23] + 317 u[24] + 229 u[25] + 555 u[26] + 756 u[27] + 942 u[28]
   + 452 u[29] + 74 u[30] + 56 u[31] + 892 u[32] + 634 u[33] + 253 u[34]
   + 230 u[35] + 573 u[36] + 641 u[37] + 429 u[38] + 627 u[39] <= 4604
 primal_lower57: 301 u[0] + 225 u[1] + 919 u[2] + 640 u[3] + 361 u[4]
   + 463 u[5] + 858 u[6] + 281 u[7] + 570 u[8] + 319 u[9] + 297 u[10]
   + 728 u[11] + 993 u[12] + 465 u[13] + 594 u[14] + 66 u[15] + 410 u[16]
   + 341 u[17] + 142 u[18] + 187 u[19] + 546 u[20] + 165 u[21] + 865 u[22]
   + 468 u[23] + 202 u[24] + 453 u[25] + 71 u[26] + 445 u[27] + 883 u[28]
   + 52 u[29] + 79 u[30] + 569 u[31] + 81 u[32] + 898 u[33] + 249 u[34]
   + 126 u[35] + 225 u[36] + 642 u[37] + 321 u[38] + 652 u[39] <= 993
 primal_lower58: 937 u[0] + 165 u[1] + 35 u[2] + 244 u[3] + 101 u[4]
   + 563 u[5] + 686 u[6] + 989 u[7] + 894 u[8] + 971 u[9] + 525 u[10]
   + 996 u[11] + 669 u[12] + 925 u[13] + 166 u[14] + 774 u[15] + 502 u[16]
   + 521 u[17] + 578 u[18] + 343 u[19] + 838 u[20] + 729 u[21] + 325 u[22]
   + 112 u[23] + 486 u[24] + 89 u[25] + 163 u[26] + 169 u[27] + 591 u[28]
   + 888 u[29] + 899 u[30] + 677 u[31] + 269 u[32] + 438 u[33] + 341 u[34]
   + 138 u[35] + 853 u[36] + 342 u[37] + 933 u[38] + 616 u[39] <= 5370
 primal_lower59: 193 u[0] + 170 u[1] + 796 u[2] + 857 u[3] + 446 u[4]
   + 399 u[5] + 31 u[6] + 905 u[7] + 975 u[8] + 408 u[9] + 741 u[10]
   + 545 u[11] + 462 u[12] + 410 u[13] + 6 u[14] + 826 u[15] + 175 u[16]
   + 486 u[17] + 595 u[18] + 268 u[19] + 839 u[20] + 13 u[21] + 566 u[22]
   + 260 u[23] + 830 u[24] + 566 u[25] + 244 u[26] + 85 u[27] + 479 u[28]
   + 317 u[29] + 587 u[30] + 297 u[31] + 557 u[32] + 195 u[33] + 590 u[34]
   + 807 u[35] + 70 u[36] + 490 u[37] + 38 u[38] + 916 u[39] <= 4610
 primal_lower60: 11 u[0] + 900 u[1] + 614 u[2] + 139 u[3] + 736 u[4]
   + 929 u[5] + 505 u[6] + 147 u[7] + 865 u[8] + 714 u[9] + 439 u[10]
   + 923 u[11] + 56 u[12] + 4 u[13] + 248 u[14] + 764 u[15] + 689 u[16]
   + 352 u[17] + 661 u[18] + 542 u[19] + 89 u[20] + 39 u[21] + 400 u[22]
   + 622 u[23] + 24 u[24] + 600 u[25] + 694 u[26] + 151 u[27] + 241 u[28]
   + 279 u[29] + 837 u[30] + 739 u[31] + 271 u[32] + 861 u[33] + 896 u[34]
   + 17 u[35] + 392 u[36] + 900 u[37] + 936 u[38] + 870 u[39] <= 5024
 primal_lower61: 234 u[0] + 958 u[1] + 916 u[2] + 333 u[3] + 854 u[4]
   + 540 u[5] + 807 u[6] + 534 u[7] + 743 u[8] + 468 u[9] + 646 u[10]
   + 997 u[11] + 390 u[12] + 86 u[13] + 167 u[14] + 111 u[15] + 303 u[16]
   + 58 u[17] + 683 u[18] + 376 u[19] + 519 u[20] + 250 u[21] + 358 u[22]
   + 217 u[23] + 943 u[24] + 978 u[25] + 988 u[26] + 2 u[27] + 88 u[28]
   + 977 u[29] + 964 u[30] + 246 u[31] + 902 u[32] + 711 u[33] + 310 u[34]
   + 715 u[35] + 670 u[36] + 615 u[37] + 750 u[38] + 377 u[39] <= 5446
 primal_lower62: 64 u[0] + 324 u[1] + 394 u[2] + 707 u[3] + 932 u[4]
   + 306 u[5] + 389 u[6] + 612 u[7] + 53 u[8] + 82 u[9] + 940 u[10]
   + 339 u[11] + 20 u[12] + 516 u[13] + 333 u[14] + 965 u[15] + 821 u[16]
   + 200 u[17] + 457 u[18] + 582 u[19] + 61 u[20] + 304 u[21] + 52 u[22]
   + 943 u[23] + 445 u[24] + 448 u[25] + 818 u[26] + 216 u[27] + 550 u[28]
   + 71 u[29] + 338 u[30] + 356 u[31] + 988 u[32] + 557 u[33] + 652 u[34]
   + 441 u[35] + 852 u[36] + 5 u[37] + 156 u[38] + 375 u[39] <= 4416
 primal_lower63: 924 u[0] + 160 u[1] + 454 u[2] + 255 u[3] + 608 u[4]
   + 542 u[5] + 985 u[6] + 464 u[7] + 225 u[8] + 630 u[9] + 952 u[10]
   + 799 u[11] + 744 u[12] + 528 u[13] + 169 u[14] + 33 u[15] + 801 u[16]
   + 716 u[17] + 21 u[18] + 666 u[19] + 145 u[20] + 996 u[21] + 200 u[22]
   + 987 u[23] + 369 u[24] + 340 u[25] + 566 u[26] + 580 u[27] + 426 u[28]
   + 107 u[29] + 814 u[30] + 536 u[31] + 208 u[32] + 857 u[33] + 144 u[34]
   + 373 u[35] + 128 u[36] + 65 u[37] + 872 u[38] + 771 u[39] <= 5040
 primal_lower64: 384 u[0] + 924 u[1] + 610 u[2] + 595 u[3] + 612 u[4]
   + 986 u[5] + 229 u[6] + 588 u[7] + 973 u[8] + 298 u[9] + 532 u[10]
   + 387 u[11] + 756 u[12] + 820 u[13] + 997 u[14] + 309 u[15] + 125 u[16]
   + 136 u[17] + 569 u[18] + 670 u[19] + 773 u[20] + 176 u[21] + 332 u[22]
   + 719 u[23] + 677 u[24] + 664 u[25] + 106 u[26] + 984 u[27] + 630 u[28]
   + 23 u[29] + 674 u[30] + 452 u[31] + 892 u[32] + 285 u[33] + 740 u[34]
   + 353 u[35] + 764 u[36] + 13 u[37] + 684 u[38] + 695 u[39] <= 5534
 primal_lower65: 157 u[0] + 254 u[1] + 520 u[2] + 981 u[3] + 474 u[4]
   + 331 u[5] + 179 u[6] + 917 u[7] + 283 u[8] + 436 u[9] + 337 u[10]
   + 373 u[11] + 98 u[12] + 262 u[13] + 82 u[14] + 518 u[15] + 427 u[16]
   + 778 u[17] + 391 u[18] + 392 u[19] + 939 u[20] + 553 u[21] + 882 u[22]
   + 8 u[23] + 90 u[24] + 322 u[25] + 56 u[26] + 57 u[27] + 131 u[28]
   + 609 u[29] + 135 u[30] + 781 u[31] + 433 u[32] + 511 u[33] + 426 u[34]
   + 779 u[35] + 234 u[36] + 750 u[37] + 154 u[38] + 752 u[39] <= 981
 primal_lower66: 17 u[0] + 834 u[1] + 700 u[2] + 481 u[3] + 70 u[4]
   + 927 u[5] + 175 u[6] + 257 u[7] + 55 u[8] + 456 u[9] + 765 u[10]
   + 577 u[11] + 70 u[12] + 674 u[13] + 742 u[14] + 442 u[15] + 967 u[16]
   + 822 u[17] + 459 u[18] + 36 u[19] + 263 u[20] + 365 u[21] + 718 u[22]
   + 444 u[23] + 246 u[24] + 926 u[25] + 204 u[26] + 589 u[27] + 799 u[28]
   + 269 u[29] + 203 u[30] + 113 u[31] + 413 u[32] + 59 u[33] + 446 u[34]
   + 295 u[35] + 566 u[36] + 650 u[37] + 494 u[38] + 532 u[39] <= 4530
 primal_lower67: 272 u[0] + 785 u[1] + 979 u[2] + 216 u[3] + 773 u[4]
   + 518 u[5] + 502 u[6] + 72 u[7] + 486 u[8] + 335 u[9] + 964 u[10]
   + 920 u[11] + 805 u[12] + 969 u[13] + 269 u[14] + 865 u[15] + 414 u[16]
   + 405 u[17] + 74 u[18] + 211 u[19] + 366 u[20] + 444 u[21] + 757 u[22]
   + 955 u[23] + 309 u[24] + 293 u[25] + 515 u[26] + 84 u[27] + 406 u[28]
   + 804 u[29] + 698 u[30] + 872 u[31] + 156 u[32] + 354 u[33] + 85 u[34]
   + 758 u[35] + 501 u[36] + 425 u[37] + 109 u[38] + 987 u[39] <= 5178
 primal_lower68: 18 u[0] + 654 u[1] + 636 u[2] + 477 u[3] + 662 u[4]
   + 996 u[5] + 479 u[6] + 278 u[7] + 383 u[8] + 388 u[9] + 502 u[10]
   + 829 u[11] + 950 u[12] + 78 u[13] + 751 u[14] + 903 u[15] + 303 u[16]
   + 786 u[17] + 395 u[18] + 280 u[19] + 183 u[20] + 386 u[21] + 222 u[22]
   + 905 u[23] + 751 u[24] + 698 u[25] + 780 u[26] + 698 u[27] + 408 u[28]
   + 81 u[29] + 748 u[30] + 614 u[31] + 942 u[32] + 119 u[33] + 630 u[34]
   + 883 u[35] + 70 u[36] + 703 u[37] + 662 u[38] + 297 u[39] <= 996
 primal_lower69: 305 u[0] + 386 u[1] + 164 u[2] + 441 u[3] + 310 u[4]
   + 871 u[5] + 887 u[6] + 257 u[7] + 543 u[8] + 592 u[9] + 437 u[10]
   + 249 u[11] + 718 u[12] + 338 u[13] + 702 u[14] + 554 u[15] + 727 u[16]
   + 502 u[17] + 899 u[18] + 596 u[19] + 455 u[20] + 101 u[21] + 862 u[22]
   + 580 u[23] + 294 u[24] + 502 u[25] + 684 u[26] + 957 u[27] + 751 u[28]
   + 85 u[29] + 155 u[30] + 233 u[31] + 77 u[32] + 795 u[33] + 766 u[34]
   + 271 u[35] + 102 u[36] + 290 u[37] + 662 u[38] + 900 u[39] <= 957
 primal_lower70: 28 u[0] + 104 u[1] + 302 u[2] + 847 u[3] + 504 u[4]
   + 510 u[5] + 601 u[6] + 144 u[7] + 489 u[8] + 246 u[9] + 176 u[10]
   + 183 u[11] + 320 u[12] + 688 u[13] + 561 u[14] + 705 u[15] + 345 u[16]
   + 804 u[17] + 477 u[18] + 42 u[19] + 633 u[20] + 772 u[21] + 952 u[22]
   + 435 u[23] + 113 u[24] + 300 u[25] + 182 u[26] + 588 u[27] + 818 u[28]
   + 515 u[29] + 566 u[30] + 920 u[31] + 136 u[32] + 985 u[33] + 736 u[34]
   + 773 u[35] + 192 u[36] + 737 u[37] + 616 u[38] + 827 u[39] <= 9936
 primal_lower71: 546 u[0] + 35 u[1] + 53 u[2] + 450 u[3] + 583 u[4]
   + 816 u[5] + 816 u[6] + 954 u[7] + 776 u[8] + 977 u[9] + 198 u[10]
   + 570 u[11] + 175 u[12] + 851 u[13] + 751 u[14] + 539 u[15] + 760 u[16]
   + 391 u[17] + 188 u[18] + 149 u[19] + 936 u[20] + 190 u[21] + 959 u[22]
   + 797 u[23] + 503 u[24] + 303 u[25] + 605 u[26] + 526 u[27] + 312 u[28]
   + 190 u[29] + 316 u[30] + 642 u[31] + 502 u[32] + 164 u[33] + 311 u[34]
   + 128 u[35] + 783 u[36] + 923 u[37] + 711 u[38] + 621 u[39] <= 977
 primal_lower72: 135 u[0] + 515 u[1] + 961 u[2] + 498 u[3] + 339 u[4]
   + 817 u[5] + 452 u[6] + 627 u[7] + 428 u[8] + 209 u[9] + 467 u[10]
   + 66 u[11] + 931 u[12] + 931 u[13] + 996 u[14] + 364 u[15] + 964 u[16]
   + 647 u[17] + 616 u[18] + 853 u[19] + 876 u[20] + 727 u[21] + 315 u[22]
   + 38 u[23] + 92 u[24] + 79 u[25] + 177 u[26] + 23 u[27] + 797 u[28]
   + 502 u[29] + 513 u[30] + 187 u[31] + 547 u[32] + 140 u[33] + 939 u[34]
   + 648 u[35] + 195 u[36] + 572 u[37] + 891 u[38] + 278 u[39] <= 10176
 primal_lower73: 604 u[0] + 893 u[1] + 127 u[2] + 268 u[3] + 297 u[4]
   + 210 u[5] + 650 u[6] + 724 u[7] + 434 u[8] + 595 u[9] + 264 u[10]
   + 708 u[11] + 393 u[12] + 213 u[13] + 673 u[14] + 53 u[15] + 906 u[16]
   + 881 u[17] + 838 u[18] + 703 u[19] + 682 u[20] + 904 u[21] + 241 u[22]
   + 887 u[23] + 369 u[24] + 89 u[25] + 479 u[26] + 392 u[27] + 178 u[28]
   + 104 u[29] + 454 u[30] + 20 u[31] + 312 u[32] + 886 u[33] + 377 u[34]
   + 74 u[35] + 609 u[36] + 237 u[37] + 457 u[38] + 639 u[39] <= 906
 primal_lower74: 101 u[0] + 25 u[1] + 143 u[2] + 800 u[3] + 65 u[4]
   + 911 u[5] + 546 u[6] + 977 u[7] + 282 u[8] + 151 u[9] + 849 u[10]
   + 16 u[11] + 617 u[12] + 465 u[13] + 194 u[14] + 682 u[15] + 210 u[16]
   + 469 u[17] + 630 u[18] + 907 u[19] + 562 u[20] + 877 u[21] + 737 u[22]
   + 764 u[23] + 194 u[24] + 125 u[25] + 983 u[26] + 917 u[27] + 171 u[28]
   + 292 u[29] + 223 u[30] + u[31] + 889 u[32] + 890 u[33] + 769 u[34]
   + 478 u[35] + 329 u[36] + 290 u[37] + 409 u[38] + 812 u[39] <= 9876
 primal_lower75: 516 u[0] + 389 u[1] + 727 u[2] + 572 u[3] + 209 u[4]
   + 522 u[5] + 82 u[6] + 164 u[7] + 402 u[8] + 203 u[9] + 624 u[10]
   + 420 u[11] + 985 u[12] + 173 u[13] + 9 u[14] + 933 u[15] + 450 u[16]
   + 721 u[17] + 54 u[18] + 703 u[19] + 82 u[20] + 568 u[21] + 649 u[22]
   + 919 u[23] + 601 u[24] + 913 u[25] + 999 u[26] + 416 u[27] + 946 u[28]
   + 352 u[29] + 238 u[30] + 84 u[31] + 584 u[32] + 54 u[33] + 721 u[34]
   + 66 u[35] + 849 u[36] + 709 u[37] + 745 u[38] + 63 u[39] <= 999
 primal_lower76: 919 u[0] + 680 u[1] + 258 u[2] + 551 u[3] + 884 u[4]
   + 853 u[5] + 565 u[6] + 271 u[7] + 261 u[8] + 302 u[9] + 643 u[10]
   + 767 u[11] + 900 u[12] + 72 u[13] + 516 u[14] + 640 u[15] + 605 u[16]
   + 420 u[17] + 273 u[18] + 570 u[19] + 717 u[20] + 107 u[21] + 196 u[22]
   + 466 u[23] + 740 u[24] + 100 u[25] + 138 u[26] + 595 u[27] + 949 u[28]
   + 131 u[29] + 113 u[30] + 983 u[31] + 731 u[32] + 265 u[33] + 300 u[34]
   + 205 u[35] + 172 u[36] + 288 u[37] + 396 u[38] + 290 u[39] <= 4708
 primal_lower77: 109 u[0] + 470 u[1] + 72 u[2] + 229 u[3] + 834 u[4]
   + 459 u[5] + 795 u[6] + 709 u[7] + 403 u[8] + 980 u[9] + 281 u[10]
   + 277 u[11] + 706 u[12] + 966 u[13] + 362 u[14] + 662 u[15] + 123 u[16]
   + 130 u[17] + 591 u[18] + 336 u[19] + 499 u[20] + 441 u[21] + 370 u[22]
   + 112 u[23] + 906 u[24] + 42 u[25] + 656 u[26] + 153 u[27] + 475 u[28]
   + 113 u[29] + 951 u[30] + 517 u[31] + 833 u[32] + 431 u[33] + 354 u[34]
   + 195 u[35] + 50 u[36] + 318 u[37] + 346 u[38] + 72 u[39] <= 8664
 primal_lower78: 307 u[0] + 343 u[1] + 45 u[2] + 902 u[3] + 271 u[4]
   + 453 u[5] + 392 u[6] + 695 u[7] + 896 u[8] + 949 u[9] + 903 u[10]
   + 502 u[11] + 551 u[12] + 871 u[13] + 696 u[14] + 696 u[15] + 272 u[16]
   + 987 u[17] + 172 u[18] + 329 u[19] + 864 u[20] + 659 u[21] + 951 u[22]
   + 818 u[23] + 104 u[24] + 875 u[25] + 509 u[26] + 3 u[27] + 641 u[28]
   + 250 u[29] + 501 u[30] + 327 u[31] + 207 u[32] + 512 u[33] + 719 u[34]
   + 932 u[35] + 495 u[36] + 736 u[37] + 87 u[38] + 506 u[39] <= 987
 primal_lower79: 801 u[0] + 930 u[1] + 828 u[2] + 193 u[3] + 654 u[4]
   + 639 u[5] + 79 u[6] + 625 u[7] + 271 u[8] + 424 u[9] + 813 u[10]
   + 825 u[11] + 934 u[12] + 498 u[13] + 854 u[14] + 698 u[15] + 439 u[16]
   + 534 u[17] + 11 u[18] + 588 u[19] + 775 u[20] + 733 u[21] + 886 u[22]
   + 988 u[23] + 366 u[24] + 814 u[25] + 500 u[26] + 317 u[27] + 919 u[28]
   + 301 u[29] + 459 u[30] + 441 u[31] + 573 u[32] + 419 u[33] + 478 u[34]
   + 367 u[35] + 902 u[36] + 146 u[37] + 190 u[38] + 788 u[39] <= 11500
 primal_lower80: 428 u[0] + 773 u[1] + 399 u[2] + 348 u[3] + 121 u[4]
   + 618 u[5] + 354 u[6] + 396 u[7] + 146 u[8] + 995 u[9] + 8 u[10]
   + 844 u[11] + 761 u[12] + 765 u[13] + 521 u[14] + 181 u[15] + 586 u[16]
   + 25 u[17] + 118 u[18] + 663 u[19] + 810 u[20] + 704 u[21] + 929 u[22]
   + 399 u[23] + 417 u[24] + 329 u[25] + 15 u[26] + 808 u[27] + 98 u[28]
   + 776 u[29] + 870 u[30] + 412 u[31] + 496 u[32] + 478 u[33] + 833 u[34]
   + 746 u[35] + 753 u[36] + 653 u[37] + 681 u[38] + 399 u[39] <= 995
 primal_lower81: 1000 u[0] + 700 u[1] + 282 u[2] + 875 u[3] + 708 u[4]
   + 898 u[5] + 917 u[6] + 468 u[7] + 173 u[8] + 354 u[9] + 300 u[10]
   + 923 u[11] + 156 u[12] + 884 u[13] + 165 u[14] + 285 u[15] + 573 u[16]
   + 640 u[17] + 145 u[18] + 502 u[19] + 885 u[20] + 328 u[21] + 884 u[22]
   + 519 u[23] + 165 u[24] + 600 u[25] + 778 u[26] + 248 u[27] + 742 u[28]
   + 799 u[29] + 146 u[30] + 492 u[31] + 68 u[32] + 229 u[33] + 740 u[34]
   + 561 u[35] + 620 u[36] + 637 u[37] + 340 u[38] + 71 u[39] <= 10400
 primal_lower82: 154 u[0] + 331 u[1] + 797 u[2] + 978 u[3] + 935 u[4]
   + 160 u[5] + 32 u[6] + 346 u[7] + 904 u[8] + 609 u[9] + 686 u[10]
   + 178 u[11] + 783 u[12] + 123 u[13] + 895 u[14] + 803 u[15] + 920 u[16]
   + 983 u[17] + 268 u[18] + 381 u[19] + 264 u[20] + 798 u[21] + 663 u[22]
   + 61 u[23] + 959 u[24] + 479 u[25] + 141 u[26] + 86 u[27] + 552 u[28]
   + 678 u[29] + 500 u[30] + 170 u[31] + 966 u[32] + 492 u[33] + 631 u[34]
   + 176 u[35] + 735 u[36] + 11 u[37] + 511 u[38] + 541 u[39] <= 5170
 primal_lower83: 998 u[0] + 823 u[1] + u[2] + 406 u[3] + 123 u[4]
   + 452 u[5] + 68 u[6] + 606 u[7] + 740 u[8] + 733 u[9] + 754 u[10]
   + 782 u[11] + 923 u[12] + 551 u[13] + 683 u[14] + 23 u[15] + 940 u[16]
   + 59 u[17] + 648 u[18] + 73 u[19] + 780 u[20] + 210 u[21] + 539 u[22]
   + 225 u[23] + 11 u[24] + 659 u[25] + 617 u[26] + 850 u[27] + 876 u[28]
   + 138 u[29] + 400 u[30] + 134 u[31] + 762 u[32] + 944 u[33] + 339 u[34]
   + 172 u[35] + 11 u[36] + 807 u[37] + 323 u[38] + 409 u[39] <= 9796
 primal_lower84: 21 u[0] + 177 u[1] + 143 u[2] + 720 u[3] + 233 u[4]
   + 103 u[5] + 394 u[6] + 33 u[7] + 994 u[8] + 359 u[9] + 345 u[10]
   + 608 u[11] + 961 u[12] + 193 u[13] + 410 u[14] + 962 u[15] + 954 u[16]
   + 789 u[17] + 62 u[18] + 451 u[19] + 202 u[20] + 909 u[21] + 137 u[22]
   + 188 u[23] + 570 u[24] + 565 u[25] + 383 u[26] + 637 u[27] + 995 u[28]
   + 84 u[29] + 103 u[30] + 265 u[31] + 97 u[32] + 994 u[33] + 521 u[34]
   + 582 u[35] + 633 u[36] + 842 u[37] + 521 u[38] + 364 u[39] <= 995
 primal_lower85: 46 u[0] + 103 u[1] + 65 u[2] + 926 u[3] + 859 u[4]
   + 916 u[5] + 788 u[6] + 966 u[7] + 284 u[8] + 229 u[9] + 450 u[10]
   + 534 u[11] + 395 u[12] + 215 u[13] + 611 u[14] + 855 u[15] + 36 u[16]
   + 795 u[17] + 160 u[18] + 953 u[19] + 388 u[20] + 906 u[21] + 435 u[22]
   + 385 u[23] + 35 u[24] + 795 u[25] + 385 u[26] + 410 u[27] + 132 u[28]
   + 834 u[29] + 16 u[30] + 590 u[31] + 258 u[32] + 232 u[33] + 659 u[34]
   + 116 u[35] + 243 u[36] + 911 u[37] + 427 u[38] + 185 u[39] <= 9264
 primal_lower86: 421 u[0] + 342 u[1] + 856 u[2] + 565 u[3] + 138 u[4]
   + 611 u[5] + 291 u[6] + 245 u[7] + 315 u[8] + 956 u[9] + 817 u[10]
   + 117 u[11] + 482 u[12] + 446 u[13] + 770 u[14] + 606 u[15] + 987 u[16]
   + 98 u[17] + 223 u[18] + 704 u[19] + 355 u[20] + 41 u[21] + 498 u[22]
   + 224 u[23] + 714 u[24] + 642 u[25] + 584 u[26] + 321 u[27] + 875 u[28]
   + 353 u[29] + 839 u[30] + 949 u[31] + 353 u[32] + 695 u[33] + 674 u[34]
   + 915 u[35] + 242 u[36] + 430 u[37] + 690 u[38] + 32 u[39] <= 10208
 primal_lower87: 909 u[0] + 198 u[1] + 264 u[2] + 645 u[3] + 418 u[4]
   + 451 u[5] + 747 u[6] + 389 u[7] + 851 u[8] + 172 u[9] + 913 u[10]
   + 429 u[11] + 122 u[12] + 910 u[13] + 202 u[14] + 278 u[15] + 683 u[16]
   + 770 u[17] + 815 u[18] + 72 u[19] + 707 u[20] + 249 u[21] + 890 u[22]
   + 136 u[23] + 618 u[24] + 714 u[25] + 88 u[26] + 721 u[27] + 947 u[28]
   + 993 u[29] + 551 u[30] + 485 u[31] + 193 u[32] + 87 u[33] + 514 u[34]
   + 467 u[35] + 690 u[36] + 150 u[37] + 882 u[38] + 808 u[39] <= 5282
 primal_lower88: 549 u[0] + 470 u[1] + 920 u[2] + 165 u[3] + 898 u[4]
   + 75 u[5] + 355 u[6] + 741 u[7] + 955 u[8] + 52 u[9] + 209 u[10]
   + 277 u[11] + 610 u[12] + 574 u[13] + 482 u[14] + 158 u[15] + 339 u[16]
   + 322 u[17] + 303 u[18] + 40 u[19] + 131 u[20] + 897 u[21] + 994 u[22]
   + 152 u[23] + 362 u[24] + 338 u[25] + 144 u[26] + 969 u[27] + 307 u[28]
   + 257 u[29] + 767 u[30] + 141 u[31] + 449 u[32] + 879 u[33] + 242 u[34]
   + 563 u[35] + 170 u[36] + 790 u[37] + 682 u[38] + 256 u[39] <= 994
 primal_lower89: 873 u[0] + 557 u[1] + 643 u[2] + 164 u[3] + 173 u[4]
   + 651 u[5] + 78 u[6] + 909 u[7] + 534 u[8] + 451 u[9] + 413 u[10]
   + 244 u[11] + 653 u[12] + 701 u[13] + 142 u[14] + 214 u[15] + 726 u[16]
   + 393 u[17] + 546 u[18] + 127 u[19] + 206 u[20] + 121 u[21] + 781 u[22]
   + 24 u[23] + 94 u[24] + 577 u[25] + 379 u[26] + 209 u[27] + 791 u[28]
   + 552 u[29] + 707 u[30] + 509 u[31] + 125 u[32] + 598 u[33] + 317 u[34]
   + 114 u[35] + 653 u[36] + 622 u[37] + 149 u[38] + 640 u[39] <= 4340
 primal_lower90: 708 u[0] + 997 u[1] + 647 u[2] + 324 u[3] + 761 u[4]
   + 482 u[5] + 762 u[6] + 580 u[7] + 394 u[8] + 747 u[9] + 432 u[10]
   + 108 u[11] + 753 u[12] + 821 u[13] + 753 u[14] + 165 u[15] + 762 u[16]
   + 337 u[17] + 918 u[18] + 343 u[19] + 610 u[20] + 592 u[21] + 225 u[22]
   + 535 u[23] + 161 u[24] + 73 u[25] + 639 u[26] + 608 u[27] + 170 u[28]
   + 808 u[29] + 654 u[30] + 20 u[31] + 896 u[32] + 702 u[33] + 481 u[34]
   + 434 u[35] + 505 u[36] + 997 u[37] + 641 u[38] + 359 u[39] <= 997
 primal_lower91: 586 u[0] + 294 u[1] + 500 u[2] + 917 u[3] + 262 u[4]
   + 356 u[5] + 111 u[6] + 22 u[7] + 759 u[8] + 612 u[9] + 798 u[10]
   + 501 u[11] + 294 u[12] + 398 u[13] + 127 u[14] + 47 u[15] + 751 u[16]
   + 530 u[17] + 179 u[18] + 816 u[19] + 111 u[20] + 650 u[21] + 158 u[22]
   + 89 u[23] + 391 u[24] + 882 u[25] + 644 u[26] + 826 u[27] + 88 u[28]
   + 73 u[29] + 308 u[30] + 510 u[31] + 326 u[32] + 447 u[33] + 222 u[34]
   + 115 u[35] + 6 u[36] + 855 u[37] + 934 u[38] + 129 u[39] <= 4156
 primal_lower92: 547 u[0] + 260 u[1] + 830 u[2] + 443 u[3] + 400 u[4]
   + 985 u[5] + 585 u[6] + 531 u[7] + 41 u[8] + 490 u[9] + 759 u[10]
   + 451 u[11] + 320 u[12] + 372 u[13] + 664 u[14] + 852 u[15] + 425 u[16]
   + 792 u[17] + 693 u[18] + 302 u[19] + 249 u[20] + 543 u[21] + 424 u[22]
   + 502 u[23] + 152 u[24] + 736 u[25] + 726 u[26] + 959 u[27] + 185 u[28]
   + 479 u[29] + 21 u[30] + 387 u[31] + 311 u[32] + 173 u[33] + 848 u[34]
   + 81 u[35] + 848 u[36] + 780 u[37] + 48 u[38] + 894 u[39] <= 5022
 primal_lower93: 573 u[0] + 54 u[1] + 352 u[2] + 933 u[3] + 730 u[4]
   + 443 u[5] + 651 u[6] + 373 u[7] + 291 u[8] + 772 u[9] + 377 u[10]
   + 469 u[11] + 274 u[12] + 758 u[13] + 522 u[14] + 502 u[15] + 619 u[16]
   + 442 u[17] + 575 u[18] + 648 u[19] + 267 u[20] + 209 u[21] + 234 u[22]
   + 104 u[23] + 578 u[24] + 50 u[25] + 400 u[26] + 641 u[27] + 339 u[28]
   + 681 u[29] + 415 u[30] + 101 u[31] + 929 u[32] + 79 u[33] + 930 u[34]
   + 907 u[35] + 970 u[36] + 270 u[37] + 714 u[38] + 952 u[39] <= 970
 primal_lower94: 48 u[0] + 652 u[1] + 162 u[2] + 955 u[3] + 980 u[4]
   + 754 u[5] + 333 u[6] + 220 u[7] + 213 u[8] + 442 u[9] + 108 u[10]
   + 203 u[11] + 532 u[12] + 772 u[13] + 133 u[14] + 653 u[15] + 245 u[16]
   + 72 u[17] + 81 u[18] + 526 u[19] + 453 u[20] + 696 u[21] + 828 u[22]
   + 287 u[23] + 157 u[24] + 952 u[25] + 714 u[26] + 296 u[27] + 14 u[28]
   + 735 u[29] + 834 u[30] + 452 u[31] + 700 u[32] + 901 u[33] + 324 u[34]
   + 489 u[35] + 572 u[36] + 957 u[37] + 828 u[38] + 127 u[39] <= 4850
 primal_lower95: 267 u[0] + 652 u[1] + 166 u[2] + 683 u[3] + 736 u[4]
   + 257 u[5] + 585 u[6] + 291 u[7] + u[8] + 946 u[9] + 863 u[10]
   + 899 u[11] + 392 u[12] + 628 u[13] + 264 u[14] + 844 u[15] + 993 u[16]
   + 80 u[17] + 341 u[18] + 654 u[19] + 617 u[20] + 143 u[21] + 968 u[22]
   + 358 u[23] + 160 u[24] + 40 u[25] + 182 u[26] + 103 u[27] + 897 u[28]
   + 95 u[29] + 317 u[30] + 315 u[31] + 551 u[32] + 437 u[33] + 896 u[34]
   + 673 u[35] + 488 u[36] + 484 u[37] + 832 u[38] + 414 u[39] <= 4878
 primal_lower96: 165 u[0] + 846 u[1] + 376 u[2] + 69 u[3] + 218 u[4]
   + 923 u[5] + 811 u[6] + 805 u[7] + 579 u[8] + 252 u[9] + 977 u[10]
   + 397 u[11] + 706 u[12] + 806 u[13] + 930 u[14] + 478 u[15] + 315 u[16]
   + 34 u[17] + 39 u[18] + 32 u[19] + 587 u[20] + 817 u[21] + 242 u[22]
   + 288 u[23] + 538 u[24] + 298 u[25] + 312 u[26] + 201 u[27] + 427 u[28]
   + 105 u[29] + 767 u[30] + 221 u[31] + 313 u[32] + 679 u[33] + 146 u[34]
   + 867 u[35] + 282 u[36] + 6 u[37] + 362 u[38] + 296 u[39] <= 4378
 primal_lower97: 363 u[0] + 407 u[1] + 965 u[2] + 702 u[3] + 943 u[4]
   + 509 u[5] + 744 u[6] + 943 u[7] + 736 u[8] + 69 u[9] + 239 u[10]
   + 278 u[11] + 631 u[12] + 79 u[13] + 472 u[14] + 680 u[15] + 256 u[16]
   + 979 u[17] + 140 u[18] + 849 u[19] + 928 u[20] + 427 u[21] + 399 u[22]
   + 66 u[23] + 768 u[24] + 179 u[25] + 725 u[26] + 707 u[27] + 193 u[28]
   + 250 u[29] + 749 u[30] + 223 u[31] + 775 u[32] + 968 u[33] + 759 u[34]
   + 772 u[35] + 775 u[36] + 96 u[37] + 207 u[38] + 634 u[39] <= 979
 primal_lower98: 619 u[0] + 215 u[1] + 829 u[2] + 46 u[3] + 575 u[4]
   + 797 u[5] + 888 u[6] + 231 u[7] + 808 u[8] + 733 u[9] + 439 u[10]
   + 342 u[11] + 327 u[12] + 351 u[13] + 912 u[14] + 640 u[15] + 136 u[16]
   + 955 u[17] + 804 u[18] + 889 u[19] + 720 u[20] + 259 u[21] + 79 u[22]
   + 930 u[23] + 104 u[24] + 475 u[25] + 437 u[26] + 363 u[27] + 41 u[28]
   + 490 u[29] + 389 u[30] + 759 u[31] + 727 u[32] + 776 u[33] + 39 u[34]
   + 652 u[35] + 687 u[36] + 848 u[37] + 623 u[38] + 466 u[39] <= 5350
 primal_lower99: 947 u[0] + 668 u[1] + 342 u[2] + 819 u[3] + 224 u[4]
   + 905 u[5] + 345 u[6] + 259 u[7] + 289 u[8] + 938 u[9] + 991 u[10]
   + 755 u[11] + 912 u[12] + 444 u[13] + 48 u[14] + 476 u[15] + 433 u[16]
   + 552 u[17] + 485 u[18] + 406 u[19] + 265 u[20] + 951 u[21] + 528 u[22]
   + 574 u[23] + 488 u[24] + 488 u[25] + 974 u[26] + 87 u[27] + 217 u[28]
   + 983 u[29] + 869 u[30] + 947 u[31] + 95 u[32] + 581 u[33] + 504 u[34]
   + 849 u[35] + 968 u[36] + 332 u[37] + 856 u[38] + 382 u[39] <= 991
 interdiction[0]: x[0] + u[0] <= 1
 interdiction[1]: x[1] + u[1] <= 1
 interdiction[2]: x[2] + u[2] <= 1
 interdiction[3]: x[3] + u[3] <= 1
 interdiction[4]: x[4] + u[4] <= 1
 interdiction[5]: x[5] + u[5] <= 1
 interdiction[6]: x[6] + u[6] <= 1
 interdiction[7]: x[7] + u[7] <= 1
 interdiction[8]: x[8] + u[8] <= 1
 interdiction[9]: x[9] + u[9] <= 1
 interdiction[10]: x[10] + u[10] <= 1
 interdiction[11]: x[11] + u[11] <= 1
 interdiction[12]: x[12] + u[12] <= 1
 interdiction[13]: x[13] + u[13] <= 1
 interdiction[14]: x[14] + u[14] <= 1
 interdiction[15]: x[15] + u[15] <= 1
 interdiction[16]: x[16] + u[16] <= 1
 interdiction[17]: x[17] + u[17] <= 1
 interdiction[18]: x[18] + u[18] <= 1
 interdiction[19]: x[19] + u[19] <= 1
 interdiction[20]: x[20] + u[20] <= 1
 interdiction[21]: x[21] + u[21] <= 1
 interdiction[22]: x[22] + u[22] <= 1
 interdiction[23]: x[23] + u[23] <= 1
 interdiction[24]: x[24] + u[24] <= 1
 interdiction[25]: x[25] + u[25] <= 1
 interdiction[26]: x[26] + u[26] <= 1
 interdiction[27]: x[27] + u[27] <= 1
 interdiction[28]: x[28] + u[28] <= 1
 interdiction[29]: x[29] + u[29] <= 1
 interdiction[30]: x[30] + u[30] <= 1
 interdiction[31]: x[31] + u[31] <= 1
 interdiction[32]: x[32] + u[32] <= 1
 interdiction[33]: x[33] + u[33] <= 1
 interdiction[34]: x[34] + u[34] <= 1
 interdiction[35]: x[35] + u[35] <= 1
 interdiction[36]: x[36] + u[36] <= 1
 interdiction[37]: x[37] + u[37] <= 1
 interdiction[38]: x[38] + u[38] <= 1
 interdiction[39]: x[39] + u[39] <= 1
 mccormick1[0]: - u[0] + z[0] <= 0
 mccormick1[1]: - u[1] + z[1] <= 0
 mccormick1[2]: - u[2] + z[2] <= 0
 mccormick1[3]: - u[3] + z[3] <= 0
 mccormick1[4]: - u[4] + z[4] <= 0
 mccormick1[5]: - u[5] + z[5] <= 0
 mccormick1[6]: - u[6] + z[6] <= 0
 mccormick1[7]: - u[7] + z[7] <= 0
 mccormick1[8]: - u[8] + z[8] <= 0
 mccormick1[9]: - u[9] + z[9] <= 0
 mccormick1[10]: - u[10] + z[10] <= 0
 mccormick1[11]: - u[11] + z[11] <= 0
 mccormick1[12]: - u[12] + z[12] <= 0
 mccormick1[13]: - u[13] + z[13] <= 0
 mccormick1[14]: - u[14] + z[14] <= 0
 mccormick1[15]: - u[15] + z[15] <= 0
 mccormick1[16]: - u[16] + z[16] <= 0
 mccormick1[17]: - u[17] + z[17] <= 0
 mccormick1[18]: - u[18] + z[18] <= 0
 mccormick1[19]: - u[19] + z[19] <= 0
 mccormick1[20]: - u[20] + z[20] <= 0
 mccormick1[21]: - u[21] + z[21] <= 0
 mccormick1[22]: - u[22] + z[22] <= 0
 mccormick1[23]: - u[23] + z[23] <= 0
 mccormick1[24]: - u[24] + z[24] <= 0
 mccormick1[25]: - u[25] + z[25] <= 0
 mccormick1[26]: - u[26] + z[26] <= 0
 mccormick1[27]: - u[27] + z[27] <= 0
 mccormick1[28]: - u[28] + z[28] <= 0
 mccormick1[29]: - u[29] + z[29] <= 0
 mccormick1[30]: - u[30] + z[30] <= 0
 mccormick1[31]: - u[31] + z[31] <= 0
 mccormick1[32]: - u[32] + z[32] <= 0
 mccormick1[33]: - u[33] + z[33] <= 0
 mccormick1[34]: - u[34] + z[34] <= 0
 mccormick1[35]: - u[35] + z[35] <= 0
 mccormick1[36]: - u[36] + z[36] <= 0
 mccormick1[37]: - u[37] + z[37] <= 0
 mccormick1[38]: - u[38] + z[38] <= 0
 mccormick1[39]: - u[39] + z[39] <= 0
 mccormick2[0]: - y[0] + z[0] <= 0
 mccormick2[1]: - y[1] + z[1] <= 0
 mccormick2[2]: - y[2] + z[2] <= 0
 mccormick2[3]: - y[3] + z[3] <= 0
 mccormick2[4]: - y[4] + z[4] <= 0
 mccormick2[5]: - y[5] + z[5] <= 0
 mccormick2[6]: - y[6] + z[6] <= 0
 mccormick2[7]: - y[7] + z[7] <= 0
 mccormick2[8]: - y[8] + z[8] <= 0
 mccormick2[9]: - y[9] + z[9] <= 0
 mccormick2[10]: - y[10] + z[10] <= 0
 mccormick2[11]: - y[11] + z[11] <= 0
 mccormick2[12]: - y[12] + z[12] <= 0
 mccormick2[13]: - y[13] + z[13] <= 0
 mccormick2[14]: - y[14] + z[14] <= 0
 mccormick2[15]: - y[15] + z[15] <= 0
 mccormick2[16]: - y[16] + z[16] <= 0
 mccormick2[17]: - y[17] + z[17] <= 0
 mccormick2[18]: - y[18] + z[18] <= 0
 mccormick2[19]: - y[19] + z[19] <= 0
 mccormick2[20]: - y[20] + z[20] <= 0
 mccormick2[21]: - y[21] + z[21] <= 0
 mccormick2[22]: - y[22] + z[22] <= 0
 mccormick2[23]: - y[23] + z[23] <= 0
 mccormick2[24]: - y[24] + z[24] <= 0
 mccormick2[25]: - y[25] + z[25] <= 0
 mccormick2[26]: - y[26] + z[26] <= 0
 mccormick2[27]: - y[27] + z[27] <= 0
 mccormick2[28]: - y[28] + z[28] <= 0
 mccormick2[29]: - y[29] + z[29] <= 0
 mccormick2[30]: - y[30] + z[30] <= 0
 mccormick2[31]: - y[31] + z[31] <= 0
 mccormick2[32]: - y[32] + z[32] <= 0
 mccormick2[33]: - y[33] + z[33] <= 0
 mccormick2[34]: - y[34] + z[34] <= 0
 mccormick2[35]: - y[35] + z[35] <= 0
 mccormick2[36]: - y[36] + z[36] <= 0
 mccormick2[37]: - y[37] + z[37] <= 0
 mccormick2[38]: - y[38] + z[38] <= 0
 mccormick2[39]: - y[39] + z[39] <= 0
 mccormick3[0]: y[0] + u[0] - z[0] <= 1
 mccormick3[1]: y[1] + u[1] - z[1] <= 1
 mccormick3[2]: y[2] + u[2] - z[2] <= 1
 mccormick3[3]: y[3] + u[3] - z[3] <= 1
 mccormick3[4]: y[4] + u[4] - z[4] <= 1
 mccormick3[5]: y[5] + u[5] - z[5] <= 1
 mccormick3[6]: y[6] + u[6] - z[6] <= 1
 mccormick3[7]: y[7] + u[7] - z[7] <= 1
 mccormick3[8]: y[8] + u[8] - z[8] <= 1
 mccormick3[9]: y[9] + u[9] - z[9] <= 1
 mccormick3[10]: y[10] + u[10] - z[10] <= 1
 mccormick3[11]: y[11] + u[11] - z[11] <= 1
 mccormick3[12]: y[12] + u[12] - z[12] <= 1
 mccormick3[13]: y[13] + u[13] - z[13] <= 1
 mccormick3[14]: y[14] + u[14] - z[14] <= 1
 mccormick3[15]: y[15] + u[15] - z[15] <= 1
 mccormick3[16]: y[16] + u[16] - z[16] <= 1
 mccormick3[17]: y[17] + u[17] - z[17] <= 1
 mccormick3[18]: y[18] + u[18] - z[18] <= 1
 mccormick3[19]: y[19] + u[19] - z[19] <= 1
 mccormick3[20]: y[20] + u[20] - z[20] <= 1
 mccormick3[21]: y[21] + u[21] - z[21] <= 1
 mccormick3[22]: y[22] + u[22] - z[22] <= 1
 mccormick3[23]: y[23] + u[23] - z[23] <= 1
 mccormick3[24]: y[24] + u[24] - z[24] <= 1
 mccormick3[25]: y[25] + u[25] - z[25] <= 1
 mccormick3[26]: y[26] + u[26] - z[26] <= 1
 mccormick3[27]: y[27] + u[27] - z[27] <= 1
 mccormick3[28]: y[28] + u[28] - z[28] <= 1
 mccormick3[29]: y[29] + u[29] - z[29] <= 1
 mccormick3[30]: y[30] + u[30] - z[30] <= 1
 mccormick3[31]: y[31] + u[31] - z[31] <= 1
 mccormick3[32]: y[32] + u[32] - z[32] <= 1
 mccormick3[33]: y[33] + u[33] - z[33] <= 1
 mccormick3[34]: y[34] + u[34] - z[34] <= 1
 mccormick3[35]: y[35] + u[35] - z[35] <= 1
 mccormick3[36]: y[36] + u[36] - z[36] <= 1
 mccormick3[37]: y[37] + u[37] - z[37] <= 1
 mccormick3[38]: y[38] + u[38] - z[38] <= 1
 mccormick3[39]: y[39] + u[39] - z[39] <= 1
Bounds
Binaries
 x[0] x[1] x[2] x[3] x[4] x[5] x[6] x[7] x[8] x[9] x[10] x[11] x[12] x[13]
 x[14] x[15] x[16] x[17] x[18] x[19] x[20] x[21] x[22] x[23] x[24] x[25]
 x[26] x[27] x[28] x[29] x[30] x[31] x[32] x[33] x[34] x[35] x[36] x[37]
 x[38] x[39] y[0] y[1] y[2] y[3] y[4] y[5] y[6] y[7] y[8] y[9] y[10] y[11]
 y[12] y[13] y[14] y[15] y[16] y[17] y[18] y[19] y[20] y[21] y[22] y[23]
 y[24] y[25] y[26] y[27] y[28] y[29] y[30] y[31] y[32] y[33] y[34] y[35]
 y[36] y[37] y[38] y[39] u[0] u[1] u[2] u[3] u[4] u[5] u[6] u[7] u[8] u[9]
 u[10] u[11] u[12] u[13] u[14] u[15] u[16] u[17] u[18] u[19] u[20] u[21]
 u[22] u[23] u[24] u[25] u[26] u[27] u[28] u[29] u[30] u[31] u[32] u[33]
 u[34] u[35] u[36] u[37] u[38] u[39] z[0] z[1] z[2] z[3] z[4] z[5] z[6]
 z[7] z[8] z[9] z[10] z[11] z[12] z[13] z[14] z[15] z[16] z[17] z[18] z[19]
 z[20] z[21] z[22] z[23] z[24] z[25] z[26] z[27] z[28] z[29] z[30] z[31]
 z[32] z[33] z[34] z[35] z[36] z[37] z[38] z[39]
End
