\ Model knapsack_80_10_5
\ LP format - for model browsing. Use MPS format to capture full model detail.
\ Signature: 0x21f373f8b7b848c
Minimize
  10 x[0] + 10 x[1] + 10 x[2] + 10 x[3] + 10 x[4] + 10 x[5] + 10 x[6]
   + 10 x[7] + 10 x[8] + 10 x[9] + 10 x[10] + 10 x[11] + 10 x[12]
   + 10 x[13] + 10 x[14] + 10 x[15] + 10 x[16] + 10 x[17] + 10 x[18]
   + 10 x[19] + 10 x[20] + 10 x[21] + 10 x[22] + 10 x[23] + 10 x[24]
   + 10 x[25] + 10 x[26] + 10 x[27] + 10 x[28] + 10 x[29] + 10 x[30]
   + 10 x[31] + 10 x[32] + 10 x[33] + 10 x[34] + 10 x[35] + 10 x[36]
   + 10 x[37] + 10 x[38] + 10 x[39] + 10 x[40] + 10 x[41] + 10 x[42]
   + 10 x[43] + 10 x[44] + 10 x[45] + 10 x[46] + 10 x[47] + 10 x[48]
   + 10 x[49] + 10 x[50] + 10 x[51] + 10 x[52] + 10 x[53] + 10 x[54]
   + 10 x[55] + 10 x[56] + 10 x[57] + 10 x[58] + 10 x[59] + 10 x[60]
   + 10 x[61] + 10 x[62] + 10 x[63] + 10 x[64] + 10 x[65] + 10 x[66]
   + 10 x[67] + 10 x[68] + 10 x[69] + 10 x[70] + 10 x[71] + 10 x[72]
   + 10 x[73] + 10 x[74] + 10 x[75] + 10 x[76] + 10 x[77] + 10 x[78]
   + 10 x[79] - 751 y[0] - 875 y[1] - 321 y[2] - 865 y[3] - 154 y[4]
   - 166 y[5] - 490 y[6] - 480 y[7] - 87 y[8] - 711 y[9] - 24 y[10]
   - 912 y[11] - 604 y[12] - 111 y[13] - 8 y[14] - 449 y[15] - 503 y[16]
   - 903 y[17] - 555 y[18] - 214 y[19] - 370 y[20] - 796 y[21] - 565 y[22]
   - 13 y[23] - 626 y[24] - 483 y[25] - 281 y[26] - 92 y[27] - 643 y[28]
   - 693 y[29] - 670 y[30] - 605 y[31] - 117 y[32] - 172 y[33] - 636 y[34]
   - 706 y[35] - 338 y[36] - 908 y[37] - 975 y[38] - 304 y[39] - 357 y[40]
   - 674 y[41] - 986 y[42] - 536 y[43] - 947 y[44] - 872 y[45] - 269 y[46]
   - 113 y[47] - 925 y[48] - 830 y[49] - 800 y[50] - 679 y[51] - 732 y[52]
   - 170 y[53] - 517 y[54] - 911 y[55] - 819 y[56] - 657 y[57] - 505 y[58]
   - 1000 y[59] - 457 y[60] - 843 y[61] - 922 y[62] - 514 y[63] - 651 y[64]
   - 570 y[65] - 546 y[66] - 282 y[67] - 653 y[68] - 706 y[69] - 746 y[70]
   - 116 y[71] - 394 y[72] - 82 y[73] - 655 y[74] - 103 y[75] - 135 y[76]
   - 586 y[77] - 641 y[78] - 636 y[79]
Subject To
 primal_upper: 258 y[0] + 499 y[1] + 389 y[2] + 890 y[3] + 287 y[4]
   + 72 y[5] + 936 y[6] + 714 y[7] + 72 y[8] + 289 y[9] + 246 y[10]
   + 834 y[11] + 895 y[12] + 523 y[13] + 151 y[14] + 59 y[15] + 408 y[16]
   + 103 y[17] + 844 y[18] + 461 y[19] + 760 y[20] + 366 y[21] + 959 y[22]
   + 509 y[23] + 519 y[24] + 559 y[25] + 709 y[26] + 134 y[27] + 944 y[28]
   + 142 y[29] + 916 y[30] + 210 y[31] + 598 y[32] + 252 y[33] + 399 y[34]
   + 144 y[35] + 575 y[36] + 739 y[37] + 71 y[38] + 69 y[39] + 98 y[40]
   + 568 y[41] + 801 y[42] + 604 y[43] + 642 y[44] + 889 y[45] + 636 y[46]
   + 712 y[47] + 130 y[48] + 135 y[49] + 41 y[50] + 511 y[51] + 960 y[52]
   + 483 y[53] + 11 y[54] + 422 y[55] + 460 y[56] + 305 y[57] + 55 y[58]
   + 193 y[59] + 887 y[60] + 593 y[61] + 58 y[62] + 161 y[63] + 622 y[64]
   + 371 y[65] + 351 y[66] + 677 y[67] + 63 y[68] + 216 y[69] + 952 y[70]
   + 396 y[71] + 833 y[72] + 190 y[73] + 674 y[74] + 119 y[75] + 365 y[76]
   + 658 y[77] + 971 y[78] + 209 y[79] + 26 z[0] + 50 z[1] + 39 z[2]
   + 89 z[3] + 29 z[4] + 7 z[5] + 94 z[6] + 71 z[7] + 7 z[8] + 29 z[9]
   + 25 z[10] + 83 z[11] + 90 z[12] + 52 z[13] + 15 z[14] + 6 z[15]
   + 41 z[16] + 10 z[17] + 84 z[18] + 46 z[19] + 76 z[20] + 37 z[21]
   + 96 z[22] + 51 z[23] + 52 z[24] + 56 z[25] + 71 z[26] + 13 z[27]
   + 94 z[28] + 14 z[29] + 92 z[30] + 21 z[31] + 60 z[32] + 25 z[33]
   + 40 z[34] + 14 z[35] + 58 z[36] + 74 z[37] + 7 z[38] + 7 z[39]
   + 10 z[40] + 57 z[41] + 80 z[42] + 60 z[43] + 64 z[44] + 89 z[45]
   + 64 z[46] + 71 z[47] + 13 z[48] + 14 z[49] + 4 z[50] + 51 z[51]
   + 96 z[52] + 48 z[53] + z[54] + 42 z[55] + 46 z[56] + 30 z[57] + 6 z[58]
   + 19 z[59] + 89 z[60] + 59 z[61] + 6 z[62] + 16 z[63] + 62 z[64]
   + 37 z[65] + 35 z[66] + 68 z[67] + 6 z[68] + 22 z[69] + 95 z[70]
   + 40 z[71] + 83 z[72] + 19 z[73] + 67 z[74] + 12 z[75] + 36 z[76]
   + 66 z[77] + 97 z[78] + 21 z[79] <= 6087
 primal_lower0: 572 u[0] + 685 u[1] + 431 u[2] + 420 u[3] + 25 u[4]
   + 658 u[5] + 442 u[6] + 684 u[7] + 850 u[8] + 739 u[9] + 208 u[10]
   + 428 u[11] + 385 u[12] + 5 u[13] + 257 u[14] + 677 u[15] + 922 u[16]
   + 721 u[17] + 726 u[18] + 95 u[19] + 866 u[20] + 696 u[21] + 969 u[22]
   + 343 u[23] + 577 u[24] + 737 u[25] + 183 u[26] + 816 u[27] + 682 u[28]
   + 840 u[29] + 454 u[30] + 436 u[31] + 240 u[32] + 62 u[33] + 961 u[34]
   + 466 u[35] + 105 u[36] + 781 u[37] + 161 u[38] + 151 u[39] + 284 u[40]
   + 770 u[41] + 547 u[42] + 926 u[43] + 412 u[44] + 563 u[45] + 110 u[46]
   + 266 u[47] + 588 u[48] + 353 u[49] + 867 u[50] + 457 u[51] + 258 u[52]
   + 725 u[53] + 477 u[54] + 152 u[55] + 246 u[56] + 811 u[57] + 905 u[58]
   + 547 u[59] + 153 u[60] + 75 u[61] + 124 u[62] + 779 u[63] + 64 u[64]
   + 181 u[65] + 217 u[66] + 327 u[67] + 665 u[68] + 346 u[69] + 434 u[70]
   + 934 u[71] + 251 u[72] + 336 u[73] + 540 u[74] + 97 u[75] + 127 u[76]
   + 332 u[77] + 669 u[78] + 763 u[79] <= 25422
 primal_lower1: 380 u[0] + 541 u[1] + 463 u[2] + 764 u[3] + 761 u[4]
   + 242 u[5] + 778 u[6] + 620 u[7] + 74 u[8] + 27 u[9] + 896 u[10]
   + 204 u[11] + 873 u[12] + 797 u[13] + 265 u[14] + 349 u[15] + 586 u[16]
   + 313 u[17] + 270 u[18] + 7 u[19] + 778 u[20] + 8 u[21] + 945 u[22]
   + 695 u[23] + 25 u[24] + u[25] + 287 u[26] + 16 u[27] + 18 u[28]
   + 360 u[29] + 166 u[30] + 836 u[31] + 296 u[32] + 134 u[33] + 793 u[34]
   + 26 u[35] + 209 u[36] + 109 u[37] + 857 u[38] + 583 u[39] + 996 u[40]
   + 98 u[41] + 475 u[42] + 622 u[43] + 908 u[44] + 691 u[45] + 774 u[46]
   + 906 u[47] + 956 u[48] + 521 u[49] + 547 u[50] + 913 u[51] + 994 u[52]
   + 221 u[53] + 885 u[54] + 88 u[55] + 238 u[56] + 875 u[57] + 881 u[58]
   + 867 u[59] + 841 u[60] + 363 u[61] + 652 u[62] + 579 u[63] + 248 u[64]
   + 949 u[65] + 833 u[66] + 391 u[67] + 409 u[68] + 650 u[69] + 74 u[70]
   + 758 u[71] + 155 u[72] + 776 u[73] + 876 u[74] + 601 u[75] + 423 u[76]
   + 332 u[77] + 365 u[78] + 75 u[79] <= 13386
 primal_lower2: 930 u[0] + 955 u[1] + 373 u[2] + 994 u[3] + 31 u[4]
   + 176 u[5] + 384 u[6] + 978 u[7] + 512 u[8] + 673 u[9] + 70 u[10]
   + 666 u[11] + 439 u[12] + 107 u[13] + 735 u[14] + 611 u[15] + 776 u[16]
   + 199 u[17] + 644 u[18] + 653 u[19] + 296 u[20] + 966 u[21] + 991 u[22]
   + 741 u[23] + 423 u[24] + 655 u[25] + 485 u[26] + 854 u[27] + 8 u[28]
   + 566 u[29] + 524 u[30] + 874 u[31] + 790 u[32] + 332 u[33] + 751 u[34]
   + 472 u[35] + 103 u[36] + 579 u[37] + 399 u[38] + 861 u[39] + 274 u[40]
   + 568 u[41] + 873 u[42] + 596 u[43] + 402 u[44] + 209 u[45] + 756 u[46]
   + 912 u[47] + 890 u[48] + 903 u[49] + 305 u[50] + 735 u[51] + 232 u[52]
   + 283 u[53] + 883 u[54] + 406 u[55] + 620 u[56] + 761 u[57] + 511 u[58]
   + 161 u[59] + 87 u[60] + 833 u[61] + 978 u[62] + 625 u[63] + 894 u[64]
   + 675 u[65] + 535 u[66] + 453 u[67] + 375 u[68] + 24 u[69] + 16 u[70]
   + 820 u[71] + 713 u[72] + 550 u[73] + 594 u[74] + 111 u[75] + 765 u[76]
   + 554 u[77] + 947 u[78] + 857 u[79] <= 994
 primal_lower3: 502 u[0] + 338 u[1] + 896 u[2] + 433 u[3] + 762 u[4]
   + 776 u[5] + 275 u[6] + 122 u[7] + 595 u[8] + 848 u[9] + 946 u[10]
   + 977 u[11] + 978 u[12] + 162 u[13] + 307 u[14] + 739 u[15] + 67 u[16]
   + 702 u[17] + 679 u[18] + 444 u[19] + 11 u[20] + 6 u[21] + 650 u[22]
   + 141 u[23] + 699 u[24] + 262 u[25] + 648 u[26] + 62 u[27] + 68 u[28]
   + 301 u[29] + 264 u[30] + 882 u[31] + 362 u[32] + 931 u[33] + 322 u[34]
   + 895 u[35] + 234 u[36] + 523 u[37] + 674 u[38] + 669 u[39] + 853 u[40]
   + 984 u[41] + 620 u[42] + 300 u[43] + 437 u[44] + 473 u[45] + 368 u[46]
   + 368 u[47] + 957 u[48] + 702 u[49] + 909 u[50] + 166 u[51] + 547 u[52]
   + 474 u[53] + 567 u[54] + 230 u[55] + 135 u[56] + 41 u[57] + 266 u[58]
   + 800 u[59] + 123 u[60] + 993 u[61] + 854 u[62] + 817 u[63] + 778 u[64]
   + 658 u[65] + 555 u[66] + 597 u[67] + 354 u[68] + 608 u[69] + 364 u[70]
   + 444 u[71] + 852 u[72] + 453 u[73] + 382 u[74] + 511 u[75] + 177 u[76]
   + 657 u[77] + 959 u[78] + 361 u[79] <= 27897
 primal_lower4: 640 u[0] + 916 u[1] + 434 u[2] + 403 u[3] + 556 u[4]
   + 754 u[5] + 461 u[6] + 676 u[7] + 533 u[8] + 802 u[9] + 820 u[10]
   + 491 u[11] + 476 u[12] + 900 u[13] + 829 u[14] + 93 u[15] + 461 u[16]
   + 136 u[17] + 649 u[18] + 542 u[19] + 237 u[20] + 440 u[21] + 876 u[22]
   + 407 u[23] + 517 u[24] + 368 u[25] + 610 u[26] + 792 u[27] + 102 u[28]
   + 639 u[29] + 10 u[30] + 380 u[31] + 652 u[32] + 173 u[33] + 996 u[34]
   + 433 u[35] + 476 u[36] + 301 u[37] + 620 u[38] + 231 u[39] + 31 u[40]
   + 874 u[41] + 406 u[42] + 934 u[43] + 39 u[44] + 611 u[45] + 34 u[46]
   + 530 u[47] + 919 u[48] + 424 u[49] + 503 u[50] + 200 u[51] + 933 u[52]
   + 860 u[53] + 993 u[54] + 504 u[55] + 841 u[56] + 59 u[57] + 436 u[58]
   + 26 u[59] + 469 u[60] + 355 u[61] + 600 u[62] + 203 u[63] + 36 u[64]
   + 932 u[65] + 981 u[66] + 671 u[67] + 268 u[68] + 234 u[69] + 486 u[70]
   + 686 u[71] + 70 u[72] + 711 u[73] + 552 u[74] + 273 u[75] + 611 u[76]
   + 331 u[77] + 9 u[78] + 923 u[79] <= 6731
 primal_lower5: 621 u[0] + 574 u[1] + 768 u[2] + 749 u[3] + 866 u[4]
   + 51 u[5] + 107 u[6] + 181 u[7] + 907 u[8] + 396 u[9] + 129 u[10]
   + 813 u[11] + 266 u[12] + 998 u[13] + 674 u[14] + 358 u[15] + 875 u[16]
   + 602 u[17] + 111 u[18] + 720 u[19] + 899 u[20] + 609 u[21] + 202 u[22]
   + 920 u[23] + 674 u[24] + 946 u[25] + 320 u[26] + 833 u[27] + 987 u[28]
   + 817 u[29] + 247 u[30] + 709 u[31] + 81 u[32] + 823 u[33] + 642 u[34]
   + 411 u[35] + 306 u[36] + 886 u[37] + 354 u[38] + 824 u[39] + 285 u[40]
   + 723 u[41] + 452 u[42] + 567 u[43] + 933 u[44] + 740 u[45] + 695 u[46]
   + 251 u[47] + 421 u[48] + 386 u[49] + 764 u[50] + 178 u[51] + 243 u[52]
   + 998 u[53] + 294 u[54] + 809 u[55] + 623 u[56] + 684 u[57] + 74 u[58]
   + 620 u[59] + 410 u[60] + 612 u[61] + 557 u[62] + 300 u[63] + 513 u[64]
   + 366 u[65] + 610 u[66] + 120 u[67] + 850 u[68] + 459 u[69] + 307 u[70]
   + 199 u[71] + 748 u[72] + 689 u[73] + 541 u[74] + 194 u[75] + 640 u[76]
   + 357 u[77] + 598 u[78] + 748 u[79] <= 21907
 primal_lower6: 556 u[0] + 261 u[1] + 975 u[2] + 308 u[3] + 969 u[4]
   + 578 u[5] + 34 u[6] + 132 u[7] + 786 u[8] + 771 u[9] + 344 u[10]
   + 460 u[11] + 201 u[12] + 221 u[13] + 889 u[14] + 757 u[15] + 242 u[16]
   + 377 u[17] + 150 u[18] + 399 u[19] + 186 u[20] + 168 u[21] + 953 u[22]
   + 519 u[23] + 857 u[24] + 785 u[25] + 247 u[26] + 568 u[27] + 106 u[28]
   + 760 u[29] + 470 u[30] + 292 u[31] + 800 u[32] + 590 u[33] + 433 u[34]
   + 258 u[35] + 321 u[36] + 901 u[37] + 849 u[38] + 487 u[39] + 364 u[40]
   + 714 u[41] + 507 u[42] + 878 u[43] + 844 u[44] + 3 u[45] + 630 u[46]
   + 594 u[47] + 612 u[48] + 833 u[49] + 579 u[50] + 337 u[51] + 866 u[52]
   + 781 u[53] + 613 u[54] + 136 u[55] + 206 u[56] + 275 u[57] + 737 u[58]
   + 555 u[59] + 417 u[60] + 603 u[61] + 900 u[62] + 451 u[63] + 168 u[64]
   + 149 u[65] + 73 u[66] + 719 u[67] + 313 u[68] + 538 u[69] + 242 u[70]
   + 998 u[71] + 411 u[72] + 712 u[73] + 788 u[74] + 545 u[75] + 599 u[76]
   + 412 u[77] + 165 u[78] + 107 u[79] <= 13444
 primal_lower7: 411 u[0] + 92 u[1] + 758 u[2] + 59 u[3] + 552 u[4]
   + 777 u[5] + 705 u[6] + 747 u[7] + 673 u[8] + 2 u[9] + 143 u[10]
   + 931 u[11] + 696 u[12] + 788 u[13] + 712 u[14] + 876 u[15] + 617 u[16]
   + 304 u[17] + 845 u[18] + 454 u[19] + 401 u[20] + 999 u[21] + 968 u[22]
   + 366 u[23] + 112 u[24] + 280 u[25] + 366 u[26] + 367 u[27] + 481 u[28]
   + 63 u[29] + 77 u[30] + 723 u[31] + 727 u[32] + 541 u[33] + 760 u[34]
   + 409 u[35] + 248 u[36] + 4 u[37] + 976 u[38] + 22 u[39] + 587 u[40]
   + 913 u[41] + 26 u[42] + 317 u[43] + 875 u[44] + 874 u[45] + 629 u[46]
   + 865 u[47] + 531 u[48] + 504 u[49] + 810 u[50] + 40 u[51] + 105 u[52]
   + 124 u[53] + 700 u[54] + 47 u[55] + 637 u[56] + 906 u[57] + 280 u[58]
   + 826 u[59] + 784 u[60] + 762 u[61] + 523 u[62] + 498 u[63] + 119 u[64]
   + 564 u[65] + 328 u[66] + 270 u[67] + 376 u[68] + 297 u[69] + 993 u[70]
   + 765 u[71] + 226 u[72] + 919 u[73] + 507 u[74] + 800 u[75] + 110 u[76]
   + 667 u[77] + 140 u[78] + 290 u[79] <= 6761
 primal_lower8: 583 u[0] + 480 u[1] + 922 u[2] + 495 u[3] + 828 u[4]
   + 781 u[5] + 373 u[6] + 807 u[7] + 605 u[8] + 326 u[9] + 523 u[10]
   + 799 u[11] + 20 u[12] + 200 u[13] + 436 u[14] + 304 u[15] + 709 u[16]
   + 996 u[17] + 673 u[18] + 842 u[19] + 485 u[20] + 75 u[21] + 332 u[22]
   + 10 u[23] + 484 u[24] + 76 u[25] + 362 u[26] + 587 u[27] + 917 u[28]
   + 35 u[29] + 985 u[30] + 631 u[31] + 163 u[32] + 745 u[33] + 764 u[34]
   + 557 u[35] + 316 u[36] + 48 u[37] + 588 u[38] + 442 u[39] + 279 u[40]
   + 245 u[41] + 582 u[42] + 985 u[43] + 335 u[44] + 46 u[45] + 897 u[46]
   + 45 u[47] + 775 u[48] + 364 u[49] + 214 u[50] + 292 u[51] + 501 u[52]
   + 688 u[53] + 432 u[54] + 243 u[55] + 713 u[56] + 638 u[57] + 108 u[58]
   + 662 u[59] + 652 u[60] + 150 u[61] + 279 u[62] + 646 u[63] + 67 u[64]
   + 264 u[65] + 268 u[66] + 930 u[67] + 428 u[68] + 173 u[69] + 61 u[70]
   + 457 u[71] + 622 u[72] + 3 u[73] + 183 u[74] + 700 u[75] + 986 u[76]
   + 487 u[77] + 184 u[78] + 326 u[79] <= 18607
 primal_lower9: 797 u[0] + 489 u[1] + 143 u[2] + 696 u[3] + 617 u[4]
   + 519 u[5] + 890 u[6] + 817 u[7] + 266 u[8] + 463 u[9] + 369 u[10]
   + 752 u[11] + 889 u[12] + 545 u[13] + 458 u[14] + 938 u[15] + 602 u[16]
   + 93 u[17] + 150 u[18] + 547 u[19] + 402 u[20] + 469 u[21] + 849 u[22]
   + 940 u[23] + 874 u[24] + 789 u[25] + 95 u[26] + 61 u[27] + 51 u[28]
   + 980 u[29] + 559 u[30] + 161 u[31] + 9 u[32] + 42 u[33] + 505 u[34]
   + 238 u[35] + 241 u[36] + 274 u[37] + 513 u[38] + 780 u[39] + 4 u[40]
   + 943 u[41] + 971 u[42] + 979 u[43] + 804 u[44] + 632 u[45] + 319 u[46]
   + 855 u[47] + 140 u[48] + 901 u[49] + 956 u[50] + 709 u[51] + 18 u[52]
   + 425 u[53] + 886 u[54] + 629 u[55] + 654 u[56] + 424 u[57] + 673 u[58]
   + 847 u[59] + 834 u[60] + 696 u[61] + 493 u[62] + 504 u[63] + 801 u[64]
   + 433 u[65] + 490 u[66] + 604 u[67] + 345 u[68] + 679 u[69] + 27 u[70]
   + 851 u[71] + 3 u[72] + 644 u[73] + 981 u[74] + 334 u[75] + 840 u[76]
   + 320 u[77] + 982 u[78] + 104 u[79] <= 29070
 interdiction[0]: x[0] + u[0] <= 1
 interdiction[1]: x[1] + u[1] <= 1
 interdiction[2]: x[2] + u[2] <= 1
 interdiction[3]: x[3] + u[3] <= 1
 interdiction[4]: x[4] + u[4] <= 1
 interdiction[5]: x[5] + u[5] <= 1
 interdiction[6]: x[6] + u[6] <= 1
 interdiction[7]: x[7] + u[7] <= 1
 interdiction[8]: x[8] + u[8] <= 1
 interdiction[9]: x[9] + u[9] <= 1
 interdiction[10]: x[10] + u[10] <= 1
 interdiction[11]: x[11] + u[11] <= 1
 interdiction[12]: x[12] + u[12] <= 1
 interdiction[13]: x[13] + u[13] <= 1
 interdiction[14]: x[14] + u[14] <= 1
 interdiction[15]: x[15] + u[15] <= 1
 interdiction[16]: x[16] + u[16] <= 1
 interdiction[17]: x[17] + u[17] <= 1
 interdiction[18]: x[18] + u[18] <= 1
 interdiction[19]: x[19] + u[19] <= 1
 interdiction[20]: x[20] + u[20] <= 1
 interdiction[21]: x[21] + u[21] <= 1
 interdiction[22]: x[22] + u[22] <= 1
 interdiction[23]: x[23] + u[23] <= 1
 interdiction[24]: x[24] + u[24] <= 1
 interdiction[25]: x[25] + u[25] <= 1
 interdiction[26]: x[26] + u[26] <= 1
 interdiction[27]: x[27] + u[27] <= 1
 interdiction[28]: x[28] + u[28] <= 1
 interdiction[29]: x[29] + u[29] <= 1
 interdiction[30]: x[30] + u[30] <= 1
 interdiction[31]: x[31] + u[31] <= 1
 interdiction[32]: x[32] + u[32] <= 1
 interdiction[33]: x[33] + u[33] <= 1
 interdiction[34]: x[34] + u[34] <= 1
 interdiction[35]: x[35] + u[35] <= 1
 interdiction[36]: x[36] + u[36] <= 1
 interdiction[37]: x[37] + u[37] <= 1
 interdiction[38]: x[38] + u[38] <= 1
 interdiction[39]: x[39] + u[39] <= 1
 interdiction[40]: x[40] + u[40] <= 1
 interdiction[41]: x[41] + u[41] <= 1
 interdiction[42]: x[42] + u[42] <= 1
 interdiction[43]: x[43] + u[43] <= 1
 interdiction[44]: x[44] + u[44] <= 1
 interdiction[45]: x[45] + u[45] <= 1
 interdiction[46]: x[46] + u[46] <= 1
 interdiction[47]: x[47] + u[47] <= 1
 interdiction[48]: x[48] + u[48] <= 1
 interdiction[49]: x[49] + u[49] <= 1
 interdiction[50]: x[50] + u[50] <= 1
 interdiction[51]: x[51] + u[51] <= 1
 interdiction[52]: x[52] + u[52] <= 1
 interdiction[53]: x[53] + u[53] <= 1
 interdiction[54]: x[54] + u[54] <= 1
 interdiction[55]: x[55] + u[55] <= 1
 interdiction[56]: x[56] + u[56] <= 1
 interdiction[57]: x[57] + u[57] <= 1
 interdiction[58]: x[58] + u[58] <= 1
 interdiction[59]: x[59] + u[59] <= 1
 interdiction[60]: x[60] + u[60] <= 1
 interdiction[61]: x[61] + u[61] <= 1
 interdiction[62]: x[62] + u[62] <= 1
 interdiction[63]: x[63] + u[63] <= 1
 interdiction[64]: x[64] + u[64] <= 1
 interdiction[65]: x[65] + u[65] <= 1
 interdiction[66]: x[66] + u[66] <= 1
 interdiction[67]: x[67] + u[67] <= 1
 interdiction[68]: x[68] + u[68] <= 1
 interdiction[69]: x[69] + u[69] <= 1
 interdiction[70]: x[70] + u[70] <= 1
 interdiction[71]: x[71] + u[71] <= 1
 interdiction[72]: x[72] + u[72] <= 1
 interdiction[73]: x[73] + u[73] <= 1
 interdiction[74]: x[74] + u[74] <= 1
 interdiction[75]: x[75] + u[75] <= 1
 interdiction[76]: x[76] + u[76] <= 1
 interdiction[77]: x[77] + u[77] <= 1
 interdiction[78]: x[78] + u[78] <= 1
 interdiction[79]: x[79] + u[79] <= 1
 mccormick1[0]: - u[0] + z[0] <= 0
 mccormick1[1]: - u[1] + z[1] <= 0
 mccormick1[2]: - u[2] + z[2] <= 0
 mccormick1[3]: - u[3] + z[3] <= 0
 mccormick1[4]: - u[4] + z[4] <= 0
 mccormick1[5]: - u[5] + z[5] <= 0
 mccormick1[6]: - u[6] + z[6] <= 0
 mccormick1[7]: - u[7] + z[7] <= 0
 mccormick1[8]: - u[8] + z[8] <= 0
 mccormick1[9]: - u[9] + z[9] <= 0
 mccormick1[10]: - u[10] + z[10] <= 0
 mccormick1[11]: - u[11] + z[11] <= 0
 mccormick1[12]: - u[12] + z[12] <= 0
 mccormick1[13]: - u[13] + z[13] <= 0
 mccormick1[14]: - u[14] + z[14] <= 0
 mccormick1[15]: - u[15] + z[15] <= 0
 mccormick1[16]: - u[16] + z[16] <= 0
 mccormick1[17]: - u[17] + z[17] <= 0
 mccormick1[18]: - u[18] + z[18] <= 0
 mccormick1[19]: - u[19] + z[19] <= 0
 mccormick1[20]: - u[20] + z[20] <= 0
 mccormick1[21]: - u[21] + z[21] <= 0
 mccormick1[22]: - u[22] + z[22] <= 0
 mccormick1[23]: - u[23] + z[23] <= 0
 mccormick1[24]: - u[24] + z[24] <= 0
 mccormick1[25]: - u[25] + z[25] <= 0
 mccormick1[26]: - u[26] + z[26] <= 0
 mccormick1[27]: - u[27] + z[27] <= 0
 mccormick1[28]: - u[28] + z[28] <= 0
 mccormick1[29]: - u[29] + z[29] <= 0
 mccormick1[30]: - u[30] + z[30] <= 0
 mccormick1[31]: - u[31] + z[31] <= 0
 mccormick1[32]: - u[32] + z[32] <= 0
 mccormick1[33]: - u[33] + z[33] <= 0
 mccormick1[34]: - u[34] + z[34] <= 0
 mccormick1[35]: - u[35] + z[35] <= 0
 mccormick1[36]: - u[36] + z[36] <= 0
 mccormick1[37]: - u[37] + z[37] <= 0
 mccormick1[38]: - u[38] + z[38] <= 0
 mccormick1[39]: - u[39] + z[39] <= 0
 mccormick1[40]: - u[40] + z[40] <= 0
 mccormick1[41]: - u[41] + z[41] <= 0
 mccormick1[42]: - u[42] + z[42] <= 0
 mccormick1[43]: - u[43] + z[43] <= 0
 mccormick1[44]: - u[44] + z[44] <= 0
 mccormick1[45]: - u[45] + z[45] <= 0
 mccormick1[46]: - u[46] + z[46] <= 0
 mccormick1[47]: - u[47] + z[47] <= 0
 mccormick1[48]: - u[48] + z[48] <= 0
 mccormick1[49]: - u[49] + z[49] <= 0
 mccormick1[50]: - u[50] + z[50] <= 0
 mccormick1[51]: - u[51] + z[51] <= 0
 mccormick1[52]: - u[52] + z[52] <= 0
 mccormick1[53]: - u[53] + z[53] <= 0
 mccormick1[54]: - u[54] + z[54] <= 0
 mccormick1[55]: - u[55] + z[55] <= 0
 mccormick1[56]: - u[56] + z[56] <= 0
 mccormick1[57]: - u[57] + z[57] <= 0
 mccormick1[58]: - u[58] + z[58] <= 0
 mccormick1[59]: - u[59] + z[59] <= 0
 mccormick1[60]: - u[60] + z[60] <= 0
 mccormick1[61]: - u[61] + z[61] <= 0
 mccormick1[62]: - u[62] + z[62] <= 0
 mccormick1[63]: - u[63] + z[63] <= 0
 mccormick1[64]: - u[64] + z[64] <= 0
 mccormick1[65]: - u[65] + z[65] <= 0
 mccormick1[66]: - u[66] + z[66] <= 0
 mccormick1[67]: - u[67] + z[67] <= 0
 mccormick1[68]: - u[68] + z[68] <= 0
 mccormick1[69]: - u[69] + z[69] <= 0
 mccormick1[70]: - u[70] + z[70] <= 0
 mccormick1[71]: - u[71] + z[71] <= 0
 mccormick1[72]: - u[72] + z[72] <= 0
 mccormick1[73]: - u[73] + z[73] <= 0
 mccormick1[74]: - u[74] + z[74] <= 0
 mccormick1[75]: - u[75] + z[75] <= 0
 mccormick1[76]: - u[76] + z[76] <= 0
 mccormick1[77]: - u[77] + z[77] <= 0
 mccormick1[78]: - u[78] + z[78] <= 0
 mccormick1[79]: - u[79] + z[79] <= 0
 mccormick2[0]: - y[0] + z[0] <= 0
 mccormick2[1]: - y[1] + z[1] <= 0
 mccormick2[2]: - y[2] + z[2] <= 0
 mccormick2[3]: - y[3] + z[3] <= 0
 mccormick2[4]: - y[4] + z[4] <= 0
 mccormick2[5]: - y[5] + z[5] <= 0
 mccormick2[6]: - y[6] + z[6] <= 0
 mccormick2[7]: - y[7] + z[7] <= 0
 mccormick2[8]: - y[8] + z[8] <= 0
 mccormick2[9]: - y[9] + z[9] <= 0
 mccormick2[10]: - y[10] + z[10] <= 0
 mccormick2[11]: - y[11] + z[11] <= 0
 mccormick2[12]: - y[12] + z[12] <= 0
 mccormick2[13]: - y[13] + z[13] <= 0
 mccormick2[14]: - y[14] + z[14] <= 0
 mccormick2[15]: - y[15] + z[15] <= 0
 mccormick2[16]: - y[16] + z[16] <= 0
 mccormick2[17]: - y[17] + z[17] <= 0
 mccormick2[18]: - y[18] + z[18] <= 0
 mccormick2[19]: - y[19] + z[19] <= 0
 mccormick2[20]: - y[20] + z[20] <= 0
 mccormick2[21]: - y[21] + z[21] <= 0
 mccormick2[22]: - y[22] + z[22] <= 0
 mccormick2[23]: - y[23] + z[23] <= 0
 mccormick2[24]: - y[24] + z[24] <= 0
 mccormick2[25]: - y[25] + z[25] <= 0
 mccormick2[26]: - y[26] + z[26] <= 0
 mccormick2[27]: - y[27] + z[27] <= 0
 mccormick2[28]: - y[28] + z[28] <= 0
 mccormick2[29]: - y[29] + z[29] <= 0
 mccormick2[30]: - y[30] + z[30] <= 0
 mccormick2[31]: - y[31] + z[31] <= 0
 mccormick2[32]: - y[32] + z[32] <= 0
 mccormick2[33]: - y[33] + z[33] <= 0
 mccormick2[34]: - y[34] + z[34] <= 0
 mccormick2[35]: - y[35] + z[35] <= 0
 mccormick2[36]: - y[36] + z[36] <= 0
 mccormick2[37]: - y[37] + z[37] <= 0
 mccormick2[38]: - y[38] + z[38] <= 0
 mccormick2[39]: - y[39] + z[39] <= 0
 mccormick2[40]: - y[40] + z[40] <= 0
 mccormick2[41]: - y[41] + z[41] <= 0
 mccormick2[42]: - y[42] + z[42] <= 0
 mccormick2[43]: - y[43] + z[43] <= 0
 mccormick2[44]: - y[44] + z[44] <= 0
 mccormick2[45]: - y[45] + z[45] <= 0
 mccormick2[46]: - y[46] + z[46] <= 0
 mccormick2[47]: - y[47] + z[47] <= 0
 mccormick2[48]: - y[48] + z[48] <= 0
 mccormick2[49]: - y[49] + z[49] <= 0
 mccormick2[50]: - y[50] + z[50] <= 0
 mccormick2[51]: - y[51] + z[51] <= 0
 mccormick2[52]: - y[52] + z[52] <= 0
 mccormick2[53]: - y[53] + z[53] <= 0
 mccormick2[54]: - y[54] + z[54] <= 0
 mccormick2[55]: - y[55] + z[55] <= 0
 mccormick2[56]: - y[56] + z[56] <= 0
 mccormick2[57]: - y[57] + z[57] <= 0
 mccormick2[58]: - y[58] + z[58] <= 0
 mccormick2[59]: - y[59] + z[59] <= 0
 mccormick2[60]: - y[60] + z[60] <= 0
 mccormick2[61]: - y[61] + z[61] <= 0
 mccormick2[62]: - y[62] + z[62] <= 0
 mccormick2[63]: - y[63] + z[63] <= 0
 mccormick2[64]: - y[64] + z[64] <= 0
 mccormick2[65]: - y[65] + z[65] <= 0
 mccormick2[66]: - y[66] + z[66] <= 0
 mccormick2[67]: - y[67] + z[67] <= 0
 mccormick2[68]: - y[68] + z[68] <= 0
 mccormick2[69]: - y[69] + z[69] <= 0
 mccormick2[70]: - y[70] + z[70] <= 0
 mccormick2[71]: - y[71] + z[71] <= 0
 mccormick2[72]: - y[72] + z[72] <= 0
 mccormick2[73]: - y[73] + z[73] <= 0
 mccormick2[74]: - y[74] + z[74] <= 0
 mccormick2[75]: - y[75] + z[75] <= 0
 mccormick2[76]: - y[76] + z[76] <= 0
 mccormick2[77]: - y[77] + z[77] <= 0
 mccormick2[78]: - y[78] + z[78] <= 0
 mccormick2[79]: - y[79] + z[79] <= 0
 mccormick3[0]: y[0] + u[0] - z[0] <= 1
 mccormick3[1]: y[1] + u[1] - z[1] <= 1
 mccormick3[2]: y[2] + u[2] - z[2] <= 1
 mccormick3[3]: y[3] + u[3] - z[3] <= 1
 mccormick3[4]: y[4] + u[4] - z[4] <= 1
 mccormick3[5]: y[5] + u[5] - z[5] <= 1
 mccormick3[6]: y[6] + u[6] - z[6] <= 1
 mccormick3[7]: y[7] + u[7] - z[7] <= 1
 mccormick3[8]: y[8] + u[8] - z[8] <= 1
 mccormick3[9]: y[9] + u[9] - z[9] <= 1
 mccormick3[10]: y[10] + u[10] - z[10] <= 1
 mccormick3[11]: y[11] + u[11] - z[11] <= 1
 mccormick3[12]: y[12] + u[12] - z[12] <= 1
 mccormick3[13]: y[13] + u[13] - z[13] <= 1
 mccormick3[14]: y[14] + u[14] - z[14] <= 1
 mccormick3[15]: y[15] + u[15] - z[15] <= 1
 mccormick3[16]: y[16] + u[16] - z[16] <= 1
 mccormick3[17]: y[17] + u[17] - z[17] <= 1
 mccormick3[18]: y[18] + u[18] - z[18] <= 1
 mccormick3[19]: y[19] + u[19] - z[19] <= 1
 mccormick3[20]: y[20] + u[20] - z[20] <= 1
 mccormick3[21]: y[21] + u[21] - z[21] <= 1
 mccormick3[22]: y[22] + u[22] - z[22] <= 1
 mccormick3[23]: y[23] + u[23] - z[23] <= 1
 mccormick3[24]: y[24] + u[24] - z[24] <= 1
 mccormick3[25]: y[25] + u[25] - z[25] <= 1
 mccormick3[26]: y[26] + u[26] - z[26] <= 1
 mccormick3[27]: y[27] + u[27] - z[27] <= 1
 mccormick3[28]: y[28] + u[28] - z[28] <= 1
 mccormick3[29]: y[29] + u[29] - z[29] <= 1
 mccormick3[30]: y[30] + u[30] - z[30] <= 1
 mccormick3[31]: y[31] + u[31] - z[31] <= 1
 mccormick3[32]: y[32] + u[32] - z[32] <= 1
 mccormick3[33]: y[33] + u[33] - z[33] <= 1
 mccormick3[34]: y[34] + u[34] - z[34] <= 1
 mccormick3[35]: y[35] + u[35] - z[35] <= 1
 mccormick3[36]: y[36] + u[36] - z[36] <= 1
 mccormick3[37]: y[37] + u[37] - z[37] <= 1
 mccormick3[38]: y[38] + u[38] - z[38] <= 1
 mccormick3[39]: y[39] + u[39] - z[39] <= 1
 mccormick3[40]: y[40] + u[40] - z[40] <= 1
 mccormick3[41]: y[41] + u[41] - z[41] <= 1
 mccormick3[42]: y[42] + u[42] - z[42] <= 1
 mccormick3[43]: y[43] + u[43] - z[43] <= 1
 mccormick3[44]: y[44] + u[44] - z[44] <= 1
 mccormick3[45]: y[45] + u[45] - z[45] <= 1
 mccormick3[46]: y[46] + u[46] - z[46] <= 1
 mccormick3[47]: y[47] + u[47] - z[47] <= 1
 mccormick3[48]: y[48] + u[48] - z[48] <= 1
 mccormick3[49]: y[49] + u[49] - z[49] <= 1
 mccormick3[50]: y[50] + u[50] - z[50] <= 1
 mccormick3[51]: y[51] + u[51] - z[51] <= 1
 mccormick3[52]: y[52] + u[52] - z[52] <= 1
 mccormick3[53]: y[53] + u[53] - z[53] <= 1
 mccormick3[54]: y[54] + u[54] - z[54] <= 1
 mccormick3[55]: y[55] + u[55] - z[55] <= 1
 mccormick3[56]: y[56] + u[56] - z[56] <= 1
 mccormick3[57]: y[57] + u[57] - z[57] <= 1
 mccormick3[58]: y[58] + u[58] - z[58] <= 1
 mccormick3[59]: y[59] + u[59] - z[59] <= 1
 mccormick3[60]: y[60] + u[60] - z[60] <= 1
 mccormick3[61]: y[61] + u[61] - z[61] <= 1
 mccormick3[62]: y[62] + u[62] - z[62] <= 1
 mccormick3[63]: y[63] + u[63] - z[63] <= 1
 mccormick3[64]: y[64] + u[64] - z[64] <= 1
 mccormick3[65]: y[65] + u[65] - z[65] <= 1
 mccormick3[66]: y[66] + u[66] - z[66] <= 1
 mccormick3[67]: y[67] + u[67] - z[67] <= 1
 mccormick3[68]: y[68] + u[68] - z[68] <= 1
 mccormick3[69]: y[69] + u[69] - z[69] <= 1
 mccormick3[70]: y[70] + u[70] - z[70] <= 1
 mccormick3[71]: y[71] + u[71] - z[71] <= 1
 mccormick3[72]: y[72] + u[72] - z[72] <= 1
 mccormick3[73]: y[73] + u[73] - z[73] <= 1
 mccormick3[74]: y[74] + u[74] - z[74] <= 1
 mccormick3[75]: y[75] + u[75] - z[75] <= 1
 mccormick3[76]: y[76] + u[76] - z[76] <= 1
 mccormick3[77]: y[77] + u[77] - z[77] <= 1
 mccormick3[78]: y[78] + u[78] - z[78] <= 1
 mccormick3[79]: y[79] + u[79] - z[79] <= 1
Bounds
Binaries
 x[0] x[1] x[2] x[3] x[4] x[5] x[6] x[7] x[8] x[9] x[10] x[11] x[12] x[13]
 x[14] x[15] x[16] x[17] x[18] x[19] x[20] x[21] x[22] x[23] x[24] x[25]
 x[26] x[27] x[28] x[29] x[30] x[31] x[32] x[33] x[34] x[35] x[36] x[37]
 x[38] x[39] x[40] x[41] x[42] x[43] x[44] x[45] x[46] x[47] x[48] x[49]
 x[50] x[51] x[52] x[53] x[54] x[55] x[56] x[57] x[58] x[59] x[60] x[61]
 x[62] x[63] x[64] x[65] x[66] x[67] x[68] x[69] x[70] x[71] x[72] x[73]
 x[74] x[75] x[76] x[77] x[78] x[79] y[0] y[1] y[2] y[3] y[4] y[5] y[6]
 y[7] y[8] y[9] y[10] y[11] y[12] y[13] y[14] y[15] y[16] y[17] y[18] y[19]
 y[20] y[21] y[22] y[23] y[24] y[25] y[26] y[27] y[28] y[29] y[30] y[31]
 y[32] y[33] y[34] y[35] y[36] y[37] y[38] y[39] y[40] y[41] y[42] y[43]
 y[44] y[45] y[46] y[47] y[48] y[49] y[50] y[51] y[52] y[53] y[54] y[55]
 y[56] y[57] y[58] y[59] y[60] y[61] y[62] y[63] y[64] y[65] y[66] y[67]
 y[68] y[69] y[70] y[71] y[72] y[73] y[74] y[75] y[76] y[77] y[78] y[79]
 u[0] u[1] u[2] u[3] u[4] u[5] u[6] u[7] u[8] u[9] u[10] u[11] u[12] u[13]
 u[14] u[15] u[16] u[17] u[18] u[19] u[20] u[21] u[22] u[23] u[24] u[25]
 u[26] u[27] u[28] u[29] u[30] u[31] u[32] u[33] u[34] u[35] u[36] u[37]
 u[38] u[39] u[40] u[41] u[42] u[43] u[44] u[45] u[46] u[47] u[48] u[49]
 u[50] u[51] u[52] u[53] u[54] u[55] u[56] u[57] u[58] u[59] u[60] u[61]
 u[62] u[63] u[64] u[65] u[66] u[67] u[68] u[69] u[70] u[71] u[72] u[73]
 u[74] u[75] u[76] u[77] u[78] u[79] z[0] z[1] z[2] z[3] z[4] z[5] z[6]
 z[7] z[8] z[9] z[10] z[11] z[12] z[13] z[14] z[15] z[16] z[17] z[18] z[19]
 z[20] z[21] z[22] z[23] z[24] z[25] z[26] z[27] z[28] z[29] z[30] z[31]
 z[32] z[33] z[34] z[35] z[36] z[37] z[38] z[39] z[40] z[41] z[42] z[43]
 z[44] z[45] z[46] z[47] z[48] z[49] z[50] z[51] z[52] z[53] z[54] z[55]
 z[56] z[57] z[58] z[59] z[60] z[61] z[62] z[63] z[64] z[65] z[66] z[67]
 z[68] z[69] z[70] z[71] z[72] z[73] z[74] z[75] z[76] z[77] z[78] z[79]
End
