\ Model knapsack_20_10_3
\ LP format - for model browsing. Use MPS format to capture full model detail.
\ Signature: 0x1f0222644a57563c
Minimize
  10 x[0] + 10 x[1] + 10 x[2] + 10 x[3] + 10 x[4] + 10 x[5] + 10 x[6]
   + 10 x[7] + 10 x[8] + 10 x[9] + 10 x[10] + 10 x[11] + 10 x[12]
   + 10 x[13] + 10 x[14] + 10 x[15] + 10 x[16] + 10 x[17] + 10 x[18]
   + 10 x[19] - 270 y[0] - 799 y[1] - 200 y[2] - 316 y[3] - 730 y[4]
   - 129 y[5] - 66 y[6] - 772 y[7] - 839 y[8] - 171 y[9] - 735 y[10]
   - 755 y[11] - 355 y[12] - 26 y[13] - 487 y[14] - 164 y[15] - 886 y[16]
   - 330 y[17] - 627 y[18] - 746 y[19]
Subject To
 primal_upper: 160 y[0] + 340 y[1] + 970 y[2] + 43 y[3] + 932 y[4]
   + 746 y[5] + 349 y[6] + 404 y[7] + 5 y[8] + 506 y[9] + 916 y[10]
   + 459 y[11] + 108 y[12] + 780 y[13] + 309 y[14] + 653 y[15] + 317 y[16]
   + 560 y[17] + 297 y[18] + 294 y[19] + 16 z[0] + 34 z[1] + 97 z[2]
   + 4 z[3] + 93 z[4] + 75 z[5] + 35 z[6] + 40 z[7] + 51 z[9] + 92 z[10]
   + 46 z[11] + 11 z[12] + 78 z[13] + 31 z[14] + 65 z[15] + 32 z[16]
   + 56 z[17] + 30 z[18] + 29 z[19] <= 2287
 primal_lower0: 118 u[0] + 55 u[1] + 393 u[2] + 934 u[3] + 683 u[4]
   + 596 u[5] + 372 u[6] + 926 u[7] + 404 u[8] + 149 u[9] + 146 u[10]
   + 742 u[11] + 915 u[12] + 455 u[13] + 699 u[14] + 471 u[15] + 868 u[16]
   + 531 u[17] + 304 u[18] + 913 u[19] <= 934
 primal_lower1: 334 u[0] + 602 u[1] + 888 u[2] + 681 u[3] + 818 u[4]
   + 224 u[5] + 963 u[6] + 562 u[7] + 483 u[8] + 872 u[9] + 330 u[10]
   + 993 u[11] + 170 u[12] + 162 u[13] + 499 u[14] + 875 u[15] + 291 u[16]
   + 462 u[17] + 583 u[18] + 20 u[19] <= 5406
 primal_lower2: 106 u[0] + 654 u[1] + 380 u[2] + 485 u[3] + 582 u[4]
   + 764 u[5] + 607 u[6] + 102 u[7] + 239 u[8] + 580 u[9] + 782 u[10]
   + 693 u[11] + 302 u[12] + 174 u[13] + 599 u[14] + 679 u[15] + 231 u[16]
   + 882 u[17] + 75 u[18] + 288 u[19] <= 2301
 primal_lower3: 551 u[0] + 112 u[1] + 362 u[2] + 991 u[3] + 988 u[4]
   + 117 u[5] + 669 u[6] + 591 u[7] + 133 u[8] + 934 u[9] + 523 u[10]
   + 311 u[11] + 420 u[12] + 544 u[13] + 332 u[14] + 296 u[15] + 413 u[16]
   + 468 u[17] + 129 u[18] + 970 u[19] <= 2463
 primal_lower4: 729 u[0] + 10 u[1] + 828 u[2] + 721 u[3] + 454 u[4]
   + 847 u[5] + 999 u[6] + 681 u[7] + 647 u[8] + 776 u[9] + 173 u[10]
   + 601 u[11] + 630 u[12] + 810 u[13] + 270 u[14] + 450 u[15] + 295 u[16]
   + 430 u[17] + 243 u[18] + 172 u[19] <= 5383
 primal_lower5: 829 u[0] + 729 u[1] + 167 u[2] + 272 u[3] + 513 u[4]
   + 767 u[5] + 794 u[6] + 681 u[7] + 346 u[8] + 591 u[9] + 673 u[10]
   + 208 u[11] + 305 u[12] + 113 u[13] + 378 u[14] + 682 u[15] + 82 u[16]
   + 693 u[17] + 446 u[18] + 891 u[19] <= 5080
 primal_lower6: 99 u[0] + 476 u[1] + 46 u[2] + 963 u[3] + 136 u[4]
   + 73 u[5] + u[6] + 723 u[7] + 353 u[8] + 746 u[9] + 191 u[10]
   + 347 u[11] + 480 u[12] + 100 u[13] + 672 u[14] + 76 u[15] + 193 u[16]
   + 1000 u[17] + 709 u[18] + 334 u[19] <= 3859
 primal_lower7: 671 u[0] + 608 u[1] + 202 u[2] + 623 u[3] + 884 u[4]
   + 581 u[5] + 493 u[6] + 983 u[7] + 853 u[8] + 782 u[9] + 499 u[10]
   + 695 u[11] + 556 u[12] + 192 u[13] + 468 u[14] + 960 u[15] + 645 u[16]
   + 828 u[17] + 601 u[18] + 762 u[19] <= 983
 primal_lower8: 161 u[0] + 93 u[1] + 307 u[2] + 532 u[3] + 469 u[4]
   + 395 u[5] + 958 u[6] + 957 u[7] + 238 u[8] + 139 u[9] + 365 u[10]
   + 980 u[11] + 933 u[12] + 29 u[13] + 934 u[14] + 694 u[15] + 78 u[16]
   + 681 u[17] + 890 u[18] + 815 u[19] <= 2662
 primal_lower9: 144 u[0] + 265 u[1] + 739 u[2] + 584 u[3] + 925 u[4]
   + 510 u[5] + 310 u[6] + 152 u[7] + 398 u[8] + 543 u[9] + 292 u[10]
   + 304 u[11] + 349 u[12] + 201 u[13] + 445 u[14] + 217 u[15] + 942 u[16]
   + 365 u[17] + 930 u[18] + 587 u[19] <= 942
 interdiction[0]: x[0] + u[0] <= 1
 interdiction[1]: x[1] + u[1] <= 1
 interdiction[2]: x[2] + u[2] <= 1
 interdiction[3]: x[3] + u[3] <= 1
 interdiction[4]: x[4] + u[4] <= 1
 interdiction[5]: x[5] + u[5] <= 1
 interdiction[6]: x[6] + u[6] <= 1
 interdiction[7]: x[7] + u[7] <= 1
 interdiction[8]: x[8] + u[8] <= 1
 interdiction[9]: x[9] + u[9] <= 1
 interdiction[10]: x[10] + u[10] <= 1
 interdiction[11]: x[11] + u[11] <= 1
 interdiction[12]: x[12] + u[12] <= 1
 interdiction[13]: x[13] + u[13] <= 1
 interdiction[14]: x[14] + u[14] <= 1
 interdiction[15]: x[15] + u[15] <= 1
 interdiction[16]: x[16] + u[16] <= 1
 interdiction[17]: x[17] + u[17] <= 1
 interdiction[18]: x[18] + u[18] <= 1
 interdiction[19]: x[19] + u[19] <= 1
 mccormick1[0]: - u[0] + z[0] <= 0
 mccormick1[1]: - u[1] + z[1] <= 0
 mccormick1[2]: - u[2] + z[2] <= 0
 mccormick1[3]: - u[3] + z[3] <= 0
 mccormick1[4]: - u[4] + z[4] <= 0
 mccormick1[5]: - u[5] + z[5] <= 0
 mccormick1[6]: - u[6] + z[6] <= 0
 mccormick1[7]: - u[7] + z[7] <= 0
 mccormick1[8]: - u[8] + z[8] <= 0
 mccormick1[9]: - u[9] + z[9] <= 0
 mccormick1[10]: - u[10] + z[10] <= 0
 mccormick1[11]: - u[11] + z[11] <= 0
 mccormick1[12]: - u[12] + z[12] <= 0
 mccormick1[13]: - u[13] + z[13] <= 0
 mccormick1[14]: - u[14] + z[14] <= 0
 mccormick1[15]: - u[15] + z[15] <= 0
 mccormick1[16]: - u[16] + z[16] <= 0
 mccormick1[17]: - u[17] + z[17] <= 0
 mccormick1[18]: - u[18] + z[18] <= 0
 mccormick1[19]: - u[19] + z[19] <= 0
 mccormick2[0]: - y[0] + z[0] <= 0
 mccormick2[1]: - y[1] + z[1] <= 0
 mccormick2[2]: - y[2] + z[2] <= 0
 mccormick2[3]: - y[3] + z[3] <= 0
 mccormick2[4]: - y[4] + z[4] <= 0
 mccormick2[5]: - y[5] + z[5] <= 0
 mccormick2[6]: - y[6] + z[6] <= 0
 mccormick2[7]: - y[7] + z[7] <= 0
 mccormick2[8]: - y[8] + z[8] <= 0
 mccormick2[9]: - y[9] + z[9] <= 0
 mccormick2[10]: - y[10] + z[10] <= 0
 mccormick2[11]: - y[11] + z[11] <= 0
 mccormick2[12]: - y[12] + z[12] <= 0
 mccormick2[13]: - y[13] + z[13] <= 0
 mccormick2[14]: - y[14] + z[14] <= 0
 mccormick2[15]: - y[15] + z[15] <= 0
 mccormick2[16]: - y[16] + z[16] <= 0
 mccormick2[17]: - y[17] + z[17] <= 0
 mccormick2[18]: - y[18] + z[18] <= 0
 mccormick2[19]: - y[19] + z[19] <= 0
 mccormick3[0]: y[0] + u[0] - z[0] <= 1
 mccormick3[1]: y[1] + u[1] - z[1] <= 1
 mccormick3[2]: y[2] + u[2] - z[2] <= 1
 mccormick3[3]: y[3] + u[3] - z[3] <= 1
 mccormick3[4]: y[4] + u[4] - z[4] <= 1
 mccormick3[5]: y[5] + u[5] - z[5] <= 1
 mccormick3[6]: y[6] + u[6] - z[6] <= 1
 mccormick3[7]: y[7] + u[7] - z[7] <= 1
 mccormick3[8]: y[8] + u[8] - z[8] <= 1
 mccormick3[9]: y[9] + u[9] - z[9] <= 1
 mccormick3[10]: y[10] + u[10] - z[10] <= 1
 mccormick3[11]: y[11] + u[11] - z[11] <= 1
 mccormick3[12]: y[12] + u[12] - z[12] <= 1
 mccormick3[13]: y[13] + u[13] - z[13] <= 1
 mccormick3[14]: y[14] + u[14] - z[14] <= 1
 mccormick3[15]: y[15] + u[15] - z[15] <= 1
 mccormick3[16]: y[16] + u[16] - z[16] <= 1
 mccormick3[17]: y[17] + u[17] - z[17] <= 1
 mccormick3[18]: y[18] + u[18] - z[18] <= 1
 mccormick3[19]: y[19] + u[19] - z[19] <= 1
Bounds
Binaries
 x[0] x[1] x[2] x[3] x[4] x[5] x[6] x[7] x[8] x[9] x[10] x[11] x[12] x[13]
 x[14] x[15] x[16] x[17] x[18] x[19] y[0] y[1] y[2] y[3] y[4] y[5] y[6]
 y[7] y[8] y[9] y[10] y[11] y[12] y[13] y[14] y[15] y[16] y[17] y[18] y[19]
 u[0] u[1] u[2] u[3] u[4] u[5] u[6] u[7] u[8] u[9] u[10] u[11] u[12] u[13]
 u[14] u[15] u[16] u[17] u[18] u[19] z[0] z[1] z[2] z[3] z[4] z[5] z[6]
 z[7] z[8] z[9] z[10] z[11] z[12] z[13] z[14] z[15] z[16] z[17] z[18] z[19]
End
