* Signature: 0x261ea9d2ec6a482f
NAME knapsack_60_100_3
ROWS
 N  OBJ
 L  primal_upper
 L  primal_lower0
 L  primal_lower1
 L  primal_lower2
 L  primal_lower3
 L  primal_lower4
 L  primal_lower5
 L  primal_lower6
 L  primal_lower7
 L  primal_lower8
 L  primal_lower9
 L  primal_lower10
 L  primal_lower11
 L  primal_lower12
 L  primal_lower13
 L  primal_lower14
 L  primal_lower15
 L  primal_lower16
 L  primal_lower17
 L  primal_lower18
 L  primal_lower19
 L  primal_lower20
 L  primal_lower21
 L  primal_lower22
 L  primal_lower23
 L  primal_lower24
 L  primal_lower25
 L  primal_lower26
 L  primal_lower27
 L  primal_lower28
 L  primal_lower29
 L  primal_lower30
 L  primal_lower31
 L  primal_lower32
 L  primal_lower33
 L  primal_lower34
 L  primal_lower35
 L  primal_lower36
 L  primal_lower37
 L  primal_lower38
 L  primal_lower39
 L  primal_lower40
 L  primal_lower41
 L  primal_lower42
 L  primal_lower43
 L  primal_lower44
 L  primal_lower45
 L  primal_lower46
 L  primal_lower47
 L  primal_lower48
 L  primal_lower49
 L  primal_lower50
 L  primal_lower51
 L  primal_lower52
 L  primal_lower53
 L  primal_lower54
 L  primal_lower55
 L  primal_lower56
 L  primal_lower57
 L  primal_lower58
 L  primal_lower59
 L  primal_lower60
 L  primal_lower61
 L  primal_lower62
 L  primal_lower63
 L  primal_lower64
 L  primal_lower65
 L  primal_lower66
 L  primal_lower67
 L  primal_lower68
 L  primal_lower69
 L  primal_lower70
 L  primal_lower71
 L  primal_lower72
 L  primal_lower73
 L  primal_lower74
 L  primal_lower75
 L  primal_lower76
 L  primal_lower77
 L  primal_lower78
 L  primal_lower79
 L  primal_lower80
 L  primal_lower81
 L  primal_lower82
 L  primal_lower83
 L  primal_lower84
 L  primal_lower85
 L  primal_lower86
 L  primal_lower87
 L  primal_lower88
 L  primal_lower89
 L  primal_lower90
 L  primal_lower91
 L  primal_lower92
 L  primal_lower93
 L  primal_lower94
 L  primal_lower95
 L  primal_lower96
 L  primal_lower97
 L  primal_lower98
 L  primal_lower99
 L  interdiction[0]
 L  interdiction[1]
 L  interdiction[2]
 L  interdiction[3]
 L  interdiction[4]
 L  interdiction[5]
 L  interdiction[6]
 L  interdiction[7]
 L  interdiction[8]
 L  interdiction[9]
 L  interdiction[10]
 L  interdiction[11]
 L  interdiction[12]
 L  interdiction[13]
 L  interdiction[14]
 L  interdiction[15]
 L  interdiction[16]
 L  interdiction[17]
 L  interdiction[18]
 L  interdiction[19]
 L  interdiction[20]
 L  interdiction[21]
 L  interdiction[22]
 L  interdiction[23]
 L  interdiction[24]
 L  interdiction[25]
 L  interdiction[26]
 L  interdiction[27]
 L  interdiction[28]
 L  interdiction[29]
 L  interdiction[30]
 L  interdiction[31]
 L  interdiction[32]
 L  interdiction[33]
 L  interdiction[34]
 L  interdiction[35]
 L  interdiction[36]
 L  interdiction[37]
 L  interdiction[38]
 L  interdiction[39]
 L  interdiction[40]
 L  interdiction[41]
 L  interdiction[42]
 L  interdiction[43]
 L  interdiction[44]
 L  interdiction[45]
 L  interdiction[46]
 L  interdiction[47]
 L  interdiction[48]
 L  interdiction[49]
 L  interdiction[50]
 L  interdiction[51]
 L  interdiction[52]
 L  interdiction[53]
 L  interdiction[54]
 L  interdiction[55]
 L  interdiction[56]
 L  interdiction[57]
 L  interdiction[58]
 L  interdiction[59]
 L  mccormick1[0]
 L  mccormick1[1]
 L  mccormick1[2]
 L  mccormick1[3]
 L  mccormick1[4]
 L  mccormick1[5]
 L  mccormick1[6]
 L  mccormick1[7]
 L  mccormick1[8]
 L  mccormick1[9]
 L  mccormick1[10]
 L  mccormick1[11]
 L  mccormick1[12]
 L  mccormick1[13]
 L  mccormick1[14]
 L  mccormick1[15]
 L  mccormick1[16]
 L  mccormick1[17]
 L  mccormick1[18]
 L  mccormick1[19]
 L  mccormick1[20]
 L  mccormick1[21]
 L  mccormick1[22]
 L  mccormick1[23]
 L  mccormick1[24]
 L  mccormick1[25]
 L  mccormick1[26]
 L  mccormick1[27]
 L  mccormick1[28]
 L  mccormick1[29]
 L  mccormick1[30]
 L  mccormick1[31]
 L  mccormick1[32]
 L  mccormick1[33]
 L  mccormick1[34]
 L  mccormick1[35]
 L  mccormick1[36]
 L  mccormick1[37]
 L  mccormick1[38]
 L  mccormick1[39]
 L  mccormick1[40]
 L  mccormick1[41]
 L  mccormick1[42]
 L  mccormick1[43]
 L  mccormick1[44]
 L  mccormick1[45]
 L  mccormick1[46]
 L  mccormick1[47]
 L  mccormick1[48]
 L  mccormick1[49]
 L  mccormick1[50]
 L  mccormick1[51]
 L  mccormick1[52]
 L  mccormick1[53]
 L  mccormick1[54]
 L  mccormick1[55]
 L  mccormick1[56]
 L  mccormick1[57]
 L  mccormick1[58]
 L  mccormick1[59]
 L  mccormick2[0]
 L  mccormick2[1]
 L  mccormick2[2]
 L  mccormick2[3]
 L  mccormick2[4]
 L  mccormick2[5]
 L  mccormick2[6]
 L  mccormick2[7]
 L  mccormick2[8]
 L  mccormick2[9]
 L  mccormick2[10]
 L  mccormick2[11]
 L  mccormick2[12]
 L  mccormick2[13]
 L  mccormick2[14]
 L  mccormick2[15]
 L  mccormick2[16]
 L  mccormick2[17]
 L  mccormick2[18]
 L  mccormick2[19]
 L  mccormick2[20]
 L  mccormick2[21]
 L  mccormick2[22]
 L  mccormick2[23]
 L  mccormick2[24]
 L  mccormick2[25]
 L  mccormick2[26]
 L  mccormick2[27]
 L  mccormick2[28]
 L  mccormick2[29]
 L  mccormick2[30]
 L  mccormick2[31]
 L  mccormick2[32]
 L  mccormick2[33]
 L  mccormick2[34]
 L  mccormick2[35]
 L  mccormick2[36]
 L  mccormick2[37]
 L  mccormick2[38]
 L  mccormick2[39]
 L  mccormick2[40]
 L  mccormick2[41]
 L  mccormick2[42]
 L  mccormick2[43]
 L  mccormick2[44]
 L  mccormick2[45]
 L  mccormick2[46]
 L  mccormick2[47]
 L  mccormick2[48]
 L  mccormick2[49]
 L  mccormick2[50]
 L  mccormick2[51]
 L  mccormick2[52]
 L  mccormick2[53]
 L  mccormick2[54]
 L  mccormick2[55]
 L  mccormick2[56]
 L  mccormick2[57]
 L  mccormick2[58]
 L  mccormick2[59]
 L  mccormick3[0]
 L  mccormick3[1]
 L  mccormick3[2]
 L  mccormick3[3]
 L  mccormick3[4]
 L  mccormick3[5]
 L  mccormick3[6]
 L  mccormick3[7]
 L  mccormick3[8]
 L  mccormick3[9]
 L  mccormick3[10]
 L  mccormick3[11]
 L  mccormick3[12]
 L  mccormick3[13]
 L  mccormick3[14]
 L  mccormick3[15]
 L  mccormick3[16]
 L  mccormick3[17]
 L  mccormick3[18]
 L  mccormick3[19]
 L  mccormick3[20]
 L  mccormick3[21]
 L  mccormick3[22]
 L  mccormick3[23]
 L  mccormick3[24]
 L  mccormick3[25]
 L  mccormick3[26]
 L  mccormick3[27]
 L  mccormick3[28]
 L  mccormick3[29]
 L  mccormick3[30]
 L  mccormick3[31]
 L  mccormick3[32]
 L  mccormick3[33]
 L  mccormick3[34]
 L  mccormick3[35]
 L  mccormick3[36]
 L  mccormick3[37]
 L  mccormick3[38]
 L  mccormick3[39]
 L  mccormick3[40]
 L  mccormick3[41]
 L  mccormick3[42]
 L  mccormick3[43]
 L  mccormick3[44]
 L  mccormick3[45]
 L  mccormick3[46]
 L  mccormick3[47]
 L  mccormick3[48]
 L  mccormick3[49]
 L  mccormick3[50]
 L  mccormick3[51]
 L  mccormick3[52]
 L  mccormick3[53]
 L  mccormick3[54]
 L  mccormick3[55]
 L  mccormick3[56]
 L  mccormick3[57]
 L  mccormick3[58]
 L  mccormick3[59]
COLUMNS
    MARKER    'MARKER'                 'INTORG'
    x[0]      OBJ       10
    x[0]      interdiction[0]  1
    x[1]      OBJ       10
    x[1]      interdiction[1]  1
    x[2]      OBJ       10
    x[2]      interdiction[2]  1
    x[3]      OBJ       10
    x[3]      interdiction[3]  1
    x[4]      OBJ       10
    x[4]      interdiction[4]  1
    x[5]      OBJ       10
    x[5]      interdiction[5]  1
    x[6]      OBJ       10
    x[6]      interdiction[6]  1
    x[7]      OBJ       10
    x[7]      interdiction[7]  1
    x[8]      OBJ       10
    x[8]      interdiction[8]  1
    x[9]      OBJ       10
    x[9]      interdiction[9]  1
    x[10]     OBJ       10
    x[10]     interdiction[10]  1
    x[11]     OBJ       10
    x[11]     interdiction[11]  1
    x[12]     OBJ       10
    x[12]     interdiction[12]  1
    x[13]     OBJ       10
    x[13]     interdiction[13]  1
    x[14]     OBJ       10
    x[14]     interdiction[14]  1
    x[15]     OBJ       10
    x[15]     interdiction[15]  1
    x[16]     OBJ       10
    x[16]     interdiction[16]  1
    x[17]     OBJ       10
    x[17]     interdiction[17]  1
    x[18]     OBJ       10
    x[18]     interdiction[18]  1
    x[19]     OBJ       10
    x[19]     interdiction[19]  1
    x[20]     OBJ       10
    x[20]     interdiction[20]  1
    x[21]     OBJ       10
    x[21]     interdiction[21]  1
    x[22]     OBJ       10
    x[22]     interdiction[22]  1
    x[23]     OBJ       10
    x[23]     interdiction[23]  1
    x[24]     OBJ       10
    x[24]     interdiction[24]  1
    x[25]     OBJ       10
    x[25]     interdiction[25]  1
    x[26]     OBJ       10
    x[26]     interdiction[26]  1
    x[27]     OBJ       10
    x[27]     interdiction[27]  1
    x[28]     OBJ       10
    x[28]     interdiction[28]  1
    x[29]     OBJ       10
    x[29]     interdiction[29]  1
    x[30]     OBJ       10
    x[30]     interdiction[30]  1
    x[31]     OBJ       10
    x[31]     interdiction[31]  1
    x[32]     OBJ       10
    x[32]     interdiction[32]  1
    x[33]     OBJ       10
    x[33]     interdiction[33]  1
    x[34]     OBJ       10
    x[34]     interdiction[34]  1
    x[35]     OBJ       10
    x[35]     interdiction[35]  1
    x[36]     OBJ       10
    x[36]     interdiction[36]  1
    x[37]     OBJ       10
    x[37]     interdiction[37]  1
    x[38]     OBJ       10
    x[38]     interdiction[38]  1
    x[39]     OBJ       10
    x[39]     interdiction[39]  1
    x[40]     OBJ       10
    x[40]     interdiction[40]  1
    x[41]     OBJ       10
    x[41]     interdiction[41]  1
    x[42]     OBJ       10
    x[42]     interdiction[42]  1
    x[43]     OBJ       10
    x[43]     interdiction[43]  1
    x[44]     OBJ       10
    x[44]     interdiction[44]  1
    x[45]     OBJ       10
    x[45]     interdiction[45]  1
    x[46]     OBJ       10
    x[46]     interdiction[46]  1
    x[47]     OBJ       10
    x[47]     interdiction[47]  1
    x[48]     OBJ       10
    x[48]     interdiction[48]  1
    x[49]     OBJ       10
    x[49]     interdiction[49]  1
    x[50]     OBJ       10
    x[50]     interdiction[50]  1
    x[51]     OBJ       10
    x[51]     interdiction[51]  1
    x[52]     OBJ       10
    x[52]     interdiction[52]  1
    x[53]     OBJ       10
    x[53]     interdiction[53]  1
    x[54]     OBJ       10
    x[54]     interdiction[54]  1
    x[55]     OBJ       10
    x[55]     interdiction[55]  1
    x[56]     OBJ       10
    x[56]     interdiction[56]  1
    x[57]     OBJ       10
    x[57]     interdiction[57]  1
    x[58]     OBJ       10
    x[58]     interdiction[58]  1
    x[59]     OBJ       10
    x[59]     interdiction[59]  1
    y[0]      OBJ       -815
    y[0]      primal_upper  842
    y[0]      mccormick2[0]  -1
    y[0]      mccormick3[0]  1
    y[1]      OBJ       -427
    y[1]      primal_upper  483
    y[1]      mccormick2[1]  -1
    y[1]      mccormick3[1]  1
    y[2]      OBJ       -369
    y[2]      primal_upper  109
    y[2]      mccormick2[2]  -1
    y[2]      mccormick3[2]  1
    y[3]      OBJ       -985
    y[3]      primal_upper  834
    y[3]      mccormick2[3]  -1
    y[3]      mccormick3[3]  1
    y[4]      OBJ       -898
    y[4]      primal_upper  375
    y[4]      mccormick2[4]  -1
    y[4]      mccormick3[4]  1
    y[5]      OBJ       -390
    y[5]      primal_upper  184
    y[5]      mccormick2[5]  -1
    y[5]      mccormick3[5]  1
    y[6]      OBJ       -298
    y[6]      primal_upper  320
    y[6]      mccormick2[6]  -1
    y[6]      mccormick3[6]  1
    y[7]      OBJ       -728
    y[7]      primal_upper  242
    y[7]      mccormick2[7]  -1
    y[7]      mccormick3[7]  1
    y[8]      OBJ       -383
    y[8]      primal_upper  784
    y[8]      mccormick2[8]  -1
    y[8]      mccormick3[8]  1
    y[9]      OBJ       -279
    y[9]      primal_upper  745
    y[9]      mccormick2[9]  -1
    y[9]      mccormick3[9]  1
    y[10]     OBJ       -984
    y[10]     primal_upper  486
    y[10]     mccormick2[10]  -1
    y[10]     mccormick3[10]  1
    y[11]     OBJ       -688
    y[11]     primal_upper  362
    y[11]     mccormick2[11]  -1
    y[11]     mccormick3[11]  1
    y[12]     OBJ       -156
    y[12]     primal_upper  439
    y[12]     mccormick2[12]  -1
    y[12]     mccormick3[12]  1
    y[13]     OBJ       -695
    y[13]     primal_upper  619
    y[13]     mccormick2[13]  -1
    y[13]     mccormick3[13]  1
    y[14]     OBJ       -432
    y[14]     primal_upper  575
    y[14]     mccormick2[14]  -1
    y[14]     mccormick3[14]  1
    y[15]     OBJ       -409
    y[15]     primal_upper  51
    y[15]     mccormick2[15]  -1
    y[15]     mccormick3[15]  1
    y[16]     OBJ       -271
    y[16]     primal_upper  8
    y[16]     mccormick2[16]  -1
    y[16]     mccormick3[16]  1
    y[17]     OBJ       -615
    y[17]     primal_upper  479
    y[17]     mccormick2[17]  -1
    y[17]     mccormick3[17]  1
    y[18]     OBJ       -339
    y[18]     primal_upper  428
    y[18]     mccormick2[18]  -1
    y[18]     mccormick3[18]  1
    y[19]     OBJ       -870
    y[19]     primal_upper  389
    y[19]     mccormick2[19]  -1
    y[19]     mccormick3[19]  1
    y[20]     OBJ       -114
    y[20]     primal_upper  448
    y[20]     mccormick2[20]  -1
    y[20]     mccormick3[20]  1
    y[21]     OBJ       -292
    y[21]     primal_upper  910
    y[21]     mccormick2[21]  -1
    y[21]     mccormick3[21]  1
    y[22]     OBJ       -581
    y[22]     primal_upper  167
    y[22]     mccormick2[22]  -1
    y[22]     mccormick3[22]  1
    y[23]     OBJ       -141
    y[23]     primal_upper  573
    y[23]     mccormick2[23]  -1
    y[23]     mccormick3[23]  1
    y[24]     OBJ       -642
    y[24]     primal_upper  415
    y[24]     mccormick2[24]  -1
    y[24]     mccormick3[24]  1
    y[25]     OBJ       -59
    y[25]     primal_upper  455
    y[25]     mccormick2[25]  -1
    y[25]     mccormick3[25]  1
    y[26]     OBJ       -425
    y[26]     primal_upper  653
    y[26]     mccormick2[26]  -1
    y[26]     mccormick3[26]  1
    y[27]     OBJ       -428
    y[27]     primal_upper  670
    y[27]     mccormick2[27]  -1
    y[27]     mccormick3[27]  1
    y[28]     OBJ       -339
    y[28]     primal_upper  368
    y[28]     mccormick2[28]  -1
    y[28]     mccormick3[28]  1
    y[29]     OBJ       -653
    y[29]     primal_upper  518
    y[29]     mccormick2[29]  -1
    y[29]     mccormick3[29]  1
    y[30]     OBJ       -798
    y[30]     primal_upper  860
    y[30]     mccormick2[30]  -1
    y[30]     mccormick3[30]  1
    y[31]     OBJ       -813
    y[31]     primal_upper  322
    y[31]     mccormick2[31]  -1
    y[31]     mccormick3[31]  1
    y[32]     OBJ       -205
    y[32]     primal_upper  598
    y[32]     mccormick2[32]  -1
    y[32]     mccormick3[32]  1
    y[33]     OBJ       -236
    y[33]     primal_upper  812
    y[33]     mccormick2[33]  -1
    y[33]     mccormick3[33]  1
    y[34]     OBJ       -956
    y[34]     primal_upper  775
    y[34]     mccormick2[34]  -1
    y[34]     mccormick3[34]  1
    y[35]     OBJ       -218
    y[35]     primal_upper  312
    y[35]     mccormick2[35]  -1
    y[35]     mccormick3[35]  1
    y[36]     OBJ       -210
    y[36]     primal_upper  511
    y[36]     mccormick2[36]  -1
    y[36]     mccormick3[36]  1
    y[37]     OBJ       -628
    y[37]     primal_upper  155
    y[37]     mccormick2[37]  -1
    y[37]     mccormick3[37]  1
    y[38]     OBJ       -111
    y[38]     primal_upper  247
    y[38]     mccormick2[38]  -1
    y[38]     mccormick3[38]  1
    y[39]     OBJ       -752
    y[39]     primal_upper  429
    y[39]     mccormick2[39]  -1
    y[39]     mccormick3[39]  1
    y[40]     OBJ       -845
    y[40]     primal_upper  922
    y[40]     mccormick2[40]  -1
    y[40]     mccormick3[40]  1
    y[41]     OBJ       -682
    y[41]     primal_upper  456
    y[41]     mccormick2[41]  -1
    y[41]     mccormick3[41]  1
    y[42]     OBJ       -594
    y[42]     primal_upper  401
    y[42]     mccormick2[42]  -1
    y[42]     mccormick3[42]  1
    y[43]     OBJ       -144
    y[43]     primal_upper  92
    y[43]     mccormick2[43]  -1
    y[43]     mccormick3[43]  1
    y[44]     OBJ       -363
    y[44]     primal_upper  474
    y[44]     mccormick2[44]  -1
    y[44]     mccormick3[44]  1
    y[45]     OBJ       -944
    y[45]     primal_upper  969
    y[45]     mccormick2[45]  -1
    y[45]     mccormick3[45]  1
    y[46]     OBJ       -405
    y[46]     primal_upper  492
    y[46]     mccormick2[46]  -1
    y[46]     mccormick3[46]  1
    y[47]     OBJ       -273
    y[47]     primal_upper  368
    y[47]     mccormick2[47]  -1
    y[47]     mccormick3[47]  1
    y[48]     OBJ       -685
    y[48]     primal_upper  306
    y[48]     mccormick2[48]  -1
    y[48]     mccormick3[48]  1
    y[49]     OBJ       -702
    y[49]     primal_upper  527
    y[49]     mccormick2[49]  -1
    y[49]     mccormick3[49]  1
    y[50]     OBJ       -544
    y[50]     primal_upper  585
    y[50]     mccormick2[50]  -1
    y[50]     mccormick3[50]  1
    y[51]     OBJ       -719
    y[51]     primal_upper  607
    y[51]     mccormick2[51]  -1
    y[51]     mccormick3[51]  1
    y[52]     OBJ       -548
    y[52]     primal_upper  528
    y[52]     mccormick2[52]  -1
    y[52]     mccormick3[52]  1
    y[53]     OBJ       -58
    y[53]     primal_upper  203
    y[53]     mccormick2[53]  -1
    y[53]     mccormick3[53]  1
    y[54]     OBJ       -709
    y[54]     primal_upper  427
    y[54]     mccormick2[54]  -1
    y[54]     mccormick3[54]  1
    y[55]     OBJ       -975
    y[55]     primal_upper  598
    y[55]     mccormick2[55]  -1
    y[55]     mccormick3[55]  1
    y[56]     OBJ       -507
    y[56]     primal_upper  748
    y[56]     mccormick2[56]  -1
    y[56]     mccormick3[56]  1
    y[57]     OBJ       -345
    y[57]     primal_upper  457
    y[57]     mccormick2[57]  -1
    y[57]     mccormick3[57]  1
    y[58]     OBJ       -393
    y[58]     primal_upper  503
    y[58]     mccormick2[58]  -1
    y[58]     mccormick3[58]  1
    y[59]     OBJ       -960
    y[59]     primal_upper  161
    y[59]     mccormick2[59]  -1
    y[59]     mccormick3[59]  1
    u[0]      primal_lower0  385
    u[0]      primal_lower1  957
    u[0]      primal_lower2  182
    u[0]      primal_lower3  539
    u[0]      primal_lower4  853
    u[0]      primal_lower5  290
    u[0]      primal_lower6  524
    u[0]      primal_lower7  149
    u[0]      primal_lower8  672
    u[0]      primal_lower9  353
    u[0]      primal_lower10  954
    u[0]      primal_lower11  63
    u[0]      primal_lower12  772
    u[0]      primal_lower13  277
    u[0]      primal_lower14  57
    u[0]      primal_lower15  260
    u[0]      primal_lower16  838
    u[0]      primal_lower17  283
    u[0]      primal_lower18  467
    u[0]      primal_lower19  484
    u[0]      primal_lower20  291
    u[0]      primal_lower21  158
    u[0]      primal_lower22  853
    u[0]      primal_lower23  326
    u[0]      primal_lower24  117
    u[0]      primal_lower25  461
    u[0]      primal_lower26  988
    u[0]      primal_lower27  632
    u[0]      primal_lower28  914
    u[0]      primal_lower29  961
    u[0]      primal_lower30  548
    u[0]      primal_lower31  531
    u[0]      primal_lower32  760
    u[0]      primal_lower33  758
    u[0]      primal_lower34  838
    u[0]      primal_lower35  280
    u[0]      primal_lower36  392
    u[0]      primal_lower37  462
    u[0]      primal_lower38  355
    u[0]      primal_lower39  135
    u[0]      primal_lower40  341
    u[0]      primal_lower41  254
    u[0]      primal_lower42  702
    u[0]      primal_lower43  905
    u[0]      primal_lower44  885
    u[0]      primal_lower45  267
    u[0]      primal_lower46  178
    u[0]      primal_lower47  214
    u[0]      primal_lower48  89
    u[0]      primal_lower49  685
    u[0]      primal_lower50  982
    u[0]      primal_lower51  453
    u[0]      primal_lower52  589
    u[0]      primal_lower53  250
    u[0]      primal_lower54  322
    u[0]      primal_lower55  660
    u[0]      primal_lower56  190
    u[0]      primal_lower57  219
    u[0]      primal_lower58  397
    u[0]      primal_lower59  795
    u[0]      primal_lower60  615
    u[0]      primal_lower61  216
    u[0]      primal_lower62  683
    u[0]      primal_lower63  617
    u[0]      primal_lower64  142
    u[0]      primal_lower65  758
    u[0]      primal_lower66  441
    u[0]      primal_lower67  586
    u[0]      primal_lower68  887
    u[0]      primal_lower69  742
    u[0]      primal_lower70  348
    u[0]      primal_lower71  154
    u[0]      primal_lower72  170
    u[0]      primal_lower73  344
    u[0]      primal_lower74  391
    u[0]      primal_lower75  844
    u[0]      primal_lower76  676
    u[0]      primal_lower77  533
    u[0]      primal_lower78  30
    u[0]      primal_lower79  263
    u[0]      primal_lower80  504
    u[0]      primal_lower81  4
    u[0]      primal_lower82  217
    u[0]      primal_lower83  850
    u[0]      primal_lower84  755
    u[0]      primal_lower85  592
    u[0]      primal_lower86  19
    u[0]      primal_lower87  69
    u[0]      primal_lower88  482
    u[0]      primal_lower89  660
    u[0]      primal_lower90  795
    u[0]      primal_lower91  977
    u[0]      primal_lower92  937
    u[0]      primal_lower93  112
    u[0]      primal_lower94  883
    u[0]      primal_lower95  117
    u[0]      primal_lower96  20
    u[0]      primal_lower97  483
    u[0]      primal_lower98  517
    u[0]      primal_lower99  477
    u[0]      interdiction[0]  1
    u[0]      mccormick1[0]  -1
    u[0]      mccormick3[0]  1
    u[1]      primal_lower0  949
    u[1]      primal_lower1  929
    u[1]      primal_lower2  154
    u[1]      primal_lower3  708
    u[1]      primal_lower4  590
    u[1]      primal_lower5  822
    u[1]      primal_lower6  744
    u[1]      primal_lower7  833
    u[1]      primal_lower8  9
    u[1]      primal_lower9  869
    u[1]      primal_lower10  990
    u[1]      primal_lower11  555
    u[1]      primal_lower12  112
    u[1]      primal_lower13  766
    u[1]      primal_lower14  226
    u[1]      primal_lower15  344
    u[1]      primal_lower16  10
    u[1]      primal_lower17  68
    u[1]      primal_lower18  172
    u[1]      primal_lower19  821
    u[1]      primal_lower20  487
    u[1]      primal_lower21  759
    u[1]      primal_lower22  137
    u[1]      primal_lower23  871
    u[1]      primal_lower24  737
    u[1]      primal_lower25  889
    u[1]      primal_lower26  117
    u[1]      primal_lower27  508
    u[1]      primal_lower28  427
    u[1]      primal_lower29  66
    u[1]      primal_lower30  640
    u[1]      primal_lower31  748
    u[1]      primal_lower32  697
    u[1]      primal_lower33  727
    u[1]      primal_lower34  663
    u[1]      primal_lower35  412
    u[1]      primal_lower36  33
    u[1]      primal_lower37  999
    u[1]      primal_lower38  788
    u[1]      primal_lower39  227
    u[1]      primal_lower40  526
    u[1]      primal_lower41  839
    u[1]      primal_lower42  474
    u[1]      primal_lower43  50
    u[1]      primal_lower44  321
    u[1]      primal_lower45  84
    u[1]      primal_lower46  246
    u[1]      primal_lower47  234
    u[1]      primal_lower48  554
    u[1]      primal_lower49  198
    u[1]      primal_lower50  943
    u[1]      primal_lower51  633
    u[1]      primal_lower52  545
    u[1]      primal_lower53  499
    u[1]      primal_lower54  926
    u[1]      primal_lower55  917
    u[1]      primal_lower56  450
    u[1]      primal_lower57  844
    u[1]      primal_lower58  662
    u[1]      primal_lower59  988
    u[1]      primal_lower60  179
    u[1]      primal_lower61  100
    u[1]      primal_lower62  412
    u[1]      primal_lower63  914
    u[1]      primal_lower64  874
    u[1]      primal_lower65  527
    u[1]      primal_lower66  29
    u[1]      primal_lower67  27
    u[1]      primal_lower68  459
    u[1]      primal_lower69  354
    u[1]      primal_lower70  8
    u[1]      primal_lower71  859
    u[1]      primal_lower72  590
    u[1]      primal_lower73  593
    u[1]      primal_lower74  544
    u[1]      primal_lower75  912
    u[1]      primal_lower76  885
    u[1]      primal_lower77  681
    u[1]      primal_lower78  306
    u[1]      primal_lower79  352
    u[1]      primal_lower80  580
    u[1]      primal_lower81  613
    u[1]      primal_lower82  522
    u[1]      primal_lower83  51
    u[1]      primal_lower84  836
    u[1]      primal_lower85  980
    u[1]      primal_lower86  916
    u[1]      primal_lower87  225
    u[1]      primal_lower88  299
    u[1]      primal_lower89  789
    u[1]      primal_lower90  44
    u[1]      primal_lower91  810
    u[1]      primal_lower92  621
    u[1]      primal_lower93  404
    u[1]      primal_lower94  367
    u[1]      primal_lower95  14
    u[1]      primal_lower96  773
    u[1]      primal_lower97  223
    u[1]      primal_lower98  6
    u[1]      primal_lower99  89
    u[1]      interdiction[1]  1
    u[1]      mccormick1[1]  -1
    u[1]      mccormick3[1]  1
    u[2]      primal_lower0  819
    u[2]      primal_lower1  71
    u[2]      primal_lower2  424
    u[2]      primal_lower3  678
    u[2]      primal_lower4  176
    u[2]      primal_lower5  76
    u[2]      primal_lower6  566
    u[2]      primal_lower7  959
    u[2]      primal_lower8  451
    u[2]      primal_lower9  467
    u[2]      primal_lower10  740
    u[2]      primal_lower11  257
    u[2]      primal_lower12  206
    u[2]      primal_lower13  968
    u[2]      primal_lower14  468
    u[2]      primal_lower15  262
    u[2]      primal_lower16  288
    u[2]      primal_lower17  54
    u[2]      primal_lower18  286
    u[2]      primal_lower19  791
    u[2]      primal_lower20  965
    u[2]      primal_lower21  545
    u[2]      primal_lower22  127
    u[2]      primal_lower23  593
    u[2]      primal_lower24  79
    u[2]      primal_lower25  591
    u[2]      primal_lower26  455
    u[2]      primal_lower27  618
    u[2]      primal_lower28  477
    u[2]      primal_lower29  748
    u[2]      primal_lower30  574
    u[2]      primal_lower31  542
    u[2]      primal_lower32  891
    u[2]      primal_lower33  73
    u[2]      primal_lower34  905
    u[2]      primal_lower35  306
    u[2]      primal_lower36  787
    u[2]      primal_lower37  769
    u[2]      primal_lower38  486
    u[2]      primal_lower39  753
    u[2]      primal_lower40  184
    u[2]      primal_lower41  665
    u[2]      primal_lower42  600
    u[2]      primal_lower43  684
    u[2]      primal_lower44  647
    u[2]      primal_lower45  518
    u[2]      primal_lower46  196
    u[2]      primal_lower47  584
    u[2]      primal_lower48  132
    u[2]      primal_lower49  880
    u[2]      primal_lower50  825
    u[2]      primal_lower51  407
    u[2]      primal_lower52  407
    u[2]      primal_lower53  85
    u[2]      primal_lower54  524
    u[2]      primal_lower55  151
    u[2]      primal_lower56  312
    u[2]      primal_lower57  350
    u[2]      primal_lower58  24
    u[2]      primal_lower59  982
    u[2]      primal_lower60  257
    u[2]      primal_lower61  962
    u[2]      primal_lower62  102
    u[2]      primal_lower63  236
    u[2]      primal_lower64  472
    u[2]      primal_lower65  505
    u[2]      primal_lower66  155
    u[2]      primal_lower67  605
    u[2]      primal_lower68  705
    u[2]      primal_lower69  144
    u[2]      primal_lower70  526
    u[2]      primal_lower71  549
    u[2]      primal_lower72  876
    u[2]      primal_lower73  51
    u[2]      primal_lower74  898
    u[2]      primal_lower75  238
    u[2]      primal_lower76  159
    u[2]      primal_lower77  55
    u[2]      primal_lower78  824
    u[2]      primal_lower79  954
    u[2]      primal_lower80  122
    u[2]      primal_lower81  215
    u[2]      primal_lower82  524
    u[2]      primal_lower83  869
    u[2]      primal_lower84  678
    u[2]      primal_lower85  274
    u[2]      primal_lower86  254
    u[2]      primal_lower87  231
    u[2]      primal_lower88  125
    u[2]      primal_lower89  807
    u[2]      primal_lower90  406
    u[2]      primal_lower91  12
    u[2]      primal_lower92  675
    u[2]      primal_lower93  618
    u[2]      primal_lower94  629
    u[2]      primal_lower95  656
    u[2]      primal_lower96  223
    u[2]      primal_lower97  229
    u[2]      primal_lower98  152
    u[2]      primal_lower99  495
    u[2]      interdiction[2]  1
    u[2]      mccormick1[2]  -1
    u[2]      mccormick3[2]  1
    u[3]      primal_lower0  724
    u[3]      primal_lower1  1000
    u[3]      primal_lower2  57
    u[3]      primal_lower3  947
    u[3]      primal_lower4  949
    u[3]      primal_lower5  77
    u[3]      primal_lower6  15
    u[3]      primal_lower7  8
    u[3]      primal_lower8  672
    u[3]      primal_lower9  804
    u[3]      primal_lower10  405
    u[3]      primal_lower11  626
    u[3]      primal_lower12  199
    u[3]      primal_lower13  13
    u[3]      primal_lower14  985
    u[3]      primal_lower15  367
    u[3]      primal_lower16  801
    u[3]      primal_lower17  739
    u[3]      primal_lower18  259
    u[3]      primal_lower19  204
    u[3]      primal_lower20  38
    u[3]      primal_lower21  478
    u[3]      primal_lower22  984
    u[3]      primal_lower23  342
    u[3]      primal_lower24  144
    u[3]      primal_lower25  264
    u[3]      primal_lower26  988
    u[3]      primal_lower27  427
    u[3]      primal_lower28  762
    u[3]      primal_lower29  321
    u[3]      primal_lower30  823
    u[3]      primal_lower31  803
    u[3]      primal_lower32  480
    u[3]      primal_lower33  22
    u[3]      primal_lower34  630
    u[3]      primal_lower35  107
    u[3]      primal_lower36  528
    u[3]      primal_lower37  134
    u[3]      primal_lower38  347
    u[3]      primal_lower39  106
    u[3]      primal_lower40  829
    u[3]      primal_lower41  342
    u[3]      primal_lower42  33
    u[3]      primal_lower43  1
    u[3]      primal_lower44  376
    u[3]      primal_lower45  595
    u[3]      primal_lower46  517
    u[3]      primal_lower47  977
    u[3]      primal_lower48  89
    u[3]      primal_lower49  581
    u[3]      primal_lower50  734
    u[3]      primal_lower51  24
    u[3]      primal_lower52  360
    u[3]      primal_lower53  698
    u[3]      primal_lower54  997
    u[3]      primal_lower55  668
    u[3]      primal_lower56  697
    u[3]      primal_lower57  475
    u[3]      primal_lower58  213
    u[3]      primal_lower59  795
    u[3]      primal_lower60  578
    u[3]      primal_lower61  315
    u[3]      primal_lower62  235
    u[3]      primal_lower63  201
    u[3]      primal_lower64  537
    u[3]      primal_lower65  158
    u[3]      primal_lower66  924
    u[3]      primal_lower67  386
    u[3]      primal_lower68  162
    u[3]      primal_lower69  177
    u[3]      primal_lower70  527
    u[3]      primal_lower71  474
    u[3]      primal_lower72  357
    u[3]      primal_lower73  352
    u[3]      primal_lower74  759
    u[3]      primal_lower75  799
    u[3]      primal_lower76  868
    u[3]      primal_lower77  808
    u[3]      primal_lower78  513
    u[3]      primal_lower79  111
    u[3]      primal_lower80  691
    u[3]      primal_lower81  684
    u[3]      primal_lower82  225
    u[3]      primal_lower83  922
    u[3]      primal_lower84  747
    u[3]      primal_lower85  267
    u[3]      primal_lower86  275
    u[3]      primal_lower87  384
    u[3]      primal_lower88  442
    u[3]      primal_lower89  548
    u[3]      primal_lower90  139
    u[3]      primal_lower91  9
    u[3]      primal_lower92  156
    u[3]      primal_lower93  907
    u[3]      primal_lower94  702
    u[3]      primal_lower95  861
    u[3]      primal_lower96  884
    u[3]      primal_lower97  718
    u[3]      primal_lower98  269
    u[3]      primal_lower99  864
    u[3]      interdiction[3]  1
    u[3]      mccormick1[3]  -1
    u[3]      mccormick3[3]  1
    u[4]      primal_lower0  173
    u[4]      primal_lower1  585
    u[4]      primal_lower2  538
    u[4]      primal_lower3  344
    u[4]      primal_lower4  82
    u[4]      primal_lower5  270
    u[4]      primal_lower6  528
    u[4]      primal_lower7  905
    u[4]      primal_lower8  21
    u[4]      primal_lower9  845
    u[4]      primal_lower10  102
    u[4]      primal_lower11  451
    u[4]      primal_lower12  104
    u[4]      primal_lower13  314
    u[4]      primal_lower14  54
    u[4]      primal_lower15  984
    u[4]      primal_lower16  906
    u[4]      primal_lower17  344
    u[4]      primal_lower18  976
    u[4]      primal_lower19  113
    u[4]      primal_lower20  551
    u[4]      primal_lower21  379
    u[4]      primal_lower22  833
    u[4]      primal_lower23  91
    u[4]      primal_lower24  897
    u[4]      primal_lower25  785
    u[4]      primal_lower26  201
    u[4]      primal_lower27  580
    u[4]      primal_lower28  967
    u[4]      primal_lower29  166
    u[4]      primal_lower30  880
    u[4]      primal_lower31  280
    u[4]      primal_lower32  877
    u[4]      primal_lower33  131
    u[4]      primal_lower34  411
    u[4]      primal_lower35  116
    u[4]      primal_lower36  469
    u[4]      primal_lower37  251
    u[4]      primal_lower38  480
    u[4]      primal_lower39  19
    u[4]      primal_lower40  738
    u[4]      primal_lower41  699
    u[4]      primal_lower42  170
    u[4]      primal_lower43  606
    u[4]      primal_lower44  905
    u[4]      primal_lower45  136
    u[4]      primal_lower46  318
    u[4]      primal_lower47  58
    u[4]      primal_lower48  206
    u[4]      primal_lower49  282
    u[4]      primal_lower50  659
    u[4]      primal_lower51  497
    u[4]      primal_lower52  457
    u[4]      primal_lower53  79
    u[4]      primal_lower54  342
    u[4]      primal_lower55  89
    u[4]      primal_lower56  706
    u[4]      primal_lower57  88
    u[4]      primal_lower58  986
    u[4]      primal_lower59  256
    u[4]      primal_lower60  219
    u[4]      primal_lower61  412
    u[4]      primal_lower62  304
    u[4]      primal_lower63  278
    u[4]      primal_lower64  10
    u[4]      primal_lower65  875
    u[4]      primal_lower66  789
    u[4]      primal_lower67  599
    u[4]      primal_lower68  283
    u[4]      primal_lower69  730
    u[4]      primal_lower70  640
    u[4]      primal_lower71  847
    u[4]      primal_lower72  518
    u[4]      primal_lower73  165
    u[4]      primal_lower74  76
    u[4]      primal_lower75  616
    u[4]      primal_lower76  809
    u[4]      primal_lower77  41
    u[4]      primal_lower78  938
    u[4]      primal_lower79  236
    u[4]      primal_lower80  884
    u[4]      primal_lower81  833
    u[4]      primal_lower82  398
    u[4]      primal_lower83  375
    u[4]      primal_lower84  216
    u[4]      primal_lower85  772
    u[4]      primal_lower86  624
    u[4]      primal_lower87  825
    u[4]      primal_lower88  903
    u[4]      primal_lower89  145
    u[4]      primal_lower90  432
    u[4]      primal_lower91  430
    u[4]      primal_lower92  245
    u[4]      primal_lower93  148
    u[4]      primal_lower94  295
    u[4]      primal_lower95  634
    u[4]      primal_lower96  553
    u[4]      primal_lower97  239
    u[4]      primal_lower98  546
    u[4]      primal_lower99  193
    u[4]      interdiction[4]  1
    u[4]      mccormick1[4]  -1
    u[4]      mccormick3[4]  1
    u[5]      primal_lower0  475
    u[5]      primal_lower1  687
    u[5]      primal_lower2  848
    u[5]      primal_lower3  153
    u[5]      primal_lower4  715
    u[5]      primal_lower5  724
    u[5]      primal_lower6  942
    u[5]      primal_lower7  855
    u[5]      primal_lower8  254
    u[5]      primal_lower9  339
    u[5]      primal_lower10  316
    u[5]      primal_lower11  457
    u[5]      primal_lower12  230
    u[5]      primal_lower13  187
    u[5]      primal_lower14  943
    u[5]      primal_lower15  926
    u[5]      primal_lower16  368
    u[5]      primal_lower17  657
    u[5]      primal_lower18  33
    u[5]      primal_lower19  178
    u[5]      primal_lower20  717
    u[5]      primal_lower21  212
    u[5]      primal_lower22  823
    u[5]      primal_lower23  756
    u[5]      primal_lower24  31
    u[5]      primal_lower25  191
    u[5]      primal_lower26  298
    u[5]      primal_lower27  346
    u[5]      primal_lower28  48
    u[5]      primal_lower29  79
    u[5]      primal_lower30  718
    u[5]      primal_lower31  249
    u[5]      primal_lower32  126
    u[5]      primal_lower33  476
    u[5]      primal_lower34  940
    u[5]      primal_lower35  778
    u[5]      primal_lower36  54
    u[5]      primal_lower37  396
    u[5]      primal_lower38  769
    u[5]      primal_lower39  481
    u[5]      primal_lower40  691
    u[5]      primal_lower41  940
    u[5]      primal_lower42  688
    u[5]      primal_lower43  407
    u[5]      primal_lower44  303
    u[5]      primal_lower45  401
    u[5]      primal_lower46  756
    u[5]      primal_lower47  984
    u[5]      primal_lower48  39
    u[5]      primal_lower49  459
    u[5]      primal_lower50  348
    u[5]      primal_lower51  567
    u[5]      primal_lower52  135
    u[5]      primal_lower53  896
    u[5]      primal_lower54  228
    u[5]      primal_lower55  698
    u[5]      primal_lower56  232
    u[5]      primal_lower57  313
    u[5]      primal_lower58  715
    u[5]      primal_lower59  961
    u[5]      primal_lower60  481
    u[5]      primal_lower61  778
    u[5]      primal_lower62  801
    u[5]      primal_lower63  919
    u[5]      primal_lower64  368
    u[5]      primal_lower65  604
    u[5]      primal_lower66  731
    u[5]      primal_lower67  768
    u[5]      primal_lower68  937
    u[5]      primal_lower69  912
    u[5]      primal_lower70  918
    u[5]      primal_lower71  640
    u[5]      primal_lower72  580
    u[5]      primal_lower73  286
    u[5]      primal_lower74  725
    u[5]      primal_lower75  478
    u[5]      primal_lower76  458
    u[5]      primal_lower77  759
    u[5]      primal_lower78  920
    u[5]      primal_lower79  621
    u[5]      primal_lower80  562
    u[5]      primal_lower81  538
    u[5]      primal_lower82  199
    u[5]      primal_lower83  408
    u[5]      primal_lower84  193
    u[5]      primal_lower85  394
    u[5]      primal_lower86  601
    u[5]      primal_lower87  295
    u[5]      primal_lower88  680
    u[5]      primal_lower89  282
    u[5]      primal_lower90  25
    u[5]      primal_lower91  87
    u[5]      primal_lower92  883
    u[5]      primal_lower93  578
    u[5]      primal_lower94  853
    u[5]      primal_lower95  611
    u[5]      primal_lower96  298
    u[5]      primal_lower97  93
    u[5]      primal_lower98  75
    u[5]      primal_lower99  711
    u[5]      interdiction[5]  1
    u[5]      mccormick1[5]  -1
    u[5]      mccormick3[5]  1
    u[6]      primal_lower0  270
    u[6]      primal_lower1  594
    u[6]      primal_lower2  531
    u[6]      primal_lower3  377
    u[6]      primal_lower4  915
    u[6]      primal_lower5  239
    u[6]      primal_lower6  689
    u[6]      primal_lower7  298
    u[6]      primal_lower8  398
    u[6]      primal_lower9  862
    u[6]      primal_lower10  807
    u[6]      primal_lower11  948
    u[6]      primal_lower12  785
    u[6]      primal_lower13  835
    u[6]      primal_lower14  247
    u[6]      primal_lower15  313
    u[6]      primal_lower16  435
    u[6]      primal_lower17  265
    u[6]      primal_lower18  697
    u[6]      primal_lower19  650
    u[6]      primal_lower20  472
    u[6]      primal_lower21  108
    u[6]      primal_lower22  146
    u[6]      primal_lower23  92
    u[6]      primal_lower24  834
    u[6]      primal_lower25  466
    u[6]      primal_lower26  154
    u[6]      primal_lower27  693
    u[6]      primal_lower28  768
    u[6]      primal_lower29  847
    u[6]      primal_lower30  649
    u[6]      primal_lower31  801
    u[6]      primal_lower32  830
    u[6]      primal_lower33  212
    u[6]      primal_lower34  932
    u[6]      primal_lower35  349
    u[6]      primal_lower36  638
    u[6]      primal_lower37  740
    u[6]      primal_lower38  809
    u[6]      primal_lower39  156
    u[6]      primal_lower40  835
    u[6]      primal_lower41  852
    u[6]      primal_lower42  795
    u[6]      primal_lower43  55
    u[6]      primal_lower44  178
    u[6]      primal_lower45  513
    u[6]      primal_lower46  575
    u[6]      primal_lower47  939
    u[6]      primal_lower48  719
    u[6]      primal_lower49  771
    u[6]      primal_lower50  556
    u[6]      primal_lower51  282
    u[6]      primal_lower52  370
    u[6]      primal_lower53  160
    u[6]      primal_lower54  431
    u[6]      primal_lower55  770
    u[6]      primal_lower56  139
    u[6]      primal_lower57  25
    u[6]      primal_lower58  699
    u[6]      primal_lower59  681
    u[6]      primal_lower60  132
    u[6]      primal_lower61  349
    u[6]      primal_lower62  825
    u[6]      primal_lower63  215
    u[6]      primal_lower64  395
    u[6]      primal_lower65  484
    u[6]      primal_lower66  262
    u[6]      primal_lower67  656
    u[6]      primal_lower68  828
    u[6]      primal_lower69  699
    u[6]      primal_lower70  377
    u[6]      primal_lower71  64
    u[6]      primal_lower72  743
    u[6]      primal_lower73  422
    u[6]      primal_lower74  165
    u[6]      primal_lower75  793
    u[6]      primal_lower76  658
    u[6]      primal_lower77  938
    u[6]      primal_lower78  643
    u[6]      primal_lower79  501
    u[6]      primal_lower80  549
    u[6]      primal_lower81  74
    u[6]      primal_lower82  95
    u[6]      primal_lower83  168
    u[6]      primal_lower84  569
    u[6]      primal_lower85  909
    u[6]      primal_lower86  953
    u[6]      primal_lower87  106
    u[6]      primal_lower88  408
    u[6]      primal_lower89  970
    u[6]      primal_lower90  777
    u[6]      primal_lower91  831
    u[6]      primal_lower92  14
    u[6]      primal_lower93  605
    u[6]      primal_lower94  200
    u[6]      primal_lower95  467
    u[6]      primal_lower96  962
    u[6]      primal_lower97  144
    u[6]      primal_lower98  355
    u[6]      primal_lower99  778
    u[6]      interdiction[6]  1
    u[6]      mccormick1[6]  -1
    u[6]      mccormick3[6]  1
    u[7]      primal_lower0  605
    u[7]      primal_lower1  193
    u[7]      primal_lower2  834
    u[7]      primal_lower3  835
    u[7]      primal_lower4  213
    u[7]      primal_lower5  222
    u[7]      primal_lower6  176
    u[7]      primal_lower7  505
    u[7]      primal_lower8  496
    u[7]      primal_lower9  917
    u[7]      primal_lower10  862
    u[7]      primal_lower11  107
    u[7]      primal_lower12  552
    u[7]      primal_lower13  69
    u[7]      primal_lower14  1
    u[7]      primal_lower15  56
    u[7]      primal_lower16  418
    u[7]      primal_lower17  283
    u[7]      primal_lower18  755
    u[7]      primal_lower19  580
    u[7]      primal_lower20  807
    u[7]      primal_lower21  326
    u[7]      primal_lower22  185
    u[7]      primal_lower23  190
    u[7]      primal_lower24  753
    u[7]      primal_lower25  537
    u[7]      primal_lower26  844
    u[7]      primal_lower27  92
    u[7]      primal_lower28  698
    u[7]      primal_lower29  905
    u[7]      primal_lower30  464
    u[7]      primal_lower31  11
    u[7]      primal_lower32  360
    u[7]      primal_lower33  902
    u[7]      primal_lower34  6
    u[7]      primal_lower35  548
    u[7]      primal_lower36  152
    u[7]      primal_lower37  590
    u[7]      primal_lower38  859
    u[7]      primal_lower39  99
    u[7]      primal_lower40  125
    u[7]      primal_lower41  654
    u[7]      primal_lower42  530
    u[7]      primal_lower43  545
    u[7]      primal_lower44  905
    u[7]      primal_lower45  931
    u[7]      primal_lower46  630
    u[7]      primal_lower47  522
    u[7]      primal_lower48  833
    u[7]      primal_lower49  325
    u[7]      primal_lower50  286
    u[7]      primal_lower51  929
    u[7]      primal_lower52  9
    u[7]      primal_lower53  810
    u[7]      primal_lower54  534
    u[7]      primal_lower55  588
    u[7]      primal_lower56  826
    u[7]      primal_lower57  955
    u[7]      primal_lower58  277
    u[7]      primal_lower59  147
    u[7]      primal_lower60  675
    u[7]      primal_lower61  252
    u[7]      primal_lower62  363
    u[7]      primal_lower63  121
    u[7]      primal_lower64  378
    u[7]      primal_lower65  534
    u[7]      primal_lower66  805
    u[7]      primal_lower67  882
    u[7]      primal_lower68  99
    u[7]      primal_lower69  362
    u[7]      primal_lower70  600
    u[7]      primal_lower71  322
    u[7]      primal_lower72  902
    u[7]      primal_lower73  616
    u[7]      primal_lower74  671
    u[7]      primal_lower75  704
    u[7]      primal_lower76  876
    u[7]      primal_lower77  321
    u[7]      primal_lower78  986
    u[7]      primal_lower79  663
    u[7]      primal_lower80  156
    u[7]      primal_lower81  300
    u[7]      primal_lower82  153
    u[7]      primal_lower83  698
    u[7]      primal_lower84  347
    u[7]      primal_lower85  796
    u[7]      primal_lower86  115
    u[7]      primal_lower87  313
    u[7]      primal_lower88  522
    u[7]      primal_lower89  236
    u[7]      primal_lower90  595
    u[7]      primal_lower91  505
    u[7]      primal_lower92  61
    u[7]      primal_lower93  716
    u[7]      primal_lower94  399
    u[7]      primal_lower95  845
    u[7]      primal_lower96  588
    u[7]      primal_lower97  383
    u[7]      primal_lower98  997
    u[7]      primal_lower99  209
    u[7]      interdiction[7]  1
    u[7]      mccormick1[7]  -1
    u[7]      mccormick3[7]  1
    u[8]      primal_lower0  774
    u[8]      primal_lower1  442
    u[8]      primal_lower2  771
    u[8]      primal_lower3  513
    u[8]      primal_lower4  875
    u[8]      primal_lower5  119
    u[8]      primal_lower6  321
    u[8]      primal_lower7  794
    u[8]      primal_lower8  598
    u[8]      primal_lower9  198
    u[8]      primal_lower10  87
    u[8]      primal_lower11  652
    u[8]      primal_lower12  89
    u[8]      primal_lower13  787
    u[8]      primal_lower14  703
    u[8]      primal_lower15  553
    u[8]      primal_lower16  475
    u[8]      primal_lower17  601
    u[8]      primal_lower18  489
    u[8]      primal_lower19  658
    u[8]      primal_lower20  920
    u[8]      primal_lower21  580
    u[8]      primal_lower22  10
    u[8]      primal_lower23  828
    u[8]      primal_lower24  890
    u[8]      primal_lower25  842
    u[8]      primal_lower26  234
    u[8]      primal_lower27  373
    u[8]      primal_lower28  40
    u[8]      primal_lower29  575
    u[8]      primal_lower30  993
    u[8]      primal_lower31  545
    u[8]      primal_lower32  958
    u[8]      primal_lower33  276
    u[8]      primal_lower34  996
    u[8]      primal_lower35  781
    u[8]      primal_lower36  126
    u[8]      primal_lower37  236
    u[8]      primal_lower38  761
    u[8]      primal_lower39  532
    u[8]      primal_lower40  331
    u[8]      primal_lower41  980
    u[8]      primal_lower42  483
    u[8]      primal_lower43  559
    u[8]      primal_lower44  154
    u[8]      primal_lower45  73
    u[8]      primal_lower46  551
    u[8]      primal_lower47  155
    u[8]      primal_lower48  215
    u[8]      primal_lower49  595
    u[8]      primal_lower50  972
    u[8]      primal_lower51  674
    u[8]      primal_lower52  450
    u[8]      primal_lower53  496
    u[8]      primal_lower54  295
    u[8]      primal_lower55  314
    u[8]      primal_lower56  707
    u[8]      primal_lower57  681
    u[8]      primal_lower58  83
    u[8]      primal_lower59  617
    u[8]      primal_lower60  196
    u[8]      primal_lower61  429
    u[8]      primal_lower62  241
    u[8]      primal_lower63  623
    u[8]      primal_lower64  803
    u[8]      primal_lower65  812
    u[8]      primal_lower66  590
    u[8]      primal_lower67  656
    u[8]      primal_lower68  804
    u[8]      primal_lower69  683
    u[8]      primal_lower70  281
    u[8]      primal_lower71  872
    u[8]      primal_lower72  455
    u[8]      primal_lower73  886
    u[8]      primal_lower74  757
    u[8]      primal_lower75  169
    u[8]      primal_lower76  514
    u[8]      primal_lower77  266
    u[8]      primal_lower78  939
    u[8]      primal_lower79  525
    u[8]      primal_lower80  197
    u[8]      primal_lower81  210
    u[8]      primal_lower82  351
    u[8]      primal_lower83  288
    u[8]      primal_lower84  393
    u[8]      primal_lower85  821
    u[8]      primal_lower86  769
    u[8]      primal_lower87  930
    u[8]      primal_lower88  24
    u[8]      primal_lower89  114
    u[8]      primal_lower90  905
    u[8]      primal_lower91  487
    u[8]      primal_lower92  950
    u[8]      primal_lower93  293
    u[8]      primal_lower94  448
    u[8]      primal_lower95  275
    u[8]      primal_lower96  410
    u[8]      primal_lower97  112
    u[8]      primal_lower98  779
    u[8]      primal_lower99  810
    u[8]      interdiction[8]  1
    u[8]      mccormick1[8]  -1
    u[8]      mccormick3[8]  1
    u[9]      primal_lower0  715
    u[9]      primal_lower1  327
    u[9]      primal_lower2  888
    u[9]      primal_lower3  42
    u[9]      primal_lower4  484
    u[9]      primal_lower5  684
    u[9]      primal_lower6  278
    u[9]      primal_lower7  767
    u[9]      primal_lower8  87
    u[9]      primal_lower9  315
    u[9]      primal_lower10  244
    u[9]      primal_lower11  193
    u[9]      primal_lower12  694
    u[9]      primal_lower13  540
    u[9]      primal_lower14  984
    u[9]      primal_lower15  590
    u[9]      primal_lower16  512
    u[9]      primal_lower17  10
    u[9]      primal_lower18  378
    u[9]      primal_lower19  907
    u[9]      primal_lower20  421
    u[9]      primal_lower21  637
    u[9]      primal_lower22  327
    u[9]      primal_lower23  309
    u[9]      primal_lower24  159
    u[9]      primal_lower25  439
    u[9]      primal_lower26  347
    u[9]      primal_lower27  874
    u[9]      primal_lower28  553
    u[9]      primal_lower29  232
    u[9]      primal_lower30  958
    u[9]      primal_lower31  434
    u[9]      primal_lower32  175
    u[9]      primal_lower33  77
    u[9]      primal_lower34  765
    u[9]      primal_lower35  194
    u[9]      primal_lower36  7
    u[9]      primal_lower37  429
    u[9]      primal_lower38  562
    u[9]      primal_lower39  217
    u[9]      primal_lower40  436
    u[9]      primal_lower41  653
    u[9]      primal_lower42  488
    u[9]      primal_lower43  784
    u[9]      primal_lower44  23
    u[9]      primal_lower45  266
    u[9]      primal_lower46  820
    u[9]      primal_lower47  288
    u[9]      primal_lower48  8
    u[9]      primal_lower49  124
    u[9]      primal_lower50  93
    u[9]      primal_lower51  887
    u[9]      primal_lower52  847
    u[9]      primal_lower53  265
    u[9]      primal_lower54  196
    u[9]      primal_lower55  347
    u[9]      primal_lower56  616
    u[9]      primal_lower57  330
    u[9]      primal_lower58  436
    u[9]      primal_lower59  586
    u[9]      primal_lower60  401
    u[9]      primal_lower61  426
    u[9]      primal_lower62  722
    u[9]      primal_lower63  952
    u[9]      primal_lower64  416
    u[9]      primal_lower65  981
    u[9]      primal_lower66  91
    u[9]      primal_lower67  457
    u[9]      primal_lower68  753
    u[9]      primal_lower69  912
    u[9]      primal_lower70  518
    u[9]      primal_lower71  921
    u[9]      primal_lower72  268
    u[9]      primal_lower73  975
    u[9]      primal_lower74  806
    u[9]      primal_lower75  982
    u[9]      primal_lower76  883
    u[9]      primal_lower77  631
    u[9]      primal_lower78  904
    u[9]      primal_lower79  990
    u[9]      primal_lower80  682
    u[9]      primal_lower81  195
    u[9]      primal_lower82  568
    u[9]      primal_lower83  449
    u[9]      primal_lower84  330
    u[9]      primal_lower85  922
    u[9]      primal_lower86  754
    u[9]      primal_lower87  247
    u[9]      primal_lower88  193
    u[9]      primal_lower89  83
    u[9]      primal_lower90  162
    u[9]      primal_lower91  704
    u[9]      primal_lower92  403
    u[9]      primal_lower93  434
    u[9]      primal_lower94  989
    u[9]      primal_lower95  524
    u[9]      primal_lower96  731
    u[9]      primal_lower97  229
    u[9]      primal_lower98  668
    u[9]      primal_lower99  343
    u[9]      interdiction[9]  1
    u[9]      mccormick1[9]  -1
    u[9]      mccormick3[9]  1
    u[10]     primal_lower0  285
    u[10]     primal_lower1  177
    u[10]     primal_lower2  882
    u[10]     primal_lower3  175
    u[10]     primal_lower4  161
    u[10]     primal_lower5  982
    u[10]     primal_lower6  912
    u[10]     primal_lower7  433
    u[10]     primal_lower8  724
    u[10]     primal_lower9  925
    u[10]     primal_lower10  614
    u[10]     primal_lower11  771
    u[10]     primal_lower12  504
    u[10]     primal_lower13  33
    u[10]     primal_lower14  461
    u[10]     primal_lower15  544
    u[10]     primal_lower16  986
    u[10]     primal_lower17  919
    u[10]     primal_lower18  7
    u[10]     primal_lower19  816
    u[10]     primal_lower20  599
    u[10]     primal_lower21  10
    u[10]     primal_lower22  177
    u[10]     primal_lower23  290
    u[10]     primal_lower24  737
    u[10]     primal_lower25  441
    u[10]     primal_lower26  496
    u[10]     primal_lower27  844
    u[10]     primal_lower28  654
    u[10]     primal_lower29  69
    u[10]     primal_lower30  248
    u[10]     primal_lower31  63
    u[10]     primal_lower32  836
    u[10]     primal_lower33  442
    u[10]     primal_lower34  778
    u[10]     primal_lower35  364
    u[10]     primal_lower36  76
    u[10]     primal_lower37  42
    u[10]     primal_lower38  559
    u[10]     primal_lower39  635
    u[10]     primal_lower40  177
    u[10]     primal_lower41  482
    u[10]     primal_lower42  618
    u[10]     primal_lower43  317
    u[10]     primal_lower44  705
    u[10]     primal_lower45  111
    u[10]     primal_lower46  342
    u[10]     primal_lower47  50
    u[10]     primal_lower48  405
    u[10]     primal_lower49  769
    u[10]     primal_lower50  114
    u[10]     primal_lower51  305
    u[10]     primal_lower52  529
    u[10]     primal_lower53  886
    u[10]     primal_lower54  678
    u[10]     primal_lower55  544
    u[10]     primal_lower56  690
    u[10]     primal_lower57  279
    u[10]     primal_lower58  817
    u[10]     primal_lower59  487
    u[10]     primal_lower60  203
    u[10]     primal_lower61  84
    u[10]     primal_lower62  847
    u[10]     primal_lower63  365
    u[10]     primal_lower64  546
    u[10]     primal_lower65  442
    u[10]     primal_lower66  149
    u[10]     primal_lower67  894
    u[10]     primal_lower68  43
    u[10]     primal_lower69  954
    u[10]     primal_lower70  128
    u[10]     primal_lower71  382
    u[10]     primal_lower72  590
    u[10]     primal_lower73  436
    u[10]     primal_lower74  211
    u[10]     primal_lower75  256
    u[10]     primal_lower76  16
    u[10]     primal_lower77  193
    u[10]     primal_lower78  626
    u[10]     primal_lower79  235
    u[10]     primal_lower80  260
    u[10]     primal_lower81  856
    u[10]     primal_lower82  853
    u[10]     primal_lower83  790
    u[10]     primal_lower84  655
    u[10]     primal_lower85  540
    u[10]     primal_lower86  327
    u[10]     primal_lower87  793
    u[10]     primal_lower88  198
    u[10]     primal_lower89  848
    u[10]     primal_lower90  71
    u[10]     primal_lower91  13
    u[10]     primal_lower92  109
    u[10]     primal_lower93  444
    u[10]     primal_lower94  31
    u[10]     primal_lower95  57
    u[10]     primal_lower96  136
    u[10]     primal_lower97  295
    u[10]     primal_lower98  377
    u[10]     primal_lower99  777
    u[10]     interdiction[10]  1
    u[10]     mccormick1[10]  -1
    u[10]     mccormick3[10]  1
    u[11]     primal_lower0  100
    u[11]     primal_lower1  312
    u[11]     primal_lower2  393
    u[11]     primal_lower3  579
    u[11]     primal_lower4  77
    u[11]     primal_lower5  605
    u[11]     primal_lower6  519
    u[11]     primal_lower7  408
    u[11]     primal_lower8  912
    u[11]     primal_lower9  852
    u[11]     primal_lower10  989
    u[11]     primal_lower11  882
    u[11]     primal_lower12  807
    u[11]     primal_lower13  885
    u[11]     primal_lower14  297
    u[11]     primal_lower15  719
    u[11]     primal_lower16  305
    u[11]     primal_lower17  699
    u[11]     primal_lower18  835
    u[11]     primal_lower19  764
    u[11]     primal_lower20  54
    u[11]     primal_lower21  806
    u[11]     primal_lower22  256
    u[11]     primal_lower23  102
    u[11]     primal_lower24  304
    u[11]     primal_lower25  560
    u[11]     primal_lower26  172
    u[11]     primal_lower27  779
    u[11]     primal_lower28  690
    u[11]     primal_lower29  17
    u[11]     primal_lower30  55
    u[11]     primal_lower31  603
    u[11]     primal_lower32  512
    u[11]     primal_lower33  6
    u[11]     primal_lower34  294
    u[11]     primal_lower35  403
    u[11]     primal_lower36  8
    u[11]     primal_lower37  662
    u[11]     primal_lower38  755
    u[11]     primal_lower39  18
    u[11]     primal_lower40  693
    u[11]     primal_lower41  974
    u[11]     primal_lower42  433
    u[11]     primal_lower43  81
    u[11]     primal_lower44  432
    u[11]     primal_lower45  299
    u[11]     primal_lower46  445
    u[11]     primal_lower47  641
    u[11]     primal_lower48  633
    u[11]     primal_lower49  229
    u[11]     primal_lower50  310
    u[11]     primal_lower51  904
    u[11]     primal_lower52  168
    u[11]     primal_lower53  434
    u[11]     primal_lower54  877
    u[11]     primal_lower55  524
    u[11]     primal_lower56  201
    u[11]     primal_lower57  507
    u[11]     primal_lower58  685
    u[11]     primal_lower59  195
    u[11]     primal_lower60  170
    u[11]     primal_lower61  139
    u[11]     primal_lower62  35
    u[11]     primal_lower63  761
    u[11]     primal_lower64  41
    u[11]     primal_lower65  838
    u[11]     primal_lower66  4
    u[11]     primal_lower67  874
    u[11]     primal_lower68  314
    u[11]     primal_lower69  561
    u[11]     primal_lower70  215
    u[11]     primal_lower71  626
    u[11]     primal_lower72  645
    u[11]     primal_lower73  48
    u[11]     primal_lower74  719
    u[11]     primal_lower75  975
    u[11]     primal_lower76  876
    u[11]     primal_lower77  560
    u[11]     primal_lower78  841
    u[11]     primal_lower79  303
    u[11]     primal_lower80  787
    u[11]     primal_lower81  356
    u[11]     primal_lower82  777
    u[11]     primal_lower83  170
    u[11]     primal_lower84  603
    u[11]     primal_lower85  67
    u[11]     primal_lower86  179
    u[11]     primal_lower87  128
    u[11]     primal_lower88  594
    u[11]     primal_lower89  300
    u[11]     primal_lower90  11
    u[11]     primal_lower91  289
    u[11]     primal_lower92  420
    u[11]     primal_lower93  35
    u[11]     primal_lower94  862
    u[11]     primal_lower95  981
    u[11]     primal_lower96  708
    u[11]     primal_lower97  966
    u[11]     primal_lower98  741
    u[11]     primal_lower99  64
    u[11]     interdiction[11]  1
    u[11]     mccormick1[11]  -1
    u[11]     mccormick3[11]  1
    u[12]     primal_lower0  509
    u[12]     primal_lower1  449
    u[12]     primal_lower2  586
    u[12]     primal_lower3  512
    u[12]     primal_lower4  994
    u[12]     primal_lower5  78
    u[12]     primal_lower6  760
    u[12]     primal_lower7  769
    u[12]     primal_lower8  853
    u[12]     primal_lower9  877
    u[12]     primal_lower10  958
    u[12]     primal_lower11  827
    u[12]     primal_lower12  464
    u[12]     primal_lower13  602
    u[12]     primal_lower14  990
    u[12]     primal_lower15  392
    u[12]     primal_lower16  178
    u[12]     primal_lower17  184
    u[12]     primal_lower18  144
    u[12]     primal_lower19  801
    u[12]     primal_lower20  519
    u[12]     primal_lower21  755
    u[12]     primal_lower22  817
    u[12]     primal_lower23  107
    u[12]     primal_lower24  97
    u[12]     primal_lower25  897
    u[12]     primal_lower26  993
    u[12]     primal_lower27  220
    u[12]     primal_lower28  503
    u[12]     primal_lower29  158
    u[12]     primal_lower30  152
    u[12]     primal_lower31  752
    u[12]     primal_lower32  613
    u[12]     primal_lower33  707
    u[12]     primal_lower34  747
    u[12]     primal_lower35  508
    u[12]     primal_lower36  357
    u[12]     primal_lower37  931
    u[12]     primal_lower38  904
    u[12]     primal_lower39  963
    u[12]     primal_lower40  234
    u[12]     primal_lower41  795
    u[12]     primal_lower42  794
    u[12]     primal_lower43  334
    u[12]     primal_lower44  65
    u[12]     primal_lower45  104
    u[12]     primal_lower46  510
    u[12]     primal_lower47  218
    u[12]     primal_lower48  790
    u[12]     primal_lower49  322
    u[12]     primal_lower50  459
    u[12]     primal_lower51  449
    u[12]     primal_lower52  513
    u[12]     primal_lower53  7
    u[12]     primal_lower54  334
    u[12]     primal_lower55  673
    u[12]     primal_lower56  834
    u[12]     primal_lower57  432
    u[12]     primal_lower58  42
    u[12]     primal_lower59  528
    u[12]     primal_lower60  683
    u[12]     primal_lower61  372
    u[12]     primal_lower62  768
    u[12]     primal_lower63  358
    u[12]     primal_lower64  2
    u[12]     primal_lower65  315
    u[12]     primal_lower66  957
    u[12]     primal_lower67  791
    u[12]     primal_lower68  147
    u[12]     primal_lower69  266
    u[12]     primal_lower70  392
    u[12]     primal_lower71  271
    u[12]     primal_lower72  86
    u[12]     primal_lower73  101
    u[12]     primal_lower74  484
    u[12]     primal_lower75  784
    u[12]     primal_lower76  713
    u[12]     primal_lower77  825
    u[12]     primal_lower78  218
    u[12]     primal_lower79  796
    u[12]     primal_lower80  484
    u[12]     primal_lower81  521
    u[12]     primal_lower82  134
    u[12]     primal_lower83  807
    u[12]     primal_lower84  800
    u[12]     primal_lower85  140
    u[12]     primal_lower86  792
    u[12]     primal_lower87  305
    u[12]     primal_lower88  975
    u[12]     primal_lower89  297
    u[12]     primal_lower90  368
    u[12]     primal_lower91  854
    u[12]     primal_lower92  621
    u[12]     primal_lower93  772
    u[12]     primal_lower94  527
    u[12]     primal_lower95  122
    u[12]     primal_lower96  561
    u[12]     primal_lower97  471
    u[12]     primal_lower98  42
    u[12]     primal_lower99  737
    u[12]     interdiction[12]  1
    u[12]     mccormick1[12]  -1
    u[12]     mccormick3[12]  1
    u[13]     primal_lower0  197
    u[13]     primal_lower1  297
    u[13]     primal_lower2  98
    u[13]     primal_lower3  332
    u[13]     primal_lower4  446
    u[13]     primal_lower5  342
    u[13]     primal_lower6  504
    u[13]     primal_lower7  241
    u[13]     primal_lower8  497
    u[13]     primal_lower9  77
    u[13]     primal_lower10  822
    u[13]     primal_lower11  739
    u[13]     primal_lower12  488
    u[13]     primal_lower13  438
    u[13]     primal_lower14  258
    u[13]     primal_lower15  184
    u[13]     primal_lower16  114
    u[13]     primal_lower17  268
    u[13]     primal_lower18  332
    u[13]     primal_lower19  757
    u[13]     primal_lower20  391
    u[13]     primal_lower21  671
    u[13]     primal_lower22  513
    u[13]     primal_lower23  599
    u[13]     primal_lower24  713
    u[13]     primal_lower25  457
    u[13]     primal_lower26  149
    u[13]     primal_lower27  92
    u[13]     primal_lower28  595
    u[13]     primal_lower29  762
    u[13]     primal_lower30  128
    u[13]     primal_lower31  196
    u[13]     primal_lower32  81
    u[13]     primal_lower33  335
    u[13]     primal_lower34  999
    u[13]     primal_lower35  236
    u[13]     primal_lower36  401
    u[13]     primal_lower37  487
    u[13]     primal_lower38  4
    u[13]     primal_lower39  587
    u[13]     primal_lower40  726
    u[13]     primal_lower41  351
    u[13]     primal_lower42  370
    u[13]     primal_lower43  322
    u[13]     primal_lower44  241
    u[13]     primal_lower45  204
    u[13]     primal_lower46  894
    u[13]     primal_lower47  218
    u[13]     primal_lower48  218
    u[13]     primal_lower49  630
    u[13]     primal_lower50  903
    u[13]     primal_lower51  905
    u[13]     primal_lower52  505
    u[13]     primal_lower53  571
    u[13]     primal_lower54  822
    u[13]     primal_lower55  917
    u[13]     primal_lower56  154
    u[13]     primal_lower57  852
    u[13]     primal_lower58  110
    u[13]     primal_lower59  876
    u[13]     primal_lower60  443
    u[13]     primal_lower61  428
    u[13]     primal_lower62  428
    u[13]     primal_lower63  826
    u[13]     primal_lower64  2
    u[13]     primal_lower65  383
    u[13]     primal_lower66  741
    u[13]     primal_lower67  603
    u[13]     primal_lower68  579
    u[13]     primal_lower69  250
    u[13]     primal_lower70  672
    u[13]     primal_lower71  43
    u[13]     primal_lower72  438
    u[13]     primal_lower73  97
    u[13]     primal_lower74  704
    u[13]     primal_lower75  232
    u[13]     primal_lower76  957
    u[13]     primal_lower77  249
    u[13]     primal_lower78  938
    u[13]     primal_lower79  784
    u[13]     primal_lower80  916
    u[13]     primal_lower81  109
    u[13]     primal_lower82  898
    u[13]     primal_lower83  995
    u[13]     primal_lower84  748
    u[13]     primal_lower85  228
    u[13]     primal_lower86  980
    u[13]     primal_lower87  233
    u[13]     primal_lower88  731
    u[13]     primal_lower89  21
    u[13]     primal_lower90  596
    u[13]     primal_lower91  370
    u[13]     primal_lower92  669
    u[13]     primal_lower93  108
    u[13]     primal_lower94  831
    u[13]     primal_lower95  862
    u[13]     primal_lower96  957
    u[13]     primal_lower97  743
    u[13]     primal_lower98  766
    u[13]     primal_lower99  1
    u[13]     interdiction[13]  1
    u[13]     mccormick1[13]  -1
    u[13]     mccormick3[13]  1
    u[14]     primal_lower0  158
    u[14]     primal_lower1  850
    u[14]     primal_lower2  315
    u[14]     primal_lower3  72
    u[14]     primal_lower4  354
    u[14]     primal_lower5  383
    u[14]     primal_lower6  33
    u[14]     primal_lower7  834
    u[14]     primal_lower8  45
    u[14]     primal_lower9  926
    u[14]     primal_lower10  303
    u[14]     primal_lower11  348
    u[14]     primal_lower12  513
    u[14]     primal_lower13  386
    u[14]     primal_lower14  726
    u[14]     primal_lower15  105
    u[14]     primal_lower16  675
    u[14]     primal_lower17  880
    u[14]     primal_lower18  848
    u[14]     primal_lower19  345
    u[14]     primal_lower20  80
    u[14]     primal_lower21  283
    u[14]     primal_lower22  562
    u[14]     primal_lower23  699
    u[14]     primal_lower24  458
    u[14]     primal_lower25  850
    u[14]     primal_lower26  697
    u[14]     primal_lower27  589
    u[14]     primal_lower28  79
    u[14]     primal_lower29  206
    u[14]     primal_lower30  673
    u[14]     primal_lower31  368
    u[14]     primal_lower32  317
    u[14]     primal_lower33  507
    u[14]     primal_lower34  219
    u[14]     primal_lower35  637
    u[14]     primal_lower36  645
    u[14]     primal_lower37  587
    u[14]     primal_lower38  712
    u[14]     primal_lower39  316
    u[14]     primal_lower40  298
    u[14]     primal_lower41  291
    u[14]     primal_lower42  531
    u[14]     primal_lower43  78
    u[14]     primal_lower44  58
    u[14]     primal_lower45  296
    u[14]     primal_lower46  31
    u[14]     primal_lower47  739
    u[14]     primal_lower48  574
    u[14]     primal_lower49  650
    u[14]     primal_lower50  979
    u[14]     primal_lower51  498
    u[14]     primal_lower52  274
    u[14]     primal_lower53  975
    u[14]     primal_lower54  511
    u[14]     primal_lower55  385
    u[14]     primal_lower56  731
    u[14]     primal_lower57  432
    u[14]     primal_lower58  50
    u[14]     primal_lower59  608
    u[14]     primal_lower60  636
    u[14]     primal_lower61  261
    u[14]     primal_lower62  448
    u[14]     primal_lower63  814
    u[14]     primal_lower64  371
    u[14]     primal_lower65  755
    u[14]     primal_lower66  294
    u[14]     primal_lower67  15
    u[14]     primal_lower68  308
    u[14]     primal_lower69  947
    u[14]     primal_lower70  265
    u[14]     primal_lower71  607
    u[14]     primal_lower72  367
    u[14]     primal_lower73  29
    u[14]     primal_lower74  948
    u[14]     primal_lower75  665
    u[14]     primal_lower76  825
    u[14]     primal_lower77  250
    u[14]     primal_lower78  627
    u[14]     primal_lower79  868
    u[14]     primal_lower80  629
    u[14]     primal_lower81  849
    u[14]     primal_lower82  790
    u[14]     primal_lower83  527
    u[14]     primal_lower84  632
    u[14]     primal_lower85  5
    u[14]     primal_lower86  376
    u[14]     primal_lower87  58
    u[14]     primal_lower88  735
    u[14]     primal_lower89  201
    u[14]     primal_lower90  8
    u[14]     primal_lower91  974
    u[14]     primal_lower92  94
    u[14]     primal_lower93  485
    u[14]     primal_lower94  416
    u[14]     primal_lower95  394
    u[14]     primal_lower96  289
    u[14]     primal_lower97  816
    u[14]     primal_lower98  890
    u[14]     primal_lower99  354
    u[14]     interdiction[14]  1
    u[14]     mccormick1[14]  -1
    u[14]     mccormick3[14]  1
    u[15]     primal_lower0  742
    u[15]     primal_lower1  234
    u[15]     primal_lower2  979
    u[15]     primal_lower3  332
    u[15]     primal_lower4  510
    u[15]     primal_lower5  23
    u[15]     primal_lower6  337
    u[15]     primal_lower7  50
    u[15]     primal_lower8  345
    u[15]     primal_lower9  438
    u[15]     primal_lower10  271
    u[15]     primal_lower11  676
    u[15]     primal_lower12  601
    u[15]     primal_lower13  622
    u[15]     primal_lower14  434
    u[15]     primal_lower15  441
    u[15]     primal_lower16  539
    u[15]     primal_lower17  884
    u[15]     primal_lower18  300
    u[15]     primal_lower19  45
    u[15]     primal_lower20  432
    u[15]     primal_lower21  487
    u[15]     primal_lower22  146
    u[15]     primal_lower23  303
    u[15]     primal_lower24  626
    u[15]     primal_lower25  946
    u[15]     primal_lower26  269
    u[15]     primal_lower27  85
    u[15]     primal_lower28  811
    u[15]     primal_lower29  234
    u[15]     primal_lower30  897
    u[15]     primal_lower31  492
    u[15]     primal_lower32  417
    u[15]     primal_lower33  815
    u[15]     primal_lower34  975
    u[15]     primal_lower35  661
    u[15]     primal_lower36  753
    u[15]     primal_lower37  839
    u[15]     primal_lower38  60
    u[15]     primal_lower39  852
    u[15]     primal_lower40  446
    u[15]     primal_lower41  423
    u[15]     primal_lower42  979
    u[15]     primal_lower43  930
    u[15]     primal_lower44  10
    u[15]     primal_lower45  868
    u[15]     primal_lower46  463
    u[15]     primal_lower47  283
    u[15]     primal_lower48  810
    u[15]     primal_lower49  230
    u[15]     primal_lower50  567
    u[15]     primal_lower51  10
    u[15]     primal_lower52  34
    u[15]     primal_lower53  75
    u[15]     primal_lower54  327
    u[15]     primal_lower55  405
    u[15]     primal_lower56  355
    u[15]     primal_lower57  668
    u[15]     primal_lower58  750
    u[15]     primal_lower59  948
    u[15]     primal_lower60  244
    u[15]     primal_lower61  5
    u[15]     primal_lower62  388
    u[15]     primal_lower63  914
    u[15]     primal_lower64  939
    u[15]     primal_lower65  743
    u[15]     primal_lower66  974
    u[15]     primal_lower67  875
    u[15]     primal_lower68  316
    u[15]     primal_lower69  363
    u[15]     primal_lower70  1
    u[15]     primal_lower71  339
    u[15]     primal_lower72  383
    u[15]     primal_lower73  481
    u[15]     primal_lower74  928
    u[15]     primal_lower75  849
    u[15]     primal_lower76  301
    u[15]     primal_lower77  314
    u[15]     primal_lower78  939
    u[15]     primal_lower79  424
    u[15]     primal_lower80  413
    u[15]     primal_lower81  701
    u[15]     primal_lower82  730
    u[15]     primal_lower83  11
    u[15]     primal_lower84  660
    u[15]     primal_lower85  653
    u[15]     primal_lower86  868
    u[15]     primal_lower87  34
    u[15]     primal_lower88  715
    u[15]     primal_lower89  333
    u[15]     primal_lower90  508
    u[15]     primal_lower91  738
    u[15]     primal_lower92  990
    u[15]     primal_lower93  405
    u[15]     primal_lower94  848
    u[15]     primal_lower95  110
    u[15]     primal_lower96  597
    u[15]     primal_lower97  736
    u[15]     primal_lower98  830
    u[15]     primal_lower99  474
    u[15]     interdiction[15]  1
    u[15]     mccormick1[15]  -1
    u[15]     mccormick3[15]  1
    u[16]     primal_lower0  734
    u[16]     primal_lower1  482
    u[16]     primal_lower2  707
    u[16]     primal_lower3  897
    u[16]     primal_lower4  3
    u[16]     primal_lower5  423
    u[16]     primal_lower6  121
    u[16]     primal_lower7  594
    u[16]     primal_lower8  838
    u[16]     primal_lower9  566
    u[16]     primal_lower10  567
    u[16]     primal_lower11  460
    u[16]     primal_lower12  881
    u[16]     primal_lower13  875
    u[16]     primal_lower14  311
    u[16]     primal_lower15  417
    u[16]     primal_lower16  483
    u[16]     primal_lower17  1
    u[16]     primal_lower18  9
    u[16]     primal_lower19  482
    u[16]     primal_lower20  112
    u[16]     primal_lower21  612
    u[16]     primal_lower22  642
    u[16]     primal_lower23  972
    u[16]     primal_lower24  146
    u[16]     primal_lower25  234
    u[16]     primal_lower26  266
    u[16]     primal_lower27  965
    u[16]     primal_lower28  232
    u[16]     primal_lower29  783
    u[16]     primal_lower30  609
    u[16]     primal_lower31  289
    u[16]     primal_lower32  686
    u[16]     primal_lower33  996
    u[16]     primal_lower34  516
    u[16]     primal_lower35  741
    u[16]     primal_lower36  558
    u[16]     primal_lower37  228
    u[16]     primal_lower38  281
    u[16]     primal_lower39  836
    u[16]     primal_lower40  419
    u[16]     primal_lower41  420
    u[16]     primal_lower42  827
    u[16]     primal_lower43  767
    u[16]     primal_lower44  546
    u[16]     primal_lower45  153
    u[16]     primal_lower46  759
    u[16]     primal_lower47  875
    u[16]     primal_lower48  247
    u[16]     primal_lower49  123
    u[16]     primal_lower50  828
    u[16]     primal_lower51  506
    u[16]     primal_lower52  874
    u[16]     primal_lower53  312
    u[16]     primal_lower54  735
    u[16]     primal_lower55  530
    u[16]     primal_lower56  603
    u[16]     primal_lower57  417
    u[16]     primal_lower58  579
    u[16]     primal_lower59  489
    u[16]     primal_lower60  564
    u[16]     primal_lower61  893
    u[16]     primal_lower62  825
    u[16]     primal_lower63  887
    u[16]     primal_lower64  707
    u[16]     primal_lower65  324
    u[16]     primal_lower66  126
    u[16]     primal_lower67  632
    u[16]     primal_lower68  412
    u[16]     primal_lower69  163
    u[16]     primal_lower70  185
    u[16]     primal_lower71  400
    u[16]     primal_lower72  687
    u[16]     primal_lower73  958
    u[16]     primal_lower74  909
    u[16]     primal_lower75  73
    u[16]     primal_lower76  98
    u[16]     primal_lower77  562
    u[16]     primal_lower78  587
    u[16]     primal_lower79  117
    u[16]     primal_lower80  477
    u[16]     primal_lower81  122
    u[16]     primal_lower82  95
    u[16]     primal_lower83  944
    u[16]     primal_lower84  177
    u[16]     primal_lower85  261
    u[16]     primal_lower86  65
    u[16]     primal_lower87  754
    u[16]     primal_lower88  168
    u[16]     primal_lower89  714
    u[16]     primal_lower90  129
    u[16]     primal_lower91  407
    u[16]     primal_lower92  806
    u[16]     primal_lower93  117
    u[16]     primal_lower94  72
    u[16]     primal_lower95  787
    u[16]     primal_lower96  690
    u[16]     primal_lower97  240
    u[16]     primal_lower98  915
    u[16]     primal_lower99  162
    u[16]     interdiction[16]  1
    u[16]     mccormick1[16]  -1
    u[16]     mccormick3[16]  1
    u[17]     primal_lower0  313
    u[17]     primal_lower1  597
    u[17]     primal_lower2  606
    u[17]     primal_lower3  392
    u[17]     primal_lower4  666
    u[17]     primal_lower5  634
    u[17]     primal_lower6  732
    u[17]     primal_lower7  733
    u[17]     primal_lower8  989
    u[17]     primal_lower9  81
    u[17]     primal_lower10  410
    u[17]     primal_lower11  687
    u[17]     primal_lower12  844
    u[17]     primal_lower13  530
    u[17]     primal_lower14  30
    u[17]     primal_lower15  900
    u[17]     primal_lower16  406
    u[17]     primal_lower17  200
    u[17]     primal_lower18  688
    u[17]     primal_lower19  969
    u[17]     primal_lower20  875
    u[17]     primal_lower21  651
    u[17]     primal_lower22  53
    u[17]     primal_lower23  875
    u[17]     primal_lower24  261
    u[17]     primal_lower25  877
    u[17]     primal_lower26  377
    u[17]     primal_lower27  864
    u[17]     primal_lower28  391
    u[17]     primal_lower29  542
    u[17]     primal_lower30  764
    u[17]     primal_lower31  376
    u[17]     primal_lower32  325
    u[17]     primal_lower33  67
    u[17]     primal_lower34  435
    u[17]     primal_lower35  472
    u[17]     primal_lower36  269
    u[17]     primal_lower37  507
    u[17]     primal_lower38  888
    u[17]     primal_lower39  351
    u[17]     primal_lower40  50
    u[17]     primal_lower41  427
    u[17]     primal_lower42  102
    u[17]     primal_lower43  230
    u[17]     primal_lower44  405
    u[17]     primal_lower45  504
    u[17]     primal_lower46  682
    u[17]     primal_lower47  30
    u[17]     primal_lower48  702
    u[17]     primal_lower49  970
    u[17]     primal_lower50  483
    u[17]     primal_lower51  997
    u[17]     primal_lower52  821
    u[17]     primal_lower53  887
    u[17]     primal_lower54  522
    u[17]     primal_lower55  17
    u[17]     primal_lower56  342
    u[17]     primal_lower57  624
    u[17]     primal_lower58  874
    u[17]     primal_lower59  840
    u[17]     primal_lower60  103
    u[17]     primal_lower61  16
    u[17]     primal_lower62  696
    u[17]     primal_lower63  926
    u[17]     primal_lower64  86
    u[17]     primal_lower65  651
    u[17]     primal_lower66  697
    u[17]     primal_lower67  615
    u[17]     primal_lower68  447
    u[17]     primal_lower69  830
    u[17]     primal_lower70  620
    u[17]     primal_lower71  703
    u[17]     primal_lower72  162
    u[17]     primal_lower73  165
    u[17]     primal_lower74  228
    u[17]     primal_lower75  436
    u[17]     primal_lower76  473
    u[17]     primal_lower77  53
    u[17]     primal_lower78  302
    u[17]     primal_lower79  340
    u[17]     primal_lower80  56
    u[17]     primal_lower81  553
    u[17]     primal_lower82  558
    u[17]     primal_lower83  271
    u[17]     primal_lower84  712
    u[17]     primal_lower85  752
    u[17]     primal_lower86  808
    u[17]     primal_lower87  325
    u[17]     primal_lower88  335
    u[17]     primal_lower89  89
    u[17]     primal_lower90  744
    u[17]     primal_lower91  966
    u[17]     primal_lower92  601
    u[17]     primal_lower93  368
    u[17]     primal_lower94  347
    u[17]     primal_lower95  114
    u[17]     primal_lower96  201
    u[17]     primal_lower97  419
    u[17]     primal_lower98  690
    u[17]     primal_lower99  189
    u[17]     interdiction[17]  1
    u[17]     mccormick1[17]  -1
    u[17]     mccormick3[17]  1
    u[18]     primal_lower0  562
    u[18]     primal_lower1  790
    u[18]     primal_lower2  687
    u[18]     primal_lower3  933
    u[18]     primal_lower4  855
    u[18]     primal_lower5  331
    u[18]     primal_lower6  717
    u[18]     primal_lower7  38
    u[18]     primal_lower8  826
    u[18]     primal_lower9  890
    u[18]     primal_lower10  571
    u[18]     primal_lower11  960
    u[18]     primal_lower12  773
    u[18]     primal_lower13  959
    u[18]     primal_lower14  867
    u[18]     primal_lower15  149
    u[18]     primal_lower16  191
    u[18]     primal_lower17  405
    u[18]     primal_lower18  909
    u[18]     primal_lower19  998
    u[18]     primal_lower20  564
    u[18]     primal_lower21  1000
    u[18]     primal_lower22  190
    u[18]     primal_lower23  136
    u[18]     primal_lower24  894
    u[18]     primal_lower25  902
    u[18]     primal_lower26  262
    u[18]     primal_lower27  233
    u[18]     primal_lower28  612
    u[18]     primal_lower29  683
    u[18]     primal_lower30  277
    u[18]     primal_lower31  565
    u[18]     primal_lower32  650
    u[18]     primal_lower33  440
    u[18]     primal_lower34  368
    u[18]     primal_lower35  329
    u[18]     primal_lower36  634
    u[18]     primal_lower37  96
    u[18]     primal_lower38  661
    u[18]     primal_lower39  744
    u[18]     primal_lower40  31
    u[18]     primal_lower41  408
    u[18]     primal_lower42  695
    u[18]     primal_lower43  371
    u[18]     primal_lower44  502
    u[18]     primal_lower45  365
    u[18]     primal_lower46  267
    u[18]     primal_lower47  359
    u[18]     primal_lower48  523
    u[18]     primal_lower49  615
    u[18]     primal_lower50  248
    u[18]     primal_lower51  526
    u[18]     primal_lower52  878
    u[18]     primal_lower53  964
    u[18]     primal_lower54  987
    u[18]     primal_lower55  918
    u[18]     primal_lower56  951
    u[18]     primal_lower57  933
    u[18]     primal_lower58  271
    u[18]     primal_lower59  509
    u[18]     primal_lower60  136
    u[18]     primal_lower61  305
    u[18]     primal_lower62  445
    u[18]     primal_lower63  675
    u[18]     primal_lower64  55
    u[18]     primal_lower65  928
    u[18]     primal_lower66  818
    u[18]     primal_lower67  756
    u[18]     primal_lower68  848
    u[18]     primal_lower69  487
    u[18]     primal_lower70  557
    u[18]     primal_lower71  164
    u[18]     primal_lower72  867
    u[18]     primal_lower73  690
    u[18]     primal_lower74  241
    u[18]     primal_lower75  613
    u[18]     primal_lower76  678
    u[18]     primal_lower77  230
    u[18]     primal_lower78  575
    u[18]     primal_lower79  665
    u[18]     primal_lower80  665
    u[18]     primal_lower81  110
    u[18]     primal_lower82  979
    u[18]     primal_lower83  284
    u[18]     primal_lower84  501
    u[18]     primal_lower85  993
    u[18]     primal_lower86  821
    u[18]     primal_lower87  870
    u[18]     primal_lower88  908
    u[18]     primal_lower89  862
    u[18]     primal_lower90  869
    u[18]     primal_lower91  323
    u[18]     primal_lower92  586
    u[18]     primal_lower93  833
    u[18]     primal_lower94  388
    u[18]     primal_lower95  839
    u[18]     primal_lower96  678
    u[18]     primal_lower97  676
    u[18]     primal_lower98  887
    u[18]     primal_lower99  550
    u[18]     interdiction[18]  1
    u[18]     mccormick1[18]  -1
    u[18]     mccormick3[18]  1
    u[19]     primal_lower0  311
    u[19]     primal_lower1  827
    u[19]     primal_lower2  252
    u[19]     primal_lower3  910
    u[19]     primal_lower4  504
    u[19]     primal_lower5  384
    u[19]     primal_lower6  50
    u[19]     primal_lower7  155
    u[19]     primal_lower8  859
    u[19]     primal_lower9  423
    u[19]     primal_lower10  136
    u[19]     primal_lower11  381
    u[19]     primal_lower12  546
    u[19]     primal_lower13  672
    u[19]     primal_lower14  124
    u[19]     primal_lower15  530
    u[19]     primal_lower16  804
    u[19]     primal_lower17  838
    u[19]     primal_lower18  654
    u[19]     primal_lower19  127
    u[19]     primal_lower20  625
    u[19]     primal_lower21  177
    u[19]     primal_lower22  363
    u[19]     primal_lower23  57
    u[19]     primal_lower24  211
    u[19]     primal_lower25  171
    u[19]     primal_lower26  871
    u[19]     primal_lower27  358
    u[19]     primal_lower28  805
    u[19]     primal_lower29  12
    u[19]     primal_lower30  834
    u[19]     primal_lower31  134
    u[19]     primal_lower32  507
    u[19]     primal_lower33  529
    u[19]     primal_lower34  265
    u[19]     primal_lower35  678
    u[19]     primal_lower36  731
    u[19]     primal_lower37  849
    u[19]     primal_lower38  550
    u[19]     primal_lower39  869
    u[19]     primal_lower40  176
    u[19]     primal_lower41  793
    u[19]     primal_lower42  476
    u[19]     primal_lower43  284
    u[19]     primal_lower44  779
    u[19]     primal_lower45  38
    u[19]     primal_lower46  656
    u[19]     primal_lower47  140
    u[19]     primal_lower48  748
    u[19]     primal_lower49  992
    u[19]     primal_lower50  801
    u[19]     primal_lower51  275
    u[19]     primal_lower52  683
    u[19]     primal_lower53  813
    u[19]     primal_lower54  840
    u[19]     primal_lower55  975
    u[19]     primal_lower56  204
    u[19]     primal_lower57  406
    u[19]     primal_lower58  112
    u[19]     primal_lower59  390
    u[19]     primal_lower60  573
    u[19]     primal_lower61  774
    u[19]     primal_lower62  662
    u[19]     primal_lower63  52
    u[19]     primal_lower64  828
    u[19]     primal_lower65  17
    u[19]     primal_lower66  511
    u[19]     primal_lower67  397
    u[19]     primal_lower68  533
    u[19]     primal_lower69  60
    u[19]     primal_lower70  794
    u[19]     primal_lower71  749
    u[19]     primal_lower72  736
    u[19]     primal_lower73  587
    u[19]     primal_lower74  970
    u[19]     primal_lower75  754
    u[19]     primal_lower76  719
    u[19]     primal_lower77  675
    u[19]     primal_lower78  268
    u[19]     primal_lower79  578
    u[19]     primal_lower80  726
    u[19]     primal_lower81  983
    u[19]     primal_lower82  628
    u[19]     primal_lower83  461
    u[19]     primal_lower84  62
    u[19]     primal_lower85  574
    u[19]     primal_lower86  54
    u[19]     primal_lower87  459
    u[19]     primal_lower88  213
    u[19]     primal_lower89  255
    u[19]     primal_lower90  502
    u[19]     primal_lower91  52
    u[19]     primal_lower92  295
    u[19]     primal_lower93  326
    u[19]     primal_lower94  481
    u[19]     primal_lower95  216
    u[19]     primal_lower96  727
    u[19]     primal_lower97  985
    u[19]     primal_lower98  992
    u[19]     primal_lower99  163
    u[19]     interdiction[19]  1
    u[19]     mccormick1[19]  -1
    u[19]     mccormick3[19]  1
    u[20]     primal_lower0  590
    u[20]     primal_lower1  170
    u[20]     primal_lower2  307
    u[20]     primal_lower3  657
    u[20]     primal_lower4  899
    u[20]     primal_lower5  87
    u[20]     primal_lower6  633
    u[20]     primal_lower7  514
    u[20]     primal_lower8  238
    u[20]     primal_lower9  654
    u[20]     primal_lower10  479
    u[20]     primal_lower11  4
    u[20]     primal_lower12  697
    u[20]     primal_lower13  195
    u[20]     primal_lower14  383
    u[20]     primal_lower15  833
    u[20]     primal_lower16  515
    u[20]     primal_lower17  993
    u[20]     primal_lower18  673
    u[20]     primal_lower19  330
    u[20]     primal_lower20  112
    u[20]     primal_lower21  716
    u[20]     primal_lower22  266
    u[20]     primal_lower23  268
    u[20]     primal_lower24  226
    u[20]     primal_lower25  514
    u[20]     primal_lower26  570
    u[20]     primal_lower27  733
    u[20]     primal_lower28  776
    u[20]     primal_lower29  207
    u[20]     primal_lower30  601
    u[20]     primal_lower31  553
    u[20]     primal_lower32  982
    u[20]     primal_lower33  652
    u[20]     primal_lower34  836
    u[20]     primal_lower35  693
    u[20]     primal_lower36  174
    u[20]     primal_lower37  868
    u[20]     primal_lower38  121
    u[20]     primal_lower39  556
    u[20]     primal_lower40  555
    u[20]     primal_lower41  588
    u[20]     primal_lower42  235
    u[20]     primal_lower43  55
    u[20]     primal_lower44  378
    u[20]     primal_lower45  25
    u[20]     primal_lower46  871
    u[20]     primal_lower47  243
    u[20]     primal_lower48  583
    u[20]     primal_lower49  75
    u[20]     primal_lower50  180
    u[20]     primal_lower51  930
    u[20]     primal_lower52  826
    u[20]     primal_lower53  128
    u[20]     primal_lower54  871
    u[20]     primal_lower55  690
    u[20]     primal_lower56  947
    u[20]     primal_lower57  665
    u[20]     primal_lower58  899
    u[20]     primal_lower59  913
    u[20]     primal_lower60  404
    u[20]     primal_lower61  541
    u[20]     primal_lower62  889
    u[20]     primal_lower63  727
    u[20]     primal_lower64  523
    u[20]     primal_lower65  156
    u[20]     primal_lower66  862
    u[20]     primal_lower67  208
    u[20]     primal_lower68  644
    u[20]     primal_lower69  171
    u[20]     primal_lower70  873
    u[20]     primal_lower71  800
    u[20]     primal_lower72  295
    u[20]     primal_lower73  318
    u[20]     primal_lower74  581
    u[20]     primal_lower75  129
    u[20]     primal_lower76  114
    u[20]     primal_lower77  450
    u[20]     primal_lower78  19
    u[20]     primal_lower79  45
    u[20]     primal_lower80  453
    u[20]     primal_lower81  722
    u[20]     primal_lower82  919
    u[20]     primal_lower83  864
    u[20]     primal_lower84  537
    u[20]     primal_lower85  213
    u[20]     primal_lower86  457
    u[20]     primal_lower87  898
    u[20]     primal_lower88  424
    u[20]     primal_lower89  810
    u[20]     primal_lower90  513
    u[20]     primal_lower91  431
    u[20]     primal_lower92  94
    u[20]     primal_lower93  317
    u[20]     primal_lower94  256
    u[20]     primal_lower95  403
    u[20]     primal_lower96  146
    u[20]     primal_lower97  520
    u[20]     primal_lower98  555
    u[20]     primal_lower99  186
    u[20]     interdiction[20]  1
    u[20]     mccormick1[20]  -1
    u[20]     mccormick3[20]  1
    u[21]     primal_lower0  993
    u[21]     primal_lower1  909
    u[21]     primal_lower2  926
    u[21]     primal_lower3  903
    u[21]     primal_lower4  705
    u[21]     primal_lower5  674
    u[21]     primal_lower6  244
    u[21]     primal_lower7  437
    u[21]     primal_lower8  684
    u[21]     primal_lower9  225
    u[21]     primal_lower10  242
    u[21]     primal_lower11  367
    u[21]     primal_lower12  964
    u[21]     primal_lower13  401
    u[21]     primal_lower14  261
    u[21]     primal_lower15  660
    u[21]     primal_lower16  366
    u[21]     primal_lower17  327
    u[21]     primal_lower18  871
    u[21]     primal_lower19  104
    u[21]     primal_lower20  883
    u[21]     primal_lower21  42
    u[21]     primal_lower22  829
    u[21]     primal_lower23  26
    u[21]     primal_lower24  301
    u[21]     primal_lower25  205
    u[21]     primal_lower26  752
    u[21]     primal_lower27  344
    u[21]     primal_lower28  710
    u[21]     primal_lower29  101
    u[21]     primal_lower30  972
    u[21]     primal_lower31  199
    u[21]     primal_lower32  188
    u[21]     primal_lower33  802
    u[21]     primal_lower34  778
    u[21]     primal_lower35  912
    u[21]     primal_lower36  876
    u[21]     primal_lower37  946
    u[21]     primal_lower38  527
    u[21]     primal_lower39  375
    u[21]     primal_lower40  161
    u[21]     primal_lower41  954
    u[21]     primal_lower42  414
    u[21]     primal_lower43  789
    u[21]     primal_lower44  781
    u[21]     primal_lower45  655
    u[21]     primal_lower46  978
    u[21]     primal_lower47  694
    u[21]     primal_lower48  565
    u[21]     primal_lower49  585
    u[21]     primal_lower50  914
    u[21]     primal_lower51  261
    u[21]     primal_lower52  733
    u[21]     primal_lower53  302
    u[21]     primal_lower54  346
    u[21]     primal_lower55  240
    u[21]     primal_lower56  494
    u[21]     primal_lower57  775
    u[21]     primal_lower58  569
    u[21]     primal_lower59  63
    u[21]     primal_lower60  871
    u[21]     primal_lower61  352
    u[21]     primal_lower62  175
    u[21]     primal_lower63  197
    u[21]     primal_lower64  102
    u[21]     primal_lower65  458
    u[21]     primal_lower66  865
    u[21]     primal_lower67  854
    u[21]     primal_lower68  231
    u[21]     primal_lower69  814
    u[21]     primal_lower70  716
    u[21]     primal_lower71  662
    u[21]     primal_lower72  154
    u[21]     primal_lower73  460
    u[21]     primal_lower74  75
    u[21]     primal_lower75  604
    u[21]     primal_lower76  544
    u[21]     primal_lower77  309
    u[21]     primal_lower78  782
    u[21]     primal_lower79  339
    u[21]     primal_lower80  832
    u[21]     primal_lower81  728
    u[21]     primal_lower82  701
    u[21]     primal_lower83  270
    u[21]     primal_lower84  327
    u[21]     primal_lower85  440
    u[21]     primal_lower86  279
    u[21]     primal_lower87  437
    u[21]     primal_lower88  142
    u[21]     primal_lower89  800
    u[21]     primal_lower90  55
    u[21]     primal_lower91  613
    u[21]     primal_lower92  145
    u[21]     primal_lower93  112
    u[21]     primal_lower94  307
    u[21]     primal_lower95  545
    u[21]     primal_lower96  32
    u[21]     primal_lower97  347
    u[21]     primal_lower98  809
    u[21]     primal_lower99  133
    u[21]     interdiction[21]  1
    u[21]     mccormick1[21]  -1
    u[21]     mccormick3[21]  1
    u[22]     primal_lower0  405
    u[22]     primal_lower1  929
    u[22]     primal_lower2  106
    u[22]     primal_lower3  648
    u[22]     primal_lower4  146
    u[22]     primal_lower5  414
    u[22]     primal_lower6  896
    u[22]     primal_lower7  785
    u[22]     primal_lower8  93
    u[22]     primal_lower9  789
    u[22]     primal_lower10  374
    u[22]     primal_lower11  291
    u[22]     primal_lower12  312
    u[22]     primal_lower13  450
    u[22]     primal_lower14  846
    u[22]     primal_lower15  824
    u[22]     primal_lower16  362
    u[22]     primal_lower17  592
    u[22]     primal_lower18  560
    u[22]     primal_lower19  753
    u[22]     primal_lower20  151
    u[22]     primal_lower21  195
    u[22]     primal_lower22  369
    u[22]     primal_lower23  315
    u[22]     primal_lower24  737
    u[22]     primal_lower25  681
    u[22]     primal_lower26  497
    u[22]     primal_lower27  284
    u[22]     primal_lower28  951
    u[22]     primal_lower29  550
    u[22]     primal_lower30  560
    u[22]     primal_lower31  528
    u[22]     primal_lower32  453
    u[22]     primal_lower33  859
    u[22]     primal_lower34  339
    u[22]     primal_lower35  652
    u[22]     primal_lower36  813
    u[22]     primal_lower37  803
    u[22]     primal_lower38  640
    u[22]     primal_lower39  235
    u[22]     primal_lower40  474
    u[22]     primal_lower41  555
    u[22]     primal_lower42  274
    u[22]     primal_lower43  302
    u[22]     primal_lower44  297
    u[22]     primal_lower45  848
    u[22]     primal_lower46  590
    u[22]     primal_lower47  722
    u[22]     primal_lower48  766
    u[22]     primal_lower49  178
    u[22]     primal_lower50  107
    u[22]     primal_lower51  185
    u[22]     primal_lower52  137
    u[22]     primal_lower53  967
    u[22]     primal_lower54  662
    u[22]     primal_lower55  721
    u[22]     primal_lower56  378
    u[22]     primal_lower57  920
    u[22]     primal_lower58  178
    u[22]     primal_lower59  368
    u[22]     primal_lower60  715
    u[22]     primal_lower61  100
    u[22]     primal_lower62  352
    u[22]     primal_lower63  798
    u[22]     primal_lower64  202
    u[22]     primal_lower65  659
    u[22]     primal_lower66  997
    u[22]     primal_lower67  783
    u[22]     primal_lower68  323
    u[22]     primal_lower69  682
    u[22]     primal_lower70  456
    u[22]     primal_lower71  623
    u[22]     primal_lower72  694
    u[22]     primal_lower73  685
    u[22]     primal_lower74  900
    u[22]     primal_lower75  104
    u[22]     primal_lower76  33
    u[22]     primal_lower77  81
    u[22]     primal_lower78  322
    u[22]     primal_lower79  92
    u[22]     primal_lower80  988
    u[22]     primal_lower81  961
    u[22]     primal_lower82  838
    u[22]     primal_lower83  87
    u[22]     primal_lower84  216
    u[22]     primal_lower85  364
    u[22]     primal_lower86  632
    u[22]     primal_lower87  969
    u[22]     primal_lower88  567
    u[22]     primal_lower89  873
    u[22]     primal_lower90  576
    u[22]     primal_lower91  126
    u[22]     primal_lower92  29
    u[22]     primal_lower93  652
    u[22]     primal_lower94  39
    u[22]     primal_lower95  754
    u[22]     primal_lower96  273
    u[22]     primal_lower97  383
    u[22]     primal_lower98  218
    u[22]     primal_lower99  769
    u[22]     interdiction[22]  1
    u[22]     mccormick1[22]  -1
    u[22]     mccormick3[22]  1
    u[23]     primal_lower0  944
    u[23]     primal_lower1  292
    u[23]     primal_lower2  173
    u[23]     primal_lower3  694
    u[23]     primal_lower4  976
    u[23]     primal_lower5  985
    u[23]     primal_lower6  435
    u[23]     primal_lower7  988
    u[23]     primal_lower8  499
    u[23]     primal_lower9  608
    u[23]     primal_lower10  689
    u[23]     primal_lower11  326
    u[23]     primal_lower12  235
    u[23]     primal_lower13  528
    u[23]     primal_lower14  932
    u[23]     primal_lower15  491
    u[23]     primal_lower16  725
    u[23]     primal_lower17  702
    u[23]     primal_lower18  462
    u[23]     primal_lower19  695
    u[23]     primal_lower20  826
    u[23]     primal_lower21  841
    u[23]     primal_lower22  572
    u[23]     primal_lower23  729
    u[23]     primal_lower24  700
    u[23]     primal_lower25  628
    u[23]     primal_lower26  895
    u[23]     primal_lower27  655
    u[23]     primal_lower28  141
    u[23]     primal_lower29  276
    u[23]     primal_lower30  123
    u[23]     primal_lower31  750
    u[23]     primal_lower32  803
    u[23]     primal_lower33  297
    u[23]     primal_lower34  801
    u[23]     primal_lower35  735
    u[23]     primal_lower36  3
    u[23]     primal_lower37  585
    u[23]     primal_lower38  462
    u[23]     primal_lower39  630
    u[23]     primal_lower40  640
    u[23]     primal_lower41  745
    u[23]     primal_lower42  237
    u[23]     primal_lower43  780
    u[23]     primal_lower44  788
    u[23]     primal_lower45  14
    u[23]     primal_lower46  281
    u[23]     primal_lower47  317
    u[23]     primal_lower48  396
    u[23]     primal_lower49  152
    u[23]     primal_lower50  609
    u[23]     primal_lower51  900
    u[23]     primal_lower52  428
    u[23]     primal_lower53  389
    u[23]     primal_lower54  945
    u[23]     primal_lower55  855
    u[23]     primal_lower56  181
    u[23]     primal_lower57  134
    u[23]     primal_lower58  864
    u[23]     primal_lower59  494
    u[23]     primal_lower60  830
    u[23]     primal_lower61  239
    u[23]     primal_lower62  982
    u[23]     primal_lower63  156
    u[23]     primal_lower64  941
    u[23]     primal_lower65  625
    u[23]     primal_lower66  40
    u[23]     primal_lower67  429
    u[23]     primal_lower68  166
    u[23]     primal_lower69  613
    u[23]     primal_lower70  467
    u[23]     primal_lower71  125
    u[23]     primal_lower72  593
    u[23]     primal_lower73  643
    u[23]     primal_lower74  514
    u[23]     primal_lower75  747
    u[23]     primal_lower76  399
    u[23]     primal_lower77  660
    u[23]     primal_lower78  413
    u[23]     primal_lower79  978
    u[23]     primal_lower80  591
    u[23]     primal_lower81  695
    u[23]     primal_lower82  932
    u[23]     primal_lower83  37
    u[23]     primal_lower84  150
    u[23]     primal_lower85  783
    u[23]     primal_lower86  694
    u[23]     primal_lower87  364
    u[23]     primal_lower88  309
    u[23]     primal_lower89  455
    u[23]     primal_lower90  110
    u[23]     primal_lower91  12
    u[23]     primal_lower92  392
    u[23]     primal_lower93  919
    u[23]     primal_lower94  938
    u[23]     primal_lower95  248
    u[23]     primal_lower96  239
    u[23]     primal_lower97  650
    u[23]     primal_lower98  808
    u[23]     primal_lower99  644
    u[23]     interdiction[23]  1
    u[23]     mccormick1[23]  -1
    u[23]     mccormick3[23]  1
    u[24]     primal_lower0  566
    u[24]     primal_lower1  162
    u[24]     primal_lower2  475
    u[24]     primal_lower3  840
    u[24]     primal_lower4  482
    u[24]     primal_lower5  39
    u[24]     primal_lower6  465
    u[24]     primal_lower7  818
    u[24]     primal_lower8  157
    u[24]     primal_lower9  446
    u[24]     primal_lower10  967
    u[24]     primal_lower11  132
    u[24]     primal_lower12  97
    u[24]     primal_lower13  906
    u[24]     primal_lower14  798
    u[24]     primal_lower15  929
    u[24]     primal_lower16  355
    u[24]     primal_lower17  312
    u[24]     primal_lower18  648
    u[24]     primal_lower19  193
    u[24]     primal_lower20  136
    u[24]     primal_lower21  947
    u[24]     primal_lower22  530
    u[24]     primal_lower23  267
    u[24]     primal_lower24  618
    u[24]     primal_lower25  498
    u[24]     primal_lower26  881
    u[24]     primal_lower27  749
    u[24]     primal_lower28  487
    u[24]     primal_lower29  870
    u[24]     primal_lower30  841
    u[24]     primal_lower31  280
    u[24]     primal_lower32  605
    u[24]     primal_lower33  291
    u[24]     primal_lower34  875
    u[24]     primal_lower35  5
    u[24]     primal_lower36  789
    u[24]     primal_lower37  979
    u[24]     primal_lower38  376
    u[24]     primal_lower39  564
    u[24]     primal_lower40  42
    u[24]     primal_lower41  219
    u[24]     primal_lower42  939
    u[24]     primal_lower43  854
    u[24]     primal_lower44  690
    u[24]     primal_lower45  40
    u[24]     primal_lower46  783
    u[24]     primal_lower47  787
    u[24]     primal_lower48  310
    u[24]     primal_lower49  762
    u[24]     primal_lower50  587
    u[24]     primal_lower51  474
    u[24]     primal_lower52  554
    u[24]     primal_lower53  455
    u[24]     primal_lower54  615
    u[24]     primal_lower55  513
    u[24]     primal_lower56  827
    u[24]     primal_lower57  344
    u[24]     primal_lower58  970
    u[24]     primal_lower59  576
    u[24]     primal_lower60  932
    u[24]     primal_lower61  77
    u[24]     primal_lower62  320
    u[24]     primal_lower63  182
    u[24]     primal_lower64  515
    u[24]     primal_lower65  723
    u[24]     primal_lower66  102
    u[24]     primal_lower67  743
    u[24]     primal_lower68  812
    u[24]     primal_lower69  587
    u[24]     primal_lower70  937
    u[24]     primal_lower71  559
    u[24]     primal_lower72  623
    u[24]     primal_lower73  525
    u[24]     primal_lower74  876
    u[24]     primal_lower75  817
    u[24]     primal_lower76  89
    u[24]     primal_lower77  650
    u[24]     primal_lower78  755
    u[24]     primal_lower79  460
    u[24]     primal_lower80  669
    u[24]     primal_lower81  865
    u[24]     primal_lower82  718
    u[24]     primal_lower83  599
    u[24]     primal_lower84  920
    u[24]     primal_lower85  413
    u[24]     primal_lower86  168
    u[24]     primal_lower87  90
    u[24]     primal_lower88  823
    u[24]     primal_lower89  225
    u[24]     primal_lower90  792
    u[24]     primal_lower91  246
    u[24]     primal_lower92  822
    u[24]     primal_lower93  725
    u[24]     primal_lower94  248
    u[24]     primal_lower95  458
    u[24]     primal_lower96  249
    u[24]     primal_lower97  176
    u[24]     primal_lower98  802
    u[24]     primal_lower99  210
    u[24]     interdiction[24]  1
    u[24]     mccormick1[24]  -1
    u[24]     mccormick3[24]  1
    u[25]     primal_lower0  49
    u[25]     primal_lower1  813
    u[25]     primal_lower2  166
    u[25]     primal_lower3  784
    u[25]     primal_lower4  746
    u[25]     primal_lower5  42
    u[25]     primal_lower6  348
    u[25]     primal_lower7  285
    u[25]     primal_lower8  949
    u[25]     primal_lower9  745
    u[25]     primal_lower10  330
    u[25]     primal_lower11  351
    u[25]     primal_lower12  908
    u[25]     primal_lower13  922
    u[25]     primal_lower14  230
    u[25]     primal_lower15  28
    u[25]     primal_lower16  454
    u[25]     primal_lower17  752
    u[25]     primal_lower18  416
    u[25]     primal_lower19  297
    u[25]     primal_lower20  475
    u[25]     primal_lower21  731
    u[25]     primal_lower22  781
    u[25]     primal_lower23  707
    u[25]     primal_lower24  837
    u[25]     primal_lower25  789
    u[25]     primal_lower26  153
    u[25]     primal_lower27  296
    u[25]     primal_lower28  39
    u[25]     primal_lower29  934
    u[25]     primal_lower30  12
    u[25]     primal_lower31  952
    u[25]     primal_lower32  221
    u[25]     primal_lower33  75
    u[25]     primal_lower34  467
    u[25]     primal_lower35  656
    u[25]     primal_lower36  749
    u[25]     primal_lower37  947
    u[25]     primal_lower38  216
    u[25]     primal_lower39  7
    u[25]     primal_lower40  58
    u[25]     primal_lower41  595
    u[25]     primal_lower42  494
    u[25]     primal_lower43  942
    u[25]     primal_lower44  253
    u[25]     primal_lower45  800
    u[25]     primal_lower46  346
    u[25]     primal_lower47  278
    u[25]     primal_lower48  390
    u[25]     primal_lower49  794
    u[25]     primal_lower50  875
    u[25]     primal_lower51  957
    u[25]     primal_lower52  317
    u[25]     primal_lower53  15
    u[25]     primal_lower54  538
    u[25]     primal_lower55  177
    u[25]     primal_lower56  22
    u[25]     primal_lower57  880
    u[25]     primal_lower58  858
    u[25]     primal_lower59  248
    u[25]     primal_lower60  607
    u[25]     primal_lower61  952
    u[25]     primal_lower62  552
    u[25]     primal_lower63  982
    u[25]     primal_lower64  574
    u[25]     primal_lower65  835
    u[25]     primal_lower66  993
    u[25]     primal_lower67  823
    u[25]     primal_lower68  471
    u[25]     primal_lower69  110
    u[25]     primal_lower70  420
    u[25]     primal_lower71  503
    u[25]     primal_lower72  226
    u[25]     primal_lower73  589
    u[25]     primal_lower74  628
    u[25]     primal_lower75  804
    u[25]     primal_lower76  793
    u[25]     primal_lower77  253
    u[25]     primal_lower78  470
    u[25]     primal_lower79  836
    u[25]     primal_lower80  840
    u[25]     primal_lower81  793
    u[25]     primal_lower82  62
    u[25]     primal_lower83  47
    u[25]     primal_lower84  208
    u[25]     primal_lower85  352
    u[25]     primal_lower86  480
    u[25]     primal_lower87  989
    u[25]     primal_lower88  743
    u[25]     primal_lower89  129
    u[25]     primal_lower90  608
    u[25]     primal_lower91  622
    u[25]     primal_lower92  425
    u[25]     primal_lower93  848
    u[25]     primal_lower94  747
    u[25]     primal_lower95  946
    u[25]     primal_lower96  409
    u[25]     primal_lower97  683
    u[25]     primal_lower98  890
    u[25]     primal_lower99  621
    u[25]     interdiction[25]  1
    u[25]     mccormick1[25]  -1
    u[25]     mccormick3[25]  1
    u[26]     primal_lower0  235
    u[26]     primal_lower1  79
    u[26]     primal_lower2  120
    u[26]     primal_lower3  110
    u[26]     primal_lower4  464
    u[26]     primal_lower5  20
    u[26]     primal_lower6  134
    u[26]     primal_lower7  959
    u[26]     primal_lower8  835
    u[26]     primal_lower9  451
    u[26]     primal_lower10  772
    u[26]     primal_lower11  289
    u[26]     primal_lower12  542
    u[26]     primal_lower13  704
    u[26]     primal_lower14  452
    u[26]     primal_lower15  86
    u[26]     primal_lower16  408
    u[26]     primal_lower17  934
    u[26]     primal_lower18  974
    u[26]     primal_lower19  975
    u[26]     primal_lower20  477
    u[26]     primal_lower21  161
    u[26]     primal_lower22  551
    u[26]     primal_lower23  281
    u[26]     primal_lower24  919
    u[26]     primal_lower25  815
    u[26]     primal_lower26  807
    u[26]     primal_lower27  90
    u[26]     primal_lower28  477
    u[26]     primal_lower29  228
    u[26]     primal_lower30  22
    u[26]     primal_lower31  110
    u[26]     primal_lower32  243
    u[26]     primal_lower33  841
    u[26]     primal_lower34  313
    u[26]     primal_lower35  450
    u[26]     primal_lower36  763
    u[26]     primal_lower37  809
    u[26]     primal_lower38  998
    u[26]     primal_lower39  313
    u[26]     primal_lower40  632
    u[26]     primal_lower41  721
    u[26]     primal_lower42  328
    u[26]     primal_lower43  916
    u[26]     primal_lower44  463
    u[26]     primal_lower45  334
    u[26]     primal_lower46  908
    u[26]     primal_lower47  904
    u[26]     primal_lower48  460
    u[26]     primal_lower49  360
    u[26]     primal_lower50  145
    u[26]     primal_lower51  439
    u[26]     primal_lower52  391
    u[26]     primal_lower53  549
    u[26]     primal_lower54  244
    u[26]     primal_lower55  863
    u[26]     primal_lower56  328
    u[26]     primal_lower57  206
    u[26]     primal_lower58  272
    u[26]     primal_lower59  806
    u[26]     primal_lower60  713
    u[26]     primal_lower61  42
    u[26]     primal_lower62  694
    u[26]     primal_lower63  332
    u[26]     primal_lower64  320
    u[26]     primal_lower65  657
    u[26]     primal_lower66  843
    u[26]     primal_lower67  349
    u[26]     primal_lower68  401
    u[26]     primal_lower69  624
    u[26]     primal_lower70  918
    u[26]     primal_lower71  349
    u[26]     primal_lower72  356
    u[26]     primal_lower73  451
    u[26]     primal_lower74  834
    u[26]     primal_lower75  270
    u[26]     primal_lower76  207
    u[26]     primal_lower77  359
    u[26]     primal_lower78  608
    u[26]     primal_lower79  58
    u[26]     primal_lower80  714
    u[26]     primal_lower81  167
    u[26]     primal_lower82  668
    u[26]     primal_lower83  469
    u[26]     primal_lower84  574
    u[26]     primal_lower85  930
    u[26]     primal_lower86  918
    u[26]     primal_lower87  183
    u[26]     primal_lower88  117
    u[26]     primal_lower89  159
    u[26]     primal_lower90  894
    u[26]     primal_lower91  812
    u[26]     primal_lower92  563
    u[26]     primal_lower93  458
    u[26]     primal_lower94  453
    u[26]     primal_lower95  88
    u[26]     primal_lower96  511
    u[26]     primal_lower97  821
    u[26]     primal_lower98  440
    u[26]     primal_lower99  991
    u[26]     interdiction[26]  1
    u[26]     mccormick1[26]  -1
    u[26]     mccormick3[26]  1
    u[27]     primal_lower0  289
    u[27]     primal_lower1  789
    u[27]     primal_lower2  334
    u[27]     primal_lower3  543
    u[27]     primal_lower4  785
    u[27]     primal_lower5  770
    u[27]     primal_lower6  324
    u[27]     primal_lower7  733
    u[27]     primal_lower8  92
    u[27]     primal_lower9  321
    u[27]     primal_lower10  34
    u[27]     primal_lower11  551
    u[27]     primal_lower12  4
    u[27]     primal_lower13  513
    u[27]     primal_lower14  341
    u[27]     primal_lower15  772
    u[27]     primal_lower16  814
    u[27]     primal_lower17  223
    u[27]     primal_lower18  47
    u[27]     primal_lower19  696
    u[27]     primal_lower20  155
    u[27]     primal_lower21  42
    u[27]     primal_lower22  917
    u[27]     primal_lower23  474
    u[27]     primal_lower24  565
    u[27]     primal_lower25  21
    u[27]     primal_lower26  128
    u[27]     primal_lower27  576
    u[27]     primal_lower28  326
    u[27]     primal_lower29  445
    u[27]     primal_lower30  340
    u[27]     primal_lower31  215
    u[27]     primal_lower32  188
    u[27]     primal_lower33  34
    u[27]     primal_lower34  810
    u[27]     primal_lower35  608
    u[27]     primal_lower36  772
    u[27]     primal_lower37  146
    u[27]     primal_lower38  839
    u[27]     primal_lower39  399
    u[27]     primal_lower40  25
    u[27]     primal_lower41  290
    u[27]     primal_lower42  950
    u[27]     primal_lower43  541
    u[27]     primal_lower44  581
    u[27]     primal_lower45  927
    u[27]     primal_lower46  786
    u[27]     primal_lower47  302
    u[27]     primal_lower48  205
    u[27]     primal_lower49  801
    u[27]     primal_lower50  866
    u[27]     primal_lower51  165
    u[27]     primal_lower52  117
    u[27]     primal_lower53  918
    u[27]     primal_lower54  874
    u[27]     primal_lower55  368
    u[27]     primal_lower56  918
    u[27]     primal_lower57  287
    u[27]     primal_lower58  217
    u[27]     primal_lower59  751
    u[27]     primal_lower60  399
    u[27]     primal_lower61  176
    u[27]     primal_lower62  767
    u[27]     primal_lower63  989
    u[27]     primal_lower64  798
    u[27]     primal_lower65  906
    u[27]     primal_lower66  969
    u[27]     primal_lower67  438
    u[27]     primal_lower68  879
    u[27]     primal_lower69  262
    u[27]     primal_lower70  956
    u[27]     primal_lower71  342
    u[27]     primal_lower72  866
    u[27]     primal_lower73  196
    u[27]     primal_lower74  851
    u[27]     primal_lower75  460
    u[27]     primal_lower76  656
    u[27]     primal_lower77  349
    u[27]     primal_lower78  662
    u[27]     primal_lower79  371
    u[27]     primal_lower80  864
    u[27]     primal_lower81  864
    u[27]     primal_lower82  645
    u[27]     primal_lower83  62
    u[27]     primal_lower84  855
    u[27]     primal_lower85  560
    u[27]     primal_lower86  183
    u[27]     primal_lower87  501
    u[27]     primal_lower88  150
    u[27]     primal_lower89  952
    u[27]     primal_lower90  679
    u[27]     primal_lower91  77
    u[27]     primal_lower92  129
    u[27]     primal_lower93  680
    u[27]     primal_lower94  403
    u[27]     primal_lower95  441
    u[27]     primal_lower96  344
    u[27]     primal_lower97  763
    u[27]     primal_lower98  753
    u[27]     primal_lower99  421
    u[27]     interdiction[27]  1
    u[27]     mccormick1[27]  -1
    u[27]     mccormick3[27]  1
    u[28]     primal_lower0  487
    u[28]     primal_lower1  387
    u[28]     primal_lower2  604
    u[28]     primal_lower3  497
    u[28]     primal_lower4  811
    u[28]     primal_lower5  624
    u[28]     primal_lower6  186
    u[28]     primal_lower7  427
    u[28]     primal_lower8  238
    u[28]     primal_lower9  191
    u[28]     primal_lower10  416
    u[28]     primal_lower11  901
    u[28]     primal_lower12  770
    u[28]     primal_lower13  883
    u[28]     primal_lower14  583
    u[28]     primal_lower15  450
    u[28]     primal_lower16  908
    u[28]     primal_lower17  457
    u[28]     primal_lower18  617
    u[28]     primal_lower19  834
    u[28]     primal_lower20  905
    u[28]     primal_lower21  4
    u[28]     primal_lower22  795
    u[28]     primal_lower23  212
    u[28]     primal_lower24  315
    u[28]     primal_lower25  27
    u[28]     primal_lower26  258
    u[28]     primal_lower27  6
    u[28]     primal_lower28  256
    u[28]     primal_lower29  63
    u[28]     primal_lower30  618
    u[28]     primal_lower31  17
    u[28]     primal_lower32  670
    u[28]     primal_lower33  172
    u[28]     primal_lower34  132
    u[28]     primal_lower35  630
    u[28]     primal_lower36  934
    u[28]     primal_lower37  308
    u[28]     primal_lower38  537
    u[28]     primal_lower39  189
    u[28]     primal_lower40  907
    u[28]     primal_lower41  308
    u[28]     primal_lower42  380
    u[28]     primal_lower43  919
    u[28]     primal_lower44  499
    u[28]     primal_lower45  289
    u[28]     primal_lower46  776
    u[28]     primal_lower47  900
    u[28]     primal_lower48  879
    u[28]     primal_lower49  603
    u[28]     primal_lower50  116
    u[28]     primal_lower51  155
    u[28]     primal_lower52  651
    u[28]     primal_lower53  88
    u[28]     primal_lower54  944
    u[28]     primal_lower55  122
    u[28]     primal_lower56  84
    u[28]     primal_lower57  641
    u[28]     primal_lower58  235
    u[28]     primal_lower59  153
    u[28]     primal_lower60  205
    u[28]     primal_lower61  222
    u[28]     primal_lower62  497
    u[28]     primal_lower63  351
    u[28]     primal_lower64  12
    u[28]     primal_lower65  156
    u[28]     primal_lower66  623
    u[28]     primal_lower67  104
    u[28]     primal_lower68  613
    u[28]     primal_lower69  980
    u[28]     primal_lower70  282
    u[28]     primal_lower71  744
    u[28]     primal_lower72  680
    u[28]     primal_lower73  270
    u[28]     primal_lower74  285
    u[28]     primal_lower75  66
    u[28]     primal_lower76  474
    u[28]     primal_lower77  115
    u[28]     primal_lower78  924
    u[28]     primal_lower79  645
    u[28]     primal_lower80  590
    u[28]     primal_lower81  610
    u[28]     primal_lower82  903
    u[28]     primal_lower83  640
    u[28]     primal_lower84  185
    u[28]     primal_lower85  646
    u[28]     primal_lower86  721
    u[28]     primal_lower87  875
    u[28]     primal_lower88  312
    u[28]     primal_lower89  114
    u[28]     primal_lower90  577
    u[28]     primal_lower91  607
    u[28]     primal_lower92  7
    u[28]     primal_lower93  830
    u[28]     primal_lower94  585
    u[28]     primal_lower95  147
    u[28]     primal_lower96  770
    u[28]     primal_lower97  329
    u[28]     primal_lower98  603
    u[28]     primal_lower99  987
    u[28]     interdiction[28]  1
    u[28]     mccormick1[28]  -1
    u[28]     mccormick3[28]  1
    u[29]     primal_lower0  168
    u[29]     primal_lower1  20
    u[29]     primal_lower2  213
    u[29]     primal_lower3  831
    u[29]     primal_lower4  705
    u[29]     primal_lower5  833
    u[29]     primal_lower6  651
    u[29]     primal_lower7  700
    u[29]     primal_lower8  100
    u[29]     primal_lower9  688
    u[29]     primal_lower10  321
    u[29]     primal_lower11  494
    u[29]     primal_lower12  259
    u[29]     primal_lower13  649
    u[29]     primal_lower14  765
    u[29]     primal_lower15  267
    u[29]     primal_lower16  685
    u[29]     primal_lower17  223
    u[29]     primal_lower18  639
    u[29]     primal_lower19  840
    u[29]     primal_lower20  898
    u[29]     primal_lower21  186
    u[29]     primal_lower22  116
    u[29]     primal_lower23  514
    u[29]     primal_lower24  284
    u[29]     primal_lower25  956
    u[29]     primal_lower26  328
    u[29]     primal_lower27  351
    u[29]     primal_lower28  782
    u[29]     primal_lower29  493
    u[29]     primal_lower30  875
    u[29]     primal_lower31  463
    u[29]     primal_lower32  868
    u[29]     primal_lower33  890
    u[29]     primal_lower34  226
    u[29]     primal_lower35  55
    u[29]     primal_lower36  132
    u[29]     primal_lower37  274
    u[29]     primal_lower38  431
    u[29]     primal_lower39  422
    u[29]     primal_lower40  657
    u[29]     primal_lower41  146
    u[29]     primal_lower42  493
    u[29]     primal_lower43  133
    u[29]     primal_lower44  468
    u[29]     primal_lower45  727
    u[29]     primal_lower46  793
    u[29]     primal_lower47  693
    u[29]     primal_lower48  669
    u[29]     primal_lower49  89
    u[29]     primal_lower50  706
    u[29]     primal_lower51  532
    u[29]     primal_lower52  572
    u[29]     primal_lower53  94
    u[29]     primal_lower54  393
    u[29]     primal_lower55  256
    u[29]     primal_lower56  485
    u[29]     primal_lower57  879
    u[29]     primal_lower58  849
    u[29]     primal_lower59  359
    u[29]     primal_lower60  286
    u[29]     primal_lower61  775
    u[29]     primal_lower62  319
    u[29]     primal_lower63  821
    u[29]     primal_lower64  565
    u[29]     primal_lower65  938
    u[29]     primal_lower66  744
    u[29]     primal_lower67  758
    u[29]     primal_lower68  886
    u[29]     primal_lower69  405
    u[29]     primal_lower70  315
    u[29]     primal_lower71  390
    u[29]     primal_lower72  273
    u[29]     primal_lower73  140
    u[29]     primal_lower74  843
    u[29]     primal_lower75  971
    u[29]     primal_lower76  816
    u[29]     primal_lower77  716
    u[29]     primal_lower78  149
    u[29]     primal_lower79  371
    u[29]     primal_lower80  591
    u[29]     primal_lower81  408
    u[29]     primal_lower82  85
    u[29]     primal_lower83  934
    u[29]     primal_lower84  663
    u[29]     primal_lower85  447
    u[29]     primal_lower86  263
    u[29]     primal_lower87  292
    u[29]     primal_lower88  262
    u[29]     primal_lower89  664
    u[29]     primal_lower90  951
    u[29]     primal_lower91  189
    u[29]     primal_lower92  600
    u[29]     primal_lower93  791
    u[29]     primal_lower94  258
    u[29]     primal_lower95  809
    u[29]     primal_lower96  968
    u[29]     primal_lower97  946
    u[29]     primal_lower98  617
    u[29]     primal_lower99  172
    u[29]     interdiction[29]  1
    u[29]     mccormick1[29]  -1
    u[29]     mccormick3[29]  1
    u[30]     primal_lower0  323
    u[30]     primal_lower1  775
    u[30]     primal_lower2  592
    u[30]     primal_lower3  381
    u[30]     primal_lower4  767
    u[30]     primal_lower5  156
    u[30]     primal_lower6  910
    u[30]     primal_lower7  207
    u[30]     primal_lower8  682
    u[30]     primal_lower9  27
    u[30]     primal_lower10  396
    u[30]     primal_lower11  97
    u[30]     primal_lower12  62
    u[30]     primal_lower13  127
    u[30]     primal_lower14  307
    u[30]     primal_lower15  750
    u[30]     primal_lower16  216
    u[30]     primal_lower17  245
    u[30]     primal_lower18  685
    u[30]     primal_lower19  734
    u[30]     primal_lower20  133
    u[30]     primal_lower21  856
    u[30]     primal_lower22  143
    u[30]     primal_lower23  168
    u[30]     primal_lower24  527
    u[30]     primal_lower25  959
    u[30]     primal_lower26  174
    u[30]     primal_lower27  434
    u[30]     primal_lower28  84
    u[30]     primal_lower29  163
    u[30]     primal_lower30  126
    u[30]     primal_lower31  133
    u[30]     primal_lower32  762
    u[30]     primal_lower33  872
    u[30]     primal_lower34  88
    u[30]     primal_lower35  138
    u[30]     primal_lower36  226
    u[30]     primal_lower37  504
    u[30]     primal_lower38  613
    u[30]     primal_lower39  361
    u[30]     primal_lower40  271
    u[30]     primal_lower41  400
    u[30]     primal_lower42  712
    u[30]     primal_lower43  851
    u[30]     primal_lower44  535
    u[30]     primal_lower45  341
    u[30]     primal_lower46  916
    u[30]     primal_lower47  888
    u[30]     primal_lower48  763
    u[30]     primal_lower49  631
    u[30]     primal_lower50  592
    u[30]     primal_lower51  335
    u[30]     primal_lower52  63
    u[30]     primal_lower53  508
    u[30]     primal_lower54  700
    u[30]     primal_lower55  902
    u[30]     primal_lower56  824
    u[30]     primal_lower57  333
    u[30]     primal_lower58  39
    u[30]     primal_lower59  845
    u[30]     primal_lower60  9
    u[30]     primal_lower61  322
    u[30]     primal_lower62  605
    u[30]     primal_lower63  731
    u[30]     primal_lower64  1000
    u[30]     primal_lower65  816
    u[30]     primal_lower66  123
    u[30]     primal_lower67  756
    u[30]     primal_lower68  929
    u[30]     primal_lower69  832
    u[30]     primal_lower70  414
    u[30]     primal_lower71  484
    u[30]     primal_lower72  988
    u[30]     primal_lower73  162
    u[30]     primal_lower74  809
    u[30]     primal_lower75  30
    u[30]     primal_lower76  614
    u[30]     primal_lower77  871
    u[30]     primal_lower78  64
    u[30]     primal_lower79  473
    u[30]     primal_lower80  562
    u[30]     primal_lower81  870
    u[30]     primal_lower82  435
    u[30]     primal_lower83  52
    u[30]     primal_lower84  789
    u[30]     primal_lower85  514
    u[30]     primal_lower86  245
    u[30]     primal_lower87  751
    u[30]     primal_lower88  612
    u[30]     primal_lower89  390
    u[30]     primal_lower90  837
    u[30]     primal_lower91  19
    u[30]     primal_lower92  363
    u[30]     primal_lower93  730
    u[30]     primal_lower94  197
    u[30]     primal_lower95  535
    u[30]     primal_lower96  582
    u[30]     primal_lower97  61
    u[30]     primal_lower98  359
    u[30]     primal_lower99  279
    u[30]     interdiction[30]  1
    u[30]     mccormick1[30]  -1
    u[30]     mccormick3[30]  1
    u[31]     primal_lower0  925
    u[31]     primal_lower1  785
    u[31]     primal_lower2  442
    u[31]     primal_lower3  27
    u[31]     primal_lower4  325
    u[31]     primal_lower5  254
    u[31]     primal_lower6  88
    u[31]     primal_lower7  33
    u[31]     primal_lower8  48
    u[31]     primal_lower9  765
    u[31]     primal_lower10  678
    u[31]     primal_lower11  731
    u[31]     primal_lower12  192
    u[31]     primal_lower13  229
    u[31]     primal_lower14  289
    u[31]     primal_lower15  384
    u[31]     primal_lower16  658
    u[31]     primal_lower17  379
    u[31]     primal_lower18  307
    u[31]     primal_lower19  804
    u[31]     primal_lower20  39
    u[31]     primal_lower21  950
    u[31]     primal_lower22  593
    u[31]     primal_lower23  278
    u[31]     primal_lower24  177
    u[31]     primal_lower25  849
    u[31]     primal_lower26  788
    u[31]     primal_lower27  132
    u[31]     primal_lower28  82
    u[31]     primal_lower29  337
    u[31]     primal_lower30  664
    u[31]     primal_lower31  91
    u[31]     primal_lower32  176
    u[31]     primal_lower33  582
    u[31]     primal_lower34  662
    u[31]     primal_lower35  220
    u[31]     primal_lower36  200
    u[31]     primal_lower37  478
    u[31]     primal_lower38  483
    u[31]     primal_lower39  955
    u[31]     primal_lower40  405
    u[31]     primal_lower41  166
    u[31]     primal_lower42  410
    u[31]     primal_lower43  329
    u[31]     primal_lower44  601
    u[31]     primal_lower45  659
    u[31]     primal_lower46  438
    u[31]     primal_lower47  410
    u[31]     primal_lower48  217
    u[31]     primal_lower49  573
    u[31]     primal_lower50  262
    u[31]     primal_lower51  801
    u[31]     primal_lower52  425
    u[31]     primal_lower53  10
    u[31]     primal_lower54  998
    u[31]     primal_lower55  644
    u[31]     primal_lower56  762
    u[31]     primal_lower57  475
    u[31]     primal_lower58  949
    u[31]     primal_lower59  179
    u[31]     primal_lower60  523
    u[31]     primal_lower61  164
    u[31]     primal_lower62  363
    u[31]     primal_lower63  665
    u[31]     primal_lower64  994
    u[31]     primal_lower65  694
    u[31]     primal_lower66  509
    u[31]     primal_lower67  858
    u[31]     primal_lower68  891
    u[31]     primal_lower69  706
    u[31]     primal_lower70  936
    u[31]     primal_lower71  554
    u[31]     primal_lower72  422
    u[31]     primal_lower73  128
    u[31]     primal_lower74  191
    u[31]     primal_lower75  840
    u[31]     primal_lower76  668
    u[31]     primal_lower77  609
    u[31]     primal_lower78  786
    u[31]     primal_lower79  151
    u[31]     primal_lower80  828
    u[31]     primal_lower81  388
    u[31]     primal_lower82  793
    u[31]     primal_lower83  178
    u[31]     primal_lower84  355
    u[31]     primal_lower85  924
    u[31]     primal_lower86  443
    u[31]     primal_lower87  457
    u[31]     primal_lower88  50
    u[31]     primal_lower89  220
    u[31]     primal_lower90  147
    u[31]     primal_lower91  705
    u[31]     primal_lower92  605
    u[31]     primal_lower93  740
    u[31]     primal_lower94  503
    u[31]     primal_lower95  605
    u[31]     primal_lower96  412
    u[31]     primal_lower97  399
    u[31]     primal_lower98  709
    u[31]     primal_lower99  145
    u[31]     interdiction[31]  1
    u[31]     mccormick1[31]  -1
    u[31]     mccormick3[31]  1
    u[32]     primal_lower0  325
    u[32]     primal_lower1  161
    u[32]     primal_lower2  162
    u[32]     primal_lower3  151
    u[32]     primal_lower4  433
    u[32]     primal_lower5  902
    u[32]     primal_lower6  48
    u[32]     primal_lower7  625
    u[32]     primal_lower8  956
    u[32]     primal_lower9  181
    u[32]     primal_lower10  934
    u[32]     primal_lower11  987
    u[32]     primal_lower12  200
    u[32]     primal_lower13  489
    u[32]     primal_lower14  869
    u[32]     primal_lower15  384
    u[32]     primal_lower16  690
    u[32]     primal_lower17  231
    u[32]     primal_lower18  55
    u[32]     primal_lower19  288
    u[32]     primal_lower20  935
    u[32]     primal_lower21  810
    u[32]     primal_lower22  681
    u[32]     primal_lower23  674
    u[32]     primal_lower24  89
    u[32]     primal_lower25  129
    u[32]     primal_lower26  328
    u[32]     primal_lower27  564
    u[32]     primal_lower28  574
    u[32]     primal_lower29  189
    u[32]     primal_lower30  440
    u[32]     primal_lower31  855
    u[32]     primal_lower32  668
    u[32]     primal_lower33  10
    u[32]     primal_lower34  818
    u[32]     primal_lower35  620
    u[32]     primal_lower36  596
    u[32]     primal_lower37  346
    u[32]     primal_lower38  503
    u[32]     primal_lower39  771
    u[32]     primal_lower40  97
    u[32]     primal_lower41  666
    u[32]     primal_lower42  314
    u[32]     primal_lower43  741
    u[32]     primal_lower44  425
    u[32]     primal_lower45  207
    u[32]     primal_lower46  366
    u[32]     primal_lower47  114
    u[32]     primal_lower48  493
    u[32]     primal_lower49  1
    u[32]     primal_lower50  530
    u[32]     primal_lower51  313
    u[32]     primal_lower52  657
    u[32]     primal_lower53  22
    u[32]     primal_lower54  198
    u[32]     primal_lower55  968
    u[32]     primal_lower56  890
    u[32]     primal_lower57  623
    u[32]     primal_lower58  289
    u[32]     primal_lower59  863
    u[32]     primal_lower60  811
    u[32]     primal_lower61  804
    u[32]     primal_lower62  135
    u[32]     primal_lower63  149
    u[32]     primal_lower64  242
    u[32]     primal_lower65  442
    u[32]     primal_lower66  653
    u[32]     primal_lower67  646
    u[32]     primal_lower68  307
    u[32]     primal_lower69  922
    u[32]     primal_lower70  768
    u[32]     primal_lower71  206
    u[32]     primal_lower72  414
    u[32]     primal_lower73  444
    u[32]     primal_lower74  163
    u[32]     primal_lower75  296
    u[32]     primal_lower76  408
    u[32]     primal_lower77  657
    u[32]     primal_lower78  898
    u[32]     primal_lower79  635
    u[32]     primal_lower80  844
    u[32]     primal_lower81  200
    u[32]     primal_lower82  125
    u[32]     primal_lower83  326
    u[32]     primal_lower84  887
    u[32]     primal_lower85  604
    u[32]     primal_lower86  431
    u[32]     primal_lower87  505
    u[32]     primal_lower88  46
    u[32]     primal_lower89  848
    u[32]     primal_lower90  359
    u[32]     primal_lower91  733
    u[32]     primal_lower92  77
    u[32]     primal_lower93  740
    u[32]     primal_lower94  527
    u[32]     primal_lower95  425
    u[32]     primal_lower96  640
    u[32]     primal_lower97  367
    u[32]     primal_lower98  137
    u[32]     primal_lower99  673
    u[32]     interdiction[32]  1
    u[32]     mccormick1[32]  -1
    u[32]     mccormick3[32]  1
    u[33]     primal_lower0  390
    u[33]     primal_lower1  890
    u[33]     primal_lower2  643
    u[33]     primal_lower3  29
    u[33]     primal_lower4  287
    u[33]     primal_lower5  263
    u[33]     primal_lower6  545
    u[33]     primal_lower7  698
    u[33]     primal_lower8  346
    u[33]     primal_lower9  750
    u[33]     primal_lower10  239
    u[33]     primal_lower11  396
    u[33]     primal_lower12  953
    u[33]     primal_lower13  311
    u[33]     primal_lower14  195
    u[33]     primal_lower15  81
    u[33]     primal_lower16  931
    u[33]     primal_lower17  5
    u[33]     primal_lower18  821
    u[33]     primal_lower19  446
    u[33]     primal_lower20  440
    u[33]     primal_lower21  1000
    u[33]     primal_lower22  58
    u[33]     primal_lower23  464
    u[33]     primal_lower24  762
    u[33]     primal_lower25  378
    u[33]     primal_lower26  942
    u[33]     primal_lower27  229
    u[33]     primal_lower28  876
    u[33]     primal_lower29  571
    u[33]     primal_lower30  537
    u[33]     primal_lower31  349
    u[33]     primal_lower32  594
    u[33]     primal_lower33  8
    u[33]     primal_lower34  64
    u[33]     primal_lower35  421
    u[33]     primal_lower36  306
    u[33]     primal_lower37  880
    u[33]     primal_lower38  629
    u[33]     primal_lower39  884
    u[33]     primal_lower40  919
    u[33]     primal_lower41  384
    u[33]     primal_lower42  995
    u[33]     primal_lower43  723
    u[33]     primal_lower44  346
    u[33]     primal_lower45  893
    u[33]     primal_lower46  927
    u[33]     primal_lower47  283
    u[33]     primal_lower48  683
    u[33]     primal_lower49  151
    u[33]     primal_lower50  480
    u[33]     primal_lower51  394
    u[33]     primal_lower52  82
    u[33]     primal_lower53  20
    u[33]     primal_lower54  295
    u[33]     primal_lower55  318
    u[33]     primal_lower56  843
    u[33]     primal_lower57  629
    u[33]     primal_lower58  239
    u[33]     primal_lower59  317
    u[33]     primal_lower60  492
    u[33]     primal_lower61  885
    u[33]     primal_lower62  981
    u[33]     primal_lower63  955
    u[33]     primal_lower64  395
    u[33]     primal_lower65  104
    u[33]     primal_lower66  670
    u[33]     primal_lower67  348
    u[33]     primal_lower68  524
    u[33]     primal_lower69  99
    u[33]     primal_lower70  601
    u[33]     primal_lower71  12
    u[33]     primal_lower72  135
    u[33]     primal_lower73  138
    u[33]     primal_lower74  625
    u[33]     primal_lower75  9
    u[33]     primal_lower76  942
    u[33]     primal_lower77  530
    u[33]     primal_lower78  979
    u[33]     primal_lower79  497
    u[33]     primal_lower80  949
    u[33]     primal_lower81  86
    u[33]     primal_lower82  179
    u[33]     primal_lower83  588
    u[33]     primal_lower84  301
    u[33]     primal_lower85  797
    u[33]     primal_lower86  389
    u[33]     primal_lower87  922
    u[33]     primal_lower88  948
    u[33]     primal_lower89  942
    u[33]     primal_lower90  21
    u[33]     primal_lower91  563
    u[33]     primal_lower92  94
    u[33]     primal_lower93  797
    u[33]     primal_lower94  392
    u[33]     primal_lower95  479
    u[33]     primal_lower96  902
    u[33]     primal_lower97  656
    u[33]     primal_lower98  111
    u[33]     primal_lower99  218
    u[33]     interdiction[33]  1
    u[33]     mccormick1[33]  -1
    u[33]     mccormick3[33]  1
    u[34]     primal_lower0  277
    u[34]     primal_lower1  529
    u[34]     primal_lower2  26
    u[34]     primal_lower3  1000
    u[34]     primal_lower4  522
    u[34]     primal_lower5  966
    u[34]     primal_lower6  296
    u[34]     primal_lower7  633
    u[34]     primal_lower8  437
    u[34]     primal_lower9  501
    u[34]     primal_lower10  326
    u[34]     primal_lower11  779
    u[34]     primal_lower12  152
    u[34]     primal_lower13  978
    u[34]     primal_lower14  486
    u[34]     primal_lower15  600
    u[34]     primal_lower16  122
    u[34]     primal_lower17  232
    u[34]     primal_lower18  208
    u[34]     primal_lower19  793
    u[34]     primal_lower20  279
    u[34]     primal_lower21  419
    u[34]     primal_lower22  561
    u[34]     primal_lower23  931
    u[34]     primal_lower24  969
    u[34]     primal_lower25  257
    u[34]     primal_lower26  569
    u[34]     primal_lower27  388
    u[34]     primal_lower28  663
    u[34]     primal_lower29  942
    u[34]     primal_lower30  120
    u[34]     primal_lower31  552
    u[34]     primal_lower32  205
    u[34]     primal_lower33  67
    u[34]     primal_lower34  275
    u[34]     primal_lower35  732
    u[34]     primal_lower36  589
    u[34]     primal_lower37  339
    u[34]     primal_lower38  328
    u[34]     primal_lower39  787
    u[34]     primal_lower40  914
    u[34]     primal_lower41  411
    u[34]     primal_lower42  138
    u[34]     primal_lower43  662
    u[34]     primal_lower44  185
    u[34]     primal_lower45  480
    u[34]     primal_lower46  758
    u[34]     primal_lower47  802
    u[34]     primal_lower48  542
    u[34]     primal_lower49  746
    u[34]     primal_lower50  627
    u[34]     primal_lower51  753
    u[34]     primal_lower52  369
    u[34]     primal_lower53  559
    u[34]     primal_lower54  14
    u[34]     primal_lower55  545
    u[34]     primal_lower56  402
    u[34]     primal_lower57  32
    u[34]     primal_lower58  834
    u[34]     primal_lower59  928
    u[34]     primal_lower60  939
    u[34]     primal_lower61  572
    u[34]     primal_lower62  528
    u[34]     primal_lower63  654
    u[34]     primal_lower64  738
    u[34]     primal_lower65  875
    u[34]     primal_lower66  725
    u[34]     primal_lower67  447
    u[34]     primal_lower68  27
    u[34]     primal_lower69  522
    u[34]     primal_lower70  576
    u[34]     primal_lower71  367
    u[34]     primal_lower72  870
    u[34]     primal_lower73  141
    u[34]     primal_lower74  172
    u[34]     primal_lower75  992
    u[34]     primal_lower76  217
    u[34]     primal_lower77  713
    u[34]     primal_lower78  938
    u[34]     primal_lower79  132
    u[34]     primal_lower80  204
    u[34]     primal_lower81  977
    u[34]     primal_lower82  598
    u[34]     primal_lower83  31
    u[34]     primal_lower84  952
    u[34]     primal_lower85  300
    u[34]     primal_lower86  816
    u[34]     primal_lower87  449
    u[34]     primal_lower88  455
    u[34]     primal_lower89  713
    u[34]     primal_lower90  688
    u[34]     primal_lower91  630
    u[34]     primal_lower92  5
    u[34]     primal_lower93  260
    u[34]     primal_lower94  455
    u[34]     primal_lower95  10
    u[34]     primal_lower96  649
    u[34]     primal_lower97  871
    u[34]     primal_lower98  162
    u[34]     primal_lower99  609
    u[34]     interdiction[34]  1
    u[34]     mccormick1[34]  -1
    u[34]     mccormick3[34]  1
    u[35]     primal_lower0  114
    u[35]     primal_lower1  230
    u[35]     primal_lower2  551
    u[35]     primal_lower3  33
    u[35]     primal_lower4  235
    u[35]     primal_lower5  555
    u[35]     primal_lower6  413
    u[35]     primal_lower7  438
    u[35]     primal_lower8  998
    u[35]     primal_lower9  810
    u[35]     primal_lower10  635
    u[35]     primal_lower11  96
    u[35]     primal_lower12  365
    u[35]     primal_lower13  683
    u[35]     primal_lower14  895
    u[35]     primal_lower15  165
    u[35]     primal_lower16  335
    u[35]     primal_lower17  689
    u[35]     primal_lower18  433
    u[35]     primal_lower19  114
    u[35]     primal_lower20  452
    u[35]     primal_lower21  524
    u[35]     primal_lower22  510
    u[35]     primal_lower23  676
    u[35]     primal_lower24  470
    u[35]     primal_lower25  878
    u[35]     primal_lower26  866
    u[35]     primal_lower27  873
    u[35]     primal_lower28  8
    u[35]     primal_lower29  911
    u[35]     primal_lower30  397
    u[35]     primal_lower31  609
    u[35]     primal_lower32  534
    u[35]     primal_lower33  284
    u[35]     primal_lower34  252
    u[35]     primal_lower35  897
    u[35]     primal_lower36  54
    u[35]     primal_lower37  116
    u[35]     primal_lower38  625
    u[35]     primal_lower39  192
    u[35]     primal_lower40  59
    u[35]     primal_lower41  236
    u[35]     primal_lower42  127
    u[35]     primal_lower43  583
    u[35]     primal_lower44  742
    u[35]     primal_lower45  425
    u[35]     primal_lower46  419
    u[35]     primal_lower47  855
    u[35]     primal_lower48  423
    u[35]     primal_lower49  291
    u[35]     primal_lower50  836
    u[35]     primal_lower51  478
    u[35]     primal_lower52  542
    u[35]     primal_lower53  352
    u[35]     primal_lower54  907
    u[35]     primal_lower55  874
    u[35]     primal_lower56  991
    u[35]     primal_lower57  713
    u[35]     primal_lower58  307
    u[35]     primal_lower59  705
    u[35]     primal_lower60  216
    u[35]     primal_lower61  657
    u[35]     primal_lower62  569
    u[35]     primal_lower63  503
    u[35]     primal_lower64  399
    u[35]     primal_lower65  92
    u[35]     primal_lower66  330
    u[35]     primal_lower67  632
    u[35]     primal_lower68  336
    u[35]     primal_lower69  183
    u[35]     primal_lower70  325
    u[35]     primal_lower71  192
    u[35]     primal_lower72  443
    u[35]     primal_lower73  958
    u[35]     primal_lower74  693
    u[35]     primal_lower75  765
    u[35]     primal_lower76  282
    u[35]     primal_lower77  894
    u[35]     primal_lower78  63
    u[35]     primal_lower79  437
    u[35]     primal_lower80  417
    u[35]     primal_lower81  482
    u[35]     primal_lower82  919
    u[35]     primal_lower83  352
    u[35]     primal_lower84  721
    u[35]     primal_lower85  169
    u[35]     primal_lower86  665
    u[35]     primal_lower87  966
    u[35]     primal_lower88  800
    u[35]     primal_lower89  570
    u[35]     primal_lower90  601
    u[35]     primal_lower91  751
    u[35]     primal_lower92  938
    u[35]     primal_lower93  673
    u[35]     primal_lower94  676
    u[35]     primal_lower95  859
    u[35]     primal_lower96  890
    u[35]     primal_lower97  316
    u[35]     primal_lower98  539
    u[35]     primal_lower99  326
    u[35]     interdiction[35]  1
    u[35]     mccormick1[35]  -1
    u[35]     mccormick3[35]  1
    u[36]     primal_lower0  701
    u[36]     primal_lower1  689
    u[36]     primal_lower2  906
    u[36]     primal_lower3  96
    u[36]     primal_lower4  482
    u[36]     primal_lower5  630
    u[36]     primal_lower6  688
    u[36]     primal_lower7  969
    u[36]     primal_lower8  525
    u[36]     primal_lower9  477
    u[36]     primal_lower10  862
    u[36]     primal_lower11  859
    u[36]     primal_lower12  992
    u[36]     primal_lower13  882
    u[36]     primal_lower14  246
    u[36]     primal_lower15  336
    u[36]     primal_lower16  682
    u[36]     primal_lower17  144
    u[36]     primal_lower18  856
    u[36]     primal_lower19  193
    u[36]     primal_lower20  119
    u[36]     primal_lower21  699
    u[36]     primal_lower22  745
    u[36]     primal_lower23  243
    u[36]     primal_lower24  905
    u[36]     primal_lower25  449
    u[36]     primal_lower26  753
    u[36]     primal_lower27  716
    u[36]     primal_lower28  815
    u[36]     primal_lower29  718
    u[36]     primal_lower30  248
    u[36]     primal_lower31  888
    u[36]     primal_lower32  765
    u[36]     primal_lower33  867
    u[36]     primal_lower34  739
    u[36]     primal_lower35  804
    u[36]     primal_lower36  77
    u[36]     primal_lower37  355
    u[36]     primal_lower38  672
    u[36]     primal_lower39  891
    u[36]     primal_lower40  714
    u[36]     primal_lower41  443
    u[36]     primal_lower42  994
    u[36]     primal_lower43  638
    u[36]     primal_lower44  793
    u[36]     primal_lower45  592
    u[36]     primal_lower46  958
    u[36]     primal_lower47  130
    u[36]     primal_lower48  94
    u[36]     primal_lower49  538
    u[36]     primal_lower50  475
    u[36]     primal_lower51  129
    u[36]     primal_lower52  785
    u[36]     primal_lower53  199
    u[36]     primal_lower54  822
    u[36]     primal_lower55  593
    u[36]     primal_lower56  714
    u[36]     primal_lower57  848
    u[36]     primal_lower58  330
    u[36]     primal_lower59  600
    u[36]     primal_lower60  267
    u[36]     primal_lower61  524
    u[36]     primal_lower62  928
    u[36]     primal_lower63  174
    u[36]     primal_lower64  50
    u[36]     primal_lower65  547
    u[36]     primal_lower66  309
    u[36]     primal_lower67  527
    u[36]     primal_lower68  651
    u[36]     primal_lower69  106
    u[36]     primal_lower70  928
    u[36]     primal_lower71  143
    u[36]     primal_lower72  382
    u[36]     primal_lower73  205
    u[36]     primal_lower74  868
    u[36]     primal_lower75  496
    u[36]     primal_lower76  113
    u[36]     primal_lower77  633
    u[36]     primal_lower78  578
    u[36]     primal_lower79  804
    u[36]     primal_lower80  916
    u[36]     primal_lower81  873
    u[36]     primal_lower82  382
    u[36]     primal_lower83  591
    u[36]     primal_lower84  536
    u[36]     primal_lower85  364
    u[36]     primal_lower86  608
    u[36]     primal_lower87  889
    u[36]     primal_lower88  919
    u[36]     primal_lower89  121
    u[36]     primal_lower90  928
    u[36]     primal_lower91  654
    u[36]     primal_lower92  117
    u[36]     primal_lower93  276
    u[36]     primal_lower94  415
    u[36]     primal_lower95  674
    u[36]     primal_lower96  393
    u[36]     primal_lower97  247
    u[36]     primal_lower98  530
    u[36]     primal_lower99  457
    u[36]     interdiction[36]  1
    u[36]     mccormick1[36]  -1
    u[36]     mccormick3[36]  1
    u[37]     primal_lower0  70
    u[37]     primal_lower1  818
    u[37]     primal_lower2  763
    u[37]     primal_lower3  428
    u[37]     primal_lower4  750
    u[37]     primal_lower5  175
    u[37]     primal_lower6  713
    u[37]     primal_lower7  978
    u[37]     primal_lower8  633
    u[37]     primal_lower9  790
    u[37]     primal_lower10  623
    u[37]     primal_lower11  108
    u[37]     primal_lower12  641
    u[37]     primal_lower13  934
    u[37]     primal_lower14  962
    u[37]     primal_lower15  849
    u[37]     primal_lower16  179
    u[37]     primal_lower17  372
    u[37]     primal_lower18  820
    u[37]     primal_lower19  557
    u[37]     primal_lower20  536
    u[37]     primal_lower21  23
    u[37]     primal_lower22  386
    u[37]     primal_lower23  295
    u[37]     primal_lower24  50
    u[37]     primal_lower25  434
    u[37]     primal_lower26  421
    u[37]     primal_lower27  197
    u[37]     primal_lower28  163
    u[37]     primal_lower29  354
    u[37]     primal_lower30  329
    u[37]     primal_lower31  628
    u[37]     primal_lower32  313
    u[37]     primal_lower33  815
    u[37]     primal_lower34  343
    u[37]     primal_lower35  853
    u[37]     primal_lower36  457
    u[37]     primal_lower37  167
    u[37]     primal_lower38  132
    u[37]     primal_lower39  500
    u[37]     primal_lower40  86
    u[37]     primal_lower41  15
    u[37]     primal_lower42  907
    u[37]     primal_lower43  554
    u[37]     primal_lower44  586
    u[37]     primal_lower45  996
    u[37]     primal_lower46  679
    u[37]     primal_lower47  43
    u[37]     primal_lower48  602
    u[37]     primal_lower49  62
    u[37]     primal_lower50  159
    u[37]     primal_lower51  954
    u[37]     primal_lower52  378
    u[37]     primal_lower53  419
    u[37]     primal_lower54  903
    u[37]     primal_lower55  693
    u[37]     primal_lower56  955
    u[37]     primal_lower57  604
    u[37]     primal_lower58  70
    u[37]     primal_lower59  596
    u[37]     primal_lower60  780
    u[37]     primal_lower61  813
    u[37]     primal_lower62  908
    u[37]     primal_lower63  970
    u[37]     primal_lower64  979
    u[37]     primal_lower65  15
    u[37]     primal_lower66  886
    u[37]     primal_lower67  443
    u[37]     primal_lower68  972
    u[37]     primal_lower69  91
    u[37]     primal_lower70  273
    u[37]     primal_lower71  595
    u[37]     primal_lower72  407
    u[37]     primal_lower73  265
    u[37]     primal_lower74  976
    u[37]     primal_lower75  209
    u[37]     primal_lower76  613
    u[37]     primal_lower77  10
    u[37]     primal_lower78  139
    u[37]     primal_lower79  264
    u[37]     primal_lower80  637
    u[37]     primal_lower81  117
    u[37]     primal_lower82  874
    u[37]     primal_lower83  155
    u[37]     primal_lower84  988
    u[37]     primal_lower85  437
    u[37]     primal_lower86  868
    u[37]     primal_lower87  234
    u[37]     primal_lower88  27
    u[37]     primal_lower89  709
    u[37]     primal_lower90  956
    u[37]     primal_lower91  218
    u[37]     primal_lower92  302
    u[37]     primal_lower93  309
    u[37]     primal_lower94  544
    u[37]     primal_lower95  870
    u[37]     primal_lower96  37
    u[37]     primal_lower97  616
    u[37]     primal_lower98  366
    u[37]     primal_lower99  66
    u[37]     interdiction[37]  1
    u[37]     mccormick1[37]  -1
    u[37]     mccormick3[37]  1
    u[38]     primal_lower0  781
    u[38]     primal_lower1  913
    u[38]     primal_lower2  962
    u[38]     primal_lower3  640
    u[38]     primal_lower4  570
    u[38]     primal_lower5  630
    u[38]     primal_lower6  824
    u[38]     primal_lower7  177
    u[38]     primal_lower8  901
    u[38]     primal_lower9  173
    u[38]     primal_lower10  550
    u[38]     primal_lower11  435
    u[38]     primal_lower12  184
    u[38]     primal_lower13  618
    u[38]     primal_lower14  782
    u[38]     primal_lower15  840
    u[38]     primal_lower16  10
    u[38]     primal_lower17  904
    u[38]     primal_lower18  624
    u[38]     primal_lower19  769
    u[38]     primal_lower20  743
    u[38]     primal_lower21  827
    u[38]     primal_lower22  625
    u[38]     primal_lower23  83
    u[38]     primal_lower24  537
    u[38]     primal_lower25  729
    u[38]     primal_lower26  801
    u[38]     primal_lower27  812
    u[38]     primal_lower28  479
    u[38]     primal_lower29  742
    u[38]     primal_lower30  944
    u[38]     primal_lower31  656
    u[38]     primal_lower32  821
    u[38]     primal_lower33  227
    u[38]     primal_lower34  3
    u[38]     primal_lower35  476
    u[38]     primal_lower36  957
    u[38]     primal_lower37  355
    u[38]     primal_lower38  320
    u[38]     primal_lower39  571
    u[38]     primal_lower40  362
    u[38]     primal_lower41  267
    u[38]     primal_lower42  210
    u[38]     primal_lower43  214
    u[38]     primal_lower44  345
    u[38]     primal_lower45  368
    u[38]     primal_lower46  830
    u[38]     primal_lower47  570
    u[38]     primal_lower48  718
    u[38]     primal_lower49  978
    u[38]     primal_lower50  707
    u[38]     primal_lower51  689
    u[38]     primal_lower52  385
    u[38]     primal_lower53  599
    u[38]     primal_lower54  510
    u[38]     primal_lower55  777
    u[38]     primal_lower56  802
    u[38]     primal_lower57  64
    u[38]     primal_lower58  338
    u[38]     primal_lower59  392
    u[38]     primal_lower60  611
    u[38]     primal_lower61  748
    u[38]     primal_lower62  592
    u[38]     primal_lower63  550
    u[38]     primal_lower64  330
    u[38]     primal_lower65  987
    u[38]     primal_lower66  429
    u[38]     primal_lower67  215
    u[38]     primal_lower68  427
    u[38]     primal_lower69  866
    u[38]     primal_lower70  992
    u[38]     primal_lower71  175
    u[38]     primal_lower72  694
    u[38]     primal_lower73  605
    u[38]     primal_lower74  572
    u[38]     primal_lower75  8
    u[38]     primal_lower76  281
    u[38]     primal_lower77  313
    u[38]     primal_lower78  10
    u[38]     primal_lower79  204
    u[38]     primal_lower80  60
    u[38]     primal_lower81  161
    u[38]     primal_lower82  270
    u[38]     primal_lower83  183
    u[38]     primal_lower84  952
    u[38]     primal_lower85  164
    u[38]     primal_lower86  248
    u[38]     primal_lower87  137
    u[38]     primal_lower88  239
    u[38]     primal_lower89  897
    u[38]     primal_lower90  224
    u[38]     primal_lower91  430
    u[38]     primal_lower92  549
    u[38]     primal_lower93  332
    u[38]     primal_lower94  279
    u[38]     primal_lower95  322
    u[38]     primal_lower96  857
    u[38]     primal_lower97  327
    u[38]     primal_lower98  626
    u[38]     primal_lower99  33
    u[38]     interdiction[38]  1
    u[38]     mccormick1[38]  -1
    u[38]     mccormick3[38]  1
    u[39]     primal_lower0  448
    u[39]     primal_lower1  60
    u[39]     primal_lower2  821
    u[39]     primal_lower3  14
    u[39]     primal_lower4  816
    u[39]     primal_lower5  177
    u[39]     primal_lower6  955
    u[39]     primal_lower7  636
    u[39]     primal_lower8  283
    u[39]     primal_lower9  864
    u[39]     primal_lower10  225
    u[39]     primal_lower11  238
    u[39]     primal_lower12  803
    u[39]     primal_lower13  1000
    u[39]     primal_lower14  708
    u[39]     primal_lower15  291
    u[39]     primal_lower16  277
    u[39]     primal_lower17  558
    u[39]     primal_lower18  966
    u[39]     primal_lower19  199
    u[39]     primal_lower20  66
    u[39]     primal_lower21  785
    u[39]     primal_lower22  244
    u[39]     primal_lower23  521
    u[39]     primal_lower24  724
    u[39]     primal_lower25  596
    u[39]     primal_lower26  263
    u[39]     primal_lower27  879
    u[39]     primal_lower28  141
    u[39]     primal_lower29  684
    u[39]     primal_lower30  555
    u[39]     primal_lower31  798
    u[39]     primal_lower32  859
    u[39]     primal_lower33  489
    u[39]     primal_lower34  369
    u[39]     primal_lower35  311
    u[39]     primal_lower36  907
    u[39]     primal_lower37  729
    u[39]     primal_lower38  606
    u[39]     primal_lower39  518
    u[39]     primal_lower40  536
    u[39]     primal_lower41  865
    u[39]     primal_lower42  701
    u[39]     primal_lower43  28
    u[39]     primal_lower44  588
    u[39]     primal_lower45  702
    u[39]     primal_lower46  329
    u[39]     primal_lower47  405
    u[39]     primal_lower48  580
    u[39]     primal_lower49  128
    u[39]     primal_lower50  313
    u[39]     primal_lower51  996
    u[39]     primal_lower52  60
    u[39]     primal_lower53  85
    u[39]     primal_lower54  609
    u[39]     primal_lower55  103
    u[39]     primal_lower56  85
    u[39]     primal_lower57  590
    u[39]     primal_lower58  576
    u[39]     primal_lower59  606
    u[39]     primal_lower60  70
    u[39]     primal_lower61  911
    u[39]     primal_lower62  950
    u[39]     primal_lower63  620
    u[39]     primal_lower64  221
    u[39]     primal_lower65  969
    u[39]     primal_lower66  392
    u[39]     primal_lower67  653
    u[39]     primal_lower68  334
    u[39]     primal_lower69  157
    u[39]     primal_lower70  723
    u[39]     primal_lower71  589
    u[39]     primal_lower72  881
    u[39]     primal_lower73  275
    u[39]     primal_lower74  722
    u[39]     primal_lower75  987
    u[39]     primal_lower76  631
    u[39]     primal_lower77  260
    u[39]     primal_lower78  669
    u[39]     primal_lower79  882
    u[39]     primal_lower80  175
    u[39]     primal_lower81  31
    u[39]     primal_lower82  948
    u[39]     primal_lower83  125
    u[39]     primal_lower84  422
    u[39]     primal_lower85  695
    u[39]     primal_lower86  182
    u[39]     primal_lower87  180
    u[39]     primal_lower88  741
    u[39]     primal_lower89  391
    u[39]     primal_lower90  406
    u[39]     primal_lower91  548
    u[39]     primal_lower92  752
    u[39]     primal_lower93  143
    u[39]     primal_lower94  842
    u[39]     primal_lower95  624
    u[39]     primal_lower96  559
    u[39]     primal_lower97  266
    u[39]     primal_lower98  152
    u[39]     primal_lower99  788
    u[39]     interdiction[39]  1
    u[39]     mccormick1[39]  -1
    u[39]     mccormick3[39]  1
    u[40]     primal_lower0  744
    u[40]     primal_lower1  76
    u[40]     primal_lower2  277
    u[40]     primal_lower3  947
    u[40]     primal_lower4  677
    u[40]     primal_lower5  521
    u[40]     primal_lower6  459
    u[40]     primal_lower7  820
    u[40]     primal_lower8  8
    u[40]     primal_lower9  144
    u[40]     primal_lower10  761
    u[40]     primal_lower11  454
    u[40]     primal_lower12  459
    u[40]     primal_lower13  989
    u[40]     primal_lower14  297
    u[40]     primal_lower15  203
    u[40]     primal_lower16  261
    u[40]     primal_lower17  931
    u[40]     primal_lower18  579
    u[40]     primal_lower19  532
    u[40]     primal_lower20  306
    u[40]     primal_lower21  38
    u[40]     primal_lower22  740
    u[40]     primal_lower23  310
    u[40]     primal_lower24  492
    u[40]     primal_lower25  908
    u[40]     primal_lower26  84
    u[40]     primal_lower27  239
    u[40]     primal_lower28  586
    u[40]     primal_lower29  17
    u[40]     primal_lower30  987
    u[40]     primal_lower31  403
    u[40]     primal_lower32  392
    u[40]     primal_lower33  30
    u[40]     primal_lower34  598
    u[40]     primal_lower35  7
    u[40]     primal_lower36  328
    u[40]     primal_lower37  230
    u[40]     primal_lower38  971
    u[40]     primal_lower39  310
    u[40]     primal_lower40  581
    u[40]     primal_lower41  414
    u[40]     primal_lower42  949
    u[40]     primal_lower43  937
    u[40]     primal_lower44  204
    u[40]     primal_lower45  667
    u[40]     primal_lower46  9
    u[40]     primal_lower47  877
    u[40]     primal_lower48  481
    u[40]     primal_lower49  389
    u[40]     primal_lower50  326
    u[40]     primal_lower51  524
    u[40]     primal_lower52  412
    u[40]     primal_lower53  698
    u[40]     primal_lower54  441
    u[40]     primal_lower55  380
    u[40]     primal_lower56  805
    u[40]     primal_lower57  531
    u[40]     primal_lower58  157
    u[40]     primal_lower59  211
    u[40]     primal_lower60  446
    u[40]     primal_lower61  471
    u[40]     primal_lower62  699
    u[40]     primal_lower63  601
    u[40]     primal_lower64  781
    u[40]     primal_lower65  630
    u[40]     primal_lower66  736
    u[40]     primal_lower67  290
    u[40]     primal_lower68  606
    u[40]     primal_lower69  741
    u[40]     primal_lower70  363
    u[40]     primal_lower71  2
    u[40]     primal_lower72  633
    u[40]     primal_lower73  984
    u[40]     primal_lower74  983
    u[40]     primal_lower75  403
    u[40]     primal_lower76  724
    u[40]     primal_lower77  452
    u[40]     primal_lower78  501
    u[40]     primal_lower79  479
    u[40]     primal_lower80  119
    u[40]     primal_lower81  220
    u[40]     primal_lower82  361
    u[40]     primal_lower83  66
    u[40]     primal_lower84  707
    u[40]     primal_lower85  255
    u[40]     primal_lower86  67
    u[40]     primal_lower87  740
    u[40]     primal_lower88  58
    u[40]     primal_lower89  292
    u[40]     primal_lower90  891
    u[40]     primal_lower91  929
    u[40]     primal_lower92  16
    u[40]     primal_lower93  791
    u[40]     primal_lower94  666
    u[40]     primal_lower95  157
    u[40]     primal_lower96  756
    u[40]     primal_lower97  202
    u[40]     primal_lower98  501
    u[40]     primal_lower99  396
    u[40]     interdiction[40]  1
    u[40]     mccormick1[40]  -1
    u[40]     mccormick3[40]  1
    u[41]     primal_lower0  251
    u[41]     primal_lower1  63
    u[41]     primal_lower2  856
    u[41]     primal_lower3  145
    u[41]     primal_lower4  235
    u[41]     primal_lower5  556
    u[41]     primal_lower6  158
    u[41]     primal_lower7  287
    u[41]     primal_lower8  14
    u[41]     primal_lower9  923
    u[41]     primal_lower10  156
    u[41]     primal_lower11  537
    u[41]     primal_lower12  446
    u[41]     primal_lower13  835
    u[41]     primal_lower14  871
    u[41]     primal_lower15  398
    u[41]     primal_lower16  832
    u[41]     primal_lower17  681
    u[41]     primal_lower18  393
    u[41]     primal_lower19  850
    u[41]     primal_lower20  213
    u[41]     primal_lower21  716
    u[41]     primal_lower22  591
    u[41]     primal_lower23  12
    u[41]     primal_lower24  735
    u[41]     primal_lower25  375
    u[41]     primal_lower26  106
    u[41]     primal_lower27  746
    u[41]     primal_lower28  16
    u[41]     primal_lower29  551
    u[41]     primal_lower30  390
    u[41]     primal_lower31  465
    u[41]     primal_lower32  350
    u[41]     primal_lower33  404
    u[41]     primal_lower34  476
    u[41]     primal_lower35  458
    u[41]     primal_lower36  62
    u[41]     primal_lower37  868
    u[41]     primal_lower38  17
    u[41]     primal_lower39  433
    u[41]     primal_lower40  299
    u[41]     primal_lower41  756
    u[41]     primal_lower42  360
    u[41]     primal_lower43  543
    u[41]     primal_lower44  31
    u[41]     primal_lower45  265
    u[41]     primal_lower46  796
    u[41]     primal_lower47  184
    u[41]     primal_lower48  447
    u[41]     primal_lower49  659
    u[41]     primal_lower50  404
    u[41]     primal_lower51  807
    u[41]     primal_lower52  247
    u[41]     primal_lower53  56
    u[41]     primal_lower54  916
    u[41]     primal_lower55  50
    u[41]     primal_lower56  64
    u[41]     primal_lower57  745
    u[41]     primal_lower58  27
    u[41]     primal_lower59  57
    u[41]     primal_lower60  401
    u[41]     primal_lower61  826
    u[41]     primal_lower62  297
    u[41]     primal_lower63  911
    u[41]     primal_lower64  208
    u[41]     primal_lower65  596
    u[41]     primal_lower66  731
    u[41]     primal_lower67  152
    u[41]     primal_lower68  145
    u[41]     primal_lower69  816
    u[41]     primal_lower70  510
    u[41]     primal_lower71  456
    u[41]     primal_lower72  420
    u[41]     primal_lower73  734
    u[41]     primal_lower74  381
    u[41]     primal_lower75  62
    u[41]     primal_lower76  242
    u[41]     primal_lower77  183
    u[41]     primal_lower78  248
    u[41]     primal_lower79  173
    u[41]     primal_lower80  402
    u[41]     primal_lower81  826
    u[41]     primal_lower82  431
    u[41]     primal_lower83  328
    u[41]     primal_lower84  745
    u[41]     primal_lower85  658
    u[41]     primal_lower86  977
    u[41]     primal_lower87  551
    u[41]     primal_lower88  152
    u[41]     primal_lower89  522
    u[41]     primal_lower90  729
    u[41]     primal_lower91  519
    u[41]     primal_lower92  171
    u[41]     primal_lower93  466
    u[41]     primal_lower94  501
    u[41]     primal_lower95  603
    u[41]     primal_lower96  18
    u[41]     primal_lower97  269
    u[41]     primal_lower98  891
    u[41]     primal_lower99  207
    u[41]     interdiction[41]  1
    u[41]     mccormick1[41]  -1
    u[41]     mccormick3[41]  1
    u[42]     primal_lower0  391
    u[42]     primal_lower1  779
    u[42]     primal_lower2  716
    u[42]     primal_lower3  690
    u[42]     primal_lower4  340
    u[42]     primal_lower5  696
    u[42]     primal_lower6  946
    u[42]     primal_lower7  811
    u[42]     primal_lower8  991
    u[42]     primal_lower9  999
    u[42]     primal_lower10  56
    u[42]     primal_lower11  669
    u[42]     primal_lower12  370
    u[42]     primal_lower13  148
    u[42]     primal_lower14  656
    u[42]     primal_lower15  762
    u[42]     primal_lower16  428
    u[42]     primal_lower17  234
    u[42]     primal_lower18  586
    u[42]     primal_lower19  819
    u[42]     primal_lower20  185
    u[42]     primal_lower21  637
    u[42]     primal_lower22  131
    u[42]     primal_lower23  989
    u[42]     primal_lower24  931
    u[42]     primal_lower25  475
    u[42]     primal_lower26  307
    u[42]     primal_lower27  342
    u[42]     primal_lower28  825
    u[42]     primal_lower29  960
    u[42]     primal_lower30  274
    u[42]     primal_lower31  538
    u[42]     primal_lower32  567
    u[42]     primal_lower33  789
    u[42]     primal_lower34  893
    u[42]     primal_lower35  326
    u[42]     primal_lower36  719
    u[42]     primal_lower37  917
    u[42]     primal_lower38  106
    u[42]     primal_lower39  165
    u[42]     primal_lower40  508
    u[42]     primal_lower41  765
    u[42]     primal_lower42  732
    u[42]     primal_lower43  456
    u[42]     primal_lower44  171
    u[42]     primal_lower45  850
    u[42]     primal_lower46  856
    u[42]     primal_lower47  108
    u[42]     primal_lower48  680
    u[42]     primal_lower49  612
    u[42]     primal_lower50  997
    u[42]     primal_lower51  291
    u[42]     primal_lower52  923
    u[42]     primal_lower53  505
    u[42]     primal_lower54  832
    u[42]     primal_lower55  619
    u[42]     primal_lower56  684
    u[42]     primal_lower57  754
    u[42]     primal_lower58  700
    u[42]     primal_lower59  250
    u[42]     primal_lower60  77
    u[42]     primal_lower61  686
    u[42]     primal_lower62  602
    u[42]     primal_lower63  416
    u[42]     primal_lower64  132
    u[42]     primal_lower65  533
    u[42]     primal_lower66  951
    u[42]     primal_lower67  881
    u[42]     primal_lower68  869
    u[42]     primal_lower69  444
    u[42]     primal_lower70  234
    u[42]     primal_lower71  369
    u[42]     primal_lower72  160
    u[42]     primal_lower73  367
    u[42]     primal_lower74  22
    u[42]     primal_lower75  2
    u[42]     primal_lower76  323
    u[42]     primal_lower77  659
    u[42]     primal_lower78  76
    u[42]     primal_lower79  502
    u[42]     primal_lower80  966
    u[42]     primal_lower81  827
    u[42]     primal_lower82  840
    u[42]     primal_lower83  297
    u[42]     primal_lower84  442
    u[42]     primal_lower85  766
    u[42]     primal_lower86  682
    u[42]     primal_lower87  99
    u[42]     primal_lower88  289
    u[42]     primal_lower89  483
    u[42]     primal_lower90  714
    u[42]     primal_lower91  112
    u[42]     primal_lower92  7
    u[42]     primal_lower93  622
    u[42]     primal_lower94  433
    u[42]     primal_lower95  628
    u[42]     primal_lower96  531
    u[42]     primal_lower97  489
    u[42]     primal_lower98  332
    u[42]     primal_lower99  963
    u[42]     interdiction[42]  1
    u[42]     mccormick1[42]  -1
    u[42]     mccormick3[42]  1
    u[43]     primal_lower0  775
    u[43]     primal_lower1  955
    u[43]     primal_lower2  372
    u[43]     primal_lower3  541
    u[43]     primal_lower4  367
    u[43]     primal_lower5  80
    u[43]     primal_lower6  778
    u[43]     primal_lower7  499
    u[43]     primal_lower8  442
    u[43]     primal_lower9  807
    u[43]     primal_lower10  760
    u[43]     primal_lower11  573
    u[43]     primal_lower12  242
    u[43]     primal_lower13  239
    u[43]     primal_lower14  307
    u[43]     primal_lower15  322
    u[43]     primal_lower16  204
    u[43]     primal_lower17  269
    u[43]     primal_lower18  637
    u[43]     primal_lower19  774
    u[43]     primal_lower20  193
    u[43]     primal_lower21  144
    u[43]     primal_lower22  659
    u[43]     primal_lower23  224
    u[43]     primal_lower24  835
    u[43]     primal_lower25  651
    u[43]     primal_lower26  118
    u[43]     primal_lower27  286
    u[43]     primal_lower28  820
    u[43]     primal_lower29  195
    u[43]     primal_lower30  282
    u[43]     primal_lower31  829
    u[43]     primal_lower32  170
    u[43]     primal_lower33  464
    u[43]     primal_lower34  368
    u[43]     primal_lower35  454
    u[43]     primal_lower36  450
    u[43]     primal_lower37  824
    u[43]     primal_lower38  125
    u[43]     primal_lower39  197
    u[43]     primal_lower40  119
    u[43]     primal_lower41  416
    u[43]     primal_lower42  660
    u[43]     primal_lower43  611
    u[43]     primal_lower44  667
    u[43]     primal_lower45  509
    u[43]     primal_lower46  304
    u[43]     primal_lower47  340
    u[43]     primal_lower48  155
    u[43]     primal_lower49  727
    u[43]     primal_lower50  280
    u[43]     primal_lower51  419
    u[43]     primal_lower52  795
    u[43]     primal_lower53  900
    u[43]     primal_lower54  392
    u[43]     primal_lower55  790
    u[43]     primal_lower56  524
    u[43]     primal_lower57  285
    u[43]     primal_lower58  319
    u[43]     primal_lower59  749
    u[43]     primal_lower60  13
    u[43]     primal_lower61  318
    u[43]     primal_lower62  973
    u[43]     primal_lower63  379
    u[43]     primal_lower64  932
    u[43]     primal_lower65  8
    u[43]     primal_lower66  287
    u[43]     primal_lower67  844
    u[43]     primal_lower68  557
    u[43]     primal_lower69  924
    u[43]     primal_lower70  826
    u[43]     primal_lower71  388
    u[43]     primal_lower72  160
    u[43]     primal_lower73  578
    u[43]     primal_lower74  977
    u[43]     primal_lower75  938
    u[43]     primal_lower76  854
    u[43]     primal_lower77  699
    u[43]     primal_lower78  276
    u[43]     primal_lower79  937
    u[43]     primal_lower80  38
    u[43]     primal_lower81  622
    u[43]     primal_lower82  515
    u[43]     primal_lower83  348
    u[43]     primal_lower84  309
    u[43]     primal_lower85  86
    u[43]     primal_lower86  693
    u[43]     primal_lower87  507
    u[43]     primal_lower88  284
    u[43]     primal_lower89  718
    u[43]     primal_lower90  365
    u[43]     primal_lower91  387
    u[43]     primal_lower92  375
    u[43]     primal_lower93  222
    u[43]     primal_lower94  729
    u[43]     primal_lower95  47
    u[43]     primal_lower96  878
    u[43]     primal_lower97  745
    u[43]     primal_lower98  735
    u[43]     primal_lower99  635
    u[43]     interdiction[43]  1
    u[43]     mccormick1[43]  -1
    u[43]     mccormick3[43]  1
    u[44]     primal_lower0  464
    u[44]     primal_lower1  628
    u[44]     primal_lower2  493
    u[44]     primal_lower3  459
    u[44]     primal_lower4  909
    u[44]     primal_lower5  393
    u[44]     primal_lower6  51
    u[44]     primal_lower7  892
    u[44]     primal_lower8  360
    u[44]     primal_lower9  744
    u[44]     primal_lower10  489
    u[44]     primal_lower11  70
    u[44]     primal_lower12  771
    u[44]     primal_lower13  181
    u[44]     primal_lower14  633
    u[44]     primal_lower15  651
    u[44]     primal_lower16  837
    u[44]     primal_lower17  227
    u[44]     primal_lower18  187
    u[44]     primal_lower19  740
    u[44]     primal_lower20  746
    u[44]     primal_lower21  966
    u[44]     primal_lower22  236
    u[44]     primal_lower23  790
    u[44]     primal_lower24  636
    u[44]     primal_lower25  228
    u[44]     primal_lower26  52
    u[44]     primal_lower27  119
    u[44]     primal_lower28  618
    u[44]     primal_lower29  553
    u[44]     primal_lower30  875
    u[44]     primal_lower31  291
    u[44]     primal_lower32  824
    u[44]     primal_lower33  806
    u[44]     primal_lower34  254
    u[44]     primal_lower35  703
    u[44]     primal_lower36  936
    u[44]     primal_lower37  510
    u[44]     primal_lower38  91
    u[44]     primal_lower39  390
    u[44]     primal_lower40  429
    u[44]     primal_lower41  670
    u[44]     primal_lower42  693
    u[44]     primal_lower43  937
    u[44]     primal_lower44  724
    u[44]     primal_lower45  475
    u[44]     primal_lower46  41
    u[44]     primal_lower47  405
    u[44]     primal_lower48  25
    u[44]     primal_lower49  325
    u[44]     primal_lower50  670
    u[44]     primal_lower51  316
    u[44]     primal_lower52  500
    u[44]     primal_lower53  146
    u[44]     primal_lower54  393
    u[44]     primal_lower55  460
    u[44]     primal_lower56  901
    u[44]     primal_lower57  963
    u[44]     primal_lower58  221
    u[44]     primal_lower59  443
    u[44]     primal_lower60  14
    u[44]     primal_lower61  207
    u[44]     primal_lower62  899
    u[44]     primal_lower63  961
    u[44]     primal_lower64  789
    u[44]     primal_lower65  62
    u[44]     primal_lower66  968
    u[44]     primal_lower67  282
    u[44]     primal_lower68  542
    u[44]     primal_lower69  269
    u[44]     primal_lower70  771
    u[44]     primal_lower71  370
    u[44]     primal_lower72  641
    u[44]     primal_lower73  680
    u[44]     primal_lower74  319
    u[44]     primal_lower75  203
    u[44]     primal_lower76  868
    u[44]     primal_lower77  724
    u[44]     primal_lower78  101
    u[44]     primal_lower79  871
    u[44]     primal_lower80  831
    u[44]     primal_lower81  700
    u[44]     primal_lower82  193
    u[44]     primal_lower83  898
    u[44]     primal_lower84  403
    u[44]     primal_lower85  487
    u[44]     primal_lower86  499
    u[44]     primal_lower87  300
    u[44]     primal_lower88  586
    u[44]     primal_lower89  156
    u[44]     primal_lower90  283
    u[44]     primal_lower91  681
    u[44]     primal_lower92  696
    u[44]     primal_lower93  455
    u[44]     primal_lower94  498
    u[44]     primal_lower95  653
    u[44]     primal_lower96  300
    u[44]     primal_lower97  18
    u[44]     primal_lower98  485
    u[44]     primal_lower99  324
    u[44]     interdiction[44]  1
    u[44]     mccormick1[44]  -1
    u[44]     mccormick3[44]  1
    u[45]     primal_lower0  660
    u[45]     primal_lower1  904
    u[45]     primal_lower2  209
    u[45]     primal_lower3  402
    u[45]     primal_lower4  540
    u[45]     primal_lower5  989
    u[45]     primal_lower6  567
    u[45]     primal_lower7  592
    u[45]     primal_lower8  183
    u[45]     primal_lower9  380
    u[45]     primal_lower10  749
    u[45]     primal_lower11  842
    u[45]     primal_lower12  71
    u[45]     primal_lower13  324
    u[45]     primal_lower14  272
    u[45]     primal_lower15  143
    u[45]     primal_lower16  841
    u[45]     primal_lower17  402
    u[45]     primal_lower18  746
    u[45]     primal_lower19  819
    u[45]     primal_lower20  382
    u[45]     primal_lower21  101
    u[45]     primal_lower22  272
    u[45]     primal_lower23  69
    u[45]     primal_lower24  248
    u[45]     primal_lower25  312
    u[45]     primal_lower26  795
    u[45]     primal_lower27  11
    u[45]     primal_lower28  377
    u[45]     primal_lower29  272
    u[45]     primal_lower30  319
    u[45]     primal_lower31  234
    u[45]     primal_lower32  39
    u[45]     primal_lower33  861
    u[45]     primal_lower34  805
    u[45]     primal_lower35  35
    u[45]     primal_lower36  551
    u[45]     primal_lower37  277
    u[45]     primal_lower38  690
    u[45]     primal_lower39  842
    u[45]     primal_lower40  204
    u[45]     primal_lower41  549
    u[45]     primal_lower42  737
    u[45]     primal_lower43  752
    u[45]     primal_lower44  392
    u[45]     primal_lower45  770
    u[45]     primal_lower46  885
    u[45]     primal_lower47  297
    u[45]     primal_lower48  152
    u[45]     primal_lower49  468
    u[45]     primal_lower50  317
    u[45]     primal_lower51  928
    u[45]     primal_lower52  520
    u[45]     primal_lower53  993
    u[45]     primal_lower54  837
    u[45]     primal_lower55  571
    u[45]     primal_lower56  273
    u[45]     primal_lower57  922
    u[45]     primal_lower58  60
    u[45]     primal_lower59  834
    u[45]     primal_lower60  722
    u[45]     primal_lower61  395
    u[45]     primal_lower62  922
    u[45]     primal_lower63  400
    u[45]     primal_lower64  577
    u[45]     primal_lower65  357
    u[45]     primal_lower66  532
    u[45]     primal_lower67  457
    u[45]     primal_lower68  90
    u[45]     primal_lower69  121
    u[45]     primal_lower70  383
    u[45]     primal_lower71  385
    u[45]     primal_lower72  493
    u[45]     primal_lower73  199
    u[45]     primal_lower74  182
    u[45]     primal_lower75  911
    u[45]     primal_lower76  139
    u[45]     primal_lower77  456
    u[45]     primal_lower78  81
    u[45]     primal_lower79  382
    u[45]     primal_lower80  203
    u[45]     primal_lower81  451
    u[45]     primal_lower82  832
    u[45]     primal_lower83  441
    u[45]     primal_lower84  994
    u[45]     primal_lower85  539
    u[45]     primal_lower86  770
    u[45]     primal_lower87  992
    u[45]     primal_lower88  985
    u[45]     primal_lower89  923
    u[45]     primal_lower90  770
    u[45]     primal_lower91  720
    u[45]     primal_lower92  780
    u[45]     primal_lower93  99
    u[45]     primal_lower94  326
    u[45]     primal_lower95  772
    u[45]     primal_lower96  211
    u[45]     primal_lower97  550
    u[45]     primal_lower98  92
    u[45]     primal_lower99  752
    u[45]     interdiction[45]  1
    u[45]     mccormick1[45]  -1
    u[45]     mccormick3[45]  1
    u[46]     primal_lower0  691
    u[46]     primal_lower1  495
    u[46]     primal_lower2  984
    u[46]     primal_lower3  661
    u[46]     primal_lower4  55
    u[46]     primal_lower5  596
    u[46]     primal_lower6  334
    u[46]     primal_lower7  423
    u[46]     primal_lower8  314
    u[46]     primal_lower9  923
    u[46]     primal_lower10  428
    u[46]     primal_lower11  689
    u[46]     primal_lower12  966
    u[46]     primal_lower13  999
    u[46]     primal_lower14  323
    u[46]     primal_lower15  126
    u[46]     primal_lower16  712
    u[46]     primal_lower17  21
    u[46]     primal_lower18  349
    u[46]     primal_lower19  310
    u[46]     primal_lower20  213
    u[46]     primal_lower21  952
    u[46]     primal_lower22  471
    u[46]     primal_lower23  400
    u[46]     primal_lower24  375
    u[46]     primal_lower25  183
    u[46]     primal_lower26  574
    u[46]     primal_lower27  130
    u[46]     primal_lower28  572
    u[46]     primal_lower29  699
    u[46]     primal_lower30  550
    u[46]     primal_lower31  397
    u[46]     primal_lower32  362
    u[46]     primal_lower33  152
    u[46]     primal_lower34  24
    u[46]     primal_lower35  146
    u[46]     primal_lower36  514
    u[46]     primal_lower37  848
    u[46]     primal_lower38  781
    u[46]     primal_lower39  57
    u[46]     primal_lower40  527
    u[46]     primal_lower41  832
    u[46]     primal_lower42  464
    u[46]     primal_lower43  651
    u[46]     primal_lower44  783
    u[46]     primal_lower45  645
    u[46]     primal_lower46  60
    u[46]     primal_lower47  752
    u[46]     primal_lower48  211
    u[46]     primal_lower49  167
    u[46]     primal_lower50  912
    u[46]     primal_lower51  231
    u[46]     primal_lower52  87
    u[46]     primal_lower53  340
    u[46]     primal_lower54  180
    u[46]     primal_lower55  806
    u[46]     primal_lower56  808
    u[46]     primal_lower57  589
    u[46]     primal_lower58  175
    u[46]     primal_lower59  133
    u[46]     primal_lower60  289
    u[46]     primal_lower61  450
    u[46]     primal_lower62  597
    u[46]     primal_lower63  891
    u[46]     primal_lower64  352
    u[46]     primal_lower65  616
    u[46]     primal_lower66  219
    u[46]     primal_lower67  268
    u[46]     primal_lower68  193
    u[46]     primal_lower69  864
    u[46]     primal_lower70  198
    u[46]     primal_lower71  740
    u[46]     primal_lower72  36
    u[46]     primal_lower73  922
    u[46]     primal_lower74  633
    u[46]     primal_lower75  662
    u[46]     primal_lower76  902
    u[46]     primal_lower77  151
    u[46]     primal_lower78  336
    u[46]     primal_lower79  633
    u[46]     primal_lower80  322
    u[46]     primal_lower81  230
    u[46]     primal_lower82  891
    u[46]     primal_lower83  220
    u[46]     primal_lower84  669
    u[46]     primal_lower85  218
    u[46]     primal_lower86  741
    u[46]     primal_lower87  607
    u[46]     primal_lower88  916
    u[46]     primal_lower89  478
    u[46]     primal_lower90  93
    u[46]     primal_lower91  475
    u[46]     primal_lower92  907
    u[46]     primal_lower93  242
    u[46]     primal_lower94  821
    u[46]     primal_lower95  239
    u[46]     primal_lower96  518
    u[46]     primal_lower97  941
    u[46]     primal_lower98  7
    u[46]     primal_lower99  151
    u[46]     interdiction[46]  1
    u[46]     mccormick1[46]  -1
    u[46]     mccormick3[46]  1
    u[47]     primal_lower0  251
    u[47]     primal_lower1  551
    u[47]     primal_lower2  792
    u[47]     primal_lower3  353
    u[47]     primal_lower4  387
    u[47]     primal_lower5  132
    u[47]     primal_lower6  822
    u[47]     primal_lower7  95
    u[47]     primal_lower8  574
    u[47]     primal_lower9  483
    u[47]     primal_lower10  756
    u[47]     primal_lower11  17
    u[47]     primal_lower12  174
    u[47]     primal_lower13  235
    u[47]     primal_lower14  535
    u[47]     primal_lower15  398
    u[47]     primal_lower16  320
    u[47]     primal_lower17  809
    u[47]     primal_lower18  209
    u[47]     primal_lower19  586
    u[47]     primal_lower20  789
    u[47]     primal_lower21  196
    u[47]     primal_lower22  607
    u[47]     primal_lower23  548
    u[47]     primal_lower24  135
    u[47]     primal_lower25  935
    u[47]     primal_lower26  426
    u[47]     primal_lower27  298
    u[47]     primal_lower28  80
    u[47]     primal_lower29  951
    u[47]     primal_lower30  206
    u[47]     primal_lower31  369
    u[47]     primal_lower32  414
    u[47]     primal_lower33  380
    u[47]     primal_lower34  620
    u[47]     primal_lower35  706
    u[47]     primal_lower36  502
    u[47]     primal_lower37  236
    u[47]     primal_lower38  89
    u[47]     primal_lower39  977
    u[47]     primal_lower40  563
    u[47]     primal_lower41  804
    u[47]     primal_lower42  32
    u[47]     primal_lower43  311
    u[47]     primal_lower44  375
    u[47]     primal_lower45  865
    u[47]     primal_lower46  236
    u[47]     primal_lower47  560
    u[47]     primal_lower48  951
    u[47]     primal_lower49  955
    u[47]     primal_lower50  372
    u[47]     primal_lower51  519
    u[47]     primal_lower52  911
    u[47]     primal_lower53  464
    u[47]     primal_lower54  420
    u[47]     primal_lower55  218
    u[47]     primal_lower56  696
    u[47]     primal_lower57  537
    u[47]     primal_lower58  555
    u[47]     primal_lower59  953
    u[47]     primal_lower60  681
    u[47]     primal_lower61  626
    u[47]     primal_lower62  57
    u[47]     primal_lower63  151
    u[47]     primal_lower64  224
    u[47]     primal_lower65  244
    u[47]     primal_lower66  595
    u[47]     primal_lower67  736
    u[47]     primal_lower68  385
    u[47]     primal_lower69  168
    u[47]     primal_lower70  942
    u[47]     primal_lower71  280
    u[47]     primal_lower72  356
    u[47]     primal_lower73  846
    u[47]     primal_lower74  149
    u[47]     primal_lower75  430
    u[47]     primal_lower76  970
    u[47]     primal_lower77  863
    u[47]     primal_lower78  160
    u[47]     primal_lower79  117
    u[47]     primal_lower80  378
    u[47]     primal_lower81  906
    u[47]     primal_lower82  359
    u[47]     primal_lower83  24
    u[47]     primal_lower84  97
    u[47]     primal_lower85  306
    u[47]     primal_lower86  33
    u[47]     primal_lower87  671
    u[47]     primal_lower88  304
    u[47]     primal_lower89  730
    u[47]     primal_lower90  825
    u[47]     primal_lower91  79
    u[47]     primal_lower92  459
    u[47]     primal_lower93  546
    u[47]     primal_lower94  693
    u[47]     primal_lower95  299
    u[47]     primal_lower96  466
    u[47]     primal_lower97  549
    u[47]     primal_lower98  659
    u[47]     primal_lower99  983
    u[47]     interdiction[47]  1
    u[47]     mccormick1[47]  -1
    u[47]     mccormick3[47]  1
    u[48]     primal_lower0  752
    u[48]     primal_lower1  772
    u[48]     primal_lower2  77
    u[48]     primal_lower3  43
    u[48]     primal_lower4  877
    u[48]     primal_lower5  665
    u[48]     primal_lower6  371
    u[48]     primal_lower7  628
    u[48]     primal_lower8  616
    u[48]     primal_lower9  984
    u[48]     primal_lower10  753
    u[48]     primal_lower11  654
    u[48]     primal_lower12  923
    u[48]     primal_lower13  493
    u[48]     primal_lower14  249
    u[48]     primal_lower15  331
    u[48]     primal_lower16  661
    u[48]     primal_lower17  3
    u[48]     primal_lower18  771
    u[48]     primal_lower19  972
    u[48]     primal_lower20  698
    u[48]     primal_lower21  782
    u[48]     primal_lower22  68
    u[48]     primal_lower23  350
    u[48]     primal_lower24  868
    u[48]     primal_lower25  508
    u[48]     primal_lower26  388
    u[48]     primal_lower27  591
    u[48]     primal_lower28  786
    u[48]     primal_lower29  929
    u[48]     primal_lower30  251
    u[48]     primal_lower31  283
    u[48]     primal_lower32  760
    u[48]     primal_lower33  126
    u[48]     primal_lower34  502
    u[48]     primal_lower35  183
    u[48]     primal_lower36  696
    u[48]     primal_lower37  126
    u[48]     primal_lower38  507
    u[48]     primal_lower39  302
    u[48]     primal_lower40  893
    u[48]     primal_lower41  998
    u[48]     primal_lower42  213
    u[48]     primal_lower43  537
    u[48]     primal_lower44  428
    u[48]     primal_lower45  371
    u[48]     primal_lower46  865
    u[48]     primal_lower47  37
    u[48]     primal_lower48  289
    u[48]     primal_lower49  445
    u[48]     primal_lower50  494
    u[48]     primal_lower51  356
    u[48]     primal_lower52  572
    u[48]     primal_lower53  282
    u[48]     primal_lower54  649
    u[48]     primal_lower55  860
    u[48]     primal_lower56  781
    u[48]     primal_lower57  771
    u[48]     primal_lower58  213
    u[48]     primal_lower59  843
    u[48]     primal_lower60  998
    u[48]     primal_lower61  543
    u[48]     primal_lower62  43
    u[48]     primal_lower63  97
    u[48]     primal_lower64  773
    u[48]     primal_lower65  902
    u[48]     primal_lower66  992
    u[48]     primal_lower67  34
    u[48]     primal_lower68  766
    u[48]     primal_lower69  533
    u[48]     primal_lower70  723
    u[48]     primal_lower71  874
    u[48]     primal_lower72  457
    u[48]     primal_lower73  872
    u[48]     primal_lower74  399
    u[48]     primal_lower75  723
    u[48]     primal_lower76  500
    u[48]     primal_lower77  84
    u[48]     primal_lower78  277
    u[48]     primal_lower79  167
    u[48]     primal_lower80  695
    u[48]     primal_lower81  972
    u[48]     primal_lower82  737
    u[48]     primal_lower83  842
    u[48]     primal_lower84  155
    u[48]     primal_lower85  671
    u[48]     primal_lower86  43
    u[48]     primal_lower87  436
    u[48]     primal_lower88  178
    u[48]     primal_lower89  708
    u[48]     primal_lower90  387
    u[48]     primal_lower91  593
    u[48]     primal_lower92  416
    u[48]     primal_lower93  207
    u[48]     primal_lower94  322
    u[48]     primal_lower95  477
    u[48]     primal_lower96  612
    u[48]     primal_lower97  850
    u[48]     primal_lower98  45
    u[48]     primal_lower99  700
    u[48]     interdiction[48]  1
    u[48]     mccormick1[48]  -1
    u[48]     mccormick3[48]  1
    u[49]     primal_lower0  513
    u[49]     primal_lower1  933
    u[49]     primal_lower2  910
    u[49]     primal_lower3  568
    u[49]     primal_lower4  618
    u[49]     primal_lower5  738
    u[49]     primal_lower6  620
    u[49]     primal_lower7  165
    u[49]     primal_lower8  741
    u[49]     primal_lower9  609
    u[49]     primal_lower10  282
    u[49]     primal_lower11  255
    u[49]     primal_lower12  348
    u[49]     primal_lower13  754
    u[49]     primal_lower14  886
    u[49]     primal_lower15  124
    u[49]     primal_lower16  774
    u[49]     primal_lower17  424
    u[49]     primal_lower18  704
    u[49]     primal_lower19  521
    u[49]     primal_lower20  283
    u[49]     primal_lower21  499
    u[49]     primal_lower22  237
    u[49]     primal_lower23  51
    u[49]     primal_lower24  453
    u[49]     primal_lower25  45
    u[49]     primal_lower26  945
    u[49]     primal_lower27  192
    u[49]     primal_lower28  215
    u[49]     primal_lower29  182
    u[49]     primal_lower30  204
    u[49]     primal_lower31  496
    u[49]     primal_lower32  645
    u[49]     primal_lower33  163
    u[49]     primal_lower34  611
    u[49]     primal_lower35  336
    u[49]     primal_lower36  765
    u[49]     primal_lower37  515
    u[49]     primal_lower38  128
    u[49]     primal_lower39  199
    u[49]     primal_lower40  122
    u[49]     primal_lower41  531
    u[49]     primal_lower42  942
    u[49]     primal_lower43  550
    u[49]     primal_lower44  45
    u[49]     primal_lower45  416
    u[49]     primal_lower46  898
    u[49]     primal_lower47  814
    u[49]     primal_lower48  6
    u[49]     primal_lower49  674
    u[49]     primal_lower50  443
    u[49]     primal_lower51  509
    u[49]     primal_lower52  445
    u[49]     primal_lower53  463
    u[49]     primal_lower54  906
    u[49]     primal_lower55  673
    u[49]     primal_lower56  590
    u[49]     primal_lower57  312
    u[49]     primal_lower58  730
    u[49]     primal_lower59  872
    u[49]     primal_lower60  911
    u[49]     primal_lower61  128
    u[49]     primal_lower62  32
    u[49]     primal_lower63  782
    u[49]     primal_lower64  142
    u[49]     primal_lower65  707
    u[49]     primal_lower66  905
    u[49]     primal_lower67  295
    u[49]     primal_lower68  295
    u[49]     primal_lower69  342
    u[49]     primal_lower70  500
    u[49]     primal_lower71  103
    u[49]     primal_lower72  450
    u[49]     primal_lower73  205
    u[49]     primal_lower74  444
    u[49]     primal_lower75  532
    u[49]     primal_lower76  873
    u[49]     primal_lower77  773
    u[49]     primal_lower78  726
    u[49]     primal_lower79  788
    u[49]     primal_lower80  856
    u[49]     primal_lower81  945
    u[49]     primal_lower82  678
    u[49]     primal_lower83  143
    u[49]     primal_lower84  272
    u[49]     primal_lower85  944
    u[49]     primal_lower86  336
    u[49]     primal_lower87  605
    u[49]     primal_lower88  167
    u[49]     primal_lower89  241
    u[49]     primal_lower90  824
    u[49]     primal_lower91  398
    u[49]     primal_lower92  857
    u[49]     primal_lower93  688
    u[49]     primal_lower94  635
    u[49]     primal_lower95  642
    u[49]     primal_lower96  145
    u[49]     primal_lower97  747
    u[49]     primal_lower98  378
    u[49]     primal_lower99  581
    u[49]     interdiction[49]  1
    u[49]     mccormick1[49]  -1
    u[49]     mccormick3[49]  1
    u[50]     primal_lower0  352
    u[50]     primal_lower1  812
    u[50]     primal_lower2  413
    u[50]     primal_lower3  970
    u[50]     primal_lower4  148
    u[50]     primal_lower5  697
    u[50]     primal_lower6  883
    u[50]     primal_lower7  28
    u[50]     primal_lower8  183
    u[50]     primal_lower9  784
    u[50]     primal_lower10  681
    u[50]     primal_lower11  254
    u[50]     primal_lower12  403
    u[50]     primal_lower13  468
    u[50]     primal_lower14  920
    u[50]     primal_lower15  283
    u[50]     primal_lower16  45
    u[50]     primal_lower17  442
    u[50]     primal_lower18  938
    u[50]     primal_lower19  731
    u[50]     primal_lower20  530
    u[50]     primal_lower21  125
    u[50]     primal_lower22  20
    u[50]     primal_lower23  245
    u[50]     primal_lower24  996
    u[50]     primal_lower25  780
    u[50]     primal_lower26  771
    u[50]     primal_lower27  967
    u[50]     primal_lower28  633
    u[50]     primal_lower29  88
    u[50]     primal_lower30  211
    u[50]     primal_lower31  330
    u[50]     primal_lower32  127
    u[50]     primal_lower33  437
    u[50]     primal_lower34  397
    u[50]     primal_lower35  391
    u[50]     primal_lower36  999
    u[50]     primal_lower37  133
    u[50]     primal_lower38  234
    u[50]     primal_lower39  966
    u[50]     primal_lower40  468
    u[50]     primal_lower41  581
    u[50]     primal_lower42  101
    u[50]     primal_lower43  504
    u[50]     primal_lower44  820
    u[50]     primal_lower45  634
    u[50]     primal_lower46  649
    u[50]     primal_lower47  981
    u[50]     primal_lower48  792
    u[50]     primal_lower49  84
    u[50]     primal_lower50  909
    u[50]     primal_lower51  772
    u[50]     primal_lower52  436
    u[50]     primal_lower53  753
    u[50]     primal_lower54  145
    u[50]     primal_lower55  523
    u[50]     primal_lower56  301
    u[50]     primal_lower57  106
    u[50]     primal_lower58  92
    u[50]     primal_lower59  202
    u[50]     primal_lower60  806
    u[50]     primal_lower61  95
    u[50]     primal_lower62  154
    u[50]     primal_lower63  304
    u[50]     primal_lower64  485
    u[50]     primal_lower65  213
    u[50]     primal_lower66  480
    u[50]     primal_lower67  969
    u[50]     primal_lower68  462
    u[50]     primal_lower69  429
    u[50]     primal_lower70  195
    u[50]     primal_lower71  561
    u[50]     primal_lower72  1
    u[50]     primal_lower73  55
    u[50]     primal_lower74  726
    u[50]     primal_lower75  379
    u[50]     primal_lower76  675
    u[50]     primal_lower77  340
    u[50]     primal_lower78  829
    u[50]     primal_lower79  214
    u[50]     primal_lower80  783
    u[50]     primal_lower81  171
    u[50]     primal_lower82  664
    u[50]     primal_lower83  617
    u[50]     primal_lower84  386
    u[50]     primal_lower85  583
    u[50]     primal_lower86  530
    u[50]     primal_lower87  940
    u[50]     primal_lower88  913
    u[50]     primal_lower89  67
    u[50]     primal_lower90  354
    u[50]     primal_lower91  792
    u[50]     primal_lower92  640
    u[50]     primal_lower93  503
    u[50]     primal_lower94  938
    u[50]     primal_lower95  588
    u[50]     primal_lower96  323
    u[50]     primal_lower97  794
    u[50]     primal_lower98  436
    u[50]     primal_lower99  620
    u[50]     interdiction[50]  1
    u[50]     mccormick1[50]  -1
    u[50]     mccormick3[50]  1
    u[51]     primal_lower0  905
    u[51]     primal_lower1  509
    u[51]     primal_lower2  22
    u[51]     primal_lower3  56
    u[51]     primal_lower4  706
    u[51]     primal_lower5  722
    u[51]     primal_lower6  148
    u[51]     primal_lower7  349
    u[51]     primal_lower8  613
    u[51]     primal_lower9  89
    u[51]     primal_lower10  850
    u[51]     primal_lower11  351
    u[51]     primal_lower12  644
    u[51]     primal_lower13  82
    u[51]     primal_lower14  918
    u[51]     primal_lower15  508
    u[51]     primal_lower16  214
    u[51]     primal_lower17  360
    u[51]     primal_lower18  280
    u[51]     primal_lower19  577
    u[51]     primal_lower20  355
    u[51]     primal_lower21  331
    u[51]     primal_lower22  29
    u[51]     primal_lower23  643
    u[51]     primal_lower24  445
    u[51]     primal_lower25  5
    u[51]     primal_lower26  785
    u[51]     primal_lower27  56
    u[51]     primal_lower28  855
    u[51]     primal_lower29  190
    u[51]     primal_lower30  220
    u[51]     primal_lower31  336
    u[51]     primal_lower32  797
    u[51]     primal_lower33  283
    u[51]     primal_lower34  451
    u[51]     primal_lower35  672
    u[51]     primal_lower36  581
    u[51]     primal_lower37  563
    u[51]     primal_lower38  992
    u[51]     primal_lower39  479
    u[51]     primal_lower40  586
    u[51]     primal_lower41  155
    u[51]     primal_lower42  38
    u[51]     primal_lower43  542
    u[51]     primal_lower44  389
    u[51]     primal_lower45  912
    u[51]     primal_lower46  218
    u[51]     primal_lower47  646
    u[51]     primal_lower48  990
    u[51]     primal_lower49  522
    u[51]     primal_lower50  699
    u[51]     primal_lower51  109
    u[51]     primal_lower52  165
    u[51]     primal_lower53  431
    u[51]     primal_lower54  186
    u[51]     primal_lower55  665
    u[51]     primal_lower56  870
    u[51]     primal_lower57  736
    u[51]     primal_lower58  82
    u[51]     primal_lower59  176
    u[51]     primal_lower60  583
    u[51]     primal_lower61  592
    u[51]     primal_lower62  672
    u[51]     primal_lower63  822
    u[51]     primal_lower64  782
    u[51]     primal_lower65  531
    u[51]     primal_lower66  145
    u[51]     primal_lower67  983
    u[51]     primal_lower68  263
    u[51]     primal_lower69  558
    u[51]     primal_lower70  636
    u[51]     primal_lower71  271
    u[51]     primal_lower72  10
    u[51]     primal_lower73  653
    u[51]     primal_lower74  252
    u[51]     primal_lower75  180
    u[51]     primal_lower76  25
    u[51]     primal_lower77  789
    u[51]     primal_lower78  830
    u[51]     primal_lower79  212
    u[51]     primal_lower80  776
    u[51]     primal_lower81  465
    u[51]     primal_lower82  222
    u[51]     primal_lower83  767
    u[51]     primal_lower84  128
    u[51]     primal_lower85  344
    u[51]     primal_lower86  168
    u[51]     primal_lower87  149
    u[51]     primal_lower88  95
    u[51]     primal_lower89  65
    u[51]     primal_lower90  24
    u[51]     primal_lower91  126
    u[51]     primal_lower92  425
    u[51]     primal_lower93  904
    u[51]     primal_lower94  987
    u[51]     primal_lower95  210
    u[51]     primal_lower96  17
    u[51]     primal_lower97  643
    u[51]     primal_lower98  90
    u[51]     primal_lower99  509
    u[51]     interdiction[51]  1
    u[51]     mccormick1[51]  -1
    u[51]     mccormick3[51]  1
    u[52]     primal_lower0  926
    u[52]     primal_lower1  754
    u[52]     primal_lower2  675
    u[52]     primal_lower3  537
    u[52]     primal_lower4  371
    u[52]     primal_lower5  935
    u[52]     primal_lower6  929
    u[52]     primal_lower7  754
    u[52]     primal_lower8  502
    u[52]     primal_lower9  102
    u[52]     primal_lower10  575
    u[52]     primal_lower11  36
    u[52]     primal_lower12  225
    u[52]     primal_lower13  523
    u[52]     primal_lower14  135
    u[52]     primal_lower15  705
    u[52]     primal_lower16  203
    u[52]     primal_lower17  449
    u[52]     primal_lower18  769
    u[52]     primal_lower19  722
    u[52]     primal_lower20  400
    u[52]     primal_lower21  988
    u[52]     primal_lower22  114
    u[52]     primal_lower23  988
    u[52]     primal_lower24  282
    u[52]     primal_lower25  394
    u[52]     primal_lower26  114
    u[52]     primal_lower27  5
    u[52]     primal_lower28  712
    u[52]     primal_lower29  327
    u[52]     primal_lower30  753
    u[52]     primal_lower31  457
    u[52]     primal_lower32  990
    u[52]     primal_lower33  236
    u[52]     primal_lower34  292
    u[52]     primal_lower35  653
    u[52]     primal_lower36  686
    u[52]     primal_lower37  476
    u[52]     primal_lower38  401
    u[52]     primal_lower39  244
    u[52]     primal_lower40  91
    u[52]     primal_lower41  932
    u[52]     primal_lower42  795
    u[52]     primal_lower43  247
    u[52]     primal_lower44  570
    u[52]     primal_lower45  73
    u[52]     primal_lower46  263
    u[52]     primal_lower47  307
    u[52]     primal_lower48  151
    u[52]     primal_lower49  563
    u[52]     primal_lower50  300
    u[52]     primal_lower51  362
    u[52]     primal_lower52  66
    u[52]     primal_lower53  144
    u[52]     primal_lower54  47
    u[52]     primal_lower55  586
    u[52]     primal_lower56  947
    u[52]     primal_lower57  905
    u[52]     primal_lower58  947
    u[52]     primal_lower59  473
    u[52]     primal_lower60  100
    u[52]     primal_lower61  933
    u[52]     primal_lower62  801
    u[52]     primal_lower63  407
    u[52]     primal_lower64  699
    u[52]     primal_lower65  596
    u[52]     primal_lower66  398
    u[52]     primal_lower67  544
    u[52]     primal_lower68  364
    u[52]     primal_lower69  995
    u[52]     primal_lower70  409
    u[52]     primal_lower71  888
    u[52]     primal_lower72  951
    u[52]     primal_lower73  686
    u[52]     primal_lower74  709
    u[52]     primal_lower75  849
    u[52]     primal_lower76  122
    u[52]     primal_lower77  378
    u[52]     primal_lower78  339
    u[52]     primal_lower79  13
    u[52]     primal_lower80  165
    u[52]     primal_lower81  842
    u[52]     primal_lower82  615
    u[52]     primal_lower83  968
    u[52]     primal_lower84  801
    u[52]     primal_lower85  341
    u[52]     primal_lower86  609
    u[52]     primal_lower87  946
    u[52]     primal_lower88  488
    u[52]     primal_lower89  978
    u[52]     primal_lower90  553
    u[52]     primal_lower91  631
    u[52]     primal_lower92  238
    u[52]     primal_lower93  477
    u[52]     primal_lower94  960
    u[52]     primal_lower95  379
    u[52]     primal_lower96  378
    u[52]     primal_lower97  552
    u[52]     primal_lower98  395
    u[52]     primal_lower99  362
    u[52]     interdiction[52]  1
    u[52]     mccormick1[52]  -1
    u[52]     mccormick3[52]  1
    u[53]     primal_lower0  301
    u[53]     primal_lower1  369
    u[53]     primal_lower2  162
    u[53]     primal_lower3  268
    u[53]     primal_lower4  934
    u[53]     primal_lower5  46
    u[53]     primal_lower6  232
    u[53]     primal_lower7  185
    u[53]     primal_lower8  745
    u[53]     primal_lower9  765
    u[53]     primal_lower10  526
    u[53]     primal_lower11  843
    u[53]     primal_lower12  544
    u[53]     primal_lower13  910
    u[53]     primal_lower14  450
    u[53]     primal_lower15  376
    u[53]     primal_lower16  426
    u[53]     primal_lower17  44
    u[53]     primal_lower18  900
    u[53]     primal_lower19  773
    u[53]     primal_lower20  343
    u[53]     primal_lower21  671
    u[53]     primal_lower22  193
    u[53]     primal_lower23  271
    u[53]     primal_lower24  433
    u[53]     primal_lower25  41
    u[53]     primal_lower26  285
    u[53]     primal_lower27  476
    u[53]     primal_lower28  315
    u[53]     primal_lower29  306
    u[53]     primal_lower30  152
    u[53]     primal_lower31  252
    u[53]     primal_lower32  425
    u[53]     primal_lower33  775
    u[53]     primal_lower34  847
    u[53]     primal_lower35  68
    u[53]     primal_lower36  425
    u[53]     primal_lower37  207
    u[53]     primal_lower38  876
    u[53]     primal_lower39  195
    u[53]     primal_lower40  406
    u[53]     primal_lower41  183
    u[53]     primal_lower42  66
    u[53]     primal_lower43  226
    u[53]     primal_lower44  433
    u[53]     primal_lower45  980
    u[53]     primal_lower46  510
    u[53]     primal_lower47  698
    u[53]     primal_lower48  338
    u[53]     primal_lower49  510
    u[53]     primal_lower50  943
    u[53]     primal_lower51  665
    u[53]     primal_lower52  1
    u[53]     primal_lower53  331
    u[53]     primal_lower54  670
    u[53]     primal_lower55  797
    u[53]     primal_lower56  354
    u[53]     primal_lower57  596
    u[53]     primal_lower58  726
    u[53]     primal_lower59  52
    u[53]     primal_lower60  243
    u[53]     primal_lower61  324
    u[53]     primal_lower62  516
    u[53]     primal_lower63  698
    u[53]     primal_lower64  306
    u[53]     primal_lower65  95
    u[53]     primal_lower66  269
    u[53]     primal_lower67  955
    u[53]     primal_lower68  819
    u[53]     primal_lower69  50
    u[53]     primal_lower70  648
    u[53]     primal_lower71  683
    u[53]     primal_lower72  390
    u[53]     primal_lower73  169
    u[53]     primal_lower74  928
    u[53]     primal_lower75  816
    u[53]     primal_lower76  645
    u[53]     primal_lower77  633
    u[53]     primal_lower78  434
    u[53]     primal_lower79  920
    u[53]     primal_lower80  564
    u[53]     primal_lower81  309
    u[53]     primal_lower82  66
    u[53]     primal_lower83  347
    u[53]     primal_lower84  796
    u[53]     primal_lower85  564
    u[53]     primal_lower86  540
    u[53]     primal_lower87  97
    u[53]     primal_lower88  859
    u[53]     primal_lower89  685
    u[53]     primal_lower90  84
    u[53]     primal_lower91  874
    u[53]     primal_lower92  669
    u[53]     primal_lower93  980
    u[53]     primal_lower94  511
    u[53]     primal_lower95  390
    u[53]     primal_lower96  157
    u[53]     primal_lower97  231
    u[53]     primal_lower98  766
    u[53]     primal_lower99  705
    u[53]     interdiction[53]  1
    u[53]     mccormick1[53]  -1
    u[53]     mccormick3[53]  1
    u[54]     primal_lower0  586
    u[54]     primal_lower1  118
    u[54]     primal_lower2  407
    u[54]     primal_lower3  660
    u[54]     primal_lower4  686
    u[54]     primal_lower5  643
    u[54]     primal_lower6  29
    u[54]     primal_lower7  742
    u[54]     primal_lower8  969
    u[54]     primal_lower9  586
    u[54]     primal_lower10  827
    u[54]     primal_lower11  936
    u[54]     primal_lower12  197
    u[54]     primal_lower13  566
    u[54]     primal_lower14  434
    u[54]     primal_lower15  5
    u[54]     primal_lower16  255
    u[54]     primal_lower17  836
    u[54]     primal_lower18  44
    u[54]     primal_lower19  597
    u[54]     primal_lower20  108
    u[54]     primal_lower21  527
    u[54]     primal_lower22  206
    u[54]     primal_lower23  839
    u[54]     primal_lower24  710
    u[54]     primal_lower25  478
    u[54]     primal_lower26  189
    u[54]     primal_lower27  57
    u[54]     primal_lower28  139
    u[54]     primal_lower29  58
    u[54]     primal_lower30  357
    u[54]     primal_lower31  980
    u[54]     primal_lower32  745
    u[54]     primal_lower33  223
    u[54]     primal_lower34  351
    u[54]     primal_lower35  641
    u[54]     primal_lower36  41
    u[54]     primal_lower37  615
    u[54]     primal_lower38  420
    u[54]     primal_lower39  696
    u[54]     primal_lower40  414
    u[54]     primal_lower41  7
    u[54]     primal_lower42  631
    u[54]     primal_lower43  378
    u[54]     primal_lower44  222
    u[54]     primal_lower45  612
    u[54]     primal_lower46  155
    u[54]     primal_lower47  407
    u[54]     primal_lower48  682
    u[54]     primal_lower49  998
    u[54]     primal_lower50  199
    u[54]     primal_lower51  526
    u[54]     primal_lower52  982
    u[54]     primal_lower53  923
    u[54]     primal_lower54  291
    u[54]     primal_lower55  909
    u[54]     primal_lower56  711
    u[54]     primal_lower57  228
    u[54]     primal_lower58  814
    u[54]     primal_lower59  740
    u[54]     primal_lower60  232
    u[54]     primal_lower61  857
    u[54]     primal_lower62  444
    u[54]     primal_lower63  290
    u[54]     primal_lower64  567
    u[54]     primal_lower65  607
    u[54]     primal_lower66  738
    u[54]     primal_lower67  243
    u[54]     primal_lower68  432
    u[54]     primal_lower69  183
    u[54]     primal_lower70  461
    u[54]     primal_lower71  555
    u[54]     primal_lower72  971
    u[54]     primal_lower73  41
    u[54]     primal_lower74  264
    u[54]     primal_lower75  485
    u[54]     primal_lower76  293
    u[54]     primal_lower77  150
    u[54]     primal_lower78  359
    u[54]     primal_lower79  520
    u[54]     primal_lower80  793
    u[54]     primal_lower81  5
    u[54]     primal_lower82  298
    u[54]     primal_lower83  491
    u[54]     primal_lower84  564
    u[54]     primal_lower85  105
    u[54]     primal_lower86  252
    u[54]     primal_lower87  758
    u[54]     primal_lower88  803
    u[54]     primal_lower89  381
    u[54]     primal_lower90  124
    u[54]     primal_lower91  314
    u[54]     primal_lower92  650
    u[54]     primal_lower93  345
    u[54]     primal_lower94  596
    u[54]     primal_lower95  222
    u[54]     primal_lower96  389
    u[54]     primal_lower97  660
    u[54]     primal_lower98  118
    u[54]     primal_lower99  214
    u[54]     interdiction[54]  1
    u[54]     mccormick1[54]  -1
    u[54]     mccormick3[54]  1
    u[55]     primal_lower0  241
    u[55]     primal_lower1  837
    u[55]     primal_lower2  70
    u[55]     primal_lower3  295
    u[55]     primal_lower4  945
    u[55]     primal_lower5  746
    u[55]     primal_lower6  220
    u[55]     primal_lower7  437
    u[55]     primal_lower8  764
    u[55]     primal_lower9  1
    u[55]     primal_lower10  154
    u[55]     primal_lower11  959
    u[55]     primal_lower12  92
    u[55]     primal_lower13  257
    u[55]     primal_lower14  245
    u[55]     primal_lower15  572
    u[55]     primal_lower16  830
    u[55]     primal_lower17  255
    u[55]     primal_lower18  551
    u[55]     primal_lower19  872
    u[55]     primal_lower20  987
    u[55]     primal_lower21  50
    u[55]     primal_lower22  965
    u[55]     primal_lower23  986
    u[55]     primal_lower24  405
    u[55]     primal_lower25  925
    u[55]     primal_lower26  648
    u[55]     primal_lower27  376
    u[55]     primal_lower28  78
    u[55]     primal_lower29  109
    u[55]     primal_lower30  492
    u[55]     primal_lower31  87
    u[55]     primal_lower32  156
    u[55]     primal_lower33  498
    u[55]     primal_lower34  90
    u[55]     primal_lower35  248
    u[55]     primal_lower36  324
    u[55]     primal_lower37  866
    u[55]     primal_lower38  871
    u[55]     primal_lower39  559
    u[55]     primal_lower40  961
    u[55]     primal_lower41  10
    u[55]     primal_lower42  918
    u[55]     primal_lower43  221
    u[55]     primal_lower44  5
    u[55]     primal_lower45  879
    u[55]     primal_lower46  362
    u[55]     primal_lower47  310
    u[55]     primal_lower48  973
    u[55]     primal_lower49  657
    u[55]     primal_lower50  522
    u[55]     primal_lower51  61
    u[55]     primal_lower52  357
    u[55]     primal_lower53  134
    u[55]     primal_lower54  866
    u[55]     primal_lower55  792
    u[55]     primal_lower56  118
    u[55]     primal_lower57  671
    u[55]     primal_lower58  761
    u[55]     primal_lower59  255
    u[55]     primal_lower60  591
    u[55]     primal_lower61  464
    u[55]     primal_lower62  871
    u[55]     primal_lower63  589
    u[55]     primal_lower64  966
    u[55]     primal_lower65  218
    u[55]     primal_lower66  745
    u[55]     primal_lower67  942
    u[55]     primal_lower68  231
    u[55]     primal_lower69  758
    u[55]     primal_lower70  380
    u[55]     primal_lower71  366
    u[55]     primal_lower72  746
    u[55]     primal_lower73  836
    u[55]     primal_lower74  931
    u[55]     primal_lower75  76
    u[55]     primal_lower76  568
    u[55]     primal_lower77  437
    u[55]     primal_lower78  414
    u[55]     primal_lower79  571
    u[55]     primal_lower80  64
    u[55]     primal_lower81  264
    u[55]     primal_lower82  469
    u[55]     primal_lower83  718
    u[55]     primal_lower84  23
    u[55]     primal_lower85  272
    u[55]     primal_lower86  95
    u[55]     primal_lower87  509
    u[55]     primal_lower88  686
    u[55]     primal_lower89  408
    u[55]     primal_lower90  39
    u[55]     primal_lower91  21
    u[55]     primal_lower92  185
    u[55]     primal_lower93  112
    u[55]     primal_lower94  651
    u[55]     primal_lower95  985
    u[55]     primal_lower96  40
    u[55]     primal_lower97  19
    u[55]     primal_lower98  841
    u[55]     primal_lower99  77
    u[55]     interdiction[55]  1
    u[55]     mccormick1[55]  -1
    u[55]     mccormick3[55]  1
    u[56]     primal_lower0  290
    u[56]     primal_lower1  38
    u[56]     primal_lower2  463
    u[56]     primal_lower3  317
    u[56]     primal_lower4  311
    u[56]     primal_lower5  115
    u[56]     primal_lower6  357
    u[56]     primal_lower7  582
    u[56]     primal_lower8  706
    u[56]     primal_lower9  338
    u[56]     primal_lower10  835
    u[56]     primal_lower11  176
    u[56]     primal_lower12  357
    u[56]     primal_lower13  887
    u[56]     primal_lower14  171
    u[56]     primal_lower15  733
    u[56]     primal_lower16  367
    u[56]     primal_lower17  661
    u[56]     primal_lower18  269
    u[56]     primal_lower19  974
    u[56]     primal_lower20  28
    u[56]     primal_lower21  608
    u[56]     primal_lower22  726
    u[56]     primal_lower23  448
    u[56]     primal_lower24  654
    u[56]     primal_lower25  342
    u[56]     primal_lower26  638
    u[56]     primal_lower27  17
    u[56]     primal_lower28  92
    u[56]     primal_lower29  59
    u[56]     primal_lower30  453
    u[56]     primal_lower31  853
    u[56]     primal_lower32  666
    u[56]     primal_lower33  880
    u[56]     primal_lower34  352
    u[56]     primal_lower35  33
    u[56]     primal_lower36  90
    u[56]     primal_lower37  248
    u[56]     primal_lower38  517
    u[56]     primal_lower39  488
    u[56]     primal_lower40  183
    u[56]     primal_lower41  400
    u[56]     primal_lower42  175
    u[56]     primal_lower43  947
    u[56]     primal_lower44  262
    u[56]     primal_lower45  581
    u[56]     primal_lower46  459
    u[56]     primal_lower47  415
    u[56]     primal_lower48  67
    u[56]     primal_lower49  847
    u[56]     primal_lower50  632
    u[56]     primal_lower51  566
    u[56]     primal_lower52  86
    u[56]     primal_lower53  28
    u[56]     primal_lower54  443
    u[56]     primal_lower55  558
    u[56]     primal_lower56  303
    u[56]     primal_lower57  333
    u[56]     primal_lower58  759
    u[56]     primal_lower59  333
    u[56]     primal_lower60  808
    u[56]     primal_lower61  905
    u[56]     primal_lower62  677
    u[56]     primal_lower63  563
    u[56]     primal_lower64  391
    u[56]     primal_lower65  480
    u[56]     primal_lower66  922
    u[56]     primal_lower67  612
    u[56]     primal_lower68  784
    u[56]     primal_lower69  543
    u[56]     primal_lower70  605
    u[56]     primal_lower71  892
    u[56]     primal_lower72  883
    u[56]     primal_lower73  250
    u[56]     primal_lower74  505
    u[56]     primal_lower75  341
    u[56]     primal_lower76  854
    u[56]     primal_lower77  734
    u[56]     primal_lower78  215
    u[56]     primal_lower79  793
    u[56]     primal_lower80  241
    u[56]     primal_lower81  502
    u[56]     primal_lower82  99
    u[56]     primal_lower83  812
    u[56]     primal_lower84  29
    u[56]     primal_lower85  289
    u[56]     primal_lower86  981
    u[56]     primal_lower87  182
    u[56]     primal_lower88  628
    u[56]     primal_lower89  886
    u[56]     primal_lower90  181
    u[56]     primal_lower91  675
    u[56]     primal_lower92  370
    u[56]     primal_lower93  585
    u[56]     primal_lower94  164
    u[56]     primal_lower95  215
    u[56]     primal_lower96  798
    u[56]     primal_lower97  644
    u[56]     primal_lower98  783
    u[56]     primal_lower99  702
    u[56]     interdiction[56]  1
    u[56]     mccormick1[56]  -1
    u[56]     mccormick3[56]  1
    u[57]     primal_lower0  404
    u[57]     primal_lower1  952
    u[57]     primal_lower2  113
    u[57]     primal_lower3  666
    u[57]     primal_lower4  412
    u[57]     primal_lower5  325
    u[57]     primal_lower6  607
    u[57]     primal_lower7  936
    u[57]     primal_lower8  687
    u[57]     primal_lower9  716
    u[57]     primal_lower10  805
    u[57]     primal_lower11  10
    u[57]     primal_lower12  39
    u[57]     primal_lower13  700
    u[57]     primal_lower14  608
    u[57]     primal_lower15  623
    u[57]     primal_lower16  121
    u[57]     primal_lower17  538
    u[57]     primal_lower18  394
    u[57]     primal_lower19  483
    u[57]     primal_lower20  46
    u[57]     primal_lower21  413
    u[57]     primal_lower22  616
    u[57]     primal_lower23  877
    u[57]     primal_lower24  160
    u[57]     primal_lower25  984
    u[57]     primal_lower26  523
    u[57]     primal_lower27  299
    u[57]     primal_lower28  145
    u[57]     primal_lower29  280
    u[57]     primal_lower30  863
    u[57]     primal_lower31  442
    u[57]     primal_lower32  639
    u[57]     primal_lower33  933
    u[57]     primal_lower34  941
    u[57]     primal_lower35  339
    u[57]     primal_lower36  135
    u[57]     primal_lower37  285
    u[57]     primal_lower38  554
    u[57]     primal_lower39  498
    u[57]     primal_lower40  148
    u[57]     primal_lower41  77
    u[57]     primal_lower42  449
    u[57]     primal_lower43  408
    u[57]     primal_lower44  848
    u[57]     primal_lower45  322
    u[57]     primal_lower46  141
    u[57]     primal_lower47  801
    u[57]     primal_lower48  848
    u[57]     primal_lower49  724
    u[57]     primal_lower50  533
    u[57]     primal_lower51  912
    u[57]     primal_lower52  864
    u[57]     primal_lower53  809
    u[57]     primal_lower54  317
    u[57]     primal_lower55  819
    u[57]     primal_lower56  113
    u[57]     primal_lower57  890
    u[57]     primal_lower58  188
    u[57]     primal_lower59  138
    u[57]     primal_lower60  362
    u[57]     primal_lower61  235
    u[57]     primal_lower62  146
    u[57]     primal_lower63  264
    u[57]     primal_lower64  249
    u[57]     primal_lower65  909
    u[57]     primal_lower66  892
    u[57]     primal_lower67  417
    u[57]     primal_lower68  674
    u[57]     primal_lower69  921
    u[57]     primal_lower70  735
    u[57]     primal_lower71  233
    u[57]     primal_lower72  21
    u[57]     primal_lower73  679
    u[57]     primal_lower74  750
    u[57]     primal_lower75  911
    u[57]     primal_lower76  563
    u[57]     primal_lower77  832
    u[57]     primal_lower78  665
    u[57]     primal_lower79  262
    u[57]     primal_lower80  411
    u[57]     primal_lower81  43
    u[57]     primal_lower82  664
    u[57]     primal_lower83  657
    u[57]     primal_lower84  314
    u[57]     primal_lower85  539
    u[57]     primal_lower86  914
    u[57]     primal_lower87  336
    u[57]     primal_lower88  889
    u[57]     primal_lower89  435
    u[57]     primal_lower90  346
    u[57]     primal_lower91  544
    u[57]     primal_lower92  940
    u[57]     primal_lower93  611
    u[57]     primal_lower94  958
    u[57]     primal_lower95  44
    u[57]     primal_lower96  979
    u[57]     primal_lower97  910
    u[57]     primal_lower98  252
    u[57]     primal_lower99  848
    u[57]     interdiction[57]  1
    u[57]     mccormick1[57]  -1
    u[57]     mccormick3[57]  1
    u[58]     primal_lower0  109
    u[58]     primal_lower1  449
    u[58]     primal_lower2  162
    u[58]     primal_lower3  736
    u[58]     primal_lower4  346
    u[58]     primal_lower5  486
    u[58]     primal_lower6  208
    u[58]     primal_lower7  505
    u[58]     primal_lower8  149
    u[58]     primal_lower9  205
    u[58]     primal_lower10  46
    u[58]     primal_lower11  379
    u[58]     primal_lower12  912
    u[58]     primal_lower13  130
    u[58]     primal_lower14  374
    u[58]     primal_lower15  792
    u[58]     primal_lower16  2
    u[58]     primal_lower17  688
    u[58]     primal_lower18  936
    u[58]     primal_lower19  433
    u[58]     primal_lower20  55
    u[58]     primal_lower21  459
    u[58]     primal_lower22  233
    u[58]     primal_lower23  315
    u[58]     primal_lower24  49
    u[58]     primal_lower25  673
    u[58]     primal_lower26  873
    u[58]     primal_lower27  28
    u[58]     primal_lower28  439
    u[58]     primal_lower29  734
    u[58]     primal_lower30  992
    u[58]     primal_lower31  160
    u[58]     primal_lower32  301
    u[58]     primal_lower33  643
    u[58]     primal_lower34  387
    u[58]     primal_lower35  380
    u[58]     primal_lower36  885
    u[58]     primal_lower37  891
    u[58]     primal_lower38  400
    u[58]     primal_lower39  371
    u[58]     primal_lower40  138
    u[58]     primal_lower41  91
    u[58]     primal_lower42  34
    u[58]     primal_lower43  350
    u[58]     primal_lower44  913
    u[58]     primal_lower45  888
    u[58]     primal_lower46  14
    u[58]     primal_lower47  66
    u[58]     primal_lower48  270
    u[58]     primal_lower49  890
    u[58]     primal_lower50  107
    u[58]     primal_lower51  9
    u[58]     primal_lower52  633
    u[58]     primal_lower53  847
    u[58]     primal_lower54  406
    u[58]     primal_lower55  9
    u[58]     primal_lower56  330
    u[58]     primal_lower57  736
    u[58]     primal_lower58  786
    u[58]     primal_lower59  616
    u[58]     primal_lower60  635
    u[58]     primal_lower61  12
    u[58]     primal_lower62  144
    u[58]     primal_lower63  918
    u[58]     primal_lower64  714
    u[58]     primal_lower65  179
    u[58]     primal_lower66  765
    u[58]     primal_lower67  111
    u[58]     primal_lower68  803
    u[58]     primal_lower69  810
    u[58]     primal_lower70  800
    u[58]     primal_lower71  335
    u[58]     primal_lower72  422
    u[58]     primal_lower73  269
    u[58]     primal_lower74  12
    u[58]     primal_lower75  824
    u[58]     primal_lower76  257
    u[58]     primal_lower77  929
    u[58]     primal_lower78  266
    u[58]     primal_lower79  188
    u[58]     primal_lower80  124
    u[58]     primal_lower81  713
    u[58]     primal_lower82  870
    u[58]     primal_lower83  807
    u[58]     primal_lower84  768
    u[58]     primal_lower85  460
    u[58]     primal_lower86  456
    u[58]     primal_lower87  761
    u[58]     primal_lower88  167
    u[58]     primal_lower89  281
    u[58]     primal_lower90  672
    u[58]     primal_lower91  566
    u[58]     primal_lower92  957
    u[58]     primal_lower93  108
    u[58]     primal_lower94  743
    u[58]     primal_lower95  714
    u[58]     primal_lower96  961
    u[58]     primal_lower97  879
    u[58]     primal_lower98  898
    u[58]     primal_lower99  425
    u[58]     interdiction[58]  1
    u[58]     mccormick1[58]  -1
    u[58]     mccormick3[58]  1
    u[59]     primal_lower0  51
    u[59]     primal_lower1  39
    u[59]     primal_lower2  560
    u[59]     primal_lower3  682
    u[59]     primal_lower4  420
    u[59]     primal_lower5  628
    u[59]     primal_lower6  374
    u[59]     primal_lower7  671
    u[59]     primal_lower8  503
    u[59]     primal_lower9  907
    u[59]     primal_lower10  764
    u[59]     primal_lower11  305
    u[59]     primal_lower12  14
    u[59]     primal_lower13  716
    u[59]     primal_lower14  352
    u[59]     primal_lower15  814
    u[59]     primal_lower16  600
    u[59]     primal_lower17  274
    u[59]     primal_lower18  346
    u[59]     primal_lower19  155
    u[59]     primal_lower20  885
    u[59]     primal_lower21  309
    u[59]     primal_lower22  567
    u[59]     primal_lower23  437
    u[59]     primal_lower24  655
    u[59]     primal_lower25  391
    u[59]     primal_lower26  755
    u[59]     primal_lower27  994
    u[59]     primal_lower28  193
    u[59]     primal_lower29  544
    u[59]     primal_lower30  718
    u[59]     primal_lower31  810
    u[59]     primal_lower32  903
    u[59]     primal_lower33  637
    u[59]     primal_lower34  37
    u[59]     primal_lower35  258
    u[59]     primal_lower36  119
    u[59]     primal_lower37  917
    u[59]     primal_lower38  130
    u[59]     primal_lower39  657
    u[59]     primal_lower40  140
    u[59]     primal_lower41  189
    u[59]     primal_lower42  984
    u[59]     primal_lower43  592
    u[59]     primal_lower44  551
    u[59]     primal_lower45  858
    u[59]     primal_lower46  468
    u[59]     primal_lower47  704
    u[59]     primal_lower48  776
    u[59]     primal_lower49  836
    u[59]     primal_lower50  877
    u[59]     primal_lower51  439
    u[59]     primal_lower52  519
    u[59]     primal_lower53  105
    u[59]     primal_lower54  420
    u[59]     primal_lower55  555
    u[59]     primal_lower56  976
    u[59]     primal_lower57  362
    u[59]     primal_lower58  940
    u[59]     primal_lower59  250
    u[59]     primal_lower60  105
    u[59]     primal_lower61  378
    u[59]     primal_lower62  90
    u[59]     primal_lower63  616
    u[59]     primal_lower64  688
    u[59]     primal_lower65  861
    u[59]     primal_lower66  571
    u[59]     primal_lower67  409
    u[59]     primal_lower68  905
    u[59]     primal_lower69  744
    u[59]     primal_lower70  622
    u[59]     primal_lower71  65
    u[59]     primal_lower72  156
    u[59]     primal_lower73  847
    u[59]     primal_lower74  150
    u[59]     primal_lower75  606
    u[59]     primal_lower76  907
    u[59]     primal_lower77  399
    u[59]     primal_lower78  568
    u[59]     primal_lower79  702
    u[59]     primal_lower80  994
    u[59]     primal_lower81  651
    u[59]     primal_lower82  48
    u[59]     primal_lower83  257
    u[59]     primal_lower84  866
    u[59]     primal_lower85  898
    u[59]     primal_lower86  994
    u[59]     primal_lower87  287
    u[59]     primal_lower88  505
    u[59]     primal_lower89  123
    u[59]     primal_lower90  586
    u[59]     primal_lower91  720
    u[59]     primal_lower92  603
    u[59]     primal_lower93  162
    u[59]     primal_lower94  101
    u[59]     primal_lower95  380
    u[59]     primal_lower96  195
    u[59]     primal_lower97  621
    u[59]     primal_lower98  836
    u[59]     primal_lower99  207
    u[59]     interdiction[59]  1
    u[59]     mccormick1[59]  -1
    u[59]     mccormick3[59]  1
    z[0]      primal_upper  84
    z[0]      mccormick1[0]  1
    z[0]      mccormick2[0]  1
    z[0]      mccormick3[0]  -1
    z[1]      primal_upper  48
    z[1]      mccormick1[1]  1
    z[1]      mccormick2[1]  1
    z[1]      mccormick3[1]  -1
    z[2]      primal_upper  11
    z[2]      mccormick1[2]  1
    z[2]      mccormick2[2]  1
    z[2]      mccormick3[2]  -1
    z[3]      primal_upper  83
    z[3]      mccormick1[3]  1
    z[3]      mccormick2[3]  1
    z[3]      mccormick3[3]  -1
    z[4]      primal_upper  38
    z[4]      mccormick1[4]  1
    z[4]      mccormick2[4]  1
    z[4]      mccormick3[4]  -1
    z[5]      primal_upper  18
    z[5]      mccormick1[5]  1
    z[5]      mccormick2[5]  1
    z[5]      mccormick3[5]  -1
    z[6]      primal_upper  32
    z[6]      mccormick1[6]  1
    z[6]      mccormick2[6]  1
    z[6]      mccormick3[6]  -1
    z[7]      primal_upper  24
    z[7]      mccormick1[7]  1
    z[7]      mccormick2[7]  1
    z[7]      mccormick3[7]  -1
    z[8]      primal_upper  78
    z[8]      mccormick1[8]  1
    z[8]      mccormick2[8]  1
    z[8]      mccormick3[8]  -1
    z[9]      primal_upper  74
    z[9]      mccormick1[9]  1
    z[9]      mccormick2[9]  1
    z[9]      mccormick3[9]  -1
    z[10]     primal_upper  49
    z[10]     mccormick1[10]  1
    z[10]     mccormick2[10]  1
    z[10]     mccormick3[10]  -1
    z[11]     primal_upper  36
    z[11]     mccormick1[11]  1
    z[11]     mccormick2[11]  1
    z[11]     mccormick3[11]  -1
    z[12]     primal_upper  44
    z[12]     mccormick1[12]  1
    z[12]     mccormick2[12]  1
    z[12]     mccormick3[12]  -1
    z[13]     primal_upper  62
    z[13]     mccormick1[13]  1
    z[13]     mccormick2[13]  1
    z[13]     mccormick3[13]  -1
    z[14]     primal_upper  58
    z[14]     mccormick1[14]  1
    z[14]     mccormick2[14]  1
    z[14]     mccormick3[14]  -1
    z[15]     primal_upper  5
    z[15]     mccormick1[15]  1
    z[15]     mccormick2[15]  1
    z[15]     mccormick3[15]  -1
    z[16]     primal_upper  1
    z[16]     mccormick1[16]  1
    z[16]     mccormick2[16]  1
    z[16]     mccormick3[16]  -1
    z[17]     primal_upper  48
    z[17]     mccormick1[17]  1
    z[17]     mccormick2[17]  1
    z[17]     mccormick3[17]  -1
    z[18]     primal_upper  43
    z[18]     mccormick1[18]  1
    z[18]     mccormick2[18]  1
    z[18]     mccormick3[18]  -1
    z[19]     primal_upper  39
    z[19]     mccormick1[19]  1
    z[19]     mccormick2[19]  1
    z[19]     mccormick3[19]  -1
    z[20]     primal_upper  45
    z[20]     mccormick1[20]  1
    z[20]     mccormick2[20]  1
    z[20]     mccormick3[20]  -1
    z[21]     primal_upper  91
    z[21]     mccormick1[21]  1
    z[21]     mccormick2[21]  1
    z[21]     mccormick3[21]  -1
    z[22]     primal_upper  17
    z[22]     mccormick1[22]  1
    z[22]     mccormick2[22]  1
    z[22]     mccormick3[22]  -1
    z[23]     primal_upper  57
    z[23]     mccormick1[23]  1
    z[23]     mccormick2[23]  1
    z[23]     mccormick3[23]  -1
    z[24]     primal_upper  42
    z[24]     mccormick1[24]  1
    z[24]     mccormick2[24]  1
    z[24]     mccormick3[24]  -1
    z[25]     primal_upper  46
    z[25]     mccormick1[25]  1
    z[25]     mccormick2[25]  1
    z[25]     mccormick3[25]  -1
    z[26]     primal_upper  65
    z[26]     mccormick1[26]  1
    z[26]     mccormick2[26]  1
    z[26]     mccormick3[26]  -1
    z[27]     primal_upper  67
    z[27]     mccormick1[27]  1
    z[27]     mccormick2[27]  1
    z[27]     mccormick3[27]  -1
    z[28]     primal_upper  37
    z[28]     mccormick1[28]  1
    z[28]     mccormick2[28]  1
    z[28]     mccormick3[28]  -1
    z[29]     primal_upper  52
    z[29]     mccormick1[29]  1
    z[29]     mccormick2[29]  1
    z[29]     mccormick3[29]  -1
    z[30]     primal_upper  86
    z[30]     mccormick1[30]  1
    z[30]     mccormick2[30]  1
    z[30]     mccormick3[30]  -1
    z[31]     primal_upper  32
    z[31]     mccormick1[31]  1
    z[31]     mccormick2[31]  1
    z[31]     mccormick3[31]  -1
    z[32]     primal_upper  60
    z[32]     mccormick1[32]  1
    z[32]     mccormick2[32]  1
    z[32]     mccormick3[32]  -1
    z[33]     primal_upper  81
    z[33]     mccormick1[33]  1
    z[33]     mccormick2[33]  1
    z[33]     mccormick3[33]  -1
    z[34]     primal_upper  78
    z[34]     mccormick1[34]  1
    z[34]     mccormick2[34]  1
    z[34]     mccormick3[34]  -1
    z[35]     primal_upper  31
    z[35]     mccormick1[35]  1
    z[35]     mccormick2[35]  1
    z[35]     mccormick3[35]  -1
    z[36]     primal_upper  51
    z[36]     mccormick1[36]  1
    z[36]     mccormick2[36]  1
    z[36]     mccormick3[36]  -1
    z[37]     primal_upper  16
    z[37]     mccormick1[37]  1
    z[37]     mccormick2[37]  1
    z[37]     mccormick3[37]  -1
    z[38]     primal_upper  25
    z[38]     mccormick1[38]  1
    z[38]     mccormick2[38]  1
    z[38]     mccormick3[38]  -1
    z[39]     primal_upper  43
    z[39]     mccormick1[39]  1
    z[39]     mccormick2[39]  1
    z[39]     mccormick3[39]  -1
    z[40]     primal_upper  92
    z[40]     mccormick1[40]  1
    z[40]     mccormick2[40]  1
    z[40]     mccormick3[40]  -1
    z[41]     primal_upper  46
    z[41]     mccormick1[41]  1
    z[41]     mccormick2[41]  1
    z[41]     mccormick3[41]  -1
    z[42]     primal_upper  40
    z[42]     mccormick1[42]  1
    z[42]     mccormick2[42]  1
    z[42]     mccormick3[42]  -1
    z[43]     primal_upper  9
    z[43]     mccormick1[43]  1
    z[43]     mccormick2[43]  1
    z[43]     mccormick3[43]  -1
    z[44]     primal_upper  47
    z[44]     mccormick1[44]  1
    z[44]     mccormick2[44]  1
    z[44]     mccormick3[44]  -1
    z[45]     primal_upper  97
    z[45]     mccormick1[45]  1
    z[45]     mccormick2[45]  1
    z[45]     mccormick3[45]  -1
    z[46]     primal_upper  49
    z[46]     mccormick1[46]  1
    z[46]     mccormick2[46]  1
    z[46]     mccormick3[46]  -1
    z[47]     primal_upper  37
    z[47]     mccormick1[47]  1
    z[47]     mccormick2[47]  1
    z[47]     mccormick3[47]  -1
    z[48]     primal_upper  31
    z[48]     mccormick1[48]  1
    z[48]     mccormick2[48]  1
    z[48]     mccormick3[48]  -1
    z[49]     primal_upper  53
    z[49]     mccormick1[49]  1
    z[49]     mccormick2[49]  1
    z[49]     mccormick3[49]  -1
    z[50]     primal_upper  58
    z[50]     mccormick1[50]  1
    z[50]     mccormick2[50]  1
    z[50]     mccormick3[50]  -1
    z[51]     primal_upper  61
    z[51]     mccormick1[51]  1
    z[51]     mccormick2[51]  1
    z[51]     mccormick3[51]  -1
    z[52]     primal_upper  53
    z[52]     mccormick1[52]  1
    z[52]     mccormick2[52]  1
    z[52]     mccormick3[52]  -1
    z[53]     primal_upper  20
    z[53]     mccormick1[53]  1
    z[53]     mccormick2[53]  1
    z[53]     mccormick3[53]  -1
    z[54]     primal_upper  43
    z[54]     mccormick1[54]  1
    z[54]     mccormick2[54]  1
    z[54]     mccormick3[54]  -1
    z[55]     primal_upper  60
    z[55]     mccormick1[55]  1
    z[55]     mccormick2[55]  1
    z[55]     mccormick3[55]  -1
    z[56]     primal_upper  75
    z[56]     mccormick1[56]  1
    z[56]     mccormick2[56]  1
    z[56]     mccormick3[56]  -1
    z[57]     primal_upper  46
    z[57]     mccormick1[57]  1
    z[57]     mccormick2[57]  1
    z[57]     mccormick3[57]  -1
    z[58]     primal_upper  50
    z[58]     mccormick1[58]  1
    z[58]     mccormick2[58]  1
    z[58]     mccormick3[58]  -1
    z[59]     primal_upper  16
    z[59]     mccormick1[59]  1
    z[59]     mccormick2[59]  1
    z[59]     mccormick3[59]  -1
    MARKER    'MARKER'                 'INTEND'
RHS
    RHS1      primal_upper  7194
    RHS1      primal_lower0  7134
    RHS1      primal_lower1  16116
    RHS1      primal_lower2  7189
    RHS1      primal_lower3  7393
    RHS1      primal_lower4  16306
    RHS1      primal_lower5  13806
    RHS1      primal_lower6  955
    RHS1      primal_lower7  8192
    RHS1      primal_lower8  15152
    RHS1      primal_lower9  8492
    RHS1      primal_lower10  8123
    RHS1      primal_lower11  987
    RHS1      primal_lower12  6923
    RHS1      primal_lower13  16798
    RHS1      primal_lower14  15066
    RHS1      primal_lower15  13962
    RHS1      primal_lower16  14178
    RHS1      primal_lower17  13202
    RHS1      primal_lower18  15754
    RHS1      primal_lower19  17672
    RHS1      primal_lower20  13212
    RHS1      primal_lower21  7476
    RHS1      primal_lower22  6524
    RHS1      primal_lower23  989
    RHS1      primal_lower24  7574
    RHS1      primal_lower25  8056
    RHS1      primal_lower26  993
    RHS1      primal_lower27  6427
    RHS1      primal_lower28  7088
    RHS1      primal_lower29  13074
    RHS1      primal_lower30  15378
    RHS1      primal_lower31  980
    RHS1      primal_lower32  8072
    RHS1      primal_lower33  6838
    RHS1      primal_lower34  7792
    RHS1      primal_lower35  6701
    RHS1      primal_lower36  6950
    RHS1      primal_lower37  7930
    RHS1      primal_lower38  7637
    RHS1      primal_lower39  977
    RHS1      primal_lower40  6145
    RHS1      primal_lower41  7644
    RHS1      primal_lower42  15506
    RHS1      primal_lower43  15282
    RHS1      primal_lower44  13808
    RHS1      primal_lower45  14810
    RHS1      primal_lower46  978
    RHS1      primal_lower47  984
    RHS1      primal_lower48  990
    RHS1      primal_lower49  15490
    RHS1      primal_lower50  8278
    RHS1      primal_lower51  997
    RHS1      primal_lower52  13720
    RHS1      primal_lower53  13096
    RHS1      primal_lower54  16786
    RHS1      primal_lower55  8488
    RHS1      primal_lower56  16510
    RHS1      primal_lower57  963
    RHS1      primal_lower58  986
    RHS1      primal_lower59  8005
    RHS1      primal_lower60  6796
    RHS1      primal_lower61  13418
    RHS1      primal_lower62  15986
    RHS1      primal_lower63  17110
    RHS1      primal_lower64  7157
    RHS1      primal_lower65  8158
    RHS1      primal_lower66  8748
    RHS1      primal_lower67  983
    RHS1      primal_lower68  15436
    RHS1      primal_lower69  995
    RHS1      primal_lower70  16194
    RHS1      primal_lower71  13608
    RHS1      primal_lower72  7293
    RHS1      primal_lower73  13376
    RHS1      primal_lower74  8507
    RHS1      primal_lower75  16054
    RHS1      primal_lower76  8160
    RHS1      primal_lower77  7260
    RHS1      primal_lower78  7713
    RHS1      primal_lower79  7111
    RHS1      primal_lower80  8197
    RHS1      primal_lower81  15244
    RHS1      primal_lower82  7885
    RHS1      primal_lower83  6744
    RHS1      primal_lower84  994
    RHS1      primal_lower85  7595
    RHS1      primal_lower86  7655
    RHS1      primal_lower87  7286
    RHS1      primal_lower88  14144
    RHS1      primal_lower89  7274
    RHS1      primal_lower90  956
    RHS1      primal_lower91  7245
    RHS1      primal_lower92  6876
    RHS1      primal_lower93  7291
    RHS1      primal_lower94  15932
    RHS1      primal_lower95  7093
    RHS1      primal_lower96  14760
    RHS1      primal_lower97  7564
    RHS1      primal_lower98  15610
    RHS1      primal_lower99  13764
    RHS1      interdiction[0]  1
    RHS1      interdiction[1]  1
    RHS1      interdiction[2]  1
    RHS1      interdiction[3]  1
    RHS1      interdiction[4]  1
    RHS1      interdiction[5]  1
    RHS1      interdiction[6]  1
    RHS1      interdiction[7]  1
    RHS1      interdiction[8]  1
    RHS1      interdiction[9]  1
    RHS1      interdiction[10]  1
    RHS1      interdiction[11]  1
    RHS1      interdiction[12]  1
    RHS1      interdiction[13]  1
    RHS1      interdiction[14]  1
    RHS1      interdiction[15]  1
    RHS1      interdiction[16]  1
    RHS1      interdiction[17]  1
    RHS1      interdiction[18]  1
    RHS1      interdiction[19]  1
    RHS1      interdiction[20]  1
    RHS1      interdiction[21]  1
    RHS1      interdiction[22]  1
    RHS1      interdiction[23]  1
    RHS1      interdiction[24]  1
    RHS1      interdiction[25]  1
    RHS1      interdiction[26]  1
    RHS1      interdiction[27]  1
    RHS1      interdiction[28]  1
    RHS1      interdiction[29]  1
    RHS1      interdiction[30]  1
    RHS1      interdiction[31]  1
    RHS1      interdiction[32]  1
    RHS1      interdiction[33]  1
    RHS1      interdiction[34]  1
    RHS1      interdiction[35]  1
    RHS1      interdiction[36]  1
    RHS1      interdiction[37]  1
    RHS1      interdiction[38]  1
    RHS1      interdiction[39]  1
    RHS1      interdiction[40]  1
    RHS1      interdiction[41]  1
    RHS1      interdiction[42]  1
    RHS1      interdiction[43]  1
    RHS1      interdiction[44]  1
    RHS1      interdiction[45]  1
    RHS1      interdiction[46]  1
    RHS1      interdiction[47]  1
    RHS1      interdiction[48]  1
    RHS1      interdiction[49]  1
    RHS1      interdiction[50]  1
    RHS1      interdiction[51]  1
    RHS1      interdiction[52]  1
    RHS1      interdiction[53]  1
    RHS1      interdiction[54]  1
    RHS1      interdiction[55]  1
    RHS1      interdiction[56]  1
    RHS1      interdiction[57]  1
    RHS1      interdiction[58]  1
    RHS1      interdiction[59]  1
    RHS1      mccormick3[0]  1
    RHS1      mccormick3[1]  1
    RHS1      mccormick3[2]  1
    RHS1      mccormick3[3]  1
    RHS1      mccormick3[4]  1
    RHS1      mccormick3[5]  1
    RHS1      mccormick3[6]  1
    RHS1      mccormick3[7]  1
    RHS1      mccormick3[8]  1
    RHS1      mccormick3[9]  1
    RHS1      mccormick3[10]  1
    RHS1      mccormick3[11]  1
    RHS1      mccormick3[12]  1
    RHS1      mccormick3[13]  1
    RHS1      mccormick3[14]  1
    RHS1      mccormick3[15]  1
    RHS1      mccormick3[16]  1
    RHS1      mccormick3[17]  1
    RHS1      mccormick3[18]  1
    RHS1      mccormick3[19]  1
    RHS1      mccormick3[20]  1
    RHS1      mccormick3[21]  1
    RHS1      mccormick3[22]  1
    RHS1      mccormick3[23]  1
    RHS1      mccormick3[24]  1
    RHS1      mccormick3[25]  1
    RHS1      mccormick3[26]  1
    RHS1      mccormick3[27]  1
    RHS1      mccormick3[28]  1
    RHS1      mccormick3[29]  1
    RHS1      mccormick3[30]  1
    RHS1      mccormick3[31]  1
    RHS1      mccormick3[32]  1
    RHS1      mccormick3[33]  1
    RHS1      mccormick3[34]  1
    RHS1      mccormick3[35]  1
    RHS1      mccormick3[36]  1
    RHS1      mccormick3[37]  1
    RHS1      mccormick3[38]  1
    RHS1      mccormick3[39]  1
    RHS1      mccormick3[40]  1
    RHS1      mccormick3[41]  1
    RHS1      mccormick3[42]  1
    RHS1      mccormick3[43]  1
    RHS1      mccormick3[44]  1
    RHS1      mccormick3[45]  1
    RHS1      mccormick3[46]  1
    RHS1      mccormick3[47]  1
    RHS1      mccormick3[48]  1
    RHS1      mccormick3[49]  1
    RHS1      mccormick3[50]  1
    RHS1      mccormick3[51]  1
    RHS1      mccormick3[52]  1
    RHS1      mccormick3[53]  1
    RHS1      mccormick3[54]  1
    RHS1      mccormick3[55]  1
    RHS1      mccormick3[56]  1
    RHS1      mccormick3[57]  1
    RHS1      mccormick3[58]  1
    RHS1      mccormick3[59]  1
BOUNDS
 BV BND1      x[0]    
 BV BND1      x[1]    
 BV BND1      x[2]    
 BV BND1      x[3]    
 BV BND1      x[4]    
 BV BND1      x[5]    
 BV BND1      x[6]    
 BV BND1      x[7]    
 BV BND1      x[8]    
 BV BND1      x[9]    
 BV BND1      x[10]   
 BV BND1      x[11]   
 BV BND1      x[12]   
 BV BND1      x[13]   
 BV BND1      x[14]   
 BV BND1      x[15]   
 BV BND1      x[16]   
 BV BND1      x[17]   
 BV BND1      x[18]   
 BV BND1      x[19]   
 BV BND1      x[20]   
 BV BND1      x[21]   
 BV BND1      x[22]   
 BV BND1      x[23]   
 BV BND1      x[24]   
 BV BND1      x[25]   
 BV BND1      x[26]   
 BV BND1      x[27]   
 BV BND1      x[28]   
 BV BND1      x[29]   
 BV BND1      x[30]   
 BV BND1      x[31]   
 BV BND1      x[32]   
 BV BND1      x[33]   
 BV BND1      x[34]   
 BV BND1      x[35]   
 BV BND1      x[36]   
 BV BND1      x[37]   
 BV BND1      x[38]   
 BV BND1      x[39]   
 BV BND1      x[40]   
 BV BND1      x[41]   
 BV BND1      x[42]   
 BV BND1      x[43]   
 BV BND1      x[44]   
 BV BND1      x[45]   
 BV BND1      x[46]   
 BV BND1      x[47]   
 BV BND1      x[48]   
 BV BND1      x[49]   
 BV BND1      x[50]   
 BV BND1      x[51]   
 BV BND1      x[52]   
 BV BND1      x[53]   
 BV BND1      x[54]   
 BV BND1      x[55]   
 BV BND1      x[56]   
 BV BND1      x[57]   
 BV BND1      x[58]   
 BV BND1      x[59]   
 BV BND1      y[0]    
 BV BND1      y[1]    
 BV BND1      y[2]    
 BV BND1      y[3]    
 BV BND1      y[4]    
 BV BND1      y[5]    
 BV BND1      y[6]    
 BV BND1      y[7]    
 BV BND1      y[8]    
 BV BND1      y[9]    
 BV BND1      y[10]   
 BV BND1      y[11]   
 BV BND1      y[12]   
 BV BND1      y[13]   
 BV BND1      y[14]   
 BV BND1      y[15]   
 BV BND1      y[16]   
 BV BND1      y[17]   
 BV BND1      y[18]   
 BV BND1      y[19]   
 BV BND1      y[20]   
 BV BND1      y[21]   
 BV BND1      y[22]   
 BV BND1      y[23]   
 BV BND1      y[24]   
 BV BND1      y[25]   
 BV BND1      y[26]   
 BV BND1      y[27]   
 BV BND1      y[28]   
 BV BND1      y[29]   
 BV BND1      y[30]   
 BV BND1      y[31]   
 BV BND1      y[32]   
 BV BND1      y[33]   
 BV BND1      y[34]   
 BV BND1      y[35]   
 BV BND1      y[36]   
 BV BND1      y[37]   
 BV BND1      y[38]   
 BV BND1      y[39]   
 BV BND1      y[40]   
 BV BND1      y[41]   
 BV BND1      y[42]   
 BV BND1      y[43]   
 BV BND1      y[44]   
 BV BND1      y[45]   
 BV BND1      y[46]   
 BV BND1      y[47]   
 BV BND1      y[48]   
 BV BND1      y[49]   
 BV BND1      y[50]   
 BV BND1      y[51]   
 BV BND1      y[52]   
 BV BND1      y[53]   
 BV BND1      y[54]   
 BV BND1      y[55]   
 BV BND1      y[56]   
 BV BND1      y[57]   
 BV BND1      y[58]   
 BV BND1      y[59]   
 BV BND1      u[0]    
 BV BND1      u[1]    
 BV BND1      u[2]    
 BV BND1      u[3]    
 BV BND1      u[4]    
 BV BND1      u[5]    
 BV BND1      u[6]    
 BV BND1      u[7]    
 BV BND1      u[8]    
 BV BND1      u[9]    
 BV BND1      u[10]   
 BV BND1      u[11]   
 BV BND1      u[12]   
 BV BND1      u[13]   
 BV BND1      u[14]   
 BV BND1      u[15]   
 BV BND1      u[16]   
 BV BND1      u[17]   
 BV BND1      u[18]   
 BV BND1      u[19]   
 BV BND1      u[20]   
 BV BND1      u[21]   
 BV BND1      u[22]   
 BV BND1      u[23]   
 BV BND1      u[24]   
 BV BND1      u[25]   
 BV BND1      u[26]   
 BV BND1      u[27]   
 BV BND1      u[28]   
 BV BND1      u[29]   
 BV BND1      u[30]   
 BV BND1      u[31]   
 BV BND1      u[32]   
 BV BND1      u[33]   
 BV BND1      u[34]   
 BV BND1      u[35]   
 BV BND1      u[36]   
 BV BND1      u[37]   
 BV BND1      u[38]   
 BV BND1      u[39]   
 BV BND1      u[40]   
 BV BND1      u[41]   
 BV BND1      u[42]   
 BV BND1      u[43]   
 BV BND1      u[44]   
 BV BND1      u[45]   
 BV BND1      u[46]   
 BV BND1      u[47]   
 BV BND1      u[48]   
 BV BND1      u[49]   
 BV BND1      u[50]   
 BV BND1      u[51]   
 BV BND1      u[52]   
 BV BND1      u[53]   
 BV BND1      u[54]   
 BV BND1      u[55]   
 BV BND1      u[56]   
 BV BND1      u[57]   
 BV BND1      u[58]   
 BV BND1      u[59]   
 BV BND1      z[0]    
 BV BND1      z[1]    
 BV BND1      z[2]    
 BV BND1      z[3]    
 BV BND1      z[4]    
 BV BND1      z[5]    
 BV BND1      z[6]    
 BV BND1      z[7]    
 BV BND1      z[8]    
 BV BND1      z[9]    
 BV BND1      z[10]   
 BV BND1      z[11]   
 BV BND1      z[12]   
 BV BND1      z[13]   
 BV BND1      z[14]   
 BV BND1      z[15]   
 BV BND1      z[16]   
 BV BND1      z[17]   
 BV BND1      z[18]   
 BV BND1      z[19]   
 BV BND1      z[20]   
 BV BND1      z[21]   
 BV BND1      z[22]   
 BV BND1      z[23]   
 BV BND1      z[24]   
 BV BND1      z[25]   
 BV BND1      z[26]   
 BV BND1      z[27]   
 BV BND1      z[28]   
 BV BND1      z[29]   
 BV BND1      z[30]   
 BV BND1      z[31]   
 BV BND1      z[32]   
 BV BND1      z[33]   
 BV BND1      z[34]   
 BV BND1      z[35]   
 BV BND1      z[36]   
 BV BND1      z[37]   
 BV BND1      z[38]   
 BV BND1      z[39]   
 BV BND1      z[40]   
 BV BND1      z[41]   
 BV BND1      z[42]   
 BV BND1      z[43]   
 BV BND1      z[44]   
 BV BND1      z[45]   
 BV BND1      z[46]   
 BV BND1      z[47]   
 BV BND1      z[48]   
 BV BND1      z[49]   
 BV BND1      z[50]   
 BV BND1      z[51]   
 BV BND1      z[52]   
 BV BND1      z[53]   
 BV BND1      z[54]   
 BV BND1      z[55]   
 BV BND1      z[56]   
 BV BND1      z[57]   
 BV BND1      z[58]   
 BV BND1      z[59]   
ENDATA
