\ Model knapsack_60_1000_5
\ LP format - for model browsing. Use MPS format to capture full model detail.
\ Signature: 0x7b7b501f0e1c3af5
Minimize
  10 x[0] + 10 x[1] + 10 x[2] + 10 x[3] + 10 x[4] + 10 x[5] + 10 x[6]
   + 10 x[7] + 10 x[8] + 10 x[9] + 10 x[10] + 10 x[11] + 10 x[12]
   + 10 x[13] + 10 x[14] + 10 x[15] + 10 x[16] + 10 x[17] + 10 x[18]
   + 10 x[19] + 10 x[20] + 10 x[21] + 10 x[22] + 10 x[23] + 10 x[24]
   + 10 x[25] + 10 x[26] + 10 x[27] + 10 x[28] + 10 x[29] + 10 x[30]
   + 10 x[31] + 10 x[32] + 10 x[33] + 10 x[34] + 10 x[35] + 10 x[36]
   + 10 x[37] + 10 x[38] + 10 x[39] + 10 x[40] + 10 x[41] + 10 x[42]
   + 10 x[43] + 10 x[44] + 10 x[45] + 10 x[46] + 10 x[47] + 10 x[48]
   + 10 x[49] + 10 x[50] + 10 x[51] + 10 x[52] + 10 x[53] + 10 x[54]
   + 10 x[55] + 10 x[56] + 10 x[57] + 10 x[58] + 10 x[59] - 615 y[0]
   - 315 y[1] - 849 y[2] - 905 y[3] - 42 y[4] - 726 y[5] - 106 y[6]
   - 896 y[7] - 463 y[8] - 847 y[9] - 24 y[10] - 128 y[11] - 868 y[12]
   - 7 y[13] - 256 y[14] - 753 y[15] - 231 y[16] - 743 y[17] - 435 y[18]
   - 182 y[19] - 898 y[20] - 452 y[21] - 741 y[22] - 773 y[23] - 266 y[24]
   - 43 y[25] - 153 y[26] - 532 y[27] - 483 y[28] - 813 y[29] - 262 y[30]
   - 21 y[31] - 469 y[32] - 292 y[33] - 660 y[34] - 770 y[35] - 898 y[36]
   - 572 y[37] - 351 y[38] - 528 y[39] - 869 y[40] - 402 y[41] - 378 y[42]
   - 608 y[43] - 251 y[44] - 280 y[45] - 157 y[46] - 593 y[47] - 781 y[48]
   - 270 y[49] - 40 y[50] - 199 y[51] - 212 y[52] - 874 y[53] - 349 y[54]
   - 999 y[55] - 979 y[56] - 97 y[57] - 289 y[58] - 544 y[59]
Subject To
 primal_upper: 642 y[0] + 451 y[1] + 845 y[2] + 162 y[3] + 359 y[4]
   + 320 y[5] + 816 y[6] + 562 y[7] + 304 y[8] + 257 y[9] + 174 y[10]
   + 914 y[11] + 567 y[12] + 331 y[13] + 447 y[14] + 691 y[15] + 920 y[16]
   + 543 y[17] + 676 y[18] + 509 y[19] + 872 y[20] + 422 y[21] + 567 y[22]
   + 253 y[23] + 199 y[24] + 695 y[25] + 237 y[26] + 254 y[27] + 40 y[28]
   + 30 y[29] + 676 y[30] + 634 y[31] + 422 y[32] + 732 y[33] + 327 y[34]
   + 528 y[35] + 255 y[36] + 499 y[37] + 319 y[38] + 453 y[39] + 594 y[40]
   + 576 y[41] + 489 y[42] + 652 y[43] + 242 y[44] + 785 y[45] + 908 y[46]
   + 672 y[47] + 986 y[48] + 647 y[49] + 585 y[50] + 687 y[51] + 408 y[52]
   + 635 y[53] + 435 y[54] + 222 y[55] + 4 y[56] + 937 y[57] + 447 y[58]
   + 953 y[59] + 64 z[0] + 45 z[1] + 84 z[2] + 16 z[3] + 36 z[4] + 32 z[5]
   + 82 z[6] + 56 z[7] + 30 z[8] + 26 z[9] + 17 z[10] + 91 z[11] + 57 z[12]
   + 33 z[13] + 45 z[14] + 69 z[15] + 92 z[16] + 54 z[17] + 68 z[18]
   + 51 z[19] + 87 z[20] + 42 z[21] + 57 z[22] + 25 z[23] + 20 z[24]
   + 70 z[25] + 24 z[26] + 25 z[27] + 4 z[28] + 3 z[29] + 68 z[30]
   + 63 z[31] + 42 z[32] + 73 z[33] + 33 z[34] + 53 z[35] + 26 z[36]
   + 50 z[37] + 32 z[38] + 45 z[39] + 59 z[40] + 58 z[41] + 49 z[42]
   + 65 z[43] + 24 z[44] + 78 z[45] + 91 z[46] + 67 z[47] + 99 z[48]
   + 65 z[49] + 58 z[50] + 69 z[51] + 41 z[52] + 64 z[53] + 44 z[54]
   + 22 z[55] + 94 z[57] + 45 z[58] + 95 z[59] <= 5128
 primal_lower0: 705 u[0] + 98 u[1] + 20 u[2] + 321 u[3] + 966 u[4]
   + 679 u[5] + 207 u[6] + 441 u[7] + 807 u[8] + 840 u[9] + 117 u[10]
   + 937 u[11] + 62 u[12] + 850 u[13] + 270 u[14] + 642 u[15] + 399 u[16]
   + 6 u[17] + 587 u[18] + 708 u[19] + 975 u[20] + 549 u[21] + 638 u[22]
   + 212 u[23] + 486 u[24] + 614 u[25] + 164 u[26] + 773 u[27] + 807 u[28]
   + 957 u[29] + 267 u[30] + 185 u[31] + 581 u[32] + 75 u[33] + 958 u[34]
   + 879 u[35] + 974 u[36] + 514 u[37] + 886 u[38] + 996 u[39] + 513 u[40]
   + 943 u[41] + 112 u[42] + 203 u[43] + 273 u[44] + 120 u[45] + 3 u[46]
   + 783 u[47] + 513 u[48] + 150 u[49] + 72 u[50] + 526 u[51] + 991 u[52]
   + 98 u[53] + 90 u[54] + 213 u[55] + 331 u[56] + 744 u[57] + 494 u[58]
   + 120 u[59] <= 9814
 primal_lower1: 595 u[0] + 140 u[1] + 486 u[2] + 587 u[3] + 360 u[4]
   + 385 u[5] + 265 u[6] + 75 u[7] + 625 u[8] + 938 u[9] + 455 u[10]
   + 787 u[11] + 680 u[12] + 12 u[13] + 64 u[14] + 220 u[15] + 857 u[16]
   + 736 u[17] + 365 u[18] + 534 u[19] + 9 u[20] + 7 u[21] + 824 u[22]
   + 998 u[23] + 864 u[24] + 88 u[25] + 182 u[26] + 487 u[27] + 449 u[28]
   + 247 u[29] + 357 u[30] + 691 u[31] + 495 u[32] + 509 u[33] + 264 u[34]
   + 121 u[35] + 952 u[36] + 284 u[37] + 176 u[38] + 334 u[39] + 651 u[40]
   + 377 u[41] + 746 u[42] + 997 u[43] + 355 u[44] + 234 u[45] + 29 u[46]
   + 617 u[47] + 219 u[48] + 376 u[49] + 810 u[50] + 512 u[51] + 41 u[52]
   + 628 u[53] + 468 u[54] + 47 u[55] + 109 u[56] + 210 u[57] + 536 u[58]
   + 810 u[59] <= 13138
 primal_lower2: 47 u[0] + 427 u[1] + 385 u[2] + 962 u[3] + 163 u[4]
   + 585 u[5] + 564 u[6] + 643 u[7] + 948 u[8] + 121 u[9] + 547 u[10]
   + 322 u[11] + 195 u[12] + 443 u[13] + 412 u[14] + 148 u[15] + 580 u[16]
   + 671 u[17] + 576 u[18] + 373 u[19] + 140 u[20] + 343 u[21] + 555 u[22]
   + 582 u[23] + 508 u[24] + 519 u[25] + 593 u[26] + 863 u[27] + 141 u[28]
   + 638 u[29] + 129 u[30] + 899 u[31] + 891 u[32] + 84 u[33] + 787 u[34]
   + 536 u[35] + 507 u[36] + 100 u[37] + 491 u[38] + 854 u[39] + 470 u[40]
   + 985 u[41] + 493 u[42] + 973 u[43] + 606 u[44] + 258 u[45] + 929 u[46]
   + 617 u[47] + 342 u[48] + 935 u[49] + 374 u[50] + 191 u[51] + 292 u[52]
   + 939 u[53] + 288 u[54] + 87 u[55] + 736 u[56] + 978 u[57] + 171 u[58]
   + 641 u[59] <= 15288
 primal_lower3: 831 u[0] + 888 u[1] + 458 u[2] + 271 u[3] + 284 u[4]
   + 637 u[5] + 701 u[6] + 375 u[7] + 333 u[8] + 110 u[9] + 363 u[10]
   + 239 u[11] + 524 u[12] + 688 u[13] + 172 u[14] + 8 u[15] + 21 u[16]
   + 964 u[17] + 617 u[18] + 586 u[19] + 797 u[20] + 419 u[21] + 716 u[22]
   + 90 u[23] + 252 u[24] + 852 u[25] + 602 u[26] + 995 u[27] + 917 u[28]
   + 299 u[29] + 745 u[30] + 7 u[31] + 227 u[32] + 177 u[33] + 492 u[34]
   + 741 u[35] + 108 u[36] + 880 u[37] + 556 u[38] + 954 u[39] + 231 u[40]
   + 173 u[41] + 982 u[42] + 561 u[43] + 935 u[44] + 230 u[45] + 401 u[46]
   + 693 u[47] + 879 u[48] + 236 u[49] + 614 u[50] + 740 u[51] + 229 u[52]
   + 624 u[53] + 952 u[54] + 491 u[55] + 777 u[56] + 998 u[57] + 508 u[58]
   + 766 u[59] <= 10638
 primal_lower4: 367 u[0] + 187 u[1] + 465 u[2] + 122 u[3] + 219 u[4]
   + 185 u[5] + 708 u[6] + 987 u[7] + 564 u[8] + 873 u[9] + 891 u[10]
   + 194 u[11] + 523 u[12] + 195 u[13] + 764 u[14] + 124 u[15] + 196 u[16]
   + 167 u[17] + 312 u[18] + 725 u[19] + 484 u[20] + 127 u[21] + 259 u[22]
   + 558 u[23] + 980 u[24] + 951 u[25] + 233 u[26] + 839 u[27] + 821 u[28]
   + 886 u[29] + 721 u[30] + 611 u[31] + 451 u[32] + 500 u[33] + 195 u[34]
   + 792 u[35] + 251 u[36] + 196 u[37] + 651 u[38] + 222 u[39] + 118 u[40]
   + 889 u[41] + 229 u[42] + 309 u[43] + 886 u[44] + 658 u[45] + 297 u[46]
   + 465 u[47] + 678 u[48] + 23 u[49] + 854 u[50] + 751 u[51] + 796 u[52]
   + 587 u[53] + 840 u[54] + 207 u[55] + 424 u[56] + 674 u[57] + 651 u[58]
   + 177 u[59] <= 15004
 primal_lower5: 830 u[0] + 719 u[1] + 185 u[2] + 270 u[3] + 99 u[4]
   + 236 u[5] + 996 u[6] + 942 u[7] + 4 u[8] + 221 u[9] + 386 u[10]
   + 254 u[11] + 355 u[12] + 199 u[13] + 683 u[14] + 575 u[15] + 316 u[16]
   + 811 u[17] + 96 u[18] + 361 u[19] + 748 u[20] + 794 u[21] + 555 u[22]
   + 321 u[23] + 995 u[24] + 275 u[25] + 705 u[26] + 266 u[27] + 236 u[28]
   + 434 u[29] + 200 u[30] + 222 u[31] + 282 u[32] + 208 u[33] + 235 u[34]
   + 12 u[35] + 859 u[36] + 191 u[37] + 547 u[38] + 969 u[39] + 686 u[40]
   + 404 u[41] + 589 u[42] + 232 u[43] + 878 u[44] + 749 u[45] + 816 u[46]
   + 604 u[47] + 462 u[48] + 611 u[49] + 565 u[50] + 35 u[51] + 164 u[52]
   + 559 u[53] + 567 u[54] + 994 u[55] + 768 u[56] + 341 u[57] + 299 u[58]
   + 173 u[59] <= 4681
 primal_lower6: 64 u[0] + 52 u[1] + 522 u[2] + 259 u[3] + 100 u[4]
   + 466 u[5] + 149 u[6] + 148 u[7] + 485 u[8] + 490 u[9] + 636 u[10]
   + 147 u[11] + 92 u[12] + 388 u[13] + 797 u[14] + 573 u[15] + 973 u[16]
   + 144 u[17] + 57 u[18] + 654 u[19] + 93 u[20] + 512 u[21] + 212 u[22]
   + 487 u[23] + 613 u[24] + 520 u[25] + 210 u[26] + 600 u[27] + 566 u[28]
   + 927 u[29] + 570 u[30] + 820 u[31] + 796 u[32] + 981 u[33] + 580 u[34]
   + 841 u[35] + 388 u[36] + 581 u[37] + 868 u[38] + 943 u[39] + 391 u[40]
   + 26 u[41] + 430 u[42] + 694 u[43] + 623 u[44] + 715 u[45] + 106 u[46]
   + 698 u[47] + 983 u[48] + 224 u[49] + 135 u[50] + 624 u[51] + 653 u[52]
   + 212 u[53] + 329 u[54] + 824 u[55] + 353 u[56] + 419 u[57] + 716 u[58]
   + 858 u[59] <= 14658
 primal_lower7: 919 u[0] + 48 u[1] + 146 u[2] + 583 u[3] + 228 u[4]
   + 221 u[5] + 101 u[6] + 263 u[7] + 533 u[8] + 78 u[9] + 587 u[10]
   + 199 u[11] + 796 u[12] + 544 u[13] + 732 u[14] + 544 u[15] + 581 u[16]
   + 580 u[17] + 545 u[18] + 674 u[19] + 813 u[20] + 59 u[21] + 924 u[22]
   + 330 u[23] + 100 u[24] + 100 u[25] + 994 u[26] + 835 u[27] + 349 u[28]
   + 355 u[29] + 841 u[30] + 751 u[31] + 699 u[32] + 97 u[33] + 524 u[34]
   + 261 u[35] + 748 u[36] + 784 u[37] + 812 u[38] + 482 u[39] + 823 u[40]
   + 981 u[41] + 742 u[42] + 41 u[43] + 159 u[44] + 190 u[45] + 697 u[46]
   + 805 u[47] + 79 u[48] + 532 u[49] + 310 u[50] + 796 u[51] + 525 u[52]
   + 936 u[53] + 296 u[54] + 235 u[55] + 361 u[56] + 174 u[57] + 68 u[58]
   + 430 u[59] <= 14470
 primal_lower8: 268 u[0] + 525 u[1] + 471 u[2] + 236 u[3] + 153 u[4]
   + 450 u[5] + 650 u[6] + 828 u[7] + 970 u[8] + 939 u[9] + 200 u[10]
   + 476 u[11] + 201 u[12] + 821 u[13] + 129 u[14] + 693 u[15] + 898 u[16]
   + 521 u[17] + 478 u[18] + 383 u[19] + 850 u[20] + 264 u[21] + 849 u[22]
   + 47 u[23] + 129 u[24] + 305 u[25] + 31 u[26] + 272 u[27] + 762 u[28]
   + 736 u[29] + 654 u[30] + 788 u[31] + 344 u[32] + 438 u[33] + 809 u[34]
   + 754 u[35] + 305 u[36] + 109 u[37] + 281 u[38] + 119 u[39] + 828 u[40]
   + 698 u[41] + 979 u[42] + 750 u[43] + 548 u[44] + 851 u[45] + 942 u[46]
   + 90 u[47] + 620 u[48] + 977 u[49] + 19 u[50] + 929 u[51] + 306 u[52]
   + 805 u[53] + 949 u[54] + 64 u[55] + 814 u[56] + 179 u[57] + 41 u[58]
   + 131 u[59] <= 5109
 primal_lower9: 320 u[0] + 457 u[1] + 499 u[2] + 440 u[3] + 413 u[4]
   + 558 u[5] + 726 u[6] + 688 u[7] + 142 u[8] + 783 u[9] + 852 u[10]
   + 112 u[11] + 189 u[12] + 897 u[13] + 165 u[14] + 89 u[15] + 310 u[16]
   + 709 u[17] + 914 u[18] + 419 u[19] + 942 u[20] + 28 u[21] + 757 u[22]
   + 299 u[23] + 77 u[24] + 973 u[25] + 603 u[26] + 356 u[27] + 446 u[28]
   + 284 u[29] + 730 u[30] + 208 u[31] + 396 u[32] + 882 u[33] + 925 u[34]
   + 222 u[35] + 349 u[36] + 137 u[37] + 949 u[38] + 387 u[39] + 8 u[40]
   + 862 u[41] + 639 u[42] + 626 u[43] + 784 u[44] + 215 u[45] + 138 u[46]
   + 870 u[47] + 680 u[48] + 565 u[49] + 471 u[50] + 853 u[51] + 294 u[52]
   + 433 u[53] + 881 u[54] + 396 u[55] + 786 u[56] + 935 u[57] + 581 u[58]
   + 511 u[59] <= 5193
 primal_lower10: 739 u[0] + 447 u[1] + 29 u[2] + 766 u[3] + 327 u[4]
   + 941 u[5] + 384 u[6] + 551 u[7] + 280 u[8] + 149 u[9] + 831 u[10]
   + 302 u[11] + 319 u[12] + 447 u[13] + 928 u[14] + 280 u[15] + 64 u[16]
   + 427 u[17] + 268 u[18] + 537 u[19] + 512 u[20] + 779 u[21] + 799 u[22]
   + 514 u[23] + 520 u[24] + 99 u[25] + 293 u[26] + 267 u[27] + 985 u[28]
   + 50 u[29] + 365 u[30] + 591 u[31] + 215 u[32] + 904 u[33] + 327 u[34]
   + 764 u[35] + 935 u[36] + 616 u[37] + 751 u[38] + 762 u[39] + 690 u[40]
   + 933 u[41] + 417 u[42] + 73 u[43] + 522 u[44] + 190 u[45] + 293 u[46]
   + 501 u[47] + 570 u[48] + 643 u[49] + 530 u[50] + 507 u[51] + 104 u[52]
   + 663 u[53] + 492 u[54] + 683 u[55] + 716 u[56] + 830 u[57] + 575 u[58]
   + 101 u[59] <= 15048
 primal_lower11: 99 u[0] + 839 u[1] + 229 u[2] + 534 u[3] + 767 u[4]
   + 893 u[5] + 336 u[6] + 87 u[7] + 808 u[8] + 749 u[9] + 119 u[10]
   + 486 u[11] + 279 u[12] + 359 u[13] + 296 u[14] + 80 u[15] + 376 u[16]
   + 555 u[17] + 436 u[18] + 361 u[19] + 192 u[20] + 779 u[21] + 703 u[22]
   + 442 u[23] + 424 u[24] + 595 u[25] + 141 u[26] + 819 u[27] + 841 u[28]
   + 426 u[29] + 85 u[30] + 823 u[31] + 887 u[32] + 720 u[33] + 359 u[34]
   + 180 u[35] + 463 u[36] + 344 u[37] + 543 u[38] + 594 u[39] + 450 u[40]
   + 429 u[41] + 593 u[42] + 57 u[43] + 538 u[44] + 230 u[45] + 101 u[46]
   + 997 u[47] + 682 u[48] + 371 u[49] + 994 u[50] + 739 u[51] + 728 u[52]
   + 263 u[53] + 404 u[54] + 859 u[55] + 732 u[56] + 982 u[57] + 583 u[58]
   + 61 u[59] <= 4973
 primal_lower12: 383 u[0] + 616 u[1] + 898 u[2] + 343 u[3] + 444 u[4]
   + 709 u[5] + 93 u[6] + 671 u[7] + 285 u[8] + 470 u[9] + 155 u[10]
   + 727 u[11] + 132 u[12] + 120 u[13] + 748 u[14] + 456 u[15] + 797 u[16]
   + 652 u[17] + 249 u[18] + 930 u[19] + 37 u[20] + 651 u[21] + 548 u[22]
   + 178 u[23] + 76 u[24] + 580 u[25] + 482 u[26] + 315 u[27] + 397 u[28]
   + 987 u[29] + 113 u[30] + 639 u[31] + 211 u[32] + 257 u[33] + 212 u[34]
   + 117 u[35] + 828 u[36] + 88 u[37] + 148 u[38] + 842 u[39] + 991 u[40]
   + 533 u[41] + 398 u[42] + 729 u[43] + 903 u[44] + 190 u[45] + 705 u[46]
   + 325 u[47] + 159 u[48] + 60 u[49] + 358 u[50] + 732 u[51] + 421 u[52]
   + 856 u[53] + 320 u[54] + 435 u[55] + 705 u[56] + 430 u[57] + 476 u[58]
   + 158 u[59] <= 991
 primal_lower13: 163 u[0] + 375 u[1] + 509 u[2] + 30 u[3] + 735 u[4]
   + 645 u[5] + 240 u[6] + 263 u[7] + 256 u[8] + 581 u[9] + 927 u[10]
   + 22 u[11] + 759 u[12] + 599 u[13] + 536 u[14] + 320 u[15] + 168 u[16]
   + 43 u[17] + 580 u[18] + 969 u[19] + 544 u[20] + 939 u[21] + 799 u[22]
   + 746 u[23] + 552 u[24] + 419 u[25] + 309 u[26] + 291 u[27] + 57 u[28]
   + 570 u[29] + 565 u[30] + 535 u[31] + 599 u[32] + 888 u[33] + 311 u[34]
   + 988 u[35] + 519 u[36] + 440 u[37] + 279 u[38] + 658 u[39] + 418 u[40]
   + 477 u[41] + 593 u[42] + 65 u[43] + 314 u[44] + 990 u[45] + 117 u[46]
   + 701 u[47] + 106 u[48] + 563 u[49] + 546 u[50] + 627 u[51] + 872 u[52]
   + 287 u[53] + 124 u[54] + 507 u[55] + 348 u[56] + 566 u[57] + 175 u[58]
   + 117 u[59] <= 990
 primal_lower14: 665 u[0] + 538 u[1] + 12 u[2] + 297 u[3] + 350 u[4]
   + 679 u[5] + 103 u[6] + 153 u[7] + 999 u[8] + 680 u[9] + 477 u[10]
   + 33 u[11] + 966 u[12] + 866 u[13] + 38 u[14] + 138 u[15] + 879 u[16]
   + 206 u[17] + 43 u[18] + 844 u[19] + 727 u[20] + 589 u[21] + 886 u[22]
   + 44 u[23] + 126 u[24] + 46 u[25] + 380 u[26] + 685 u[27] + 407 u[28]
   + 21 u[29] + 851 u[30] + 313 u[31] + 93 u[32] + 347 u[33] + 406 u[34]
   + 127 u[35] + 526 u[36] + 506 u[37] + 110 u[38] + 444 u[39] + 617 u[40]
   + 15 u[41] + 344 u[42] + 11 u[43] + 809 u[44] + 384 u[45] + 931 u[46]
   + 943 u[47] + 153 u[48] + 990 u[49] + 200 u[50] + 414 u[51] + 207 u[52]
   + 418 u[53] + 66 u[54] + 757 u[55] + 827 u[56] + 656 u[57] + 446 u[58]
   + 600 u[59] <= 4398
 primal_lower15: 556 u[0] + 240 u[1] + 470 u[2] + 447 u[3] + 312 u[4]
   + 830 u[5] + 193 u[6] + 744 u[7] + 801 u[8] + 934 u[9] + 608 u[10]
   + 39 u[11] + 736 u[12] + 864 u[13] + 129 u[14] + 225 u[15] + 41 u[16]
   + 996 u[17] + 509 u[18] + 642 u[19] + 769 u[20] + 804 u[21] + 248 u[22]
   + 579 u[23] + 785 u[24] + 772 u[25] + 486 u[26] + 524 u[27] + 482 u[28]
   + 803 u[29] + 870 u[30] + 712 u[31] + 896 u[32] + 625 u[33] + 56 u[34]
   + 285 u[35] + 688 u[36] + 241 u[37] + 440 u[38] + 203 u[39] + 683 u[40]
   + 902 u[41] + 698 u[42] + 810 u[43] + 243 u[44] + 967 u[45] + 614 u[46]
   + 214 u[47] + 115 u[48] + 508 u[49] + 707 u[50] + 580 u[51] + 985 u[52]
   + 48 u[53] + 157 u[54] + 324 u[55] + 181 u[56] + 967 u[57] + 528 u[58]
   + 694 u[59] <= 996
 primal_lower16: 565 u[0] + 214 u[1] + 184 u[2] + 45 u[3] + 162 u[4]
   + 83 u[5] + 147 u[6] + 341 u[7] + 59 u[8] + 332 u[9] + 153 u[10]
   + 549 u[11] + 306 u[12] + 374 u[13] + 250 u[14] + 662 u[15] + 963 u[16]
   + 938 u[17] + 943 u[18] + 80 u[19] + 355 u[20] + 601 u[21] + 570 u[22]
   + 888 u[23] + 738 u[24] + 834 u[25] + 728 u[26] + 601 u[27] + 851 u[28]
   + 761 u[29] + 623 u[30] + 509 u[31] + 185 u[32] + 63 u[33] + 930 u[34]
   + 403 u[35] + 106 u[36] + 654 u[37] + 370 u[38] + 120 u[39] + 85 u[40]
   + 771 u[41] + 900 u[42] + 495 u[43] + 861 u[44] + 764 u[45] + 727 u[46]
   + 827 u[47] + 125 u[48] + 794 u[49] + 692 u[50] + 66 u[51] + 963 u[52]
   + 206 u[53] + 766 u[54] + 145 u[55] + 559 u[56] + 972 u[57] + 10 u[58]
   + 644 u[59] <= 9870
 primal_lower17: 846 u[0] + 263 u[1] + 801 u[2] + 446 u[3] + 843 u[4]
   + 52 u[5] + 284 u[6] + 286 u[7] + 804 u[8] + 549 u[9] + 138 u[10]
   + 278 u[11] + 331 u[12] + 927 u[13] + 675 u[14] + 495 u[15] + 948 u[16]
   + 859 u[17] + 600 u[18] + 73 u[19] + 812 u[20] + 418 u[21] + 27 u[22]
   + 65 u[23] + 819 u[24] + 227 u[25] + 969 u[26] + 802 u[27] + 996 u[28]
   + 154 u[29] + 832 u[30] + 710 u[31] + 274 u[32] + 152 u[33] + 211 u[34]
   + 332 u[35] + 987 u[36] + 255 u[37] + 499 u[38] + 17 u[39] + 294 u[40]
   + 988 u[41] + 317 u[42] + 896 u[43] + 622 u[44] + 453 u[45] + 88 u[46]
   + 628 u[47] + 558 u[48] + 107 u[49] + 893 u[50] + 811 u[51] + 332 u[52]
   + 935 u[53] + 151 u[54] + 922 u[55] + 80 u[56] + 45 u[57] + 923 u[58]
   + 13 u[59] <= 996
 primal_lower18: 229 u[0] + 86 u[1] + 880 u[2] + 925 u[3] + 418 u[4]
   + 467 u[5] + 883 u[6] + 893 u[7] + 667 u[8] + 188 u[9] + 145 u[10]
   + 525 u[11] + 826 u[12] + 558 u[13] + 738 u[14] + 326 u[15] + 115 u[16]
   + 2 u[17] + 799 u[18] + 144 u[19] + 931 u[20] + 473 u[21] + 250 u[22]
   + 512 u[23] + 570 u[24] + 2 u[25] + 432 u[26] + 113 u[27] + 827 u[28]
   + 25 u[29] + 39 u[30] + 813 u[31] + 873 u[32] + 879 u[33] + 754 u[34]
   + 27 u[35] + 906 u[36] + 230 u[37] + 730 u[38] + 80 u[39] + 197 u[40]
   + 675 u[41] + 396 u[42] + 727 u[43] + 853 u[44] + 548 u[45] + 839 u[46]
   + 795 u[47] + 549 u[48] + 138 u[49] + 268 u[50] + 234 u[51] + 147 u[52]
   + 838 u[53] + 542 u[54] + 793 u[55] + 679 u[56] + 756 u[57] + 610 u[58]
   + 644 u[59] <= 10169
 primal_lower19: 610 u[0] + 822 u[1] + 700 u[2] + 341 u[3] + 726 u[4]
   + 468 u[5] + 311 u[6] + 206 u[7] + 807 u[8] + 756 u[9] + 574 u[10]
   + 877 u[11] + 926 u[12] + 862 u[13] + 767 u[14] + 831 u[15] + 391 u[16]
   + 554 u[17] + 91 u[18] + 312 u[19] + 647 u[20] + 970 u[21] + 190 u[22]
   + 425 u[23] + 583 u[24] + 42 u[25] + 812 u[26] + 570 u[27] + 696 u[28]
   + 713 u[29] + 964 u[30] + 310 u[31] + 310 u[32] + 943 u[33] + 958 u[34]
   + 563 u[35] + 478 u[36] + 783 u[37] + 326 u[38] + 833 u[39] + 425 u[40]
   + 100 u[41] + 832 u[42] + 56 u[43] + 745 u[44] + 813 u[45] + 532 u[46]
   + 764 u[47] + 121 u[48] + 74 u[49] + 241 u[50] + 202 u[51] + 815 u[52]
   + 702 u[53] + 219 u[54] + 226 u[55] + 363 u[56] + 509 u[57] + 870 u[58]
   + 964 u[59] <= 16810
 primal_lower20: 344 u[0] + 489 u[1] + 611 u[2] + 232 u[3] + 965 u[4]
   + 430 u[5] + 214 u[6] + 888 u[7] + 670 u[8] + 823 u[9] + 76 u[10]
   + 40 u[11] + 349 u[12] + 369 u[13] + 741 u[14] + 601 u[15] + 286 u[16]
   + 893 u[17] + 234 u[18] + 435 u[19] + 478 u[20] + 732 u[21] + 469 u[22]
   + 59 u[23] + 501 u[24] + 925 u[25] + 187 u[26] + 724 u[27] + 94 u[28]
   + 436 u[29] + 706 u[30] + 288 u[31] + 476 u[32] + 154 u[33] + 581 u[34]
   + 702 u[35] + 701 u[36] + 729 u[37] + 997 u[38] + 411 u[39] + 216 u[40]
   + 238 u[41] + 167 u[42] + 850 u[43] + 656 u[44] + 119 u[45] + 218 u[46]
   + 878 u[47] + 936 u[48] + 37 u[49] + 671 u[50] + 893 u[51] + 558 u[52]
   + 145 u[53] + 161 u[54] + 524 u[55] + 954 u[56] + 599 u[57] + 557 u[58]
   + 63 u[59] <= 14740
 primal_lower21: 258 u[0] + 966 u[1] + 852 u[2] + 477 u[3] + 206 u[4]
   + 340 u[5] + 927 u[6] + 414 u[7] + 639 u[8] + 348 u[9] + 150 u[10]
   + 629 u[11] + 790 u[12] + 462 u[13] + 823 u[14] + 111 u[15] + 199 u[16]
   + 434 u[17] + 587 u[18] + 392 u[19] + 351 u[20] + 506 u[21] + 534 u[22]
   + 457 u[23] + 735 u[24] + 858 u[25] + 996 u[26] + 650 u[27] + 136 u[28]
   + 409 u[29] + 332 u[30] + 750 u[31] + 846 u[32] + 447 u[33] + 174 u[34]
   + 819 u[35] + 374 u[36] + 951 u[37] + 30 u[38] + 65 u[39] + 545 u[40]
   + 452 u[41] + 856 u[42] + 984 u[43] + 953 u[44] + 21 u[45] + 148 u[46]
   + 988 u[47] + 681 u[48] + 10 u[49] + 577 u[50] + 714 u[51] + 535 u[52]
   + 982 u[53] + 771 u[54] + 370 u[55] + 843 u[56] + 501 u[57] + 998 u[58]
   + 468 u[59] <= 21880
 primal_lower22: 151 u[0] + 915 u[1] + 513 u[2] + 802 u[3] + 459 u[4]
   + 721 u[5] + 76 u[6] + 363 u[7] + 508 u[8] + 65 u[9] + 995 u[10]
   + 10 u[11] + 491 u[12] + 547 u[13] + 660 u[14] + 284 u[15] + 884 u[16]
   + 527 u[17] + 400 u[18] + 981 u[19] + 708 u[20] + 351 u[21] + 699 u[22]
   + 238 u[23] + 548 u[24] + 647 u[25] + 673 u[26] + 327 u[27] + 541 u[28]
   + 502 u[29] + 249 u[30] + 363 u[31] + 835 u[32] + 28 u[33] + 195 u[34]
   + 808 u[35] + 11 u[36] + 4 u[37] + 931 u[38] + 286 u[39] + 638 u[40]
   + 153 u[41] + 685 u[42] + 701 u[43] + 230 u[44] + 306 u[45] + 713 u[46]
   + 265 u[47] + 886 u[48] + 7 u[49] + 366 u[50] + 967 u[51] + 972 u[52]
   + 219 u[53] + 704 u[54] + 983 u[55] + 352 u[56] + 210 u[57] + 403 u[58]
   + 745 u[59] <= 19867
 primal_lower23: 680 u[0] + 244 u[1] + 130 u[2] + 51 u[3] + 460 u[4]
   + 130 u[5] + 741 u[6] + 716 u[7] + 781 u[8] + 802 u[9] + 932 u[10]
   + 955 u[11] + 836 u[12] + 692 u[13] + 637 u[14] + 941 u[15] + 365 u[16]
   + 680 u[17] + 561 u[18] + 190 u[19] + 405 u[20] + 264 u[21] + 692 u[22]
   + 287 u[23] + 109 u[24] + 768 u[25] + 450 u[26] + 712 u[27] + 486 u[28]
   + 567 u[29] + 706 u[30] + 516 u[31] + 868 u[32] + 365 u[33] + 372 u[34]
   + 425 u[35] + 20 u[36] + 261 u[37] + 532 u[38] + 791 u[39] + 711 u[40]
   + 770 u[41] + 366 u[42] + 414 u[43] + 479 u[44] + 531 u[45] + 250 u[46]
   + 418 u[47] + 271 u[48] + 952 u[49] + 511 u[50] + 944 u[51] + 461 u[52]
   + 580 u[53] + 273 u[54] + 816 u[55] + 265 u[56] + 259 u[57] + 796 u[58]
   + 594 u[59] <= 5296
 primal_lower24: 799 u[0] + 976 u[1] + 618 u[2] + 327 u[3] + 44 u[4]
   + 997 u[5] + 101 u[6] + 119 u[7] + 757 u[8] + 390 u[9] + 947 u[10]
   + 255 u[11] + 396 u[12] + 896 u[13] + 212 u[14] + 536 u[15] + 157 u[16]
   + 668 u[17] + 705 u[18] + 290 u[19] + 461 u[20] + 259 u[21] + 628 u[22]
   + 138 u[23] + 924 u[24] + 308 u[25] + 490 u[26] + 947 u[27] + 5 u[28]
   + 91 u[29] + 121 u[30] + 535 u[31] + 675 u[32] + 465 u[33] + 940 u[34]
   + 301 u[35] + 332 u[36] + 104 u[37] + 124 u[38] + 42 u[39] + 383 u[40]
   + 205 u[41] + 678 u[42] + 657 u[43] + 271 u[44] + 518 u[45] + 801 u[46]
   + 869 u[47] + 351 u[48] + 364 u[49] + 342 u[50] + 692 u[51] + 749 u[52]
   + 336 u[53] + 888 u[54] + 331 u[55] + 465 u[56] + 966 u[57] + 964 u[58]
   + 270 u[59] <= 997
 primal_lower25: 612 u[0] + 765 u[1] + 815 u[2] + 884 u[3] + 297 u[4]
   + 458 u[5] + 850 u[6] + 580 u[7] + 162 u[8] + 115 u[9] + 736 u[10]
   + 804 u[11] + 577 u[12] + 957 u[13] + 449 u[14] + 645 u[15] + 250 u[16]
   + 17 u[17] + 846 u[18] + 815 u[19] + 962 u[20] + 984 u[21] + 481 u[22]
   + 903 u[23] + 969 u[24] + 89 u[25] + 799 u[26] + 224 u[27] + 66 u[28]
   + 536 u[29] + 990 u[30] + 612 u[31] + 592 u[32] + 406 u[33] + 57 u[34]
   + 234 u[35] + 833 u[36] + 573 u[37] + 553 u[38] + 423 u[39] + 380 u[40]
   + 418 u[41] + 683 u[42] + 718 u[43] + 372 u[44] + 691 u[45] + 206 u[46]
   + 698 u[47] + 860 u[48] + 665 u[49] + 571 u[50] + 945 u[51] + 402 u[52]
   + 709 u[53] + 701 u[54] + 784 u[55] + 918 u[56] + 651 u[57] + 889 u[58]
   + 27 u[59] <= 23472
 primal_lower26: 908 u[0] + 976 u[1] + 270 u[2] + 599 u[3] + 688 u[4]
   + 710 u[5] + 729 u[6] + 856 u[7] + 585 u[8] + 934 u[9] + 952 u[10]
   + 151 u[11] + 752 u[12] + 200 u[13] + 617 u[14] + 625 u[15] + 153 u[16]
   + 452 u[17] + 653 u[18] + 730 u[19] + 17 u[20] + 436 u[21] + 352 u[22]
   + 115 u[23] + 545 u[24] + 652 u[25] + 646 u[26] + 188 u[27] + 474 u[28]
   + 827 u[29] + 686 u[30] + 936 u[31] + 440 u[32] + 505 u[33] + 680 u[34]
   + 589 u[35] + 960 u[36] + 889 u[37] + 408 u[38] + 99 u[39] + 163 u[40]
   + 638 u[41] + 818 u[42] + 386 u[43] + 219 u[44] + 567 u[45] + 238 u[46]
   + 54 u[47] + 91 u[48] + 524 u[49] + 179 u[50] + 196 u[51] + 185 u[52]
   + 16 u[53] + 829 u[54] + 372 u[55] + 525 u[56] + 271 u[57] + 8 u[58]
   + 398 u[59] <= 19774
 primal_lower27: 388 u[0] + 848 u[1] + 174 u[2] + 79 u[3] + 512 u[4]
   + 574 u[5] + 49 u[6] + 856 u[7] + 521 u[8] + 574 u[9] + 408 u[10]
   + 191 u[11] + 872 u[12] + 48 u[13] + 425 u[14] + 945 u[15] + 161 u[16]
   + 492 u[17] + 269 u[18] + 130 u[19] + 753 u[20] + 492 u[21] + 88 u[22]
   + 563 u[23] + 257 u[24] + 820 u[25] + 574 u[26] + 348 u[27] + 274 u[28]
   + 379 u[29] + 542 u[30] + 960 u[31] + 464 u[32] + 681 u[33] + 280 u[34]
   + 341 u[35] + 552 u[36] + 553 u[37] + 848 u[38] + 515 u[39] + 395 u[40]
   + 326 u[41] + 162 u[42] + 170 u[43] + 467 u[44] + 87 u[45] + 726 u[46]
   + 782 u[47] + 683 u[48] + 756 u[49] + 643 u[50] + 396 u[51] + 177 u[52]
   + 624 u[53] + 469 u[54] + 36 u[55] + 717 u[56] + 279 u[57] + 72 u[58]
   + 918 u[59] <= 4614
 primal_lower28: 279 u[0] + 51 u[1] + 953 u[2] + 458 u[3] + 475 u[4]
   + 865 u[5] + 676 u[6] + 419 u[7] + 804 u[8] + 257 u[9] + 195 u[10]
   + 338 u[11] + 203 u[12] + 627 u[13] + 124 u[14] + 908 u[15] + 908 u[16]
   + 167 u[17] + 992 u[18] + 829 u[19] + 980 u[20] + 743 u[21] + 395 u[22]
   + 646 u[23] + 764 u[24] + 583 u[25] + 417 u[26] + 103 u[27] + 181 u[28]
   + 550 u[29] + 233 u[30] + 635 u[31] + 499 u[32] + 308 u[33] + 955 u[34]
   + 648 u[35] + 67 u[36] + 356 u[37] + 971 u[38] + 838 u[39] + 558 u[40]
   + 305 u[41] + 765 u[42] + 245 u[43] + 198 u[44] + 314 u[45] + 593 u[46]
   + 841 u[47] + 230 u[48] + 447 u[49] + 382 u[50] + 751 u[51] + 284 u[52]
   + 683 u[53] + 200 u[54] + 47 u[55] + 120 u[56] + 146 u[57] + 43 u[58]
   + 913 u[59] <= 14732
 primal_lower29: 483 u[0] + 796 u[1] + 582 u[2] + 75 u[3] + 552 u[4]
   + 689 u[5] + 609 u[6] + 563 u[7] + 857 u[8] + 490 u[9] + 63 u[10]
   + 51 u[11] + 48 u[12] + 188 u[13] + 184 u[14] + 612 u[15] + 681 u[16]
   + 792 u[17] + 5 u[18] + 486 u[19] + 513 u[20] + 287 u[21] + 680 u[22]
   + 470 u[23] + 112 u[24] + 104 u[25] + 38 u[26] + 199 u[27] + 169 u[28]
   + 695 u[29] + 85 u[30] + 139 u[31] + 47 u[32] + 341 u[33] + 256 u[34]
   + 353 u[35] + 448 u[36] + 500 u[37] + 672 u[38] + 446 u[39] + 803 u[40]
   + 641 u[41] + 50 u[42] + 405 u[43] + 947 u[44] + 50 u[45] + 333 u[46]
   + 985 u[47] + 507 u[48] + 944 u[49] + 794 u[50] + 368 u[51] + 105 u[52]
   + 228 u[53] + 388 u[54] + 359 u[55] + 613 u[56] + 298 u[57] + 504 u[58]
   + 866 u[59] <= 12774
 primal_lower30: 901 u[0] + 761 u[1] + 903 u[2] + 80 u[3] + 905 u[4]
   + 583 u[5] + 226 u[6] + 217 u[7] + 194 u[8] + 247 u[9] + 289 u[10]
   + 336 u[11] + 425 u[12] + 361 u[13] + 786 u[14] + 562 u[15] + 634 u[16]
   + 333 u[17] + 366 u[18] + 155 u[19] + 266 u[20] + 221 u[21] + 457 u[22]
   + 268 u[23] + 474 u[24] + 845 u[25] + 599 u[26] + 613 u[27] + 659 u[28]
   + 316 u[29] + 71 u[30] + 49 u[31] + 625 u[32] + 450 u[33] + 313 u[34]
   + 134 u[35] + 97 u[36] + 922 u[37] + 185 u[38] + 876 u[39] + 948 u[40]
   + 695 u[41] + 59 u[42] + 483 u[43] + 892 u[44] + 64 u[45] + 511 u[46]
   + 399 u[47] + 932 u[48] + 637 u[49] + 916 u[50] + 621 u[51] + 914 u[52]
   + 913 u[53] + 982 u[54] + 133 u[55] + 990 u[56] + 8 u[57] + 569 u[58]
   + 551 u[59] <= 19947
 primal_lower31: 327 u[0] + 3 u[1] + 913 u[2] + 186 u[3] + 203 u[4]
   + 233 u[5] + 868 u[6] + 59 u[7] + 492 u[8] + 201 u[9] + 195 u[10]
   + 890 u[11] + 907 u[12] + 635 u[13] + 308 u[14] + 596 u[15] + 324 u[16]
   + 751 u[17] + 744 u[18] + 477 u[19] + 20 u[20] + 463 u[21] + 435 u[22]
   + 926 u[23] + 740 u[24] + 431 u[25] + 489 u[26] + 927 u[27] + 29 u[28]
   + 318 u[29] + 281 u[30] + 587 u[31] + 307 u[32] + 316 u[33] + 59 u[34]
   + 96 u[35] + 507 u[36] + 484 u[37] + 147 u[38] + 190 u[39] + 158 u[40]
   + 129 u[41] + 253 u[42] + 669 u[43] + 350 u[44] + 690 u[45] + 657 u[46]
   + 33 u[47] + 6 u[48] + 807 u[49] + 918 u[50] + 719 u[51] + 828 u[52]
   + 899 u[53] + 792 u[54] + 775 u[55] + 360 u[56] + 290 u[57] + 699 u[58]
   + 857 u[59] <= 9317
 primal_lower32: 806 u[0] + 258 u[1] + 312 u[2] + 513 u[3] + 234 u[4]
   + 840 u[5] + 331 u[6] + 338 u[7] + 403 u[8] + 328 u[9] + 706 u[10]
   + 529 u[11] + 642 u[12] + 770 u[13] + 211 u[14] + 699 u[15] + 931 u[16]
   + 478 u[17] + 903 u[18] + 772 u[19] + 619 u[20] + 926 u[21] + 698 u[22]
   + 973 u[23] + 75 u[24] + 934 u[25] + 648 u[26] + 974 u[27] + 596 u[28]
   + 773 u[29] + 848 u[30] + 994 u[31] + 410 u[32] + 99 u[33] + 890 u[34]
   + 855 u[35] + 738 u[36] + 683 u[37] + 18 u[38] + 413 u[39] + 53 u[40]
   + 224 u[41] + 788 u[42] + 836 u[43] + 229 u[44] + 953 u[45] + 968 u[46]
   + 144 u[47] + 613 u[48] + 22 u[49] + 501 u[50] + 774 u[51] + 123 u[52]
   + 194 u[53] + 263 u[54] + 958 u[55] + 391 u[56] + 185 u[57] + 226 u[58]
   + 224 u[59] <= 10945
 primal_lower33: 85 u[0] + 262 u[1] + 488 u[2] + 573 u[3] + 962 u[4]
   + 83 u[5] + 171 u[6] + 573 u[7] + 203 u[8] + 148 u[9] + 585 u[10]
   + 205 u[11] + 586 u[12] + 518 u[13] + 930 u[14] + 270 u[15] + 235 u[16]
   + 186 u[17] + 551 u[18] + 184 u[19] + 507 u[20] + 105 u[21] + 90 u[22]
   + 496 u[23] + 370 u[24] + 426 u[25] + 328 u[26] + 601 u[27] + 835 u[28]
   + 897 u[29] + 167 u[30] + 941 u[31] + 337 u[32] + 455 u[33] + 778 u[34]
   + 379 u[35] + 730 u[36] + 374 u[37] + 330 u[38] + 568 u[39] + 949 u[40]
   + 803 u[41] + 988 u[42] + 871 u[43] + 237 u[44] + 884 u[45] + 303 u[46]
   + 931 u[47] + 429 u[48] + 890 u[49] + 852 u[50] + 962 u[51] + 107 u[52]
   + 158 u[53] + 38 u[54] + 113 u[55] + 239 u[56] + 108 u[57] + 938 u[58]
   + 196 u[59] <= 19005
 primal_lower34: 962 u[0] + 523 u[1] + 309 u[2] + 362 u[3] + 127 u[4]
   + 520 u[5] + 624 u[6] + 562 u[7] + 448 u[8] + 161 u[9] + 878 u[10]
   + 322 u[11] + 623 u[12] + 715 u[13] + 399 u[14] + 499 u[15] + 744 u[16]
   + 951 u[17] + 892 u[18] + 37 u[19] + 240 u[20] + 430 u[21] + 887 u[22]
   + 965 u[23] + 831 u[24] + 79 u[25] + 317 u[26] + 766 u[27] + 120 u[28]
   + 270 u[29] + 28 u[30] + 154 u[31] + 86 u[32] + 940 u[33] + 871 u[34]
   + 424 u[35] + 759 u[36] + 923 u[37] + 375 u[38] + 725 u[39] + 810 u[40]
   + 592 u[41] + 937 u[42] + 204 u[43] + 226 u[44] + 465 u[45] + 244 u[46]
   + 144 u[47] + 706 u[48] + 815 u[49] + 281 u[50] + 511 u[51] + 512 u[52]
   + 859 u[53] + 99 u[54] + 598 u[55] + 980 u[56] + 761 u[57] + 375 u[58]
   + 633 u[59] <= 10533
 primal_lower35: 126 u[0] + 434 u[1] + 216 u[2] + 833 u[3] + 202 u[4]
   + 88 u[5] + 347 u[6] + 66 u[7] + 763 u[8] + 192 u[9] + 962 u[10]
   + 945 u[11] + 450 u[12] + 74 u[13] + 643 u[14] + 579 u[15] + 427 u[16]
   + 158 u[17] + 383 u[18] + 452 u[19] + 635 u[20] + 662 u[21] + 42 u[22]
   + 269 u[23] + 731 u[24] + 790 u[25] + 184 u[26] + 766 u[27] + 852 u[28]
   + 717 u[29] + 464 u[30] + 354 u[31] + 42 u[32] + 291 u[33] + 802 u[34]
   + 199 u[35] + 746 u[36] + 643 u[37] + 490 u[38] + 741 u[39] + 37 u[40]
   + 736 u[41] + 244 u[42] + 116 u[43] + 429 u[44] + 713 u[45] + 624 u[46]
   + 392 u[47] + 77 u[48] + 550 u[49] + 389 u[50] + 358 u[51] + 355 u[52]
   + 634 u[53] + 999 u[54] + 838 u[55] + 663 u[56] + 89 u[57] + 866 u[58]
   + 688 u[59] <= 14278
 primal_lower36: 543 u[0] + 128 u[1] + 858 u[2] + 391 u[3] + 532 u[4]
   + 333 u[5] + 725 u[6] + 447 u[7] + 725 u[8] + 166 u[9] + 883 u[10]
   + 231 u[11] + 900 u[12] + 928 u[13] + 708 u[14] + 944 u[15] + 725 u[16]
   + 644 u[17] + 153 u[18] + 194 u[19] + 613 u[20] + 803 u[21] + 980 u[22]
   + 802 u[23] + 260 u[24] + 796 u[25] + 946 u[26] + 563 u[27] + 741 u[28]
   + 195 u[29] + 681 u[30] + 727 u[31] + 619 u[32] + 633 u[33] + 596 u[34]
   + 189 u[35] + 124 u[36] + 640 u[37] + 908 u[38] + 738 u[39] + 375 u[40]
   + 125 u[41] + 518 u[42] + 89 u[43] + 359 u[44] + 510 u[45] + 897 u[46]
   + 669 u[47] + 863 u[48] + 308 u[49] + 174 u[50] + 684 u[51] + 189 u[52]
   + 560 u[53] + 640 u[54] + 539 u[55] + 9 u[56] + 598 u[57] + 988 u[58]
   + 502 u[59] <= 16654
 primal_lower37: 963 u[0] + 724 u[1] + 990 u[2] + 547 u[3] + 200 u[4]
   + 321 u[5] + 993 u[6] + 515 u[7] + 729 u[8] + 370 u[9] + 295 u[10]
   + 179 u[11] + 336 u[12] + 876 u[13] + 416 u[14] + 812 u[15] + 265 u[16]
   + 888 u[17] + 605 u[18] + 814 u[19] + 513 u[20] + 879 u[21] + 720 u[22]
   + 46 u[23] + 24 u[24] + 128 u[25] + 190 u[26] + 63 u[27] + 161 u[28]
   + 479 u[29] + 293 u[30] + 123 u[31] + 743 u[32] + 365 u[33] + 136 u[34]
   + 329 u[35] + 664 u[36] + 332 u[37] + 440 u[38] + 150 u[39] + 619 u[40]
   + 577 u[41] + 26 u[42] + 685 u[43] + 675 u[44] + 362 u[45] + 941 u[46]
   + 361 u[47] + 179 u[48] + 584 u[49] + 562 u[50] + 632 u[51] + 481 u[52]
   + 188 u[53] + 276 u[54] + 511 u[55] + 557 u[56] + 858 u[57] + 752 u[58]
   + 666 u[59] <= 19405
 primal_lower38: 904 u[0] + 628 u[1] + 122 u[2] + 91 u[3] + 620 u[4]
   + 986 u[5] + 309 u[6] + 644 u[7] + 637 u[8] + 642 u[9] + 356 u[10]
   + 635 u[11] + 572 u[12] + 660 u[13] + 549 u[14] + 205 u[15] + 373 u[16]
   + 688 u[17] + 697 u[18] + 430 u[19] + 869 u[20] + 440 u[21] + 564 u[22]
   + 279 u[23] + 213 u[24] + 832 u[25] + 290 u[26] + 880 u[27] + 238 u[28]
   + 823 u[29] + 738 u[30] + 892 u[31] + 420 u[32] + 429 u[33] + 636 u[34]
   + 513 u[35] + 780 u[36] + 493 u[37] + 692 u[38] + 991 u[39] + 47 u[40]
   + 938 u[41] + 302 u[42] + 414 u[43] + 951 u[44] + 507 u[45] + 210 u[46]
   + 386 u[47] + 343 u[48] + 1000 u[49] + 935 u[50] + 912 u[51] + 565 u[52]
   + 484 u[53] + 129 u[54] + 216 u[55] + 753 u[56] + 171 u[57] + 492 u[58]
   + 730 u[59] <= 5540
 primal_lower39: 378 u[0] + 134 u[1] + 588 u[2] + 125 u[3] + 902 u[4]
   + 900 u[5] + 223 u[6] + 894 u[7] + 503 u[8] + 836 u[9] + 430 u[10]
   + 813 u[11] + 158 u[12] + 262 u[13] + 831 u[14] + 631 u[15] + 943 u[16]
   + 642 u[17] + 299 u[18] + 760 u[19] + 23 u[20] + 658 u[21] + 910 u[22]
   + 249 u[23] + 631 u[24] + 722 u[25] + 556 u[26] + 970 u[27] + 88 u[28]
   + 753 u[29] + 204 u[30] + 198 u[31] + 646 u[32] + 951 u[33] + 102 u[34]
   + 235 u[35] + 94 u[36] + 703 u[37] + 38 u[38] + 265 u[39] + 521 u[40]
   + 924 u[41] + 336 u[42] + 976 u[43] + 817 u[44] + 357 u[45] + 36 u[46]
   + 60 u[47] + 41 u[48] + 730 u[49] + 729 u[50] + 834 u[51] + 127 u[52]
   + 750 u[53] + 971 u[54] + 754 u[55] + 747 u[56] + 189 u[57] + 598 u[58]
   + 372 u[59] <= 15558
 primal_lower40: 674 u[0] + 86 u[1] + 108 u[2] + 197 u[3] + 862 u[4]
   + 380 u[5] + 975 u[6] + 918 u[7] + 687 u[8] + 804 u[9] + 270 u[10]
   + 29 u[11] + 478 u[12] + 782 u[13] + 471 u[14] + 679 u[15] + 335 u[16]
   + 986 u[17] + 643 u[18] + 800 u[19] + 31 u[20] + 146 u[21] + 638 u[22]
   + 465 u[23] + 879 u[24] + 130 u[25] + 180 u[26] + 426 u[27] + 120 u[28]
   + 713 u[29] + 484 u[30] + 486 u[31] + 830 u[32] + 535 u[33] + 30 u[34]
   + 579 u[35] + 262 u[36] + 263 u[37] + 966 u[38] + 465 u[39] + 585 u[40]
   + 676 u[41] + 904 u[42] + 152 u[43] + 697 u[44] + 165 u[45] + 836 u[46]
   + 524 u[47] + 905 u[48] + 330 u[49] + 457 u[50] + 970 u[51] + 791 u[52]
   + 966 u[53] + 179 u[54] + 802 u[55] + 947 u[56] + 85 u[57] + 326 u[58]
   + 532 u[59] <= 5270
 primal_lower41: 599 u[0] + 627 u[1] + 993 u[2] + 698 u[3] + 955 u[4]
   + 473 u[5] + 148 u[6] + 267 u[7] + 284 u[8] + 121 u[9] + 259 u[10]
   + 90 u[11] + 987 u[12] + 643 u[13] + 868 u[14] + 740 u[15] + 940 u[16]
   + 487 u[17] + 496 u[18] + 533 u[19] + 180 u[20] + 359 u[21] + 139 u[22]
   + 94 u[23] + 556 u[24] + 919 u[25] + 129 u[26] + 959 u[27] + 661 u[28]
   + 590 u[29] + 153 u[30] + 155 u[31] + 75 u[32] + 308 u[33] + 251 u[34]
   + 376 u[35] + 523 u[36] + 916 u[37] + 923 u[38] + 206 u[39] + 534 u[40]
   + 433 u[41] + 733 u[42] + 821 u[43] + 886 u[44] + 274 u[45] + 513 u[46]
   + 745 u[47] + 142 u[48] + 887 u[49] + 910 u[50] + 647 u[51] + 988 u[52]
   + 675 u[53] + 976 u[54] + 679 u[55] + 192 u[56] + 98 u[57] + 611 u[58]
   + 737 u[59] <= 10720
 primal_lower42: 24 u[0] + 956 u[1] + 722 u[2] + 203 u[3] + 692 u[4]
   + 658 u[5] + 101 u[6] + 300 u[7] + 5 u[8] + 858 u[9] + 580 u[10]
   + 643 u[11] + 532 u[12] + 100 u[13] + 245 u[14] + 165 u[15] + 429 u[16]
   + 456 u[17] + 33 u[18] + 254 u[19] + 981 u[20] + 312 u[21] + 364 u[22]
   + 79 u[23] + 349 u[24] + 528 u[25] + 10 u[26] + 408 u[27] + 790 u[28]
   + 655 u[29] + 674 u[30] + 956 u[31] + 684 u[32] + 813 u[33] + 884 u[34]
   + 889 u[35] + 140 u[36] + 141 u[37] + 948 u[38] + 47 u[39] + 471 u[40]
   + 770 u[41] + 254 u[42] + 134 u[43] + 63 u[44] + 475 u[45] + 954 u[46]
   + 298 u[47] + 375 u[48] + 840 u[49] + 815 u[50] + 832 u[51] + 365 u[52]
   + 308 u[53] + 401 u[54] + 696 u[55] + 993 u[56] + 955 u[57] + 52 u[58]
   + 754 u[59] <= 4902
 primal_lower43: 177 u[0] + 805 u[1] + 243 u[2] + 876 u[3] + 301 u[4]
   + 515 u[5] + 438 u[6] + 733 u[7] + 846 u[8] + 147 u[9] + 253 u[10]
   + 268 u[11] + 413 u[12] + 277 u[13] + 198 u[14] + 446 u[15] + 206 u[16]
   + 473 u[17] + 154 u[18] + 311 u[19] + 46 u[20] + 369 u[21] + 589 u[22]
   + 248 u[23] + 694 u[24] + 33 u[25] + 211 u[26] + 441 u[27] + 303 u[28]
   + 784 u[29] + 603 u[30] + 309 u[31] + 37 u[32] + 190 u[33] + 429 u[34]
   + 898 u[35] + 437 u[36] + 566 u[37] + 917 u[38] + 104 u[39] + 848 u[40]
   + 363 u[41] + 727 u[42] + 63 u[43] + 968 u[44] + 804 u[45] + 763 u[46]
   + 203 u[47] + 616 u[48] + 337 u[49] + 264 u[50] + 393 u[51] + 30 u[52]
   + 493 u[53] + 10 u[54] + 985 u[55] + 418 u[56] + 284 u[57] + 861 u[58]
   + 195 u[59] <= 17275
 primal_lower44: 32 u[0] + 145 u[1] + 579 u[2] + 584 u[3] + 573 u[4]
   + 566 u[5] + 750 u[6] + 328 u[7] + 726 u[8] + 159 u[9] + 428 u[10]
   + 648 u[11] + 61 u[12] + 617 u[13] + 237 u[14] + u[15] + 710 u[16]
   + 645 u[17] + 498 u[18] + 243 u[19] + 158 u[20] + 804 u[21] + 493 u[22]
   + 819 u[23] + 101 u[24] + 349 u[25] + 275 u[26] + 812 u[27] + 886 u[28]
   + 908 u[29] + 994 u[30] + 240 u[31] + 388 u[32] + 410 u[33] + 997 u[34]
   + 998 u[35] + 917 u[36] + 201 u[37] + 317 u[38] + 499 u[39] + 592 u[40]
   + 454 u[41] + 87 u[42] + 90 u[43] + 152 u[44] + 927 u[45] + 466 u[46]
   + 902 u[47] + 424 u[48] + 605 u[49] + 927 u[50] + 29 u[51] + 102 u[52]
   + 929 u[53] + 825 u[54] + 364 u[55] + 378 u[56] + 71 u[57] + 701 u[58]
   + 599 u[59] <= 14860
 primal_lower45: 347 u[0] + 588 u[1] + 806 u[2] + 291 u[3] + 16 u[4]
   + 913 u[5] + 305 u[6] + 395 u[7] + 721 u[8] + 634 u[9] + 391 u[10]
   + 379 u[11] + 624 u[12] + 292 u[13] + 976 u[14] + 196 u[15] + 513 u[16]
   + 448 u[17] + 269 u[18] + 390 u[19] + 801 u[20] + 119 u[21] + 448 u[22]
   + 862 u[23] + 744 u[24] + 432 u[25] + 846 u[26] + 687 u[27] + 665 u[28]
   + 431 u[29] + 341 u[30] + 395 u[31] + 359 u[32] + 685 u[33] + 296 u[34]
   + 641 u[35] + 360 u[36] + 12 u[37] + 800 u[38] + 102 u[39] + 979 u[40]
   + 505 u[41] + 554 u[42] + 773 u[43] + 851 u[44] + 98 u[45] + 949 u[46]
   + 321 u[47] + 435 u[48] + 1000 u[49] + 530 u[50] + 352 u[51] + 753 u[52]
   + 852 u[53] + 716 u[54] + 303 u[55] + 685 u[56] + 34 u[57] + 920 u[58]
   + 458 u[59] <= 21058
 primal_lower46: 575 u[0] + 576 u[1] + 18 u[2] + 695 u[3] + 940 u[4]
   + 941 u[5] + 893 u[6] + 239 u[7] + 733 u[8] + 294 u[9] + 803 u[10]
   + 639 u[11] + 292 u[12] + 592 u[13] + 132 u[14] + 832 u[15] + 741 u[16]
   + 76 u[17] + 665 u[18] + 370 u[19] + 173 u[20] + 171 u[21] + 420 u[22]
   + 490 u[23] + 948 u[24] + 604 u[25] + 258 u[26] + 995 u[27] + 861 u[28]
   + 259 u[29] + 729 u[30] + 663 u[31] + 171 u[32] + 769 u[33] + 76 u[34]
   + 221 u[35] + 244 u[36] + 608 u[37] + 244 u[38] + 218 u[39] + 415 u[40]
   + 429 u[41] + 894 u[42] + 81 u[43] + 7 u[44] + 622 u[45] + 593 u[46]
   + 741 u[47] + 751 u[48] + 244 u[49] + 110 u[50] + 420 u[51] + 501 u[52]
   + 704 u[53] + 136 u[54] + 627 u[55] + 97 u[56] + 622 u[57] + 588 u[58]
   + 318 u[59] <= 4844
 primal_lower47: 851 u[0] + 799 u[1] + 693 u[2] + 142 u[3] + 199 u[4]
   + 509 u[5] + 768 u[6] + 623 u[7] + 704 u[8] + 501 u[9] + 223 u[10]
   + 398 u[11] + 343 u[12] + 223 u[13] + 560 u[14] + 960 u[15] + 104 u[16]
   + 595 u[17] + 140 u[18] + 97 u[19] + 504 u[20] + 843 u[21] + 143 u[22]
   + 522 u[23] + 840 u[24] + 323 u[25] + 429 u[26] + 491 u[27] + 473 u[28]
   + 746 u[29] + 885 u[30] + 223 u[31] + 423 u[32] + 784 u[33] + 527 u[34]
   + 724 u[35] + 759 u[36] + 200 u[37] + 303 u[38] + 978 u[39] + 938 u[40]
   + 669 u[41] + 369 u[42] + 313 u[43] + 482 u[44] + 70 u[45] + 525 u[46]
   + 461 u[47] + 506 u[48] + 531 u[49] + 154 u[50] + 403 u[51] + 680 u[52]
   + 935 u[53] + 380 u[54] + 459 u[55] + 804 u[56] + 766 u[57] + 879 u[58]
   + 629 u[59] <= 10501
 primal_lower48: 677 u[0] + 577 u[1] + 479 u[2] + 96 u[3] + u[4] + 599 u[5]
   + 386 u[6] + 849 u[7] + 994 u[8] + 311 u[9] + 865 u[10] + 16 u[11]
   + 273 u[12] + 345 u[13] + 626 u[14] + 370 u[15] + 490 u[16] + 357 u[17]
   + 742 u[18] + 427 u[19] + 490 u[20] + 389 u[21] + 785 u[22] + 948 u[23]
   + 938 u[24] + 21 u[25] + 943 u[26] + 573 u[27] + 307 u[28] + 204 u[29]
   + 95 u[30] + 753 u[31] + 641 u[32] + 290 u[33] + 241 u[34] + 430 u[35]
   + 465 u[36] + 682 u[37] + 265 u[38] + 196 u[39] + 12 u[40] + 335 u[41]
   + 571 u[42] + 131 u[43] + 164 u[44] + 784 u[45] + 87 u[46] + 567 u[47]
   + 84 u[48] + 45 u[49] + 716 u[50] + 405 u[51] + 450 u[52] + 881 u[53]
   + 742 u[54] + 13 u[55] + 94 u[56] + 312 u[57] + 337 u[58] + 999 u[59]
   <= 17910
 primal_lower49: 57 u[0] + 77 u[1] + 619 u[2] + 196 u[3] + 261 u[4]
   + 779 u[5] + 414 u[6] + 261 u[7] + 710 u[8] + 883 u[9] + 29 u[10]
   + 652 u[11] + 149 u[12] + 5 u[13] + 782 u[14] + 22 u[15] + 678 u[16]
   + 913 u[17] + 170 u[18] + 647 u[19] + 86 u[20] + 265 u[21] + 485 u[22]
   + 592 u[23] + 438 u[24] + 169 u[25] + 987 u[26] + 881 u[27] + 759 u[28]
   + 24 u[29] + 3 u[30] + 285 u[31] + 653 u[32] + 854 u[33] + 85 u[34]
   + 618 u[35] + 949 u[36] + 126 u[37] + 685 u[38] + 712 u[39] + 528 u[40]
   + 531 u[41] + 903 u[42] + 167 u[43] + 920 u[44] + 588 u[45] + 787 u[46]
   + 859 u[47] + 600 u[48] + 129 u[49] + 784 u[50] + 753 u[51] + 646 u[52]
   + 605 u[53] + 450 u[54] + 49 u[55] + 282 u[56] + 916 u[57] + 437 u[58]
   + 59 u[59] <= 14476
 primal_lower50: 150 u[0] + 823 u[1] + 977 u[2] + 6 u[3] + 491 u[4]
   + 324 u[5] + 308 u[6] + 766 u[7] + 452 u[8] + 397 u[9] + 146 u[10]
   + 646 u[11] + 819 u[12] + 135 u[13] + 331 u[14] + 943 u[15] + 828 u[16]
   + 851 u[17] + 688 u[18] + 625 u[19] + 484 u[20] + 82 u[21] + 451 u[22]
   + 25 u[23] + 579 u[24] + 635 u[25] + 433 u[26] + 570 u[27] + 716 u[28]
   + 378 u[29] + 104 u[30] + 318 u[31] + 290 u[32] + 728 u[33] + 267 u[34]
   + 948 u[35] + 531 u[36] + 527 u[37] + 163 u[38] + 385 u[39] + 454 u[40]
   + 60 u[41] + 565 u[42] + 248 u[43] + 806 u[44] + 605 u[45] + 488 u[46]
   + 236 u[47] + 510 u[48] + 659 u[49] + 533 u[50] + 59 u[51] + 60 u[52]
   + 919 u[53] + 967 u[54] + 274 u[55] + 408 u[56] + 69 u[57] + 459 u[58]
   + 541 u[59] <= 977
 primal_lower51: 562 u[0] + 654 u[1] + 564 u[2] + 157 u[3] + 798 u[4]
   + 28 u[5] + 751 u[6] + 246 u[7] + 487 u[8] + 460 u[9] + 46 u[10]
   + 221 u[11] + 462 u[12] + 566 u[13] + 471 u[14] + 631 u[15] + 703 u[16]
   + 162 u[17] + 923 u[18] + 472 u[19] + 903 u[20] + 802 u[21] + 614 u[22]
   + 817 u[23] + 975 u[24] + 314 u[25] + 164 u[26] + 642 u[27] + 56 u[28]
   + 225 u[29] + 308 u[30] + 782 u[31] + 174 u[32] + 399 u[33] + 62 u[34]
   + 739 u[35] + 390 u[36] + 207 u[37] + 382 u[38] + 337 u[39] + 793 u[40]
   + 52 u[41] + 48 u[42] + 408 u[43] + 57 u[44] + 821 u[45] + 684 u[46]
   + 84 u[47] + 785 u[48] + 994 u[49] + 481 u[50] + 370 u[51] + 679 u[52]
   + 78 u[53] + 115 u[54] + 914 u[55] + 843 u[56] + 717 u[57] + 262 u[58]
   + 620 u[59] <= 4743
 primal_lower52: 862 u[0] + 754 u[1] + 664 u[2] + 873 u[3] + 570 u[4]
   + 552 u[5] + 195 u[6] + 922 u[7] + 963 u[8] + 816 u[9] + 482 u[10]
   + 977 u[11] + 762 u[12] + 674 u[13] + 427 u[14] + 27 u[15] + 203 u[16]
   + 46 u[17] + 711 u[18] + 300 u[19] + 563 u[20] + 942 u[21] + 930 u[22]
   + 389 u[23] + 795 u[24] + 494 u[25] + 152 u[26] + 278 u[27] + 116 u[28]
   + 237 u[29] + 480 u[30] + 226 u[31] + 810 u[32] + 155 u[33] + 650 u[34]
   + 967 u[35] + 802 u[36] + 555 u[37] + 170 u[38] + 125 u[39] + 573 u[40]
   + 504 u[41] + 68 u[42] + 100 u[43] + 461 u[44] + 185 u[45] + 976 u[46]
   + 888 u[47] + 173 u[48] + 662 u[49] + 229 u[50] + 38 u[51] + 323 u[52]
   + 954 u[53] + 599 u[54] + 838 u[55] + 415 u[56] + 881 u[57] + 42 u[58]
   + 864 u[59] <= 5231
 primal_lower53: 932 u[0] + 792 u[1] + 678 u[2] + 415 u[3] + 472 u[4]
   + 350 u[5] + 225 u[6] + 568 u[7] + 337 u[8] + 70 u[9] + 368 u[10]
   + 575 u[11] + 544 u[12] + 8 u[13] + 937 u[14] + 921 u[15] + 921 u[16]
   + 772 u[17] + 629 u[18] + 210 u[19] + 873 u[20] + 916 u[21] + 464 u[22]
   + 51 u[23] + 265 u[24] + 884 u[25] + 870 u[26] + 556 u[27] + 498 u[28]
   + 739 u[29] + 302 u[30] + 968 u[31] + 8 u[32] + 257 u[33] + 760 u[34]
   + 301 u[35] + 736 u[36] + 889 u[37] + 928 u[38] + 563 u[39] + 787 u[40]
   + 398 u[41] + 578 u[42] + 858 u[43] + 667 u[44] + 767 u[45] + 518 u[46]
   + 270 u[47] + 867 u[48] + 436 u[49] + 323 u[50] + 172 u[51] + 337 u[52]
   + 496 u[53] + 261 u[54] + 468 u[55] + 301 u[56] + 863 u[57] + 784 u[58]
   + 6 u[59] <= 21806
 primal_lower54: 800 u[0] + 305 u[1] + 835 u[2] + 440 u[3] + 61 u[4]
   + 214 u[5] + 78 u[6] + 424 u[7] + 238 u[8] + 863 u[9] + 60 u[10]
   + 336 u[11] + 485 u[12] + 145 u[13] + 413 u[14] + 921 u[15] + 302 u[16]
   + 341 u[17] + 666 u[18] + 595 u[19] + 614 u[20] + 148 u[21] + 117 u[22]
   + 619 u[23] + 597 u[24] + 405 u[25] + 67 u[26] + 852 u[27] + 54 u[28]
   + 84 u[29] + 282 u[30] + 928 u[31] + 452 u[32] + 458 u[33] + 37 u[34]
   + 510 u[35] + 901 u[36] + 689 u[37] + 877 u[38] + 371 u[39] + 280 u[40]
   + 718 u[41] + 711 u[42] + 402 u[43] + 24 u[44] + 63 u[45] + 18 u[46]
   + 574 u[47] + 976 u[48] + 565 u[49] + 887 u[50] + 413 u[51] + 326 u[52]
   + 777 u[53] + 401 u[54] + 628 u[55] + 714 u[56] + 63 u[57] + 877 u[58]
   + 927 u[59] <= 4654
 primal_lower55: 617 u[0] + 370 u[1] + 956 u[2] + 761 u[3] + 878 u[4]
   + 751 u[5] + 319 u[6] + 81 u[7] + 327 u[8] + 432 u[9] + 141 u[10]
   + 457 u[11] + 638 u[12] + 690 u[13] + 958 u[14] + 450 u[15] + 127 u[16]
   + 158 u[17] + 499 u[18] + 820 u[19] + 647 u[20] + 965 u[21] + 406 u[22]
   + 948 u[23] + 694 u[24] + 814 u[25] + 60 u[26] + 725 u[27] + 343 u[28]
   + 173 u[29] + 555 u[30] + 585 u[31] + 133 u[32] + 947 u[33] + 838 u[34]
   + 631 u[35] + 926 u[36] + 930 u[37] + 854 u[38] + 244 u[39] + 889 u[40]
   + 159 u[41] + 920 u[42] + 243 u[43] + 569 u[44] + 440 u[45] + 243 u[46]
   + 231 u[47] + 161 u[48] + 366 u[49] + 592 u[50] + 606 u[51] + 375 u[52]
   + 114 u[53] + 826 u[54] + 341 u[55] + 211 u[56] + 400 u[57] + 966 u[58]
   + 8 u[59] <= 10502
 primal_lower56: 560 u[0] + 65 u[1] + 571 u[2] + 728 u[3] + 181 u[4]
   + 622 u[5] + 782 u[6] + 608 u[7] + 598 u[8] + 687 u[9] + 332 u[10]
   + 400 u[11] + 525 u[12] + 697 u[13] + 885 u[14] + 201 u[15] + 326 u[16]
   + 29 u[17] + 114 u[18] + 651 u[19] + 590 u[20] + 388 u[21] + 445 u[22]
   + 635 u[23] + 525 u[24] + 941 u[25] + 195 u[26] + 836 u[27] + 758 u[28]
   + 476 u[29] + 882 u[30] + 456 u[31] + 628 u[32] + 514 u[33] + 333 u[34]
   + 134 u[35] + 765 u[36] + 257 u[37] + 373 u[38] + 731 u[39] + 864 u[40]
   + 278 u[41] + 167 u[42] + 834 u[43] + 272 u[44] + 55 u[45] + 42 u[46]
   + 374 u[47] + 888 u[48] + 677 u[49] + 959 u[50] + 189 u[51] + 150 u[52]
   + 409 u[53] + 985 u[54] + 340 u[55] + 914 u[56] + 167 u[57] + 981 u[58]
   + 863 u[59] <= 20554
 primal_lower57: 339 u[0] + 132 u[1] + 54 u[2] + 187 u[3] + 472 u[4]
   + 417 u[5] + 393 u[6] + 419 u[7] + 89 u[8] + 178 u[9] + 447 u[10]
   + 555 u[11] + 592 u[12] + 596 u[13] + 872 u[14] + 188 u[15] + 113 u[16]
   + 344 u[17] + 189 u[18] + 982 u[19] + 529 u[20] + 831 u[21] + 944 u[22]
   + 654 u[23] + 152 u[24] + 552 u[25] + 286 u[26] + 895 u[27] + 585 u[28]
   + 863 u[29] + 661 u[30] + 267 u[31] + 975 u[32] + 797 u[33] + 600 u[34]
   + 857 u[35] + 912 u[36] + 732 u[37] + 520 u[38] + 982 u[39] + 195 u[40]
   + 129 u[41] + 114 u[42] + 893 u[43] + 387 u[44] + 210 u[45] + 461 u[46]
   + 769 u[47] + 251 u[48] + 8 u[49] + 106 u[50] + 704 u[51] + 273 u[52]
   + 604 u[53] + 148 u[54] + 967 u[55] + 317 u[56] + 746 u[57] + 792 u[58]
   + 922 u[59] <= 10049
 primal_lower58: 67 u[0] + 503 u[1] + 997 u[2] + 566 u[3] + 359 u[4]
   + 117 u[5] + 136 u[6] + 695 u[7] + 832 u[8] + 629 u[9] + 175 u[10]
   + 982 u[11] + 895 u[12] + 447 u[13] + 696 u[14] + 632 u[15] + 768 u[16]
   + 467 u[17] + 268 u[18] + 33 u[19] + 496 u[20] + 131 u[21] + 583 u[22]
   + 498 u[23] + 344 u[24] + 387 u[25] + 141 u[26] + 827 u[27] + 145 u[28]
   + 570 u[29] + 573 u[30] + 815 u[31] + 695 u[32] + 520 u[33] + 111 u[34]
   + 460 u[35] + 295 u[36] + 904 u[37] + 367 u[38] + 202 u[39] + 866 u[40]
   + 45 u[41] + 313 u[42] + 561 u[43] + 402 u[44] + 654 u[45] + 485 u[46]
   + 253 u[47] + 610 u[48] + 603 u[49] + 706 u[50] + 915 u[51] + 880 u[52]
   + 503 u[53] + 348 u[54] + 851 u[55] + 244 u[56] + 718 u[57] + 223 u[58]
   + 53 u[59] <= 4926
 primal_lower59: 577 u[0] + 453 u[1] + 299 u[2] + 356 u[3] + 525 u[4]
   + 387 u[5] + 742 u[6] + 101 u[7] + 166 u[8] + 107 u[9] + 541 u[10]
   + 780 u[11] + 333 u[12] + 117 u[13] + 614 u[14] + 94 u[15] + 374 u[16]
   + 657 u[17] + 162 u[18] + 799 u[19] + 278 u[20] + 289 u[21] + 765 u[22]
   + 784 u[23] + 102 u[24] + 545 u[25] + 611 u[26] + 201 u[27] + 535 u[28]
   + 920 u[29] + 475 u[30] + 21 u[31] + 477 u[32] + 54 u[33] + 477 u[34]
   + 418 u[35] + 853 u[36] + 630 u[37] + 261 u[38] + 880 u[39] + 784 u[40]
   + 283 u[41] + 551 u[42] + 335 u[43] + 600 u[44] + 908 u[45] + 387 u[46]
   + 555 u[47] + 816 u[48] + 377 u[49] + 776 u[50] + 25 u[51] + 342 u[52]
   + 53 u[53] + 922 u[54] + 385 u[55] + 130 u[56] + 996 u[57] + 301 u[58]
   + 571 u[59] <= 4642
 primal_lower60: 63 u[0] + 283 u[1] + 577 u[2] + 986 u[3] + 427 u[4]
   + 617 u[5] + 708 u[6] + 643 u[7] + 276 u[8] + 409 u[9] + 467 u[10]
   + 498 u[11] + 899 u[12] + 611 u[13] + 812 u[14] + 92 u[15] + 612 u[16]
   + 631 u[17] + 368 u[18] + 453 u[19] + 228 u[20] + 575 u[21] + 451 u[22]
   + 870 u[23] + 492 u[24] + 423 u[25] + 489 u[26] + 935 u[27] + 109 u[28]
   + 158 u[29] + 329 u[30] + 195 u[31] + 795 u[32] + 820 u[33] + 707 u[34]
   + 496 u[35] + 587 u[36] + 492 u[37] + 339 u[38] + 806 u[39] + 838 u[40]
   + 873 u[41] + 741 u[42] + 661 u[43] + 246 u[44] + 242 u[45] + 785 u[46]
   + 73 u[47] + 822 u[48] + 511 u[49] + 918 u[50] + 231 u[51] + 60 u[52]
   + 891 u[53] + 176 u[54] + 79 u[55] + 144 u[56] + 810 u[57] + 435 u[58]
   + 625 u[59] <= 20592
 primal_lower61: 148 u[0] + 808 u[1] + 750 u[2] + 879 u[3] + 344 u[4]
   + 366 u[5] + 257 u[6] + 488 u[7] + 993 u[8] + 350 u[9] + 680 u[10]
   + 503 u[11] + 824 u[12] + 672 u[13] + 673 u[14] + 617 u[15] + 985 u[16]
   + 748 u[17] + 45 u[18] + 514 u[19] + 889 u[20] + 620 u[21] + 520 u[22]
   + 763 u[23] + 737 u[24] + 92 u[25] + 22 u[26] + 236 u[27] + 762 u[28]
   + 555 u[29] + 558 u[30] + 368 u[31] + 384 u[32] + 785 u[33] + 288 u[34]
   + 677 u[35] + 32 u[36] + 921 u[37] + 80 u[38] + 883 u[39] + 283 u[40]
   + 78 u[41] + 234 u[42] + 130 u[43] + 99 u[44] + 631 u[45] + 446 u[46]
   + 494 u[47] + 163 u[48] + 588 u[49] + 91 u[50] + 948 u[51] + 945 u[52]
   + 640 u[53] + 533 u[54] + 924 u[55] + 221 u[56] + 751 u[57] + 576 u[58]
   + 574 u[59] <= 15582
 primal_lower62: 927 u[0] + 880 u[1] + 938 u[2] + 607 u[3] + 348 u[4]
   + 709 u[5] + 69 u[6] + 735 u[7] + 301 u[8] + 422 u[9] + 3 u[10]
   + 143 u[11] + 180 u[12] + 784 u[13] + 252 u[14] + 504 u[15] + 373 u[16]
   + 860 u[17] + 665 u[18] + 730 u[19] + 37 u[20] + 515 u[21] + 388 u[22]
   + 66 u[23] + 372 u[24] + 884 u[25] + 482 u[26] + 747 u[27] + 821 u[28]
   + 131 u[29] + 385 u[30] + 71 u[31] + 875 u[32] + 209 u[33] + 524 u[34]
   + 189 u[35] + 484 u[36] + 600 u[37] + 108 u[38] + 602 u[39] + 471 u[40]
   + 133 u[41] + 950 u[42] + 681 u[43] + 215 u[44] + 710 u[45] + 825 u[46]
   + 301 u[47] + 495 u[48] + 172 u[49] + 302 u[50] + 108 u[51] + 997 u[52]
   + 840 u[53] + 448 u[54] + 59 u[55] + 153 u[56] + 206 u[57] + 916 u[58]
   + 678 u[59] <= 9526
 primal_lower63: 379 u[0] + 631 u[1] + 853 u[2] + 758 u[3] + 551 u[4]
   + 909 u[5] + 232 u[6] + 935 u[7] + 144 u[8] + 133 u[9] + 295 u[10]
   + 78 u[11] + 423 u[12] + 911 u[13] + 280 u[14] + 528 u[15] + 264 u[16]
   + 99 u[17] + 396 u[18] + 33 u[19] + 112 u[20] + 611 u[21] + 23 u[22]
   + 410 u[23] + 920 u[24] + 891 u[25] + 477 u[26] + 19 u[27] + 753 u[28]
   + 186 u[29] + 677 u[30] + 287 u[31] + 455 u[32] + 536 u[33] + 903 u[34]
   + 788 u[35] + 431 u[36] + 176 u[37] + 471 u[38] + 778 u[39] + 266 u[40]
   + 605 u[41] + 97 u[42] + 97 u[43] + 370 u[44] + 230 u[45] + 453 u[46]
   + 933 u[47] + 370 u[48] + 507 u[49] + 418 u[50] + 107 u[51] + 552 u[52]
   + 927 u[53] + 364 u[54] + 427 u[55] + 732 u[56] + 598 u[57] + 935 u[58]
   + 925 u[59] <= 935
 primal_lower64: 563 u[0] + 167 u[1] + 629 u[2] + 382 u[3] + 583 u[4]
   + 237 u[5] + 400 u[6] + 47 u[7] + 296 u[8] + 821 u[9] + 631 u[10]
   + 422 u[11] + 95 u[12] + 359 u[13] + 280 u[14] + 968 u[15] + 432 u[16]
   + 203 u[17] + 924 u[18] + 233 u[19] + 200 u[20] + 667 u[21] + 63 u[22]
   + 826 u[23] + 328 u[24] + 315 u[25] + 477 u[26] + 475 u[27] + 305 u[28]
   + 426 u[29] + 333 u[30] + 559 u[31] + 743 u[32] + 616 u[33] + 271 u[34]
   + 476 u[35] + 247 u[36] + 136 u[37] + 535 u[38] + 666 u[39] + 362 u[40]
   + 149 u[41] + 849 u[42] + 105 u[43] + 210 u[44] + 806 u[45] + 349 u[46]
   + 733 u[47] + 642 u[48] + 843 u[49] + 978 u[50] + 755 u[51] + 248 u[52]
   + 983 u[53] + 404 u[54] + 891 u[55] + 516 u[56] + 750 u[57] + 87 u[58]
   + 989 u[59] <= 989
 primal_lower65: 632 u[0] + 257 u[1] + 251 u[2] + 840 u[3] + 405 u[4]
   + 254 u[5] + 294 u[6] + 208 u[7] + 790 u[8] + 927 u[9] + 276 u[10]
   + 8 u[11] + 757 u[12] + 513 u[13] + 813 u[14] + 33 u[15] + 318 u[16]
   + 189 u[17] + 282 u[18] + 995 u[19] + 182 u[20] + 724 u[21] + 341 u[22]
   + 331 u[23] + 797 u[24] + 381 u[25] + 51 u[26] + 4 u[27] + 838 u[28]
   + 164 u[29] + 266 u[30] + 176 u[31] + 468 u[32] + 618 u[33] + 693 u[34]
   + 54 u[35] + 885 u[36] + 433 u[37] + 933 u[38] + 731 u[39] + 112 u[40]
   + 86 u[41] + 223 u[42] + 250 u[43] + 896 u[44] + 447 u[45] + 242 u[46]
   + 734 u[47] + 256 u[48] + 581 u[49] + 311 u[50] + 693 u[51] + 718 u[52]
   + 65 u[53] + 753 u[54] + 308 u[55] + 10 u[56] + 407 u[57] + 293 u[58]
   + 175 u[59] <= 8557
 primal_lower66: 204 u[0] + 173 u[1] + 231 u[2] + 852 u[3] + 761 u[4]
   + 882 u[5] + 418 u[6] + 148 u[7] + 658 u[8] + 995 u[9] + 864 u[10]
   + 252 u[11] + 73 u[12] + 317 u[13] + 689 u[14] + 405 u[15] + 690 u[16]
   + 209 u[17] + 566 u[18] + 231 u[19] + 642 u[20] + 80 u[21] + 521 u[22]
   + 79 u[23] + 681 u[24] + 385 u[25] + 791 u[26] + 728 u[27] + 938 u[28]
   + 800 u[29] + 230 u[30] + 460 u[31] + 616 u[32] + 686 u[33] + 969 u[34]
   + 474 u[35] + 537 u[36] + 357 u[37] + 753 u[38] + 247 u[39] + 532 u[40]
   + 426 u[41] + 747 u[42] + 502 u[43] + 172 u[44] + 531 u[45] + 374 u[46]
   + 330 u[47] + 428 u[48] + 433 u[49] + 227 u[50] + 705 u[51] + 154 u[52]
   + 245 u[53] + 813 u[54] + 288 u[55] + 622 u[56] + 339 u[57] + 169 u[58]
   + 595 u[59] <= 14612
 primal_lower67: 778 u[0] + 819 u[1] + 485 u[2] + 410 u[3] + 463 u[4]
   + 208 u[5] + 424 u[6] + 906 u[7] + 136 u[8] + 841 u[9] + 790 u[10]
   + 602 u[11] + 775 u[12] + 675 u[13] + 151 u[14] + 739 u[15] + 400 u[16]
   + 255 u[17] + 36 u[18] + 61 u[19] + 216 u[20] + 310 u[21] + 223 u[22]
   + 869 u[23] + 999 u[24] + 391 u[25] + 781 u[26] + 974 u[27] + 952 u[28]
   + 590 u[29] + 868 u[30] + 186 u[31] + 574 u[32] + 76 u[33] + 799 u[34]
   + 392 u[35] + 983 u[36] + 75 u[37] + 631 u[38] + 653 u[39] + 866 u[40]
   + 880 u[41] + 457 u[42] + 820 u[43] + 394 u[44] + 369 u[45] + 148 u[46]
   + 176 u[47] + 730 u[48] + 903 u[49] + 577 u[50] + 311 u[51] + 968 u[52]
   + 875 u[53] + 371 u[54] + 566 u[55] + 268 u[56] + 489 u[57] + 991 u[58]
   + 673 u[59] <= 22218
 primal_lower68: 499 u[0] + 652 u[1] + 662 u[2] + 939 u[3] + 272 u[4]
   + 425 u[5] + 337 u[6] + 259 u[7] + 641 u[8] + 826 u[9] + 367 u[10]
   + 499 u[11] + 80 u[12] + 668 u[13] + 800 u[14] + 68 u[15] + 841 u[16]
   + 904 u[17] + 421 u[18] + 190 u[19] + 265 u[20] + 871 u[21] + 672 u[22]
   + 462 u[23] + 80 u[24] + 504 u[25] + 70 u[26] + 47 u[27] + 905 u[28]
   + 47 u[29] + 453 u[30] + 427 u[31] + 127 u[32] + 413 u[33] + 696 u[34]
   + 641 u[35] + 824 u[36] + 700 u[37] + 16 u[38] + 886 u[39] + 883 u[40]
   + 913 u[41] + 658 u[42] + 973 u[43] + 227 u[44] + 82 u[45] + 349 u[46]
   + 217 u[47] + 523 u[48] + 976 u[49] + 298 u[50] + 624 u[51] + 177 u[52]
   + 500 u[53] + 140 u[54] + 247 u[55] + 925 u[56] + 474 u[57] + 704 u[58]
   + 794 u[59] <= 15070
 primal_lower69: 365 u[0] + 633 u[1] + 663 u[2] + 16 u[3] + 577 u[4]
   + 799 u[5] + 962 u[6] + 105 u[7] + 818 u[8] + 695 u[9] + 217 u[10]
   + 40 u[11] + 289 u[12] + 617 u[13] + 650 u[14] + 426 u[15] + 386 u[16]
   + 93 u[17] + 846 u[18] + 75 u[19] + 18 u[20] + 885 u[21] + 305 u[22]
   + 372 u[23] + 850 u[24] + 421 u[25] + 535 u[26] + 501 u[27] + 899 u[28]
   + 604 u[29] + 855 u[30] + 665 u[31] + 673 u[32] + 498 u[33] + 369 u[34]
   + 630 u[35] + 809 u[36] + 754 u[37] + 369 u[38] + 812 u[39] + 284 u[40]
   + 359 u[41] + 171 u[42] + 547 u[43] + 788 u[44] + 840 u[45] + 567 u[46]
   + 23 u[47] + 364 u[48] + 789 u[49] + 764 u[50] + 69 u[51] + 770 u[52]
   + 729 u[53] + 502 u[54] + 309 u[55] + 222 u[56] + 176 u[57] + 345 u[58]
   + 839 u[59] <= 15276
 primal_lower70: 761 u[0] + 885 u[1] + 443 u[2] + 668 u[3] + 357 u[4]
   + 859 u[5] + 702 u[6] + 485 u[7] + 910 u[8] + 643 u[9] + 325 u[10]
   + 116 u[11] + 253 u[12] + 29 u[13] + 326 u[14] + 462 u[15] + 870 u[16]
   + 297 u[17] + 426 u[18] + 39 u[19] + 334 u[20] + 617 u[21] + 781 u[22]
   + 616 u[23] + 294 u[24] + 305 u[25] + 347 u[26] + 569 u[27] + 103 u[28]
   + 264 u[29] + 675 u[30] + 453 u[31] + 797 u[32] + 150 u[33] + 285 u[34]
   + 850 u[35] + 165 u[36] + 862 u[37] + 717 u[38] + 520 u[39] + 920 u[40]
   + 331 u[41] + 103 u[42] + 423 u[43] + 416 u[44] + 404 u[45] + 771 u[46]
   + 579 u[47] + 960 u[48] + 545 u[49] + 952 u[50] + 913 u[51] + 718 u[52]
   + 893 u[53] + 82 u[54] + 537 u[55] + 618 u[56] + 68 u[57] + 741 u[58]
   + 851 u[59] <= 5230
 primal_lower71: 127 u[0] + 571 u[1] + 353 u[2] + 490 u[3] + 763 u[4]
   + 601 u[5] + 548 u[6] + 675 u[7] + 788 u[8] + 809 u[9] + 691 u[10]
   + 946 u[11] + 211 u[12] + 11 u[13] + 436 u[14] + 452 u[15] + 636 u[16]
   + 679 u[17] + 528 u[18] + 133 u[19] + 316 u[20] + 199 u[21] + 435 u[22]
   + 238 u[23] + 228 u[24] + 391 u[25] + 433 u[26] + 703 u[27] + 133 u[28]
   + 70 u[29] + 457 u[30] + 947 u[31] + 835 u[32] + 948 u[33] + 379 u[34]
   + 80 u[35] + 827 u[36] + 420 u[37] + 747 u[38] + 582 u[39] + 222 u[40]
   + 673 u[41] + 109 u[42] + 981 u[43] + 542 u[44] + 210 u[45] + 873 u[46]
   + 321 u[47] + 166 u[48] + 487 u[49] + 166 u[50] + 863 u[51] + 628 u[52]
   + 563 u[53] + 648 u[54] + 239 u[55] + 8 u[56] + 34 u[57] + 843 u[58]
   + 593 u[59] <= 4830
 primal_lower72: 781 u[0] + 9 u[1] + 183 u[2] + 592 u[3] + 121 u[4]
   + 479 u[5] + 610 u[6] + 121 u[7] + 266 u[8] + 871 u[9] + 921 u[10]
   + 888 u[11] + 729 u[12] + 921 u[13] + 474 u[14] + 946 u[15] + 962 u[16]
   + 309 u[17] + 398 u[18] + 115 u[19] + 458 u[20] + 405 u[21] + 721 u[22]
   + 988 u[23] + 762 u[24] + 789 u[25] + 127 u[26] + 109 u[27] + 283 u[28]
   + 476 u[29] + 223 u[30] + 249 u[31] + 897 u[32] + 722 u[33] + 697 u[34]
   + 806 u[35] + 641 u[36] + 34 u[37] + 873 u[38] + 828 u[39] + 308 u[40]
   + 639 u[41] + 491 u[42] + 243 u[43] + 756 u[44] + 280 u[45] + 911 u[46]
   + 535 u[47] + 892 u[48] + 165 u[49] + 364 u[50] + 333 u[51] + 242 u[52]
   + 937 u[53] + 774 u[54] + 317 u[55] + 670 u[56] + 336 u[57] + 321 u[58]
   + 575 u[59] <= 15936
 primal_lower73: 838 u[0] + 442 u[1] + 832 u[2] + 905 u[3] + 306 u[4]
   + 320 u[5] + 171 u[6] + 58 u[7] + 547 u[8] + 832 u[9] + 234 u[10]
   + 705 u[11] + 698 u[12] + 690 u[13] + 707 u[14] + 563 u[15] + 643 u[16]
   + 830 u[17] + 215 u[18] + 188 u[19] + 731 u[20] + 878 u[21] + 434 u[22]
   + 189 u[23] + 235 u[24] + 214 u[25] + 560 u[26] + 638 u[27] + 300 u[28]
   + 317 u[29] + 432 u[30] + 2 u[31] + 346 u[32] + 387 u[33] + 514 u[34]
   + 87 u[35] + 786 u[36] + 883 u[37] + 546 u[38] + 757 u[39] + 517 u[40]
   + 664 u[41] + 828 u[42] + 652 u[43] + 717 u[44] + 265 u[45] + 280 u[46]
   + 104 u[47] + 973 u[48] + 830 u[49] + 301 u[50] + 134 u[51] + 771 u[52]
   + 434 u[53] + 279 u[54] + 998 u[55] + 735 u[56] + 417 u[57] + 906 u[58]
   + 400 u[59] <= 998
 primal_lower74: 224 u[0] + 332 u[1] + 778 u[2] + 907 u[3] + 500 u[4]
   + 522 u[5] + 357 u[6] + 540 u[7] + 965 u[8] + 818 u[9] + 500 u[10]
   + 499 u[11] + 60 u[12] + 692 u[13] + 501 u[14] + 429 u[15] + 349 u[16]
   + 88 u[17] + 73 u[18] + 478 u[19] + 613 u[20] + 40 u[21] + 60 u[22]
   + 639 u[23] + 469 u[24] + 712 u[25] + 842 u[26] + 120 u[27] + 494 u[28]
   + 479 u[29] + 338 u[30] + 636 u[31] + 292 u[32] + 141 u[33] + 284 u[34]
   + 681 u[35] + 196 u[36] + 37 u[37] + 828 u[38] + 367 u[39] + 823 u[40]
   + 978 u[41] + 766 u[42] + 942 u[43] + 391 u[44] + 163 u[45] + 618 u[46]
   + 554 u[47] + 943 u[48] + 136 u[49] + 71 u[50] + 432 u[51] + 181 u[52]
   + 100 u[53] + 297 u[54] + 744 u[55] + 401 u[56] + 659 u[57] + 724 u[58]
   + 738 u[59] <= 19027
 primal_lower75: 859 u[0] + 15 u[1] + 901 u[2] + 334 u[3] + 343 u[4]
   + 53 u[5] + 944 u[6] + 151 u[7] + 72 u[8] + 637 u[9] + 919 u[10]
   + 630 u[11] + 663 u[12] + 151 u[13] + 632 u[14] + 944 u[15] + 152 u[16]
   + 275 u[17] + 4 u[18] + 121 u[19] + 368 u[20] + 619 u[21] + 575 u[22]
   + 266 u[23] + 360 u[24] + 251 u[25] + 29 u[26] + 651 u[27] + 161 u[28]
   + 682 u[29] + 349 u[30] + 7 u[31] + 151 u[32] + 216 u[33] + 639 u[34]
   + 564 u[35] + 103 u[36] + 968 u[37] + 855 u[38] + 810 u[39] + 658 u[40]
   + 213 u[41] + 409 u[42] + 361 u[43] + 66 u[44] + 534 u[45] + 445 u[46]
   + 229 u[47] + 378 u[48] + 467 u[49] + 322 u[50] + 131 u[51] + 976 u[52]
   + 175 u[53] + 924 u[54] + 627 u[55] + 420 u[56] + 758 u[57] + 103 u[58]
   + 173 u[59] <= 12896
 primal_lower76: 240 u[0] + 89 u[1] + 315 u[2] + 920 u[3] + 733 u[4]
   + 950 u[5] + 270 u[6] + 136 u[7] + 350 u[8] + 775 u[9] + 268 u[10]
   + 232 u[11] + 437 u[12] + 465 u[13] + 421 u[14] + 905 u[15] + 438 u[16]
   + 917 u[17] + 770 u[18] + 107 u[19] + 734 u[20] + 540 u[21] + 205 u[22]
   + 331 u[23] + 421 u[24] + 629 u[25] + 979 u[26] + 948 u[27] + 286 u[28]
   + 316 u[29] + 490 u[30] + 976 u[31] + 740 u[32] + 370 u[33] + 133 u[34]
   + 694 u[35] + 373 u[36] + 97 u[37] + 445 u[38] + 219 u[39] + 184 u[40]
   + 958 u[41] + 135 u[42] + 82 u[43] + 456 u[44] + 39 u[45] + 890 u[46]
   + 38 u[47] + 992 u[48] + 61 u[49] + 447 u[50] + 573 u[51] + 862 u[52]
   + 353 u[53] + 921 u[54] + 636 u[55] + 946 u[56] + 823 u[57] + 741 u[58]
   + 927 u[59] <= 5121
 primal_lower77: 171 u[0] + 919 u[1] + 93 u[2] + 662 u[3] + 535 u[4]
   + 797 u[5] + 912 u[6] + 399 u[7] + 128 u[8] + 933 u[9] + 703 u[10]
   + 726 u[11] + 175 u[12] + 495 u[13] + 376 u[14] + 768 u[15] + 832 u[16]
   + 27 u[17] + 828 u[18] + 41 u[19] + 448 u[20] + 43 u[21] + 183 u[22]
   + 882 u[23] + 104 u[24] + 323 u[25] + 741 u[26] + 579 u[27] + 729 u[28]
   + 266 u[29] + 149 u[30] + 815 u[31] + 191 u[32] + 128 u[33] + 967 u[34]
   + 652 u[35] + 951 u[36] + 992 u[37] + 447 u[38] + 18 u[39] + 530 u[40]
   + 933 u[41] + 193 u[42] + 905 u[43] + 202 u[44] + 846 u[45] + 61 u[46]
   + 61 u[47] + 890 u[48] + 651 u[49] + 738 u[50] + 731 u[51] + 528 u[52]
   + 831 u[53] + 676 u[54] + 43 u[55] + 132 u[56] + 118 u[57] + 527 u[58]
   + 813 u[59] <= 10179
 primal_lower78: 106 u[0] + 891 u[1] + 61 u[2] + 994 u[3] + 631 u[4]
   + 584 u[5] + 8 u[6] + 810 u[7] + 664 u[8] + 577 u[9] + 46 u[10]
   + 218 u[11] + 719 u[12] + 11 u[13] + 279 u[14] + 531 u[15] + 512 u[16]
   + 879 u[17] + 132 u[18] + 45 u[19] + 216 u[20] + 382 u[21] + 343 u[22]
   + 701 u[23] + 695 u[24] + 319 u[25] + 21 u[26] + 318 u[27] + 888 u[28]
   + 686 u[29] + 244 u[30] + 906 u[31] + 814 u[32] + 516 u[33] + 183 u[34]
   + 80 u[35] + 671 u[36] + 819 u[37] + 967 u[38] + 909 u[39] + 674 u[40]
   + 600 u[41] + 201 u[42] + 76 u[43] + 874 u[44] + 137 u[45] + 588 u[46]
   + 896 u[47] + 106 u[48] + 743 u[49] + 369 u[50] + 215 u[51] + 696 u[52]
   + 443 u[53] + 123 u[54] + 230 u[55] + 676 u[56] + 809 u[57] + 127 u[58]
   + 249 u[59] <= 14104
 primal_lower79: 312 u[0] + 564 u[1] + 498 u[2] + 155 u[3] + 756 u[4]
   + 370 u[5] + 685 u[6] + 444 u[7] + 621 u[8] + 426 u[9] + 836 u[10]
   + 595 u[11] + 348 u[12] + 604 u[13] + 629 u[14] + 157 u[15] + 957 u[16]
   + 384 u[17] + 265 u[18] + 550 u[19] + 245 u[20] + 584 u[21] + 812 u[22]
   + 343 u[23] + 405 u[24] + 960 u[25] + 714 u[26] + 480 u[27] + 934 u[28]
   + 895 u[29] + 786 u[30] + 844 u[31] + 20 u[32] + 397 u[33] + 676 u[34]
   + 89 u[35] + 684 u[36] + 949 u[37] + 444 u[38] + 511 u[39] + 919 u[40]
   + 258 u[41] + 838 u[42] + 998 u[43] + 247 u[44] + 979 u[45] + 314 u[46]
   + 506 u[47] + 215 u[48] + 264 u[49] + 727 u[50] + 640 u[51] + 509 u[52]
   + 172 u[53] + 729 u[54] + 384 u[55] + 713 u[56] + 667 u[57] + 828 u[58]
   + 746 u[59] <= 11193
 primal_lower80: 124 u[0] + 152 u[1] + 14 u[2] + 527 u[3] + 936 u[4]
   + 838 u[5] + 65 u[6] + 952 u[7] + 745 u[8] + 942 u[9] + 208 u[10]
   + 95 u[11] + 816 u[12] + 504 u[13] + 41 u[14] + 953 u[15] + 529 u[16]
   + 796 u[17] + 693 u[18] + 298 u[19] + 473 u[20] + 860 u[21] + 832 u[22]
   + 27 u[23] + 257 u[24] + 692 u[25] + 150 u[26] + 268 u[27] + 146 u[28]
   + 939 u[29] + 198 u[30] + 144 u[31] + 280 u[32] + 721 u[33] + 720 u[34]
   + 117 u[35] + 88 u[36] + 9 u[37] + 1000 u[38] + 275 u[39] + 107 u[40]
   + 486 u[41] + 754 u[42] + 386 u[43] + 707 u[44] + 255 u[45] + 830 u[46]
   + 118 u[47] + 251 u[48] + 796 u[49] + 675 u[50] + 580 u[51] + 193 u[52]
   + 408 u[53] + 365 u[54] + 116 u[55] + 589 u[56] + 447 u[57] + 568 u[58]
   + 278 u[59] <= 18222
 primal_lower81: 935 u[0] + 504 u[1] + 930 u[2] + 39 u[3] + 524 u[4]
   + 189 u[5] + 13 u[6] + 447 u[7] + 93 u[8] + 510 u[9] + 507 u[10]
   + 151 u[11] + 196 u[12] + 880 u[13] + 604 u[14] + 24 u[15] + 949 u[16]
   + 748 u[17] + 689 u[18] + 106 u[19] + 245 u[20] + 867 u[21] + 516 u[22]
   + 954 u[23] + 772 u[24] + 28 u[25] + 386 u[26] + 875 u[27] + 517 u[28]
   + 139 u[29] + 569 u[30] + 895 u[31] + 483 u[32] + 689 u[33] + 732 u[34]
   + 317 u[35] + 892 u[36] + 768 u[37] + 684 u[38] + 290 u[39] + 295 u[40]
   + 869 u[41] + 118 u[42] + 553 u[43] + 671 u[44] + 118 u[45] + 513 u[46]
   + 829 u[47] + 575 u[48] + 932 u[49] + 870 u[50] + 116 u[51] + 517 u[52]
   + 824 u[53] + 896 u[54] + 963 u[55] + 65 u[56] + 614 u[57] + 276 u[58]
   + 110 u[59] <= 15690
 primal_lower82: 833 u[0] + 349 u[1] + 915 u[2] + 772 u[3] + 957 u[4]
   + 819 u[5] + 870 u[6] + 661 u[7] + 22 u[8] + 619 u[9] + 189 u[10]
   + 836 u[11] + 85 u[12] + 853 u[13] + 766 u[14] + 174 u[15] + 774 u[16]
   + 361 u[17] + 370 u[18] + 687 u[19] + 230 u[20] + 393 u[21] + 421 u[22]
   + 64 u[23] + 414 u[24] + 177 u[25] + 59 u[26] + 577 u[27] + 207 u[28]
   + 264 u[29] + 659 u[30] + 909 u[31] + 461 u[32] + 686 u[33] + 389 u[34]
   + 42 u[35] + 261 u[36] + 654 u[37] + 877 u[38] + 656 u[39] + 72 u[40]
   + 419 u[41] + 919 u[42] + 871 u[43] + 608 u[44] + 348 u[45] + 715 u[46]
   + 107 u[47] + 624 u[48] + 121 u[49] + 872 u[50] + 321 u[51] + 150 u[52]
   + 989 u[53] + 746 u[54] + 681 u[55] + 34 u[56] + 356 u[57] + 869 u[58]
   + 899 u[59] <= 20688
 primal_lower83: 328 u[0] + 9 u[1] + 651 u[2] + 128 u[3] + 277 u[4]
   + 390 u[5] + 934 u[6] + 384 u[7] + 670 u[8] + 231 u[9] + 436 u[10]
   + 984 u[11] + 997 u[12] + 745 u[13] + 949 u[14] + 609 u[15] + 838 u[16]
   + 109 u[17] + 674 u[18] + 811 u[19] + 534 u[20] + 668 u[21] + 341 u[22]
   + 107 u[23] + 389 u[24] + 925 u[25] + 219 u[26] + 772 u[27] + 326 u[28]
   + 932 u[29] + 562 u[30] + 568 u[31] + 364 u[32] + 834 u[33] + 773 u[34]
   + 270 u[35] + 101 u[36] + 489 u[37] + 165 u[38] + 459 u[39] + 520 u[40]
   + 126 u[41] + 687 u[42] + 114 u[43] + 608 u[44] + 575 u[45] + 810 u[46]
   + 558 u[47] + 688 u[48] + 109 u[49] + 887 u[50] + 517 u[51] + 782 u[52]
   + 849 u[53] + 49 u[54] + 212 u[55] + 970 u[56] + 511 u[57] + 205 u[58]
   + 791 u[59] <= 5253
 primal_lower84: 226 u[0] + 163 u[1] + 157 u[2] + 922 u[3] + 71 u[4]
   + 296 u[5] + 736 u[6] + 514 u[7] + 288 u[8] + 169 u[9] + 494 u[10]
   + 330 u[11] + 511 u[12] + 419 u[13] + 551 u[14] + 611 u[15] + 800 u[16]
   + 207 u[17] + 484 u[18] + 133 u[19] + 256 u[20] + 526 u[21] + 31 u[22]
   + 565 u[23] + 439 u[24] + 351 u[25] + 517 u[26] + 142 u[27] + 248 u[28]
   + 94 u[29] + 212 u[30] + 202 u[31] + 406 u[32] + 860 u[33] + 151 u[34]
   + 424 u[35] + 407 u[36] + 299 u[37] + 895 u[38] + 677 u[39] + 514 u[40]
   + 184 u[41] + 521 u[42] + 108 u[43] + 506 u[44] + 313 u[45] + 20 u[46]
   + 160 u[47] + 58 u[48] + 367 u[49] + 753 u[50] + 879 u[51] + 112 u[52]
   + 723 u[53] + 147 u[54] + 414 u[55] + 164 u[56] + 233 u[57] + 695 u[58]
   + 993 u[59] <= 3941
 primal_lower85: 392 u[0] + 385 u[1] + 67 u[2] + 968 u[3] + 869 u[4]
   + 30 u[5] + 534 u[6] + 384 u[7] + 422 u[8] + 335 u[9] + 300 u[10]
   + 504 u[11] + 885 u[12] + 537 u[13] + 501 u[14] + 409 u[15] + 126 u[16]
   + 229 u[17] + 2 u[18] + 155 u[19] + 254 u[20] + 916 u[21] + 205 u[22]
   + 211 u[23] + 277 u[24] + 917 u[25] + 35 u[26] + 36 u[27] + 942 u[28]
   + 780 u[29] + 594 u[30] + 472 u[31] + 612 u[32] + 314 u[33] + 405 u[34]
   + 926 u[35] + 325 u[36] + 689 u[37] + 653 u[38] + 475 u[39] + 40 u[40]
   + 814 u[41] + 23 u[42] + 586 u[43] + 328 u[44] + 511 u[45] + 162 u[46]
   + 614 u[47] + 632 u[48] + 181 u[49] + 903 u[50] + 797 u[51] + 526 u[52]
   + 817 u[53] + 697 u[54] + 572 u[55] + 442 u[56] + 191 u[57] + 29 u[58]
   + 727 u[59] <= 4610
 primal_lower86: 403 u[0] + 31 u[1] + 517 u[2] + 254 u[3] + 71 u[4]
   + 797 u[5] + 632 u[6] + 767 u[7] + 992 u[8] + 821 u[9] + 183 u[10]
   + 230 u[11] + 679 u[12] + 287 u[13] + 928 u[14] + 432 u[15] + 88 u[16]
   + 195 u[17] + 252 u[18] + 617 u[19] + 768 u[20] + 491 u[21] + 399 u[22]
   + 538 u[23] + 632 u[24] + 195 u[25] + 941 u[26] + 155 u[27] + 161 u[28]
   + 234 u[29] + 629 u[30] + 663 u[31] + 319 u[32] + 656 u[33] + 999 u[34]
   + 932 u[35] + 431 u[36] + 928 u[37] + 983 u[38] + 770 u[39] + 458 u[40]
   + 141 u[41] + 497 u[42] + 505 u[43] + 346 u[44] + 310 u[45] + 605 u[46]
   + 525 u[47] + 170 u[48] + 435 u[49] + 114 u[50] + 467 u[51] + 472 u[52]
   + 127 u[53] + 668 u[54] + 659 u[55] + 828 u[56] + 326 u[57] + 487 u[58]
   + 165 u[59] <= 9768
 primal_lower87: 536 u[0] + 116 u[1] + 922 u[2] + 523 u[3] + 548 u[4]
   + 18 u[5] + 285 u[6] + 108 u[7] + 637 u[8] + 706 u[9] + 12 u[10]
   + 267 u[11] + 260 u[12] + 972 u[13] + 981 u[14] + 933 u[15] + 949 u[16]
   + 176 u[17] + 537 u[18] + 566 u[19] + 645 u[20] + 16 u[21] + 116 u[22]
   + 15 u[23] + 317 u[24] + 288 u[25] + 898 u[26] + 792 u[27] + 302 u[28]
   + 591 u[29] + 322 u[30] + 916 u[31] + 796 u[32] + 245 u[33] + 644 u[34]
   + 521 u[35] + 212 u[36] + 877 u[37] + 284 u[38] + 895 u[39] + 295 u[40]
   + 594 u[41] + 502 u[42] + 990 u[43] + 711 u[44] + 283 u[45] + 474 u[46]
   + 450 u[47] + 183 u[48] + 80 u[49] + 295 u[50] + 160 u[51] + 653 u[52]
   + 4 u[53] + 465 u[54] + 352 u[55] + 937 u[56] + 699 u[57] + 756 u[58]
   + 778 u[59] <= 9801
 primal_lower88: 298 u[0] + 267 u[1] + 5 u[2] + 506 u[3] + 39 u[4]
   + 272 u[5] + 680 u[6] + 954 u[7] + 48 u[8] + 513 u[9] + 414 u[10]
   + 866 u[11] + 167 u[12] + 843 u[13] + 551 u[14] + 811 u[15] + 336 u[16]
   + 487 u[17] + 484 u[18] + 5 u[19] + 24 u[20] + 238 u[21] + 47 u[22]
   + 333 u[23] + 751 u[24] + 959 u[25] + 693 u[26] + 6 u[27] + 928 u[28]
   + 654 u[29] + 692 u[30] + 578 u[31] + 38 u[32] + 804 u[33] + 551 u[34]
   + 272 u[35] + 543 u[36] + 203 u[37] + 567 u[38] + 437 u[39] + 626 u[40]
   + 104 u[41] + 417 u[42] + 372 u[43] + 706 u[44] + 737 u[45] + 956 u[46]
   + 712 u[47] + 18 u[48] + 175 u[49] + 529 u[50] + 927 u[51] + 696 u[52]
   + 83 u[53] + 931 u[54] + 990 u[55] + 844 u[56] + 17 u[57] + 783 u[58]
   + 337 u[59] <= 990
 primal_lower89: 294 u[0] + 778 u[1] + 576 u[2] + 73 u[3] + 434 u[4]
   + 64 u[5] + 155 u[6] + 370 u[7] + 763 u[8] + 24 u[9] + 386 u[10]
   + 873 u[11] + 538 u[12] + 2 u[13] + 483 u[14] + 51 u[15] + 595 u[16]
   + 830 u[17] + 151 u[18] + 740 u[19] + 75 u[20] + 782 u[21] + 98 u[22]
   + 637 u[23] + 627 u[24] + 126 u[25] + 56 u[26] + 174 u[27] + 884 u[28]
   + 53 u[29] + 688 u[30] + 418 u[31] + 370 u[32] + 291 u[33] + 490 u[34]
   + 111 u[35] + 194 u[36] + 963 u[37] + 802 u[38] + 469 u[39] + 333 u[40]
   + 872 u[41] + 596 u[42] + 716 u[43] + 469 u[44] + 497 u[45] + 928 u[46]
   + 696 u[47] + 653 u[48] + 542 u[49] + 373 u[50] + 38 u[51] + 419 u[52]
   + 386 u[53] + 863 u[54] + 918 u[55] + 583 u[56] + 249 u[57] + 602 u[58]
   + 768 u[59] <= 963
 primal_lower90: 474 u[0] + 638 u[1] + 20 u[2] + 557 u[3] + 934 u[4]
   + 60 u[5] + 791 u[6] + 470 u[7] + 463 u[8] + 12 u[9] + 238 u[10]
   + 229 u[11] + 934 u[12] + 942 u[13] + 455 u[14] + 415 u[15] + 367 u[16]
   + 866 u[17] + 339 u[18] + 592 u[19] + 783 u[20] + 514 u[21] + 398 u[22]
   + 633 u[23] + 479 u[24] + 946 u[25] + 868 u[26] + 194 u[27] + 408 u[28]
   + 529 u[29] + 468 u[30] + 150 u[31] + 774 u[32] + 679 u[33] + 270 u[34]
   + 707 u[35] + 550 u[36] + 743 u[37] + 534 u[38] + 337 u[39] + 921 u[40]
   + 188 u[41] + 272 u[42] + 768 u[43] + 737 u[44] + 621 u[45] + 772 u[46]
   + 428 u[47] + 265 u[48] + 202 u[49] + 49 u[50] + 26 u[51] + 135 u[52]
   + 414 u[53] + 195 u[54] + 858 u[55] + 619 u[56] + 549 u[57] + 110 u[58]
   + 204 u[59] <= 9697
 primal_lower91: 794 u[0] + 550 u[1] + 812 u[2] + 293 u[3] + 134 u[4]
   + 148 u[5] + 103 u[6] + 486 u[7] + 911 u[8] + 188 u[9] + 998 u[10]
   + 621 u[11] + 398 u[12] + 70 u[13] + 911 u[14] + 783 u[15] + 879 u[16]
   + 906 u[17] + 739 u[18] + 856 u[19] + 519 u[20] + 802 u[21] + 294 u[22]
   + 337 u[23] + 871 u[24] + 306 u[25] + 788 u[26] + 306 u[27] + 888 u[28]
   + 473 u[29] + 372 u[30] + 54 u[31] + 782 u[32] + 199 u[33] + 302 u[34]
   + 451 u[35] + 414 u[36] + 79 u[37] + 150 u[38] + 753 u[39] + 689 u[40]
   + 844 u[41] + 248 u[42] + 592 u[43] + 665 u[44] + 477 u[45] + 444 u[46]
   + 252 u[47] + 313 u[48] + 250 u[49] + 825 u[50] + 50 u[51] + 839 u[52]
   + 582 u[53] + 595 u[54] + 138 u[55] + 259 u[56] + 277 u[57] + 78 u[58]
   + 572 u[59] <= 14854
 primal_lower92: 658 u[0] + 326 u[1] + 508 u[2] + 565 u[3] + 110 u[4]
   + 876 u[5] + 127 u[6] + 254 u[7] + 255 u[8] + 316 u[9] + 798 u[10]
   + 93 u[11] + 742 u[12] + 766 u[13] + 559 u[14] + 247 u[15] + 431 u[16]
   + 322 u[17] + 723 u[18] + 896 u[19] + 263 u[20] + 266 u[21] + 630 u[22]
   + 585 u[23] + 615 u[24] + 298 u[25] + 340 u[26] + 978 u[27] + 760 u[28]
   + 273 u[29] + 244 u[30] + 422 u[31] + 510 u[32] + 55 u[33] + 262 u[34]
   + 75 u[35] + 486 u[36] + 943 u[37] + 246 u[38] + 81 u[39] + 945 u[40]
   + 484 u[41] + 72 u[42] + 264 u[43] + 225 u[44] + 653 u[45] + 780 u[46]
   + 204 u[47] + 249 u[48] + 498 u[49] + 905 u[50] + 138 u[51] + 31 u[52]
   + 182 u[53] + 83 u[54] + 290 u[55] + 355 u[56] + 733 u[57] + 942 u[58]
   + 100 u[59] <= 4339
 primal_lower93: 996 u[0] + 512 u[1] + 998 u[2] + 831 u[3] + 208 u[4]
   + 286 u[5] + 993 u[6] + 240 u[7] + 921 u[8] + 598 u[9] + 648 u[10]
   + 423 u[11] + 568 u[12] + 792 u[13] + 785 u[14] + 305 u[15] + 297 u[16]
   + 436 u[17] + 813 u[18] + 466 u[19] + 177 u[20] + 52 u[21] + 520 u[22]
   + 883 u[23] + 73 u[24] + 804 u[25] + 774 u[26] + 956 u[27] + 106 u[28]
   + 91 u[29] + 454 u[30] + 64 u[31] + 512 u[32] + 841 u[33] + 16 u[34]
   + 445 u[35] + 80 u[36] + 329 u[37] + 872 u[38] + 627 u[39] + 427 u[40]
   + 222 u[41] + 154 u[42] + 818 u[43] + 35 u[44] + 159 u[45] + 174 u[46]
   + 110 u[47] + 523 u[48] + 468 u[49] + 635 u[50] + 724 u[51] + 281 u[52]
   + 176 u[53] + 757 u[54] + 796 u[55] + 725 u[56] + 383 u[57] + 288 u[58]
   + 774 u[59] <= 14710
 primal_lower94: 691 u[0] + 279 u[1] + 893 u[2] + 582 u[3] + 399 u[4]
   + 501 u[5] + 632 u[6] + 591 u[7] + 960 u[8] + 853 u[9] + 303 u[10]
   + 646 u[11] + 855 u[12] + 151 u[13] + 824 u[14] + 80 u[15] + 376 u[16]
   + 35 u[17] + 908 u[18] + 889 u[19] + 768 u[20] + 803 u[21] + 223 u[22]
   + 714 u[23] + 912 u[24] + 371 u[25] + 645 u[26] + 339 u[27] + 345 u[28]
   + 562 u[29] + 901 u[30] + 63 u[31] + 271 u[32] + 168 u[33] + 239 u[34]
   + 940 u[35] + 847 u[36] + 232 u[37] + 807 u[38] + 74 u[39] + 250 u[40]
   + 693 u[41] + 633 u[42] + 233 u[43] + 834 u[44] + 198 u[45] + 445 u[46]
   + 13 u[47] + 234 u[48] + 755 u[49] + 962 u[50] + 483 u[51] + 776 u[52]
   + 39 u[53] + 388 u[54] + 371 u[55] + 196 u[56] + 230 u[57] + 967 u[58]
   + 757 u[59] <= 967
 primal_lower95: 10 u[0] + 987 u[1] + 413 u[2] + 994 u[3] + 631 u[4]
   + 168 u[5] + 208 u[6] + 418 u[7] + 936 u[8] + 353 u[9] + 46 u[10]
   + 386 u[11] + 639 u[12] + 115 u[13] + 127 u[14] + 475 u[15] + 424 u[16]
   + 863 u[17] + 444 u[18] + 565 u[19] + 800 u[20] + 102 u[21] + 551 u[22]
   + 653 u[23] + 727 u[24] + 119 u[25] + 13 u[26] + 254 u[27] + 576 u[28]
   + 982 u[29] + 508 u[30] + 994 u[31] + 374 u[32] + 644 u[33] + 111 u[34]
   + 704 u[35] + 279 u[36] + 371 u[37] + 495 u[38] + 501 u[39] + 570 u[40]
   + 336 u[41] + 585 u[42] + 300 u[43] + 18 u[44] + 625 u[45] + 620 u[46]
   + 96 u[47] + 90 u[48] + 903 u[49] + 257 u[50] + 303 u[51] + 104 u[52]
   + 523 u[53] + 611 u[54] + 670 u[55] + 908 u[56] + 57 u[57] + 943 u[58]
   + 305 u[59] <= 9261
 primal_lower96: 886 u[0] + 730 u[1] + 464 u[2] + 481 u[3] + 490 u[4]
   + 656 u[5] + 619 u[6] + 978 u[7] + 555 u[8] + 232 u[9] + 930 u[10]
   + 625 u[11] + 754 u[12] + 498 u[13] + 579 u[14] + 467 u[15] + 603 u[16]
   + 982 u[17] + 239 u[18] + 580 u[19] + 835 u[20] + 110 u[21] + 530 u[22]
   + 21 u[23] + 827 u[24] + 590 u[25] + 512 u[26] + 134 u[27] + 572 u[28]
   + 965 u[29] + 296 u[30] + 538 u[31] + 218 u[32] + 579 u[33] + 26 u[34]
   + 223 u[35] + 146 u[36] + 787 u[37] + 698 u[38] + 861 u[39] + 5 u[40]
   + 632 u[41] + 964 u[42] + 636 u[43] + 853 u[44] + 297 u[45] + 936 u[46]
   + 248 u[47] + 349 u[48] + 726 u[49] + 933 u[50] + 14 u[51] + 11 u[52]
   + 314 u[53] + 631 u[54] + 670 u[55] + 639 u[56] + 993 u[57] + 26 u[58]
   + 136 u[59] <= 15914
 primal_lower97: 338 u[0] + 766 u[1] + 996 u[2] + 77 u[3] + 118 u[4]
   + 764 u[5] + 519 u[6] + 470 u[7] + 295 u[8] + 468 u[9] + 262 u[10]
   + 197 u[11] + 998 u[12] + 966 u[13] + 959 u[14] + 343 u[15] + 487 u[16]
   + 242 u[17] + 499 u[18] + 56 u[19] + 607 u[20] + 18 u[21] + 318 u[22]
   + 89 u[23] + 711 u[24] + 298 u[25] + 884 u[26] + 938 u[27] + 96 u[28]
   + 977 u[29] + 708 u[30] + 598 u[31] + 518 u[32] + 543 u[33] + 854 u[34]
   + 11 u[35] + 62 u[36] + 839 u[37] + 326 u[38] + 233 u[39] + 889 u[40]
   + 580 u[41] + 592 u[42] + 384 u[43] + 689 u[44] + 757 u[45] + 948 u[46]
   + 684 u[47] + 137 u[48] + 866 u[49] + 841 u[50] + 138 u[51] + 975 u[52]
   + 406 u[53] + 147 u[54] + 450 u[55] + 67 u[56] + 869 u[57] + 926 u[58]
   + 340 u[59] <= 20755
 primal_lower98: 716 u[0] + 613 u[1] + 263 u[2] + 892 u[3] + 681 u[4]
   + 90 u[5] + 170 u[6] + 732 u[7] + 530 u[8] + 739 u[9] + 320 u[10]
   + 948 u[11] + 377 u[12] + 773 u[13] + 161 u[14] + 613 u[15] + 666 u[16]
   + u[17] + 430 u[18] + 15 u[19] + 130 u[20] + 600 u[21] + 153 u[22]
   + 943 u[23] + 801 u[24] + 977 u[25] + 551 u[26] + 800 u[27] + 850 u[28]
   + 672 u[29] + 590 u[30] + 764 u[31] + 744 u[32] + 278 u[33] + 497 u[34]
   + 178 u[35] + 785 u[36] + 365 u[37] + 169 u[38] + 527 u[39] + 300 u[40]
   + 138 u[41] + 155 u[42] + 702 u[43] + 244 u[44] + 307 u[45] + 350 u[46]
   + 98 u[47] + 644 u[48] + 769 u[49] + 667 u[50] + 489 u[51] + 426 u[52]
   + 237 u[53] + 861 u[54] + 144 u[55] + 174 u[56] + 347 u[57] + 289 u[58]
   + 779 u[59] <= 9741
 primal_lower99: 178 u[0] + 6 u[1] + 924 u[2] + 61 u[3] + 374 u[4]
   + 508 u[5] + 615 u[6] + 686 u[7] + 127 u[8] + 548 u[9] + 478 u[10]
   + 317 u[11] + 126 u[12] + 438 u[13] + 215 u[14] + 759 u[15] + 727 u[16]
   + 410 u[17] + 867 u[18] + 896 u[19] + 319 u[20] + 818 u[21] + 422 u[22]
   + 329 u[23] + 887 u[24] + 890 u[25] + 84 u[26] + 738 u[27] + 152 u[28]
   + 993 u[29] + 868 u[30] + 86 u[31] + 886 u[32] + 807 u[33] + 694 u[34]
   + 995 u[35] + 342 u[36] + 975 u[37] + 982 u[38] + 337 u[39] + 657 u[40]
   + 348 u[41] + 816 u[42] + 736 u[43] + 417 u[44] + 701 u[45] + 652 u[46]
   + 420 u[47] + 89 u[48] + 106 u[49] + 737 u[50] + 706 u[51] + 191 u[52]
   + 822 u[53] + 187 u[54] + 898 u[55] + 995 u[56] + 189 u[57] + 46 u[58]
   + 420 u[59] <= 5332
 primal_lower100: 142 u[0] + 711 u[1] + 937 u[2] + 478 u[3] + 91 u[4]
   + 124 u[5] + 564 u[6] + 462 u[7] + 652 u[8] + 365 u[9] + 618 u[10]
   + 150 u[11] + 115 u[12] + 815 u[13] + 331 u[14] + 327 u[15] + 132 u[16]
   + 291 u[17] + 464 u[18] + 937 u[19] + 988 u[20] + 490 u[21] + 139 u[22]
   + 353 u[23] + 907 u[24] + 683 u[25] + 153 u[26] + 914 u[27] + 436 u[28]
   + 314 u[29] + 736 u[30] + 190 u[31] + 354 u[32] + 944 u[33] + 195 u[34]
   + 844 u[35] + 395 u[36] + 487 u[37] + 531 u[38] + 313 u[39] + 790 u[40]
   + 436 u[41] + 365 u[42] + 48 u[43] + 798 u[44] + 981 u[45] + 920 u[46]
   + 468 u[47] + 38 u[48] + 627 u[49] + 597 u[50] + 875 u[51] + 588 u[52]
   + 383 u[53] + 439 u[54] + 906 u[55] + 992 u[56] + 813 u[57] + 11 u[58]
   + 837 u[59] <= 5164
 primal_lower101: 526 u[0] + 106 u[1] + 368 u[2] + 121 u[3] + 170 u[4]
   + 328 u[5] + 435 u[6] + 58 u[7] + 67 u[8] + 264 u[9] + 586 u[10]
   + 481 u[11] + 994 u[12] + 890 u[13] + 955 u[14] + 227 u[15] + 739 u[16]
   + 998 u[17] + 183 u[18] + 508 u[19] + 99 u[20] + 486 u[21] + 658 u[22]
   + 621 u[23] + 595 u[24] + 878 u[25] + 832 u[26] + 662 u[27] + 300 u[28]
   + 933 u[29] + 776 u[30] + 34 u[31] + 634 u[32] + 547 u[33] + 122 u[34]
   + 575 u[35] + 322 u[36] + 155 u[37] + 106 u[38] + 365 u[39] + 485 u[40]
   + 688 u[41] + 4 u[42] + 540 u[43] + 149 u[44] + 577 u[45] + 64 u[46]
   + 456 u[47] + 493 u[48] + 854 u[49] + 973 u[50] + 830 u[51] + 955 u[52]
   + 90 u[53] + 367 u[54] + 118 u[55] + 559 u[56] + 105 u[57] + 514 u[58]
   + 712 u[59] <= 14118
 primal_lower102: 818 u[0] + 366 u[1] + 220 u[2] + 109 u[3] + 110 u[4]
   + 788 u[5] + 599 u[6] + 6 u[7] + 663 u[8] + 324 u[9] + 414 u[10]
   + 45 u[11] + 190 u[12] + 686 u[13] + 231 u[14] + 79 u[15] + 647 u[16]
   + 34 u[17] + 715 u[18] + 336 u[19] + 375 u[20] + 282 u[21] + 406 u[22]
   + 273 u[23] + 591 u[24] + 538 u[25] + 12 u[26] + 674 u[27] + 104 u[28]
   + 193 u[29] + 988 u[30] + 86 u[31] + 350 u[32] + 951 u[33] + 382 u[34]
   + 163 u[35] + 190 u[36] + 79 u[37] + 670 u[38] + 217 u[39] + 313 u[40]
   + 796 u[41] + 8 u[42] + 64 u[43] + 113 u[44] + 677 u[45] + 724 u[46]
   + 468 u[47] + 897 u[48] + 162 u[49] + 969 u[50] + 218 u[51] + 991 u[52]
   + 62 u[53] + 27 u[54] + 42 u[55] + 35 u[56] + 677 u[57] + 46 u[58]
   + 180 u[59] <= 3728
 primal_lower103: 331 u[0] + 743 u[1] + 629 u[2] + 750 u[3] + 335 u[4]
   + 829 u[5] + 16 u[6] + 831 u[7] + 904 u[8] + 781 u[9] + 599 u[10]
   + 574 u[11] + 671 u[12] + 127 u[13] + 128 u[14] + 280 u[15] + 968 u[16]
   + 931 u[17] + 212 u[18] + 289 u[19] + 856 u[20] + 803 u[21] + 423 u[22]
   + 434 u[23] + 640 u[24] + 491 u[25] + 837 u[26] + 363 u[27] + 473 u[28]
   + 466 u[29] + 285 u[30] + 711 u[31] + 703 u[32] + 296 u[33] + 487 u[34]
   + 556 u[35] + 7 u[36] + 872 u[37] + 103 u[38] + 10 u[39] + 674 u[40]
   + 637 u[41] + 25 u[42] + 481 u[43] + 554 u[44] + 254 u[45] + 221 u[46]
   + 29 u[47] + 978 u[48] + 979 u[49] + 578 u[50] + 755 u[51] + 896 u[52]
   + 303 u[53] + 108 u[54] + 211 u[55] + 724 u[56] + 606 u[57] + 679 u[58]
   + 301 u[59] <= 5122
 primal_lower104: 968 u[0] + 769 u[1] + 163 u[2] + 744 u[3] + 981 u[4]
   + 926 u[5] + 150 u[6] + 328 u[7] + 974 u[8] + 55 u[9] + 564 u[10]
   + 128 u[11] + 365 u[12] + 17 u[13] + 685 u[14] + 393 u[15] + 230 u[16]
   + 525 u[17] + 170 u[18] + 899 u[19] + 438 u[20] + 364 u[21] + 821 u[22]
   + 715 u[23] + 213 u[24] + 549 u[25] + 459 u[26] + 548 u[27] + 270 u[28]
   + 60 u[29] + 962 u[30] + 336 u[31] + 332 u[32] + 930 u[33] + 173 u[34]
   + 342 u[35] + 693 u[36] + 193 u[37] + 829 u[38] + 483 u[39] + 72 u[40]
   + 574 u[41] + 559 u[42] + 618 u[43] + 240 u[44] + 991 u[45] + 114 u[46]
   + 846 u[47] + 480 u[48] + 533 u[49] + 911 u[50] + 749 u[51] + 166 u[52]
   + 961 u[53] + 177 u[54] + 812 u[55] + 906 u[56] + 583 u[57] + 877 u[58]
   + 663 u[59] <= 15788
 primal_lower105: 743 u[0] + 795 u[1] + 177 u[2] + 274 u[3] + 203 u[4]
   + 665 u[5] + 804 u[6] + 955 u[7] + 36 u[8] + 441 u[9] + 427 u[10]
   + 818 u[11] + 499 u[12] + 987 u[13] + 996 u[14] + 700 u[15] + 844 u[16]
   + 191 u[17] + 224 u[18] + 29 u[19] + 660 u[20] + 775 u[21] + 587 u[22]
   + 350 u[23] + 660 u[24] + 919 u[25] + 649 u[26] + 575 u[27] + 221 u[28]
   + 54 u[29] + 313 u[30] + 827 u[31] + 427 u[32] + 980 u[33] + 371 u[34]
   + 840 u[35] + 307 u[36] + 12 u[37] + 467 u[38] + 870 u[39] + 806 u[40]
   + 633 u[41] + 741 u[42] + 237 u[43] + 790 u[44] + 250 u[45] + 321 u[46]
   + 169 u[47] + 510 u[48] + 167 u[49] + 774 u[50] + 791 u[51] + 532 u[52]
   + 387 u[53] + 192 u[54] + 839 u[55] + 488 u[56] + 122 u[57] + 91 u[58]
   + 769 u[59] <= 10427
 primal_lower106: 493 u[0] + 801 u[1] + 431 u[2] + 208 u[3] + 25 u[4]
   + 831 u[5] + 258 u[6] + 793 u[7] + 418 u[8] + 351 u[9] + 665 u[10]
   + 352 u[11] + 217 u[12] + 249 u[13] + 618 u[14] + 418 u[15] + 98 u[16]
   + 173 u[17] + 814 u[18] + 467 u[19] + 850 u[20] + 365 u[21] + 769 u[22]
   + 580 u[23] + 826 u[24] + 141 u[25] + 927 u[26] + 69 u[27] + 939 u[28]
   + 164 u[29] + 583 u[30] + 321 u[31] + 873 u[32] + 90 u[33] + 809 u[34]
   + 318 u[35] + 33 u[36] + 18 u[37] + 161 u[38] + 508 u[39] + 756 u[40]
   + 343 u[41] + 779 u[42] + 555 u[43] + 700 u[44] + 24 u[45] + 783 u[46]
   + 759 u[47] + 36 u[48] + 917 u[49] + 52 u[50] + 53 u[51] + 874 u[52]
   + 137 u[53] + 734 u[54] + 85 u[55] + 654 u[56] + 208 u[57] + 217 u[58]
   + 887 u[59] <= 4596
 primal_lower107: 842 u[0] + 923 u[1] + 221 u[2] + 802 u[3] + 31 u[4]
   + 8 u[5] + 592 u[6] + 442 u[7] + 512 u[8] + 161 u[9] + 542 u[10]
   + 738 u[11] + 543 u[12] + 147 u[13] + 359 u[14] + 955 u[15] + 32 u[16]
   + 319 u[17] + 964 u[18] + 285 u[19] + 160 u[20] + 958 u[21] + 439 u[22]
   + 709 u[23] + 55 u[24] + 455 u[25] + 797 u[26] + 622 u[27] + 776 u[28]
   + 294 u[29] + 132 u[30] + 554 u[31] + 630 u[32] + 980 u[33] + 359 u[34]
   + 256 u[35] + 935 u[36] + 659 u[37] + 831 u[38] + 237 u[39] + 770 u[40]
   + 96 u[41] + 57 u[42] + 380 u[43] + 290 u[44] + 897 u[45] + 596 u[46]
   + 288 u[47] + 842 u[48] + 39 u[49] + 65 u[50] + 279 u[51] + 544 u[52]
   + 83 u[53] + 67 u[54] + 238 u[55] + 708 u[56] + 777 u[57] + 679 u[58]
   + 929 u[59] <= 19253
 primal_lower108: 12 u[0] + 357 u[1] + 175 u[2] + 372 u[3] + 697 u[4]
   + 370 u[5] + 282 u[6] + 804 u[7] + 738 u[8] + 451 u[9] + 248 u[10]
   + 228 u[11] + 329 u[12] + 957 u[13] + 441 u[14] + 221 u[15] + 650 u[16]
   + 953 u[17] + 678 u[18] + 567 u[19] + 122 u[20] + 368 u[21] + 545 u[22]
   + 311 u[23] + 177 u[24] + 745 u[25] + 783 u[26] + 472 u[27] + 298 u[28]
   + 56 u[29] + 510 u[30] + 556 u[31] + 168 u[32] + 230 u[33] + 825 u[34]
   + 530 u[35] + 433 u[36] + 469 u[37] + 569 u[38] + 911 u[39] + 732 u[40]
   + 90 u[41] + 875 u[42] + 110 u[43] + 524 u[44] + 3 u[45] + 902 u[46]
   + 594 u[47] + 980 u[48] + 489 u[49] + 587 u[50] + 321 u[51] + 138 u[52]
   + 725 u[53] + 365 u[54] + 888 u[55] + 686 u[56] + 811 u[57] + 529 u[58]
   + 123 u[59] <= 9693
 primal_lower109: 839 u[0] + 688 u[1] + 922 u[2] + 759 u[3] + 972 u[4]
   + 429 u[5] + 973 u[6] + 23 u[7] + 605 u[8] + 182 u[9] + 531 u[10]
   + 199 u[11] + 692 u[12] + 376 u[13] + 380 u[14] + 408 u[15] + 317 u[16]
   + 612 u[17] + 361 u[18] + 906 u[19] + 461 u[20] + 595 u[21] + 604 u[22]
   + 834 u[23] + 764 u[24] + 660 u[25] + 442 u[26] + 115 u[27] + 989 u[28]
   + 371 u[29] + 737 u[30] + 135 u[31] + 251 u[32] + 169 u[33] + 620 u[34]
   + 13 u[35] + 484 u[36] + 400 u[37] + 100 u[38] + 122 u[39] + 327 u[40]
   + 493 u[41] + 662 u[42] + 737 u[43] + 47 u[44] + 574 u[45] + u[46]
   + 29 u[47] + 967 u[48] + 188 u[49] + 334 u[50] + 852 u[51] + 101 u[52]
   + 392 u[53] + 560 u[54] + 603 u[55] + 905 u[56] + 126 u[57] + 316 u[58]
   + 134 u[59] <= 14194
 primal_lower110: 349 u[0] + 886 u[1] + 536 u[2] + 541 u[3] + 770 u[4]
   + 659 u[5] + 643 u[6] + 573 u[7] + 67 u[8] + 92 u[9] + 481 u[10]
   + 85 u[11] + 298 u[12] + 78 u[13] + 722 u[14] + 750 u[15] + 691 u[16]
   + 50 u[17] + 239 u[18] + 600 u[19] + 507 u[20] + 289 u[21] + 898 u[22]
   + 440 u[23] + 914 u[24] + 866 u[25] + 136 u[26] + 385 u[27] + 379 u[28]
   + 145 u[29] + 991 u[30] + 301 u[31] + 705 u[32] + 743 u[33] + 458 u[34]
   + 195 u[35] + 858 u[36] + 294 u[37] + 322 u[38] + 896 u[39] + 829 u[40]
   + 979 u[41] + 532 u[42] + 199 u[43] + 725 u[44] + 620 u[45] + 23 u[46]
   + 979 u[47] + 445 u[48] + 370 u[49] + 900 u[50] + 26 u[51] + 755 u[52]
   + 486 u[53] + 190 u[54] + 625 u[55] + 543 u[56] + 764 u[57] + 578 u[58]
   + 932 u[59] <= 5222
 primal_lower111: 45 u[0] + 561 u[1] + 199 u[2] + 624 u[3] + 809 u[4]
   + 791 u[5] + 154 u[6] + 105 u[7] + 674 u[8] + 983 u[9] + 513 u[10]
   + 824 u[11] + 41 u[12] + 233 u[13] + 698 u[14] + 426 u[15] + 562 u[16]
   + 493 u[17] + 822 u[18] + 547 u[19] + 650 u[20] + 685 u[21] + 177 u[22]
   + 660 u[23] + 218 u[24] + 37 u[25] + 455 u[26] + 181 u[27] + 819 u[28]
   + 364 u[29] + 695 u[30] + 145 u[31] + 9 u[32] + 290 u[33] + 17 u[34]
   + 542 u[35] + 113 u[36] + 330 u[37] + 505 u[38] + 348 u[39] + 876 u[40]
   + 535 u[41] + 723 u[42] + 187 u[43] + 804 u[44] + 160 u[45] + 423 u[46]
   + 743 u[47] + 836 u[48] + 621 u[49] + 260 u[50] + 245 u[51] + 666 u[52]
   + 505 u[53] + 646 u[54] + 933 u[55] + 246 u[56] + 352 u[57] + 417 u[58]
   + 159 u[59] <= 4613
 primal_lower112: 211 u[0] + 327 u[1] + 389 u[2] + 110 u[3] + 7 u[4]
   + 501 u[5] + 848 u[6] + 15 u[7] + 296 u[8] + 669 u[9] + 735 u[10]
   + 302 u[11] + 135 u[12] + 295 u[13] + 504 u[14] + 688 u[15] + 648 u[16]
   + 283 u[17] + 516 u[18] + 993 u[19] + 920 u[20] + 307 u[21] + 743 u[22]
   + 514 u[23] + 544 u[24] + 771 u[25] + 245 u[26] + 339 u[27] + 329 u[28]
   + 698 u[29] + 253 u[30] + 495 u[31] + 231 u[32] + 752 u[33] + 87 u[34]
   + 916 u[35] + 471 u[36] + 760 u[37] + 767 u[38] + 522 u[39] + 114 u[40]
   + 917 u[41] + 721 u[42] + 609 u[43] + 18 u[44] + 318 u[45] + 213 u[46]
   + 117 u[47] + 538 u[48] + 851 u[49] + 122 u[50] + 379 u[51] + 920 u[52]
   + 991 u[53] + 852 u[54] + 531 u[55] + 876 u[56] + 366 u[57] + 895 u[58]
   + 309 u[59] <= 993
 primal_lower113: 416 u[0] + 673 u[1] + 723 u[2] + 288 u[3] + 933 u[4]
   + 382 u[5] + 998 u[6] + 928 u[7] + 206 u[8] + 159 u[9] + 20 u[10]
   + 288 u[11] + 997 u[12] + 233 u[13] + 109 u[14] + 169 u[15] + 606 u[16]
   + 637 u[17] + 890 u[18] + 75 u[19] + 574 u[20] + 724 u[21] + 165 u[22]
   + 83 u[23] + 205 u[24] + 317 u[25] + 51 u[26] + 956 u[27] + 966 u[28]
   + 980 u[29] + 34 u[30] + 928 u[31] + 748 u[32] + 354 u[33] + 749 u[34]
   + 430 u[35] + 693 u[36] + 105 u[37] + 509 u[38] + 891 u[39] + 872 u[40]
   + 238 u[41] + 159 u[42] + 618 u[43] + 536 u[44] + 815 u[45] + 882 u[46]
   + 102 u[47] + 272 u[48] + 485 u[49] + 799 u[50] + 837 u[51] + 486 u[52]
   + 929 u[53] + 505 u[54] + 20 u[55] + 842 u[56] + 815 u[57] + 405 u[58]
   + 599 u[59] <= 20938
 primal_lower114: 686 u[0] + 679 u[1] + 537 u[2] + 622 u[3] + 987 u[4]
   + 268 u[5] + 140 u[6] + 606 u[7] + 452 u[8] + 165 u[9] + 914 u[10]
   + 558 u[11] + 219 u[12] + 751 u[13] + 739 u[14] + 495 u[15] + 36 u[16]
   + 35 u[17] + 616 u[18] + 585 u[19] + 148 u[20] + 818 u[21] + 955 u[22]
   + 465 u[23] + 179 u[24] + 323 u[25] + 889 u[26] + 66 u[27] + 876 u[28]
   + 754 u[29] + 744 u[30] + 974 u[31] + 50 u[32] + 912 u[33] + 947 u[34]
   + 852 u[35] + 547 u[36] + 79 u[37] + 883 u[38] + 209 u[39] + 502 u[40]
   + 732 u[41] + 525 u[42] + 80 u[43] + 86 u[44] + 421 u[45] + 528 u[46]
   + 476 u[47] + 246 u[48] + 571 u[49] + 157 u[50] + 491 u[51] + 36 u[52]
   + 151 u[53] + 687 u[54] + 218 u[55] + 144 u[56] + 509 u[57] + 739 u[58]
   + 573 u[59] <= 19754
 primal_lower115: 939 u[0] + 780 u[1] + 46 u[2] + 803 u[3] + 280 u[4]
   + 457 u[5] + 697 u[6] + 643 u[7] + 585 u[8] + 162 u[9] + 991 u[10]
   + 531 u[11] + 360 u[12] + 364 u[13] + 912 u[14] + 444 u[15] + 873 u[16]
   + 24 u[17] + 381 u[18] + 614 u[19] + 777 u[20] + 959 u[21] + 952 u[22]
   + 710 u[23] + 16 u[24] + 848 u[25] + 262 u[26] + 471 u[27] + 745 u[28]
   + 783 u[29] + 973 u[30] + 475 u[31] + 55 u[32] + 429 u[33] + 416 u[34]
   + 505 u[35] + 416 u[36] + 348 u[37] + 232 u[38] + 782 u[39] + 907 u[40]
   + 97 u[41] + 322 u[42] + 141 u[43] + 307 u[44] + 322 u[45] + 333 u[46]
   + 657 u[47] + 251 u[48] + 240 u[49] + 154 u[50] + 56 u[51] + 913 u[52]
   + 788 u[53] + 508 u[54] + 31 u[55] + 109 u[56] + 74 u[57] + 248 u[58]
   + 818 u[59] <= 991
 primal_lower116: 269 u[0] + 622 u[1] + 792 u[2] + 949 u[3] + 482 u[4]
   + 99 u[5] + 395 u[6] + 749 u[7] + 683 u[8] + 236 u[9] + 257 u[10]
   + 405 u[11] + 298 u[12] + 374 u[13] + 74 u[14] + 638 u[15] + 683 u[16]
   + 530 u[17] + 551 u[18] + 440 u[19] + 947 u[20] + 529 u[21] + 370 u[22]
   + 56 u[23] + 474 u[24] + 186 u[25] + 776 u[26] + 65 u[27] + 203 u[28]
   + 73 u[29] + 15 u[30] + 909 u[31] + 209 u[32] + 215 u[33] + 226 u[34]
   + 731 u[35] + 386 u[36] + 790 u[37] + 426 u[38] + 784 u[39] + 773 u[40]
   + 571 u[41] + 228 u[42] + 575 u[43] + 421 u[44] + 524 u[45] + 287 u[46]
   + 115 u[47] + 693 u[48] + 34 u[49] + 68 u[50] + 506 u[51] + 451 u[52]
   + 430 u[53] + 110 u[54] + 177 u[55] + 999 u[56] + 540 u[57] + 642 u[58]
   + 324 u[59] <= 13182
 primal_lower117: 530 u[0] + 614 u[1] + 188 u[2] + 285 u[3] + 614 u[4]
   + 164 u[5] + 159 u[6] + 638 u[7] + 519 u[8] + 284 u[9] + 934 u[10]
   + 205 u[11] + 958 u[12] + 878 u[13] + 519 u[14] + 87 u[15] + 23 u[16]
   + 130 u[17] + 763 u[18] + 264 u[19] + 687 u[20] + 202 u[21] + 870 u[22]
   + 657 u[23] + 167 u[24] + 722 u[25] + 540 u[26] + 178 u[27] + 944 u[28]
   + 233 u[29] + 980 u[30] + 886 u[31] + 310 u[32] + 311 u[33] + 678 u[34]
   + 995 u[35] + 334 u[36] + 639 u[37] + 262 u[38] + 521 u[39] + 49 u[40]
   + 556 u[41] + 992 u[42] + 240 u[43] + 473 u[44] + 461 u[45] + 948 u[46]
   + 580 u[47] + 913 u[48] + 690 u[49] + 753 u[50] + 722 u[51] + 783 u[52]
   + 678 u[53] + 331 u[54] + 562 u[55] + 667 u[56] + 493 u[57] + 798 u[58]
   + 692 u[59] <= 5375
 primal_lower118: 565 u[0] + 689 u[1] + 103 u[2] + 144 u[3] + 793 u[4]
   + 927 u[5] + 642 u[6] + 105 u[7] + 738 u[8] + 535 u[9] + 57 u[10]
   + 592 u[11] + 113 u[12] + 385 u[13] + 698 u[14] + 106 u[15] + 554 u[16]
   + 645 u[17] + 14 u[18] + 147 u[19] + 106 u[20] + 629 u[21] + 249 u[22]
   + 20 u[23] + 506 u[24] + 869 u[25] + 527 u[26] + 21 u[27] + 827 u[28]
   + 4 u[29] + 647 u[30] + 121 u[31] + 177 u[32] + 306 u[33] + 417 u[34]
   + 790 u[35] + 713 u[36] + 666 u[37] + 65 u[38] + 932 u[39] + 644 u[40]
   + 655 u[41] + 379 u[42] + 403 u[43] + 556 u[44] + 640 u[45] + 743 u[46]
   + 15 u[47] + 436 u[48] + 197 u[49] + 796 u[50] + 45 u[51] + 674 u[52]
   + 897 u[53] + 6 u[54] + 269 u[55] + 54 u[56] + 344 u[57] + 353 u[58]
   + 639 u[59] <= 4314
 primal_lower119: 255 u[0] + 24 u[1] + 546 u[2] + 127 u[3] + 828 u[4]
   + 541 u[5] + 389 u[6] + 847 u[7] + 285 u[8] + 798 u[9] + 179 u[10]
   + 895 u[11] + 140 u[12] + 176 u[13] + 948 u[14] + 488 u[15] + 533 u[16]
   + 972 u[17] + 25 u[18] + 698 u[19] + 845 u[20] + 491 u[21] + 244 u[22]
   + 170 u[23] + 348 u[24] + 4 u[25] + 10 u[26] + 803 u[27] + 573 u[28]
   + 587 u[29] + 305 u[30] + 447 u[31] + 563 u[32] + 985 u[33] + 76 u[34]
   + 149 u[35] + 20 u[36] + 160 u[37] + 804 u[38] + 666 u[39] + 591 u[40]
   + 133 u[41] + 6 u[42] + 321 u[43] + 327 u[44] + 142 u[45] + 473 u[46]
   + 861 u[47] + 943 u[48] + 228 u[49] + 246 u[50] + 164 u[51] + 949 u[52]
   + 784 u[53] + 480 u[54] + 619 u[55] + 289 u[56] + 358 u[57] + 788 u[58]
   + 598 u[59] <= 9081
 primal_lower120: 230 u[0] + 306 u[1] + 760 u[2] + 649 u[3] + 522 u[4]
   + 88 u[5] + 451 u[6] + 842 u[7] + 115 u[8] + 928 u[9] + 690 u[10]
   + 113 u[11] + 874 u[12] + 866 u[13] + 251 u[14] + 739 u[15] + 987 u[16]
   + 606 u[17] + 951 u[18] + 412 u[19] + 843 u[20] + 182 u[21] + 154 u[22]
   + 933 u[23] + 19 u[24] + 254 u[25] + 184 u[26] + 286 u[27] + 660 u[28]
   + 125 u[29] + 696 u[30] + 282 u[31] + 538 u[32] + 747 u[33] + 514 u[34]
   + 191 u[35] + 666 u[36] + 691 u[37] + 186 u[38] + 693 u[39] + 277 u[40]
   + 488 u[41] + 460 u[42] + 444 u[43] + 389 u[44] + 89 u[45] + 584 u[46]
   + 504 u[47] + 77 u[48] + 918 u[49] + 557 u[50] + 742 u[51] + 859 u[52]
   + 250 u[53] + 615 u[54] + 886 u[55] + 295 u[56] + 281 u[57] + 282 u[58]
   + 280 u[59] <= 9833
 primal_lower121: 580 u[0] + 973 u[1] + 943 u[2] + 4 u[3] + 745 u[4]
   + 362 u[5] + 322 u[6] + 116 u[7] + 322 u[8] + 563 u[9] + 400 u[10]
   + 876 u[11] + 49 u[12] + 301 u[13] + 921 u[14] + 173 u[15] + 146 u[16]
   + 233 u[17] + 670 u[18] + 535 u[19] + 10 u[20] + 920 u[21] + 849 u[22]
   + 871 u[23] + 361 u[24] + 353 u[25] + 207 u[26] + 464 u[27] + 146 u[28]
   + 968 u[29] + 822 u[30] + 676 u[31] + 400 u[32] + 166 u[33] + 953 u[34]
   + 714 u[35] + 593 u[36] + 173 u[37] + 569 u[38] + 895 u[39] + 220 u[40]
   + 170 u[41] + 259 u[42] + 430 u[43] + 76 u[44] + 123 u[45] + 398 u[46]
   + 842 u[47] + 260 u[48] + 577 u[49] + 147 u[50] + 553 u[51] + 890 u[52]
   + 45 u[53] + 165 u[54] + 728 u[55] + 686 u[56] + 787 u[57] + 609 u[58]
   + 379 u[59] <= 9562
 primal_lower122: 341 u[0] + 849 u[1] + 391 u[2] + 544 u[3] + 33 u[4]
   + 47 u[5] + 162 u[6] + 217 u[7] + 178 u[8] + 215 u[9] + 857 u[10]
   + 600 u[11] + 905 u[12] + 553 u[13] + 834 u[14] + 498 u[15] + 306 u[16]
   + 405 u[17] + 438 u[18] + 331 u[19] + 722 u[20] + 685 u[21] + 961 u[22]
   + 236 u[23] + 890 u[24] + 973 u[25] + 959 u[26] + 117 u[27] + 83 u[28]
   + 396 u[29] + 791 u[30] + 17 u[31] + 449 u[32] + 250 u[33] + 969 u[34]
   + 766 u[35] + 201 u[36] + 666 u[37] + 601 u[38] + 300 u[39] + 20 u[40]
   + 239 u[41] + 939 u[42] + 539 u[43] + 284 u[44] + 624 u[45] + 431 u[46]
   + 159 u[47] + 108 u[48] + 757 u[49] + 84 u[50] + 293 u[51] + 410 u[52]
   + 385 u[53] + 806 u[54] + 925 u[55] + 918 u[56] + 680 u[57] + 609 u[58]
   + 111 u[59] <= 973
 primal_lower123: 616 u[0] + 673 u[1] + 851 u[2] + 424 u[3] + 517 u[4]
   + 358 u[5] + 806 u[6] + 784 u[7] + 382 u[8] + 183 u[9] + 84 u[10]
   + 752 u[11] + 653 u[12] + 161 u[13] + 733 u[14] + 969 u[15] + 6 u[16]
   + 133 u[17] + 266 u[18] + 219 u[19] + 398 u[20] + 932 u[21] + 997 u[22]
   + 795 u[23] + 661 u[24] + 909 u[25] + 819 u[26] + 772 u[27] + 894 u[28]
   + 956 u[29] + 666 u[30] + 616 u[31] + 388 u[32] + 122 u[33] + 517 u[34]
   + 366 u[35] + 781 u[36] + 657 u[37] + 685 u[38] + 723 u[39] + 840 u[40]
   + 286 u[41] + 543 u[42] + 594 u[43] + 824 u[44] + 823 u[45] + 130 u[46]
   + 446 u[47] + 72 u[48] + 677 u[49] + 335 u[50] + 557 u[51] + 814 u[52]
   + 553 u[53] + 761 u[54] + 492 u[55] + 730 u[56] + 431 u[57] + 229 u[58]
   + 119 u[59] <= 16740
 primal_lower124: 941 u[0] + 873 u[1] + 423 u[2] + 80 u[3] + 609 u[4]
   + 271 u[5] + 138 u[6] + 937 u[7] + 2 u[8] + 895 u[9] + 873 u[10]
   + 696 u[11] + 25 u[12] + 865 u[13] + 482 u[14] + 898 u[15] + 458 u[16]
   + 69 u[17] + 670 u[18] + 611 u[19] + 922 u[20] + 789 u[21] + 737 u[22]
   + 820 u[23] + 626 u[24] + 173 u[25] + 863 u[26] + 813 u[27] + 443 u[28]
   + 524 u[29] + 159 u[30] + 609 u[31] + 513 u[32] + 106 u[33] + 897 u[34]
   + 750 u[35] + 993 u[36] + 626 u[37] + 329 u[38] + 292 u[39] + 596 u[40]
   + 983 u[41] + 915 u[42] + 739 u[43] + 796 u[44] + 368 u[45] + 943 u[46]
   + 991 u[47] + 532 u[48] + 637 u[49] + 892 u[50] + 501 u[51] + 850 u[52]
   + 33 u[53] + 750 u[54] + 861 u[55] + 326 u[56] + 752 u[57] + 977 u[58]
   + 527 u[59] <= 12256
 primal_lower125: 426 u[0] + 947 u[1] + 917 u[2] + 602 u[3] + 455 u[4]
   + 392 u[5] + 176 u[6] + 50 u[7] + 832 u[8] + 225 u[9] + 30 u[10]
   + 498 u[11] + 407 u[12] + 59 u[13] + 63 u[14] + 91 u[15] + 120 u[16]
   + 895 u[17] + 252 u[18] + 85 u[19] + 376 u[20] + 670 u[21] + 327 u[22]
   + 757 u[23] + 455 u[24] + 871 u[25] + 709 u[26] + 46 u[27] + 384 u[28]
   + 350 u[29] + 44 u[30] + 930 u[31] + 718 u[32] + 900 u[33] + 935 u[34]
   + 984 u[35] + 847 u[36] + 787 u[37] + 495 u[38] + 557 u[39] + 258 u[40]
   + 8 u[41] + 801 u[42] + 860 u[43] + 258 u[44] + 705 u[45] + 484 u[46]
   + 208 u[47] + 106 u[48] + 31 u[49] + 257 u[50] + 735 u[51] + 848 u[52]
   + 939 u[53] + 891 u[54] + 302 u[55] + 964 u[56] + 201 u[57] + 567 u[58]
   + 113 u[59] <= 4866
 primal_lower126: 242 u[0] + 427 u[1] + 941 u[2] + 570 u[3] + 367 u[4]
   + 264 u[5] + 648 u[6] + 698 u[7] + 656 u[8] + 601 u[9] + 414 u[10]
   + 90 u[11] + 103 u[12] + 755 u[13] + 423 u[14] + 91 u[15] + 168 u[16]
   + 183 u[17] + 628 u[18] + 373 u[19] + 496 u[20] + 526 u[21] + 623 u[22]
   + 189 u[23] + 111 u[24] + 279 u[25] + 101 u[26] + 182 u[27] + 416 u[28]
   + 878 u[29] + 940 u[30] + 346 u[31] + 190 u[32] + 644 u[33] + 167 u[34]
   + 480 u[35] + 359 u[36] + 283 u[37] + 959 u[38] + 485 u[39] + 986 u[40]
   + 72 u[41] + 89 u[42] + 620 u[43] + 18 u[44] + 241 u[45] + 836 u[46]
   + 184 u[47] + 554 u[48] + 767 u[49] + 505 u[50] + 199 u[51] + 296 u[52]
   + 611 u[53] + 747 u[54] + 950 u[55] + 868 u[56] + 481 u[57] + 95 u[58]
   + 865 u[59] <= 9093
 primal_lower127: 551 u[0] + 968 u[1] + 218 u[2] + 471 u[3] + 908 u[4]
   + 501 u[5] + 229 u[6] + 479 u[7] + 957 u[8] + 606 u[9] + 107 u[10]
   + 151 u[11] + 868 u[12] + 312 u[13] + 980 u[14] + 976 u[15] + 381 u[16]
   + 148 u[17] + 785 u[18] + 570 u[19] + 333 u[20] + 603 u[21] + 644 u[22]
   + 210 u[23] + 100 u[24] + 12 u[25] + 618 u[26] + 603 u[27] + 229 u[28]
   + 115 u[29] + 473 u[30] + 319 u[31] + 363 u[32] + 841 u[33] + 596 u[34]
   + 693 u[35] + 988 u[36] + 64 u[37] + 444 u[38] + 570 u[39] + 423 u[40]
   + 85 u[41] + 982 u[42] + 377 u[43] + 351 u[44] + 534 u[45] + 561 u[46]
   + 493 u[47] + 503 u[48] + 404 u[49] + 582 u[50] + 556 u[51] + 493 u[52]
   + 144 u[53] + 600 u[54] + 835 u[55] + 201 u[56] + 654 u[57] + 300 u[58]
   + 526 u[59] <= 19725
 primal_lower128: 830 u[0] + 498 u[1] + 224 u[2] + 705 u[3] + 730 u[4]
   + 104 u[5] + 459 u[6] + 298 u[7] + 907 u[8] + 432 u[9] + 458 u[10]
   + 585 u[11] + 170 u[12] + 770 u[13] + 147 u[14] + 651 u[15] + 315 u[16]
   + 54 u[17] + 319 u[18] + 468 u[19] + 171 u[20] + 542 u[21] + 746 u[22]
   + 389 u[23] + 371 u[24] + 526 u[25] + 624 u[26] + 318 u[27] + 828 u[28]
   + 693 u[29] + 376 u[30] + 762 u[31] + 442 u[32] + 195 u[33] + 146 u[34]
   + 519 u[35] + 418 u[36] + 731 u[37] + 594 u[38] + 869 u[39] + 893 u[40]
   + 208 u[41] + 164 u[42] + 636 u[43] + 701 u[44] + 161 u[45] + 104 u[46]
   + 312 u[47] + 205 u[48] + 566 u[49] + 317 u[50] + 310 u[51] + 339 u[52]
   + 634 u[53] + 439 u[54] + 198 u[55] + 247 u[56] + 473 u[57] + 690 u[58]
   + 592 u[59] <= 18382
 primal_lower129: 238 u[0] + 858 u[1] + 912 u[2] + 337 u[3] + 386 u[4]
   + 920 u[5] + 659 u[6] + 346 u[7] + 451 u[8] + 376 u[9] + 274 u[10]
   + 985 u[11] + 682 u[12] + 906 u[13] + 843 u[14] + 259 u[15] + 515 u[16]
   + 6 u[17] + 519 u[18] + 804 u[19] + 435 u[20] + 630 u[21] + 738 u[22]
   + 741 u[23] + 331 u[24] + 206 u[25] + 800 u[26] + 702 u[27] + 348 u[28]
   + 773 u[29] + 336 u[30] + 642 u[31] + 506 u[32] + 699 u[33] + 362 u[34]
   + 47 u[35] + 226 u[36] + 235 u[37] + 594 u[38] + 573 u[39] + 789 u[40]
   + 560 u[41] + 508 u[42] + 740 u[43] + 213 u[44] + 449 u[45] + 64 u[46]
   + 1000 u[47] + 85 u[48] + 462 u[49] + 973 u[50] + 598 u[51] + 155 u[52]
   + 474 u[53] + 975 u[54] + 702 u[55] + 479 u[56] + 857 u[57] + 906 u[58]
   + 560 u[59] <= 16374
 primal_lower130: 139 u[0] + 903 u[1] + 813 u[2] + 598 u[3] + 95 u[4]
   + 109 u[5] + 104 u[6] + 223 u[7] + 144 u[8] + 869 u[9] + 927 u[10]
   + 734 u[11] + 103 u[12] + 167 u[13] + 320 u[14] + 416 u[15] + 296 u[16]
   + 267 u[17] + 460 u[18] + 593 u[19] + 272 u[20] + 347 u[21] + 71 u[22]
   + 346 u[23] + 752 u[24] + 115 u[25] + 365 u[26] + 251 u[27] + 641 u[28]
   + 354 u[29] + 69 u[30] + 503 u[31] + 479 u[32] + 432 u[33] + 855 u[34]
   + 956 u[35] + 863 u[36] + 872 u[37] + 407 u[38] + 50 u[39] + 914 u[40]
   + 469 u[41] + 881 u[42] + 81 u[43] + 706 u[44] + 246 u[45] + 949 u[46]
   + 269 u[47] + 426 u[48] + 611 u[49] + 890 u[50] + 923 u[51] + 920 u[52]
   + 711 u[53] + 540 u[54] + 379 u[55] + 524 u[56] + 198 u[57] + 79 u[58]
   + 533 u[59] <= 9509
 primal_lower131: 781 u[0] + 481 u[1] + 431 u[2] + 96 u[3] + 209 u[4]
   + 191 u[5] + 770 u[6] + 145 u[7] + 298 u[8] + 559 u[9] + 33 u[10]
   + 248 u[11] + 49 u[12] + u[13] + 762 u[14] + 410 u[15] + 674 u[16]
   + 589 u[17] + 502 u[18] + 555 u[19] + 730 u[20] + 733 u[21] + 761 u[22]
   + 924 u[23] + 162 u[24] + 765 u[25] + 919 u[26] + 853 u[27] + 91 u[28]
   + 764 u[29] + 239 u[30] + 865 u[31] + 657 u[32] + 202 u[33] + 961 u[34]
   + 598 u[35] + 233 u[36] + 450 u[37] + 209 u[38] + 588 u[39] + 516 u[40]
   + 111 u[41] + 483 u[42] + 803 u[43] + 708 u[44] + 384 u[45] + 351 u[46]
   + 807 u[47] + 948 u[48] + 557 u[49] + 116 u[50] + 205 u[51] + 50 u[52]
   + 761 u[53] + 150 u[54] + 669 u[55] + 294 u[56] + 560 u[57] + 729 u[58]
   + 31 u[59] <= 9573
 primal_lower132: 819 u[0] + 447 u[1] + 741 u[2] + 230 u[3] + 303 u[4]
   + 237 u[5] + 704 u[6] + 167 u[7] + 400 u[8] + 365 u[9] + 751 u[10]
   + 38 u[11] + 111 u[12] + 903 u[13] + 816 u[14] + 584 u[15] + 24 u[16]
   + 459 u[17] + 692 u[18] + 905 u[19] + 264 u[20] + 635 u[21] + 783 u[22]
   + 626 u[23] + 872 u[24] + 779 u[25] + 173 u[26] + 683 u[27] + 961 u[28]
   + 762 u[29] + 797 u[30] + 519 u[31] + 455 u[32] + 904 u[33] + 7 u[34]
   + 148 u[35] + 751 u[36] + 304 u[37] + 95 u[38] + 258 u[39] + 434 u[40]
   + 61 u[41] + 409 u[42] + 121 u[43] + 194 u[44] + 430 u[45] + 821 u[46]
   + 525 u[47] + 442 u[48] + 147 u[49] + 210 u[50] + 683 u[51] + 184 u[52]
   + 959 u[53] + 484 u[54] + 43 u[55] + 532 u[56] + 414 u[57] + 967 u[58]
   + 557 u[59] <= 967
 primal_lower133: 869 u[0] + 969 u[1] + 31 u[2] + 200 u[3] + 353 u[4]
   + 679 u[5] + 698 u[6] + 753 u[7] + 354 u[8] + 695 u[9] + 953 u[10]
   + 600 u[11] + 89 u[12] + 513 u[13] + 258 u[14] + 90 u[15] + 722 u[16]
   + 357 u[17] + 190 u[18] + 875 u[19] + 314 u[20] + 157 u[21] + 825 u[22]
   + 236 u[23] + 866 u[24] + 301 u[25] + 7 u[26] + 45 u[27] + 739 u[28]
   + 748 u[29] + 903 u[30] + 113 u[31] + 625 u[32] + 402 u[33] + 209 u[34]
   + 614 u[35] + 665 u[36] + 522 u[37] + 393 u[38] + 348 u[39] + 788 u[40]
   + 447 u[41] + 635 u[42] + 195 u[43] + 788 u[44] + 688 u[45] + 703 u[46]
   + 543 u[47] + 332 u[48] + 549 u[49] + 492 u[50] + 421 u[51] + 402 u[52]
   + 249 u[53] + 446 u[54] + 77 u[55] + 950 u[56] + 144 u[57] + 289 u[58]
   + 903 u[59] <= 14660
 primal_lower134: 462 u[0] + 474 u[1] + 880 u[2] + 425 u[3] + 690 u[4]
   + 48 u[5] + 235 u[6] + 546 u[7] + 915 u[8] + 632 u[9] + 946 u[10]
   + 897 u[11] + 546 u[12] + 498 u[13] + 35 u[14] + 283 u[15] + 11 u[16]
   + 214 u[17] + 167 u[18] + 916 u[19] + 427 u[20] + 974 u[21] + 482 u[22]
   + 717 u[23] + 939 u[24] + 982 u[25] + 608 u[26] + 566 u[27] + 284 u[28]
   + 517 u[29] + 336 u[30] + 90 u[31] + 146 u[32] + 123 u[33] + 826 u[34]
   + 503 u[35] + 962 u[36] + 987 u[37] + 50 u[38] + 541 u[39] + 789 u[40]
   + 752 u[41] + 588 u[42] + 732 u[43] + 13 u[44] + 153 u[45] + 56 u[46]
   + 424 u[47] + 437 u[48] + 110 u[49] + 237 u[50] + 734 u[51] + 995 u[52]
   + 706 u[53] + 47 u[54] + 990 u[55] + 935 u[56] + 849 u[57] + 234 u[58]
   + 912 u[59] <= 995
 primal_lower135: 3 u[0] + 188 u[1] + 790 u[2] + 179 u[3] + 304 u[4]
   + 793 u[5] + 801 u[6] + 467 u[7] + 833 u[8] + 730 u[9] + 103 u[10]
   + 35 u[11] + 464 u[12] + 516 u[13] + 968 u[14] + 804 u[15] + 849 u[16]
   + 584 u[17] + 277 u[18] + 694 u[19] + 249 u[20] + 679 u[21] + 392 u[22]
   + 614 u[23] + 664 u[24] + 624 u[25] + 726 u[26] + 527 u[27] + 761 u[28]
   + 335 u[29] + 749 u[30] + 763 u[31] + 647 u[32] + 29 u[33] + 728 u[34]
   + 817 u[35] + 1000 u[36] + 460 u[37] + 88 u[38] + 942 u[39] + 979 u[40]
   + 617 u[41] + 378 u[42] + 77 u[43] + 971 u[44] + 434 u[45] + 21 u[46]
   + 65 u[47] + 715 u[48] + 192 u[49] + 442 u[50] + 536 u[51] + 449 u[52]
   + 700 u[53] + 700 u[54] + 487 u[55] + 245 u[56] + 466 u[57] + 112 u[58]
   + 442 u[59] <= 5200
 primal_lower136: 45 u[0] + 729 u[1] + 439 u[2] + 144 u[3] + 441 u[4]
   + 583 u[5] + 186 u[6] + 649 u[7] + 834 u[8] + 615 u[9] + 265 u[10]
   + 8 u[11] + 217 u[12] + 633 u[13] + 946 u[14] + 938 u[15] + 738 u[16]
   + 277 u[17] + 958 u[18] + 515 u[19] + 778 u[20] + 941 u[21] + 609 u[22]
   + 340 u[23] + 26 u[24] + 301 u[25] + 799 u[26] + 325 u[27] + 435 u[28]
   + 804 u[29] + 7 u[30] + 841 u[31] + 233 u[32] + 882 u[33] + 721 u[34]
   + 886 u[35] + 73 u[36] + 218 u[37] + 993 u[38] + 916 u[39] + 916 u[40]
   + 511 u[41] + 451 u[42] + 371 u[43] + 604 u[44] + 488 u[45] + 623 u[46]
   + 719 u[47] + 540 u[48] + 197 u[49] + 212 u[50] + 797 u[51] + 706 u[52]
   + 433 u[53] + 526 u[54] + 309 u[55] + 982 u[56] + 664 u[57] + 649 u[58]
   + 55 u[59] <= 21360
 primal_lower137: 761 u[0] + 922 u[1] + 476 u[2] + 473 u[3] + 694 u[4]
   + 295 u[5] + 599 u[6] + 937 u[7] + 223 u[8] + 688 u[9] + 397 u[10]
   + 393 u[11] + 950 u[12] + 602 u[13] + 230 u[14] + 922 u[15] + 351 u[16]
   + 918 u[17] + 155 u[18] + 660 u[19] + 295 u[20] + 349 u[21] + 726 u[22]
   + 700 u[23] + 62 u[24] + 654 u[25] + 364 u[26] + 621 u[27] + 543 u[28]
   + 157 u[29] + 467 u[30] + 729 u[31] + 477 u[32] + 603 u[33] + 934 u[34]
   + 487 u[35] + 638 u[36] + 170 u[37] + 158 u[38] + 132 u[39] + 521 u[40]
   + 367 u[41] + 592 u[42] + 187 u[43] + 361 u[44] + 504 u[45] + 875 u[46]
   + 151 u[47] + 449 u[48] + 678 u[49] + 480 u[50] + 758 u[51] + 439 u[52]
   + 842 u[53] + 570 u[54] + 949 u[55] + 619 u[56] + 848 u[57] + 502 u[58]
   + 776 u[59] <= 16190
 primal_lower138: 950 u[0] + 810 u[1] + 104 u[2] + 873 u[3] + 314 u[4]
   + 88 u[5] + 387 u[6] + 82 u[7] + 947 u[8] + 440 u[9] + 154 u[10]
   + 737 u[11] + 90 u[12] + 802 u[13] + 699 u[14] + 683 u[15] + 91 u[16]
   + 582 u[17] + 375 u[18] + 236 u[19] + 739 u[20] + 854 u[21] + 114 u[22]
   + 45 u[23] + 619 u[24] + 78 u[25] + 88 u[26] + 838 u[27] + 372 u[28]
   + 589 u[29] + 312 u[30] + 130 u[31] + 122 u[32] + 899 u[33] + 314 u[34]
   + 231 u[35] + 130 u[36] + 923 u[37] + 818 u[38] + 597 u[39] + 397 u[40]
   + 816 u[41] + 628 u[42] + 660 u[43] + 661 u[44] + 65 u[45] + 760 u[46]
   + 840 u[47] + 245 u[48] + 790 u[49] + 541 u[50] + 142 u[51] + 299 u[52]
   + 434 u[53] + 871 u[54] + 270 u[55] + 703 u[56] + 977 u[57] + 698 u[58]
   + 744 u[59] <= 19864
 primal_lower139: 111 u[0] + 368 u[1] + 586 u[2] + 103 u[3] + 812 u[4]
   + 949 u[5] + 901 u[6] + 263 u[7] + 981 u[8] + 582 u[9] + 371 u[10]
   + 567 u[11] + 268 u[12] + 536 u[13] + 580 u[14] + 944 u[15] + 637 u[16]
   + 940 u[17] + 913 u[18] + 706 u[19] + 549 u[20] + 379 u[21] + 516 u[22]
   + 834 u[23] + 956 u[24] + 692 u[25] + 442 u[26] + 627 u[27] + 389 u[28]
   + 899 u[29] + 937 u[30] + 463 u[31] + 59 u[32] + 345 u[33] + 612 u[34]
   + 37 u[35] + 804 u[36] + 1000 u[37] + 892 u[38] + 530 u[39] + 191 u[40]
   + 429 u[41] + 134 u[42] + 457 u[43] + 511 u[44] + 998 u[45] + 137 u[46]
   + 973 u[47] + 719 u[48] + 748 u[49] + 974 u[50] + 252 u[51] + 949 u[52]
   + 224 u[53] + 856 u[54] + 507 u[55] + 585 u[56] + 830 u[57] + 348 u[58]
   + 238 u[59] <= 11713
 primal_lower140: 255 u[0] + 376 u[1] + 18 u[2] + 567 u[3] + 228 u[4]
   + 517 u[5] + 285 u[6] + 79 u[7] + 581 u[8] + 318 u[9] + 403 u[10]
   + 199 u[11] + 860 u[12] + 312 u[13] + 996 u[14] + 952 u[15] + 101 u[16]
   + 740 u[17] + 393 u[18] + 122 u[19] + 925 u[20] + 723 u[21] + 636 u[22]
   + 378 u[23] + 836 u[24] + 172 u[25] + 474 u[26] + 259 u[27] + 581 u[28]
   + 235 u[29] + 673 u[30] + 527 u[31] + 579 u[32] + 993 u[33] + 892 u[34]
   + 21 u[35] + 268 u[36] + 200 u[37] + 500 u[38] + 42 u[39] + 111 u[40]
   + 885 u[41] + 310 u[42] + 457 u[43] + 911 u[44] + 102 u[45] + 121 u[46]
   + 973 u[47] + 879 u[48] + 644 u[49] + 150 u[50] + 188 u[51] + 981 u[52]
   + 368 u[53] + 944 u[54] + 867 u[55] + 641 u[56] + 414 u[57] + 932 u[58]
   + 206 u[59] <= 9766
 primal_lower141: 555 u[0] + 348 u[1] + 502 u[2] + 515 u[3] + 408 u[4]
   + 113 u[5] + 153 u[6] + 707 u[7] + 209 u[8] + 362 u[9] + 759 u[10]
   + 651 u[11] + 456 u[12] + 404 u[13] + 552 u[14] + 956 u[15] + 849 u[16]
   + 544 u[17] + 309 u[18] + 798 u[19] + 233 u[20] + 879 u[21] + 200 u[22]
   + 846 u[23] + 192 u[24] + 808 u[25] + 622 u[26] + 703 u[27] + 865 u[28]
   + 823 u[29] + 973 u[30] + 747 u[31] + 919 u[32] + 229 u[33] + 320 u[34]
   + 617 u[35] + 528 u[36] + 564 u[37] + 912 u[38] + 822 u[39] + 91 u[40]
   + 617 u[41] + 834 u[42] + 5 u[43] + 563 u[44] + 770 u[45] + 925 u[46]
   + 513 u[47] + 771 u[48] + 616 u[49] + 290 u[50] + 232 u[51] + 713 u[52]
   + 620 u[53] + 36 u[54] + 895 u[55] + 637 u[56] + 850 u[57] + 48 u[58]
   + 74 u[59] <= 5508
 primal_lower142: 672 u[0] + 284 u[1] + 994 u[2] + 907 u[3] + 396 u[4]
   + 226 u[5] + 165 u[6] + 892 u[7] + 813 u[8] + 194 u[9] + 820 u[10]
   + 979 u[11] + 76 u[12] + 556 u[13] + 933 u[14] + 909 u[15] + 757 u[16]
   + 664 u[17] + 385 u[18] + 414 u[19] + 301 u[20] + 560 u[21] + 572 u[22]
   + 151 u[23] + 357 u[24] + 744 u[25] + 450 u[26] + 384 u[27] + 6 u[28]
   + 199 u[29] + 458 u[30] + 580 u[31] + 380 u[32] + 685 u[33] + 732 u[34]
   + 193 u[35] + 812 u[36] + 653 u[37] + 356 u[38] + 767 u[39] + 167 u[40]
   + 90 u[41] + 214 u[42] + 702 u[43] + 119 u[44] + 363 u[45] + 986 u[46]
   + 434 u[47] + 511 u[48] + 880 u[49] + 871 u[50] + 32 u[51] + 381 u[52]
   + 564 u[53] + 593 u[54] + 416 u[55] + 801 u[56] + 35 u[57] + 28 u[58]
   + 722 u[59] <= 10095
 primal_lower143: 610 u[0] + 390 u[1] + 156 u[2] + 429 u[3] + 326 u[4]
   + 516 u[5] + 575 u[6] + 566 u[7] + 543 u[8] + 436 u[9] + 518 u[10]
   + 477 u[11] + 406 u[12] + 286 u[13] + 735 u[14] + 807 u[15] + 231 u[16]
   + 130 u[17] + 67 u[18] + 928 u[19] + 239 u[20] + 266 u[21] + 118 u[22]
   + 961 u[23] + 511 u[24] + 282 u[25] + 660 u[26] + 746 u[27] + 304 u[28]
   + 81 u[29] + 748 u[30] + 158 u[31] + 462 u[32] + 679 u[33] + 566 u[34]
   + 811 u[35] + 374 u[36] + 271 u[37] + 790 u[38] + 545 u[39] + 169 u[40]
   + 268 u[41] + 432 u[42] + 608 u[43] + 865 u[44] + 389 u[45] + 964 u[46]
   + 980 u[47] + 809 u[48] + 18 u[49] + 177 u[50] + 282 u[51] + 439 u[52]
   + 694 u[53] + 195 u[54] + 58 u[55] + 803 u[56] + 213 u[57] + 966 u[58]
   + 972 u[59] <= 14502
 primal_lower144: 181 u[0] + 894 u[1] + 648 u[2] + 741 u[3] + 938 u[4]
   + 659 u[5] + 539 u[6] + 501 u[7] + 555 u[8] + 780 u[9] + 281 u[10]
   + 845 u[11] + 738 u[12] + 94 u[13] + 738 u[14] + 934 u[15] + 475 u[16]
   + 146 u[17] + 647 u[18] + 736 u[19] + 147 u[20] + 401 u[21] + 234 u[22]
   + 280 u[23] + 506 u[24] + 698 u[25] + 536 u[26] + 241 u[27] + 163 u[28]
   + 457 u[29] + 135 u[30] + 509 u[31] + 585 u[32] + 751 u[33] + 586 u[34]
   + 155 u[35] + 658 u[36] + 398 u[37] + 706 u[38] + 544 u[39] + 245 u[40]
   + 403 u[41] + 868 u[42] + 735 u[43] + 269 u[44] + 796 u[45] + 367 u[46]
   + 787 u[47] + 805 u[48] + 794 u[49] + 628 u[50] + 562 u[51] + 723 u[52]
   + 126 u[53] + 790 u[54] + 601 u[55] + 783 u[56] + 660 u[57] + 986 u[58]
   + 460 u[59] <= 22098
 primal_lower145: 796 u[0] + 752 u[1] + 334 u[2] + 151 u[3] + 568 u[4]
   + 558 u[5] + 145 u[6] + 136 u[7] + 361 u[8] + 846 u[9] + 448 u[10]
   + 87 u[11] + 104 u[12] + 320 u[13] + 977 u[14] + 17 u[15] + 929 u[16]
   + 212 u[17] + 837 u[18] + 82 u[19] + 905 u[20] + 812 u[21] + 664 u[22]
   + 315 u[23] + 513 u[24] + 476 u[25] + 22 u[26] + 380 u[27] + 994 u[28]
   + 915 u[29] + 870 u[30] + 920 u[31] + 544 u[32] + 193 u[33] + 312 u[34]
   + 933 u[35] + 608 u[36] + 289 u[37] + 544 u[38] + 787 u[39] + 3 u[40]
   + 430 u[41] + 810 u[42] + 410 u[43] + 371 u[44] + 335 u[45] + 334 u[46]
   + 582 u[47] + 499 u[48] + 68 u[49] + 203 u[50] + 708 u[51] + 25 u[52]
   + 48 u[53] + 469 u[54] + 788 u[55] + 109 u[56] + 719 u[57] + 432 u[58]
   + 494 u[59] <= 18995
 primal_lower146: 124 u[0] + 136 u[1] + 486 u[2] + 583 u[3] + 448 u[4]
   + 342 u[5] + 201 u[6] + 888 u[7] + 417 u[8] + 734 u[9] + 872 u[10]
   + 239 u[11] + 776 u[12] + 288 u[13] + 897 u[14] + 833 u[15] + 249 u[16]
   + 748 u[17] + 413 u[18] + 434 u[19] + 929 u[20] + 492 u[21] + 400 u[22]
   + 883 u[23] + 561 u[24] + 548 u[25] + 894 u[26] + 260 u[27] + 138 u[28]
   + 3 u[29] + 6 u[30] + 448 u[31] + 696 u[32] + 233 u[33] + 640 u[34]
   + 453 u[35] + 248 u[36] + 361 u[37] + 968 u[38] + 947 u[39] + 187 u[40]
   + 262 u[41] + 266 u[42] + 690 u[43] + 555 u[44] + 383 u[45] + 742 u[46]
   + 734 u[47] + 259 u[48] + 180 u[49] + 211 u[50] + 684 u[51] + 353 u[52]
   + 192 u[53] + 333 u[54] + 516 u[55] + 805 u[56] + 167 u[57] + 16 u[58]
   + 214 u[59] <= 18643
 primal_lower147: 187 u[0] + 292 u[1] + 22 u[2] + 699 u[3] + 936 u[4]
   + 361 u[5] + 233 u[6] + 939 u[7] + 721 u[8] + 98 u[9] + 191 u[10]
   + 979 u[11] + 616 u[12] + 580 u[13] + 936 u[14] + 220 u[15] + 857 u[16]
   + 264 u[17] + 781 u[18] + 510 u[19] + 929 u[20] + 223 u[21] + 360 u[22]
   + 566 u[23] + 808 u[24] + 96 u[25] + 766 u[26] + 351 u[27] + 921 u[28]
   + 943 u[29] + 381 u[30] + 691 u[31] + 279 u[32] + 845 u[33] + 512 u[34]
   + 753 u[35] + 712 u[36] + 908 u[37] + 808 u[38] + 350 u[39] + 627 u[40]
   + 329 u[41] + 730 u[42] + 637 u[43] + 931 u[44] + 778 u[45] + 349 u[46]
   + 273 u[47] + 483 u[48] + 472 u[49] + 746 u[50] + 264 u[51] + 577 u[52]
   + 748 u[53] + 908 u[54] + 783 u[55] + 661 u[56] + 322 u[57] + 360 u[58]
   + 514 u[59] <= 5686
 primal_lower148: 302 u[0] + 194 u[1] + 624 u[2] + 777 u[3] + 290 u[4]
   + 992 u[5] + 27 u[6] + 154 u[7] + 435 u[8] + 112 u[9] + 274 u[10]
   + 353 u[11] + 770 u[12] + 2 u[13] + 331 u[14] + 427 u[15] + 443 u[16]
   + 78 u[17] + 151 u[18] + 900 u[19] + 99 u[20] + 446 u[21] + 826 u[22]
   + 565 u[23] + 891 u[24] + 790 u[25] + 784 u[26] + 238 u[27] + 548 u[28]
   + 965 u[29] + 568 u[30] + 274 u[31] + 650 u[32] + 963 u[33] + 314 u[34]
   + 471 u[35] + 154 u[36] + 339 u[37] + 90 u[38] + 117 u[39] + 357 u[40]
   + 800 u[41] + 252 u[42] + 292 u[43] + 245 u[44] + 705 u[45] + 544 u[46]
   + 568 u[47] + 285 u[48] + 198 u[49] + 109 u[50] + 734 u[51] + 659 u[52]
   + 818 u[53] + 79 u[54] + 70 u[55] + 695 u[56] + 417 u[57] + 226 u[58]
   + 32 u[59] <= 4302
 primal_lower149: 172 u[0] + 184 u[1] + 574 u[2] + 55 u[3] + 40 u[4]
   + 534 u[5] + 913 u[6] + 168 u[7] + 353 u[8] + 622 u[9] + 320 u[10]
   + 759 u[11] + 120 u[12] + 520 u[13] + 545 u[14] + 713 u[15] + 857 u[16]
   + 284 u[17] + 221 u[18] + 442 u[19] + 817 u[20] + 20 u[21] + 424 u[22]
   + 59 u[23] + 81 u[24] + 972 u[25] + 694 u[26] + 932 u[27] + 210 u[28]
   + 211 u[29] + 654 u[30] + 640 u[31] + 104 u[32] + 161 u[33] + 568 u[34]
   + 837 u[35] + 504 u[36] + 753 u[37] + 584 u[38] + 763 u[39] + 419 u[40]
   + 398 u[41] + 2 u[42] + 842 u[43] + 427 u[44] + 991 u[45] + 638 u[46]
   + 478 u[47] + 131 u[48] + 20 u[49] + 779 u[50] + 644 u[51] + 409 u[52]
   + 64 u[53] + 853 u[54] + 828 u[55] + 149 u[56] + 447 u[57] + 232 u[58]
   + 150 u[59] <= 18190
 primal_lower150: 908 u[0] + 320 u[1] + 982 u[2] + 983 u[3] + 832 u[4]
   + 6 u[5] + 897 u[6] + 528 u[7] + 417 u[8] + 550 u[9] + 368 u[10]
   + 479 u[11] + 888 u[12] + 384 u[13] + 721 u[14] + 209 u[15] + 49 u[16]
   + 996 u[17] + 509 u[18] + 642 u[19] + 601 u[20] + 324 u[21] + 544 u[22]
   + 651 u[23] + 465 u[24] + 580 u[25] + 926 u[26] + 516 u[27] + 274 u[28]
   + 331 u[29] + 806 u[30] + 128 u[31] + 888 u[32] + 609 u[33] + 304 u[34]
   + 269 u[35] + 80 u[36] + 129 u[37] + 56 u[38] + 147 u[39] + 283 u[40]
   + 582 u[41] + 866 u[42] + 874 u[43] + 867 u[44] + 23 u[45] + 350 u[46]
   + 838 u[47] + 995 u[48] + 484 u[49] + 667 u[50] + 468 u[51] + 385 u[52]
   + 728 u[53] + 869 u[54] + 340 u[55] + 477 u[56] + 303 u[57] + 688 u[58]
   + 422 u[59] <= 996
 primal_lower151: 583 u[0] + 608 u[1] + 458 u[2] + 423 u[3] + 772 u[4]
   + 5 u[5] + 173 u[6] + 159 u[7] + 805 u[8] + 590 u[9] + 411 u[10]
   + 23 u[11] + 396 u[12] + 96 u[13] + 620 u[14] + 184 u[15] + 525 u[16]
   + 732 u[17] + 921 u[18] + 562 u[19] + 365 u[20] + 515 u[21] + 180 u[22]
   + 218 u[23] + 964 u[24] + 124 u[25] + 66 u[26] + 811 u[27] + 925 u[28]
   + 819 u[29] + 497 u[30] + 55 u[31] + 283 u[32] + 121 u[33] + 596 u[34]
   + 861 u[35] + 788 u[36] + 32 u[37] + 276 u[38] + 346 u[39] + 367 u[40]
   + 773 u[41] + 718 u[42] + 249 u[43] + 447 u[44] + 694 u[45] + 225 u[46]
   + 533 u[47] + 927 u[48] + 796 u[49] + 670 u[50] + 700 u[51] + 109 u[52]
   + 800 u[53] + 960 u[54] + 627 u[55] + 385 u[56] + 22 u[57] + 836 u[58]
   + 94 u[59] <= 19213
 primal_lower152: 619 u[0] + 740 u[1] + 718 u[2] + 947 u[3] + 944 u[4]
   + 145 u[5] + 393 u[6] + 467 u[7] + 937 u[8] + 722 u[9] + 343 u[10]
   + 299 u[11] + 520 u[12] + 532 u[13] + 464 u[14] + 196 u[15] + 545 u[16]
   + 56 u[17] + 733 u[18] + 630 u[19] + 161 u[20] + 231 u[21] + 400 u[22]
   + 798 u[23] + 144 u[24] + 440 u[25] + 830 u[26] + 943 u[27] + 65 u[28]
   + 247 u[29] + 557 u[30] + 147 u[31] + 927 u[32] + 341 u[33] + 552 u[34]
   + 457 u[35] + 272 u[36] + 28 u[37] + 736 u[38] + 654 u[39] + 243 u[40]
   + 913 u[41] + 402 u[42] + 53 u[43] + 75 u[44] + 818 u[45] + 525 u[46]
   + 537 u[47] + 243 u[48] + 760 u[49] + 922 u[50] + 624 u[51] + 409 u[52]
   + 316 u[53] + 580 u[54] + 559 u[55] + 797 u[56] + 962 u[57] + 360 u[58]
   + 826 u[59] <= 962
 primal_lower153: 883 u[0] + 495 u[1] + 165 u[2] + 630 u[3] + 239 u[4]
   + 77 u[5] + 1000 u[6] + 751 u[7] + 840 u[8] + 253 u[9] + 919 u[10]
   + 86 u[11] + 711 u[12] + 727 u[13] + 600 u[14] + 920 u[15] + 888 u[16]
   + 83 u[17] + 636 u[18] + 201 u[19] + 136 u[20] + 747 u[21] + 695 u[22]
   + 146 u[23] + 728 u[24] + 795 u[25] + 965 u[26] + 627 u[27] + 785 u[28]
   + 42 u[29] + 901 u[30] + 119 u[31] + 839 u[32] + 768 u[33] + 287 u[34]
   + 980 u[35] + 887 u[36] + 528 u[37] + 967 u[38] + 554 u[39] + 562 u[40]
   + 29 u[41] + 377 u[42] + 993 u[43] + 610 u[44] + 974 u[45] + 149 u[46]
   + 989 u[47] + 474 u[48] + 875 u[49] + 394 u[50] + 395 u[51] + 376 u[52]
   + 623 u[53] + 124 u[54] + 35 u[55] + 836 u[56] + 342 u[57] + 471 u[58]
   + 533 u[59] <= 16880
 primal_lower154: 41 u[0] + 469 u[1] + 931 u[2] + 972 u[3] + 629 u[4]
   + 515 u[5] + 334 u[6] + 405 u[7] + 318 u[8] + 27 u[9] + 693 u[10]
   + 564 u[11] + 421 u[12] + 485 u[13] + 806 u[14] + 958 u[15] + 222 u[16]
   + 393 u[17] + 170 u[18] + 495 u[19] + 262 u[20] + 761 u[21] + 701 u[22]
   + 432 u[23] + 846 u[24] + 313 u[25] + 315 u[26] + 513 u[27] + 791 u[28]
   + 928 u[29] + 963 u[30] + 949 u[31] + 421 u[32] + 158 u[33] + 445 u[34]
   + 882 u[35] + 877 u[36] + 902 u[37] + 165 u[38] + 856 u[39] + 936 u[40]
   + 891 u[41] + 287 u[42] + 359 u[43] + 760 u[44] + 396 u[45] + 51 u[46]
   + 51 u[47] + 200 u[48] + 961 u[49] + 736 u[50] + 969 u[51] + 262 u[52]
   + 197 u[53] + 810 u[54] + 353 u[55] + 818 u[56] + 636 u[57] + 357 u[58]
   + 355 u[59] <= 16356
 primal_lower155: 66 u[0] + 534 u[1] + 484 u[2] + 621 u[3] + 622 u[4]
   + 396 u[5] + 967 u[6] + 822 u[7] + 967 u[8] + 644 u[9] + 198 u[10]
   + 165 u[11] + 310 u[12] + 718 u[13] + 151 u[14] + 271 u[15] + 735 u[16]
   + 730 u[17] + 259 u[18] + 320 u[19] + 943 u[20] + 658 u[21] + 622 u[22]
   + 401 u[23] + 655 u[24] + 50 u[25] + 236 u[26] + 226 u[27] + 672 u[28]
   + 849 u[29] + 84 u[30] + 110 u[31] + 126 u[32] + 263 u[33] + 46 u[34]
   + 923 u[35] + 174 u[36] + 207 u[37] + 790 u[38] + 737 u[39] + 721 u[40]
   + 84 u[41] + 176 u[42] + 880 u[43] + 89 u[44] + 677 u[45] + 628 u[46]
   + 300 u[47] + 225 u[48] + 434 u[49] + 73 u[50] + 962 u[51] + 647 u[52]
   + 310 u[53] + 579 u[54] + 826 u[55] + 635 u[56] + 85 u[57] + 478 u[58]
   + 44 u[59] <= 4600
 primal_lower156: 239 u[0] + 768 u[1] + 330 u[2] + 343 u[3] + 596 u[4]
   + 253 u[5] + 205 u[6] + 31 u[7] + 189 u[8] + 462 u[9] + 67 u[10]
   + 111 u[11] + 324 u[12] + 792 u[13] + 828 u[14] + 888 u[15] + 837 u[16]
   + 220 u[17] + 393 u[18] + 970 u[19] + 101 u[20] + 27 u[21] + 852 u[22]
   + 26 u[23] + 244 u[24] + 124 u[25] + 802 u[26] + 891 u[27] + 613 u[28]
   + 947 u[29] + 825 u[30] + 191 u[31] + 347 u[32] + 297 u[33] + 252 u[34]
   + 285 u[35] + 196 u[36] + 976 u[37] + 980 u[38] + 186 u[39] + 519 u[40]
   + 245 u[41] + 694 u[42] + 457 u[43] + 751 u[44] + 910 u[45] + 193 u[46]
   + 165 u[47] + 671 u[48] + 284 u[49] + 102 u[50] + 404 u[51] + 597 u[52]
   + 768 u[53] + 496 u[54] + 171 u[55] + 985 u[56] + 134 u[57] + 852 u[58]
   + 502 u[59] <= 13954
 primal_lower157: 510 u[0] + 98 u[1] + 464 u[2] + 521 u[3] + 762 u[4]
   + 808 u[5] + 123 u[6] + 386 u[7] + 99 u[8] + 360 u[9] + 58 u[10]
   + 977 u[11] + 154 u[12] + 346 u[13] + 259 u[14] + 699 u[15] + 811 u[16]
   + 494 u[17] + 535 u[18] + 708 u[19] + 427 u[20] + 558 u[21] + 570 u[22]
   + 605 u[23] + 883 u[24] + 46 u[25] + 656 u[26] + 262 u[27] + 340 u[28]
   + 717 u[29] + 264 u[30] + 738 u[31] + 90 u[32] + 707 u[33] + 578 u[34]
   + 127 u[35] + 314 u[36] + 331 u[37] + 610 u[38] + 365 u[39] + 997 u[40]
   + 856 u[41] + 516 u[42] + 364 u[43] + 861 u[44] + 137 u[45] + 96 u[46]
   + 216 u[47] + 301 u[48] + 318 u[49] + 941 u[50] + 326 u[51] + 987 u[52]
   + 426 u[53] + 631 u[54] + 158 u[55] + 199 u[56] + 241 u[57] + 570 u[58]
   + 896 u[59] <= 4732
 primal_lower158: 544 u[0] + 937 u[1] + 891 u[2] + 64 u[3] + 893 u[4]
   + 750 u[5] + 398 u[6] + 144 u[7] + 894 u[8] + 615 u[9] + 108 u[10]
   + 840 u[11] + 893 u[12] + 209 u[13] + 757 u[14] + 865 u[15] + 254 u[16]
   + 13 u[17] + 730 u[18] + 643 u[19] + 726 u[20] + 364 u[21] + 709 u[22]
   + 891 u[23] + 901 u[24] + 109 u[25] + 499 u[26] + 148 u[27] + 806 u[28]
   + 620 u[29] + 914 u[30] + 816 u[31] + 532 u[32] + 10 u[33] + 341 u[34]
   + 574 u[35] + 413 u[36] + 441 u[37] + 237 u[38] + 347 u[39] + 880 u[40]
   + 918 u[41] + 991 u[42] + 234 u[43] + 616 u[44] + 663 u[45] + 90 u[46]
   + 974 u[47] + 576 u[48] + 165 u[49] + 79 u[50] + 837 u[51] + 214 u[52]
   + 505 u[53] + 337 u[54] + 468 u[55] + 282 u[56] + 135 u[57] + 965 u[58]
   + 199 u[59] <= 5328
 primal_lower159: 486 u[0] + 135 u[1] + 129 u[2] + 46 u[3] + 3 u[4]
   + 124 u[5] + 436 u[6] + 518 u[7] + 980 u[8] + 621 u[9] + 626 u[10]
   + 790 u[11] + 843 u[12] + 687 u[13] + 259 u[14] + 231 u[15] + 68 u[16]
   + 771 u[17] + 64 u[18] + 17 u[19] + 52 u[20] + 378 u[21] + 731 u[22]
   + 737 u[23] + 427 u[24] + 371 u[25] + 657 u[26] + 986 u[27] + 132 u[28]
   + 130 u[29] + 744 u[30] + 398 u[31] + 586 u[32] + 328 u[33] + 555 u[34]
   + 852 u[35] + 211 u[36] + 295 u[37] + 11 u[38] + 617 u[39] + 14 u[40]
   + 740 u[41] + 645 u[42] + 968 u[43] + 406 u[44] + 453 u[45] + 632 u[46]
   + 212 u[47] + 318 u[48] + 963 u[49] + 717 u[50] + 555 u[51] + 868 u[52]
   + 943 u[53] + 775 u[54] + 498 u[55] + 712 u[56] + 29 u[57] + 771 u[58]
   + 445 u[59] <= 14348
 primal_lower160: 325 u[0] + 121 u[1] + 927 u[2] + 448 u[3] + 713 u[4]
   + 239 u[5] + 818 u[6] + 569 u[7] + 242 u[8] + 999 u[9] + 633 u[10]
   + 456 u[11] + 385 u[12] + 89 u[13] + 426 u[14] + 434 u[15] + 90 u[16]
   + 373 u[17] + 702 u[18] + 971 u[19] + 514 u[20] + 893 u[21] + 529 u[22]
   + 156 u[23] + 578 u[24] + 117 u[25] + 767 u[26] + 461 u[27] + 123 u[28]
   + 468 u[29] + 295 u[30] + 145 u[31] + 665 u[32] + 890 u[33] + 881 u[34]
   + 110 u[35] + 785 u[36] + 258 u[37] + 441 u[38] + 252 u[39] + 932 u[40]
   + 879 u[41] + 635 u[42] + 115 u[43] + 756 u[44] + 480 u[45] + 903 u[46]
   + 999 u[47] + 972 u[48] + 421 u[49] + 996 u[50] + 661 u[51] + 250 u[52]
   + 545 u[53] + 446 u[54] + 317 u[55] + 182 u[56] + 40 u[57] + 265 u[58]
   + 559 u[59] <= 10213
 primal_lower161: 563 u[0] + 644 u[1] + 582 u[2] + 155 u[3] + 576 u[4]
   + 497 u[5] + 761 u[6] + 507 u[7] + 145 u[8] + 90 u[9] + 759 u[10]
   + 267 u[11] + 704 u[12] + 652 u[13] + 968 u[14] + 332 u[15] + 745 u[16]
   + 280 u[17] + 573 u[18] + 750 u[19] + 873 u[20] + 447 u[21] + 472 u[22]
   + 854 u[23] + 544 u[24] + 664 u[25] + 830 u[26] + 479 u[27] + 345 u[28]
   + 903 u[29] + 397 u[30] + 67 u[31] + 647 u[32] + 429 u[33] + 504 u[34]
   + 57 u[35] + 144 u[36] + 756 u[37] + 560 u[38] + 86 u[39] + 427 u[40]
   + 825 u[41] + 994 u[42] + 965 u[43] + 971 u[44] + 834 u[45] + 749 u[46]
   + 225 u[47] + 475 u[48] + 488 u[49] + 986 u[50] + 80 u[51] + 985 u[52]
   + 812 u[53] + 532 u[54] + 943 u[55] + 477 u[56] + 850 u[57] + 216 u[58]
   + 490 u[59] <= 5655
 primal_lower162: 378 u[0] + 566 u[1] + 940 u[2] + 229 u[3] + 302 u[4]
   + 852 u[5] + 959 u[6] + 534 u[7] + 575 u[8] + 156 u[9] + 486 u[10]
   + 213 u[11] + 678 u[12] + 838 u[13] + 863 u[14] + 655 u[15] + 103 u[16]
   + 66 u[17] + 515 u[18] + 144 u[19] + 239 u[20] + 170 u[21] + 982 u[22]
   + 905 u[23] + 703 u[24] + 482 u[25] + 516 u[26] + 602 u[27] + 480 u[28]
   + 385 u[29] + 228 u[30] + 350 u[31] + 302 u[32] + 215 u[33] + 686 u[34]
   + 987 u[35] + 198 u[36] + 215 u[37] + 574 u[38] + 553 u[39] + 777 u[40]
   + 756 u[41] + 736 u[42] + 616 u[43] + 889 u[44] + 781 u[45] + 604 u[46]
   + 844 u[47] + 353 u[48] + 786 u[49] + 793 u[50] + 754 u[51] + 503 u[52]
   + 758 u[53] + 803 u[54] + 922 u[55] + 115 u[56] + 485 u[57] + 694 u[58]
   + 364 u[59] <= 16578
 primal_lower163: 596 u[0] + 192 u[1] + 318 u[2] + 983 u[3] + 640 u[4]
   + 22 u[5] + 801 u[6] + 288 u[7] + 913 u[8] + 46 u[9] + 248 u[10]
   + 191 u[11] + 552 u[12] + 920 u[13] + 137 u[14] + 121 u[15] + 553 u[16]
   + 556 u[17] + 381 u[18] + 834 u[19] + 985 u[20] + 652 u[21] + 104 u[22]
   + 739 u[23] + 697 u[24] + 76 u[25] + 590 u[26] + 516 u[27] + 666 u[28]
   + 715 u[29] + 702 u[30] + 656 u[31] + 128 u[32] + 593 u[33] + 320 u[34]
   + 941 u[35] + 944 u[36] + 49 u[37] + 144 u[38] + 571 u[39] + 691 u[40]
   + 22 u[41] + 82 u[42] + 530 u[43] + 899 u[44] + 447 u[45] + 382 u[46]
   + 158 u[47] + 43 u[48] + 388 u[49] + 955 u[50] + 468 u[51] + 713 u[52]
   + 112 u[53] + 853 u[54] + 764 u[55] + 989 u[56] + 423 u[57] + 784 u[58]
   + 550 u[59] <= 10111
 primal_lower164: 417 u[0] + 338 u[1] + 612 u[2] + 441 u[3] + 406 u[4]
   + 183 u[5] + 231 u[6] + 513 u[7] + 199 u[8] + 896 u[9] + 637 u[10]
   + 929 u[11] + 438 u[12] + 90 u[13] + 806 u[14] + 578 u[15] + 103 u[16]
   + 878 u[17] + 123 u[18] + 316 u[19] + 599 u[20] + 933 u[21] + 902 u[22]
   + 116 u[23] + 302 u[24] + 750 u[25] + 508 u[26] + 341 u[27] + 439 u[28]
   + 853 u[29] + 11 u[30] + 905 u[31] + 781 u[32] + 531 u[33] + 62 u[34]
   + 327 u[35] + 182 u[36] + 274 u[37] + 430 u[38] + 780 u[39] + 657 u[40]
   + 895 u[41] + 648 u[42] + 731 u[43] + 889 u[44] + 208 u[45] + 691 u[46]
   + 759 u[47] + 305 u[48] + 30 u[49] + 632 u[50] + 278 u[51] + 951 u[52]
   + 34 u[53] + 778 u[54] + 261 u[55] + 563 u[56] + 536 u[57] + 974 u[58]
   + 48 u[59] <= 5004
 primal_lower165: 358 u[0] + 935 u[1] + 145 u[2] + 670 u[3] + 475 u[4]
   + 692 u[5] + 860 u[6] + 118 u[7] + 236 u[8] + 645 u[9] + 930 u[10]
   + 414 u[11] + 371 u[12] + 383 u[13] + 763 u[14] + 167 u[15] + 732 u[16]
   + 715 u[17] + 904 u[18] + 265 u[19] + 996 u[20] + 74 u[21] + 595 u[22]
   + 217 u[23] + 515 u[24] + 179 u[25] + 481 u[26] + 850 u[27] + 924 u[28]
   + 226 u[29] + 104 u[30] + 750 u[31] + 866 u[32] + 280 u[33] + 107 u[34]
   + 796 u[35] + 947 u[36] + 119 u[37] + 971 u[38] + 481 u[39] + 86 u[40]
   + 732 u[41] + 341 u[42] + 616 u[43] + 910 u[44] + 45 u[45] + 920 u[46]
   + 348 u[47] + 782 u[48] + 883 u[49] + 5 u[50] + 963 u[51] + 668 u[52]
   + 79 u[53] + 943 u[54] + 114 u[55] + 712 u[56] + 941 u[57] + 731 u[58]
   + 765 u[59] <= 10946
 primal_lower166: 84 u[0] + 749 u[1] + 423 u[2] + 348 u[3] + 177 u[4]
   + 874 u[5] + 522 u[6] + 772 u[7] + 394 u[8] + 787 u[9] + 1000 u[10]
   + 812 u[11] + 145 u[12] + 725 u[13] + 313 u[14] + 933 u[15] + 506 u[16]
   + 337 u[17] + 358 u[18] + 423 u[19] + 210 u[20] + 240 u[21] + 641 u[22]
   + 679 u[23] + 17 u[24] + 425 u[25] + 15 u[26] + 768 u[27] + 586 u[28]
   + 888 u[29] + 142 u[30] + 356 u[31] + 576 u[32] + 238 u[33] + 377 u[34]
   + 642 u[35] + 873 u[36] + 445 u[37] + 369 u[38] + 239 u[39] + 380 u[40]
   + 706 u[41] + 187 u[42] + 174 u[43] + 84 u[44] + 899 u[45] + 638 u[46]
   + 282 u[47] + 572 u[48] + 41 u[49] + 547 u[50] + 577 u[51] + 538 u[52]
   + 253 u[53] + 749 u[54] + 136 u[55] + 374 u[56] + 75 u[57] + 113 u[58]
   + 19 u[59] <= 4458
 primal_lower167: 783 u[0] + 440 u[1] + 154 u[2] + 231 u[3] + 724 u[4]
   + 189 u[5] + 949 u[6] + 279 u[7] + 629 u[8] + 174 u[9] + 723 u[10]
   + 111 u[11] + 876 u[12] + 432 u[13] + 804 u[14] + 472 u[15] + 749 u[16]
   + 444 u[17] + 161 u[18] + 930 u[19] + 253 u[20] + 659 u[21] + 388 u[22]
   + 58 u[23] + 420 u[24] + 452 u[25] + 298 u[26] + 291 u[27] + 45 u[28]
   + 163 u[29] + 625 u[30] + 855 u[31] + 699 u[32] + 297 u[33] + 660 u[34]
   + 453 u[35] + 916 u[36] + 888 u[37] + 964 u[38] + 802 u[39] + 295 u[40]
   + 845 u[41] + 374 u[42] + 233 u[43] + 743 u[44] + 182 u[45] + 273 u[46]
   + 709 u[47] + 23 u[48] + 220 u[49] + 254 u[50] + 60 u[51] + 589 u[52]
   + 496 u[53] + 336 u[54] + 723 u[55] + 537 u[56] + 326 u[57] + 428 u[58]
   + 718 u[59] <= 14402
 primal_lower168: 528 u[0] + 836 u[1] + 642 u[2] + 475 u[3] + 516 u[4]
   + 26 u[5] + 317 u[6] + 876 u[7] + 677 u[8] + 42 u[9] + 732 u[10]
   + 779 u[11] + 380 u[12] + 252 u[13] + 733 u[14] + 805 u[15] + 269 u[16]
   + 832 u[17] + 177 u[18] + 102 u[19] + 21 u[20] + 168 u[21] + 180 u[22]
   + 663 u[23] + 837 u[24] + 72 u[25] + 82 u[26] + 992 u[27] + 214 u[28]
   + 87 u[29] + 450 u[30] + 284 u[31] + 636 u[32] + 869 u[33] + 868 u[34]
   + 73 u[35] + 924 u[36] + 141 u[37] + 164 u[38] + 447 u[39] + 399 u[40]
   + 802 u[41] + 382 u[42] + 606 u[43] + 903 u[44] + 331 u[45] + 706 u[46]
   + 514 u[47] + 815 u[48] + 280 u[49] + 407 u[50] + 424 u[51] + 333 u[52]
   + 732 u[53] + 865 u[54] + 608 u[55] + 977 u[56] + 131 u[57] + 268 u[58]
   + 178 u[59] <= 992
 primal_lower169: 832 u[0] + 108 u[1] + 530 u[2] + 995 u[3] + 196 u[4]
   + 258 u[5] + 269 u[6] + 324 u[7] + 781 u[8] + 42 u[9] + 908 u[10]
   + 827 u[11] + 572 u[12] + 996 u[13] + 685 u[14] + 421 u[15] + 893 u[16]
   + 568 u[17] + 769 u[18] + 854 u[19] + 901 u[20] + 320 u[21] + 620 u[22]
   + 511 u[23] + 893 u[24] + 912 u[25] + 546 u[26] + 168 u[27] + 750 u[28]
   + 399 u[29] + 402 u[30] + 668 u[31] + 892 u[32] + 45 u[33] + 252 u[34]
   + 905 u[35] + 868 u[36] + 341 u[37] + 12 u[38] + 567 u[39] + 311 u[40]
   + 794 u[41] + 46 u[42] + 278 u[43] + 279 u[44] + 771 u[45] + 954 u[46]
   + 402 u[47] + 599 u[48] + 16 u[49] + 711 u[50] + 248 u[51] + 749 u[52]
   + 36 u[53] + 217 u[54] + 584 u[55] + 393 u[56] + 523 u[57] + 180 u[58]
   + 402 u[59] <= 10431
 primal_lower170: 913 u[0] + 653 u[1] + 443 u[2] + 412 u[3] + 581 u[4]
   + 651 u[5] + 126 u[6] + 565 u[7] + 14 u[8] + 83 u[9] + 469 u[10]
   + 748 u[11] + 213 u[12] + 989 u[13] + 694 u[14] + 430 u[15] + 270 u[16]
   + 81 u[17] + 570 u[18] + 527 u[19] + 510 u[20] + 321 u[21] + 629 u[22]
   + 432 u[23] + 358 u[24] + 569 u[25] + 387 u[26] + 401 u[27] + 567 u[28]
   + 824 u[29] + 603 u[30] + 565 u[31] + 237 u[32] + 574 u[33] + 13 u[34]
   + 66 u[35] + 709 u[36] + 870 u[37] + 69 u[38] + 536 u[39] + 984 u[40]
   + 659 u[41] + 367 u[42] + 487 u[43] + 240 u[44] + 172 u[45] + 483 u[46]
   + 235 u[47] + 656 u[48] + 249 u[49] + 160 u[50] + 9 u[51] + 190 u[52]
   + 181 u[53] + 234 u[54] + 825 u[55] + 546 u[56] + 852 u[57] + 437 u[58]
   + 915 u[59] <= 4592
 primal_lower171: 416 u[0] + 316 u[1] + 266 u[2] + 907 u[3] + 196 u[4]
   + 826 u[5] + 525 u[6] + 428 u[7] + 237 u[8] + 802 u[9] + 868 u[10]
   + 707 u[11] + 788 u[12] + 644 u[13] + 997 u[14] + 317 u[15] + 373 u[16]
   + 128 u[17] + 97 u[18] + 110 u[19] + 69 u[20] + 8 u[21] + 468 u[22]
   + 87 u[23] + 973 u[24] + 424 u[25] + 194 u[26] + 712 u[27] + 750 u[28]
   + 471 u[29] + 370 u[30] + 428 u[31] + 772 u[32] + 381 u[33] + 940 u[34]
   + 161 u[35] + 260 u[36] + 813 u[37] + 692 u[38] + 79 u[39] + 471 u[40]
   + 290 u[41] + 366 u[42] + 710 u[43] + 31 u[44] + 211 u[45] + 290 u[46]
   + 266 u[47] + 95 u[48] + 848 u[49] + 855 u[50] + 176 u[51] + 45 u[52]
   + 356 u[53] + 625 u[54] + 520 u[55] + 73 u[56] + 499 u[57] + 788 u[58]
   + 298 u[59] <= 4468
 primal_lower172: 862 u[0] + 631 u[1] + 25 u[2] + 22 u[3] + 531 u[4]
   + 876 u[5] + 596 u[6] + 390 u[7] + 580 u[8] + 133 u[9] + 610 u[10]
   + 238 u[11] + 675 u[12] + 799 u[13] + 643 u[14] + 855 u[15] + 180 u[16]
   + 107 u[17] + 8 u[18] + 657 u[19] + 84 u[20] + 954 u[21] + 643 u[22]
   + 273 u[23] + 515 u[24] + 819 u[25] + 817 u[26] + 314 u[27] + 148 u[28]
   + 642 u[29] + 16 u[30] + 694 u[31] + 26 u[32] + 920 u[33] + 787 u[34]
   + 644 u[35] + 443 u[36] + 775 u[37] + 171 u[38] + 881 u[39] + 534 u[40]
   + 180 u[41] + 893 u[42] + 328 u[43] + 350 u[44] + 269 u[45] + 416 u[46]
   + 620 u[47] + 990 u[48] + 483 u[49] + 29 u[50] + 83 u[51] + 644 u[52]
   + 847 u[53] + 823 u[54] + 154 u[55] + 80 u[56] + 373 u[57] + 35 u[58]
   + 477 u[59] <= 14296
 primal_lower173: 211 u[0] + 695 u[1] + 277 u[2] + 142 u[3] + 351 u[4]
   + 677 u[5] + 384 u[6] + 7 u[7] + 568 u[8] + 253 u[9] + 679 u[10]
   + 734 u[11] + 31 u[12] + 767 u[13] + 720 u[14] + 592 u[15] + 624 u[16]
   + 635 u[17] + 788 u[18] + 97 u[19] + 16 u[20] + 259 u[21] + 471 u[22]
   + 378 u[23] + 904 u[24] + 771 u[25] + 909 u[26] + 579 u[27] + 729 u[28]
   + 922 u[29] + 173 u[30] + 263 u[31] + 7 u[32] + 584 u[33] + 503 u[34]
   + 972 u[35] + 47 u[36] + 448 u[37] + 183 u[38] + 714 u[39] + 266 u[40]
   + 277 u[41] + 65 u[42] + 321 u[43] + 202 u[44] + 390 u[45] + 109 u[46]
   + 197 u[47] + 2 u[48] + 339 u[49] + 642 u[50] + 707 u[51] + 904 u[52]
   + 111 u[53] + 212 u[54] + 891 u[55] + 916 u[56] + 46 u[57] + 527 u[58]
   + 733 u[59] <= 13460
 primal_lower174: 484 u[0] + 597 u[1] + 47 u[2] + 692 u[3] + 657 u[4]
   + 426 u[5] + 554 u[6] + 700 u[7] + 562 u[8] + 651 u[9] + 288 u[10]
   + 492 u[11] + 649 u[12] + 517 u[13] + 481 u[14] + 461 u[15] + 538 u[16]
   + 937 u[17] + 878 u[18] + 423 u[19] + 130 u[20] + 504 u[21] + 17 u[22]
   + 695 u[23] + 993 u[24] + 177 u[25] + 407 u[26] + 656 u[27] + 26 u[28]
   + 976 u[29] + 70 u[30] + 148 u[31] + 392 u[32] + 814 u[33] + 809 u[34]
   + 354 u[35] + 417 u[36] + 309 u[37] + 761 u[38] + 535 u[39] + 908 u[40]
   + 434 u[41] + 267 u[42] + 902 u[43] + 460 u[44] + 507 u[45] + 990 u[46]
   + 962 u[47] + 188 u[48] + 537 u[49] + 283 u[50] + 961 u[51] + 490 u[52]
   + 301 u[53] + 469 u[54] + 8 u[55] + 486 u[56] + 811 u[57] + 17 u[58]
   + 979 u[59] <= 5197
 primal_lower175: 615 u[0] + 955 u[1] + 513 u[2] + 66 u[3] + 955 u[4]
   + 729 u[5] + 36 u[6] + 987 u[7] + 292 u[8] + 337 u[9] + 675 u[10]
   + 898 u[11] + 531 u[12] + 203 u[13] + 772 u[14] + 660 u[15] + 812 u[16]
   + 71 u[17] + 16 u[18] + 869 u[19] + 204 u[20] + 79 u[21] + 979 u[22]
   + 22 u[23] + 732 u[24] + 295 u[25] + 953 u[26] + 551 u[27] + 397 u[28]
   + 422 u[29] + 345 u[30] + 867 u[31] + 915 u[32] + 860 u[33] + 955 u[34]
   + 648 u[35] + 491 u[36] + 724 u[37] + 795 u[38] + 406 u[39] + 822 u[40]
   + 177 u[41] + 717 u[42] + 949 u[43] + 734 u[44] + 410 u[45] + 969 u[46]
   + 57 u[47] + 22 u[48] + 927 u[49] + 358 u[50] + 967 u[51] + 676 u[52]
   + 771 u[53] + 104 u[54] + 535 u[55] + 128 u[56] + 690 u[57] + 219 u[58]
   + 929 u[59] <= 16896
 primal_lower176: 425 u[0] + 13 u[1] + 403 u[2] + 596 u[3] + 501 u[4]
   + 883 u[5] + 38 u[6] + 741 u[7] + 110 u[8] + 27 u[9] + 901 u[10]
   + 540 u[11] + 333 u[12] + 813 u[13] + 182 u[14] + 270 u[15] + 654 u[16]
   + 217 u[17] + 586 u[18] + 543 u[19] + 670 u[20] + 369 u[21] + 773 u[22]
   + 848 u[23] + 86 u[24] + 569 u[25] + 459 u[26] + 913 u[27] + 287 u[28]
   + 96 u[29] + 307 u[30] + 605 u[31] + 725 u[32] + 910 u[33] + 773 u[34]
   + 890 u[35] + 101 u[36] + 406 u[37] + 645 u[38] + 96 u[39] + 208 u[40]
   + 291 u[41] + 679 u[42] + 991 u[43] + 632 u[44] + 484 u[45] + 539 u[46]
   + 523 u[47] + 496 u[48] + 753 u[49] + 248 u[50] + 89 u[51] + 118 u[52]
   + 749 u[53] + 914 u[54] + 761 u[55] + 82 u[56] + 620 u[57] + 797 u[58]
   + 523 u[59] <= 9933
 primal_lower177: 115 u[0] + 116 u[1] + 950 u[2] + 179 u[3] + 656 u[4]
   + 929 u[5] + 361 u[6] + 291 u[7] + 505 u[8] + 922 u[9] + 967 u[10]
   + 499 u[11] + 752 u[12] + 100 u[13] + 176 u[14] + 828 u[15] + 81 u[16]
   + 496 u[17] + 709 u[18] + 846 u[19] + 353 u[20] + 607 u[21] + 800 u[22]
   + 526 u[23] + 408 u[24] + 488 u[25] + 302 u[26] + 967 u[27] + 425 u[28]
   + 23 u[29] + 357 u[30] + 659 u[31] + 199 u[32] + 565 u[33] + 560 u[34]
   + 17 u[35] + 920 u[36] + 188 u[37] + 776 u[38] + 166 u[39] + 11 u[40]
   + 129 u[41] + 522 u[42] + 797 u[43] + 907 u[44] + 498 u[45] + 397 u[46]
   + 73 u[47] + 451 u[48] + 448 u[49] + 10 u[50] + 64 u[51] + 961 u[52]
   + 820 u[53] + 844 u[54] + 119 u[55] + 61 u[56] + 706 u[57] + 728 u[58]
   + 18 u[59] <= 9449
 primal_lower178: 224 u[0] + 209 u[1] + 139 u[2] + 248 u[3] + 269 u[4]
   + 846 u[5] + 758 u[6] + 816 u[7] + 582 u[8] + 135 u[9] + 628 u[10]
   + 760 u[11] + 973 u[12] + 9 u[13] + 909 u[14] + 449 u[15] + 326 u[16]
   + 149 u[17] + 370 u[18] + 835 u[19] + 942 u[20] + 52 u[21] + 773 u[22]
   + 715 u[23] + 189 u[24] + 845 u[25] + 507 u[26] + 964 u[27] + 526 u[28]
   + 884 u[29] + 874 u[30] + 104 u[31] + 508 u[32] + 906 u[33] + 421 u[34]
   + 358 u[35] + 837 u[36] + 257 u[37] + 829 u[38] + 123 u[39] + 784 u[40]
   + 846 u[41] + 591 u[42] + 170 u[43] + 280 u[44] + 247 u[45] + 58 u[46]
   + 286 u[47] + 760 u[48] + 957 u[49] + 871 u[50] + 477 u[51] + 502 u[52]
   + 993 u[53] + 521 u[54] + 60 u[55] + 66 u[56] + 151 u[57] + 717 u[58]
   + 543 u[59] <= 15564
 primal_lower179: 326 u[0] + 578 u[1] + 488 u[2] + 489 u[3] + 674 u[4]
   + 680 u[5] + 595 u[6] + 226 u[7] + 115 u[8] + 736 u[9] + 442 u[10]
   + 569 u[11] + 850 u[12] + 42 u[13] + 619 u[14] + 891 u[15] + 51 u[16]
   + 782 u[17] + 911 u[18] + 996 u[19] + 547 u[20] + 414 u[21] + 866 u[22]
   + 37 u[23] + 539 u[24] + 262 u[25] + 856 u[26] + 590 u[27] + 372 u[28]
   + 245 u[29] + 160 u[30] + 962 u[31] + 754 u[32] + 259 u[33] + 810 u[34]
   + 431 u[35] + 826 u[36] + 827 u[37] + 74 u[38] + 293 u[39] + 725 u[40]
   + 920 u[41] + 612 u[42] + 124 u[43] + 621 u[44] + 673 u[45] + 448 u[46]
   + 192 u[47] + 749 u[48] + 54 u[49] + 189 u[50] + 982 u[51] + 435 u[52]
   + 98 u[53] + 487 u[54] + 806 u[55] + 103 u[56] + 713 u[57] + 98 u[58]
   + 648 u[59] <= 5143
 primal_lower180: 441 u[0] + 250 u[1] + 228 u[2] + 841 u[3] + 702 u[4]
   + 351 u[5] + 831 u[6] + 753 u[7] + 847 u[8] + 832 u[9] + 693 u[10]
   + 593 u[11] + 6 u[12] + 50 u[13] + 806 u[14] + 578 u[15] + 999 u[16]
   + 302 u[17] + 779 u[18] + 780 u[19] + 775 u[20] + 573 u[21] + 902 u[22]
   + 460 u[23] + 742 u[24] + 54 u[25] + 596 u[26] + 141 u[27] + 263 u[28]
   + 845 u[29] + 779 u[30] + 169 u[31] + 125 u[32] + 347 u[33] + 294 u[34]
   + 495 u[35] + 70 u[36] + 346 u[37] + 78 u[38] + 4 u[39] + 817 u[40]
   + 543 u[41] + 16 u[42] + 811 u[43] + 313 u[44] + 72 u[45] + 963 u[46]
   + 111 u[47] + 713 u[48] + 686 u[49] + 768 u[50] + 654 u[51] + 919 u[52]
   + 682 u[53] + 2 u[54] + 837 u[55] + 347 u[56] + 416 u[57] + 246 u[58]
   + 208 u[59] <= 19896
 primal_lower181: 498 u[0] + 339 u[1] + 165 u[2] + 578 u[3] + 743 u[4]
   + 896 u[5] + 224 u[6] + 18 u[7] + 488 u[8] + 369 u[9] + 782 u[10]
   + 274 u[11] + 31 u[12] + 827 u[13] + 935 u[14] + 803 u[15] + 784 u[16]
   + 279 u[17] + 932 u[18] + 941 u[19] + 656 u[20] + 350 u[21] + 423 u[22]
   + 125 u[23] + 295 u[24] + 551 u[25] + 941 u[26] + 342 u[27] + 672 u[28]
   + 990 u[29] + 676 u[30] + 730 u[31] + 934 u[32] + 908 u[33] + 679 u[34]
   + 288 u[35] + 287 u[36] + 763 u[37] + 295 u[38] + 885 u[39] + 906 u[40]
   + 624 u[41] + 113 u[42] + 924 u[43] + 818 u[44] + 601 u[45] + 220 u[46]
   + 896 u[47] + 890 u[48] + 391 u[49] + 217 u[50] + 799 u[51] + 248 u[52]
   + 275 u[53] + 467 u[54] + 550 u[55] + 652 u[56] + 465 u[57] + 151 u[58]
   + 201 u[59] <= 11034
 primal_lower182: 524 u[0] + 373 u[1] + 231 u[2] + 172 u[3] + 473 u[4]
   + 306 u[5] + 26 u[6] + 308 u[7] + 2 u[8] + 971 u[9] + 456 u[10]
   + 692 u[11] + 505 u[12] + 789 u[13] + 825 u[14] + 477 u[15] + 330 u[16]
   + 545 u[17] + 30 u[18] + 479 u[19] + 890 u[20] + 720 u[21] + 305 u[22]
   + 191 u[23] + 793 u[24] + 625 u[25] + 575 u[26] + 656 u[27] + 218 u[28]
   + 632 u[29] + 94 u[30] + 596 u[31] + 400 u[32] + 270 u[33] + 153 u[34]
   + 674 u[35] + 705 u[36] + 765 u[37] + 497 u[38] + 423 u[39] + 836 u[40]
   + 778 u[41] + 139 u[42] + 318 u[43] + 460 u[44] + 859 u[45] + 846 u[46]
   + 98 u[47] + 108 u[48] + 225 u[49] + 187 u[50] + 937 u[51] + 866 u[52]
   + 581 u[53] + 5 u[54] + 48 u[55] + 270 u[56] + 547 u[57] + 17 u[58]
   + 899 u[59] <= 4620
 primal_lower183: 80 u[0] + 796 u[1] + 786 u[2] + 947 u[3] + 364 u[4]
   + 666 u[5] + 941 u[6] + 556 u[7] + 397 u[8] + 770 u[9] + 580 u[10]
   + 419 u[11] + 788 u[12] + 188 u[13] + 373 u[14] + 885 u[15] + 597 u[16]
   + 568 u[17] + 697 u[18] + 694 u[19] + 509 u[20] + 24 u[21] + 788 u[22]
   + 223 u[23] + 989 u[24] + 208 u[25] + 794 u[26] + 40 u[27] + 110 u[28]
   + 431 u[29] + 618 u[30] + 188 u[31] + 532 u[32] + 973 u[33] + 268 u[34]
   + 489 u[35] + 324 u[36] + 253 u[37] + 556 u[38] + 807 u[39] + 111 u[40]
   + 802 u[41] + 774 u[42] + 886 u[43] + 751 u[44] + 163 u[45] + 882 u[46]
   + 826 u[47] + 839 u[48] + 440 u[49] + 839 u[50] + 368 u[51] + 957 u[52]
   + 780 u[53] + 585 u[54] + 736 u[55] + 969 u[56] + 491 u[57] + 740 u[58]
   + 226 u[59] <= 989
 primal_lower184: 458 u[0] + 619 u[1] + 293 u[2] + 90 u[3] + 751 u[4]
   + 784 u[5] + 816 u[6] + 554 u[7] + 984 u[8] + 673 u[9] + 390 u[10]
   + 162 u[11] + 343 u[12] + 395 u[13] + 15 u[14] + 859 u[15] + 760 u[16]
   + 111 u[17] + 764 u[18] + 621 u[19] + 968 u[20] + 670 u[21] + 247 u[22]
   + 757 u[23] + 887 u[24] + 151 u[25] + 805 u[26] + 46 u[27] + 672 u[28]
   + 566 u[29] + 4 u[30] + 50 u[31] + 982 u[32] + 492 u[33] + 615 u[34]
   + 192 u[35] + 815 u[36] + 667 u[37] + 887 u[38] + 477 u[39] + 562 u[40]
   + 528 u[41] + 65 u[42] + 196 u[43] + 298 u[44] + 41 u[45] + 484 u[46]
   + 216 u[47] + 50 u[48] + 111 u[49] + 617 u[50] + 79 u[51] + 256 u[52]
   + 539 u[53] + 179 u[54] + 998 u[55] + 812 u[56] + 281 u[57] + 335 u[58]
   + 561 u[59] <= 998
 primal_lower185: 507 u[0] + 615 u[1] + 853 u[2] + 678 u[3] + 879 u[4]
   + 461 u[5] + 440 u[6] + 15 u[7] + 448 u[8] + 757 u[9] + 463 u[10]
   + 158 u[11] + 135 u[12] + 735 u[13] + 856 u[14] + 80 u[15] + 520 u[16]
   + 347 u[17] + 948 u[18] + 401 u[19] + 656 u[20] + 659 u[21] + 623 u[22]
   + 794 u[23] + 392 u[24] + 395 u[25] + 77 u[26] + 243 u[27] + 361 u[28]
   + 370 u[29] + 709 u[30] + 359 u[31] + 847 u[32] + 856 u[33] + 559 u[34]
   + 468 u[35] + 47 u[36] + 904 u[37] + 551 u[38] + 962 u[39] + 970 u[40]
   + 197 u[41] + 297 u[42] + 33 u[43] + 138 u[44] + 830 u[45] + 381 u[46]
   + 309 u[47] + 346 u[48] + 251 u[49] + 98 u[50] + 643 u[51] + 968 u[52]
   + 383 u[53] + 876 u[54] + 227 u[55] + 452 u[56] + 38 u[57] + 23 u[58]
   + 13 u[59] <= 14300
 primal_lower186: 402 u[0] + 995 u[1] + 405 u[2] + 802 u[3] + 279 u[4]
   + 656 u[5] + 152 u[6] + 618 u[7] + 32 u[8] + 921 u[9] + 918 u[10]
   + 682 u[11] + 847 u[12] + 595 u[13] + 807 u[14] + 651 u[15] + 672 u[16]
   + 615 u[17] + 516 u[18] + 373 u[19] + 144 u[20] + 214 u[21] + 359 u[22]
   + 941 u[23] + 687 u[24] + 351 u[25] + 789 u[26] + 326 u[27] + 952 u[28]
   + 510 u[29] + 668 u[30] + 394 u[31] + 462 u[32] + 868 u[33] + 23 u[34]
   + 776 u[35] + 471 u[36] + 811 u[37] + 47 u[38] + 861 u[39] + 146 u[40]
   + 720 u[41] + 841 u[42] + 860 u[43] + 954 u[44] + 161 u[45] + 148 u[46]
   + 176 u[47] + 338 u[48] + 231 u[49] + 433 u[50] + 407 u[51] + 448 u[52]
   + 667 u[53] + 507 u[54] + 542 u[55] + 924 u[56] + 393 u[57] + 599 u[58]
   + 489 u[59] <= 5429
 primal_lower187: 277 u[0] + 934 u[1] + 400 u[2] + 533 u[3] + 946 u[4]
   + 979 u[5] + 867 u[6] + 805 u[7] + 947 u[8] + 172 u[9] + 785 u[10]
   + 69 u[11] + 586 u[12] + 838 u[13] + 634 u[14] + 134 u[15] + 51 u[16]
   + 314 u[17] + 95 u[18] + 640 u[19] + 131 u[20] + 465 u[21] + 74 u[22]
   + 208 u[23] + 522 u[24] + 186 u[25] + 240 u[26] + 849 u[27] + 691 u[28]
   + 89 u[29] + 631 u[30] + 925 u[31] + 713 u[32] + 903 u[33] + 490 u[34]
   + 27 u[35] + 842 u[36] + 630 u[37] + 298 u[38] + 376 u[39] + 837 u[40]
   + 3 u[41] + 876 u[42] + 423 u[43] + 981 u[44] + 652 u[45] + 199 u[46]
   + 211 u[47] + 197 u[48] + 522 u[49] + 420 u[50] + 442 u[51] + 563 u[52]
   + 838 u[53] + 446 u[54] + 825 u[55] + 623 u[56] + 820 u[57] + 362 u[58]
   + 612 u[59] <= 5191
 primal_lower188: 424 u[0] + 409 u[1] + 723 u[2] + 896 u[3] + 565 u[4]
   + 398 u[5] + 70 u[6] + 928 u[7] + 870 u[8] + 303 u[9] + 76 u[10]
   + 472 u[11] + 349 u[12] + 817 u[13] + 309 u[14] + 641 u[15] + 526 u[16]
   + 213 u[17] + 882 u[18] + 115 u[19] + 118 u[20] + 340 u[21] + 709 u[22]
   + 419 u[23] + 197 u[24] + 173 u[25] + 595 u[26] + 492 u[27] + 46 u[28]
   + 836 u[29] + 730 u[30] + 672 u[31] + 892 u[32] + 722 u[33] + 709 u[34]
   + 814 u[35] + 733 u[36] + 801 u[37] + 933 u[38] + 771 u[39] + 56 u[40]
   + 86 u[41] + 783 u[42] + 866 u[43] + 760 u[44] + 807 u[45] + 2 u[46]
   + 734 u[47] + 512 u[48] + 869 u[49] + 975 u[50] + 357 u[51] + 774 u[52]
   + 809 u[53] + 449 u[54] + 516 u[55] + 450 u[56] + 327 u[57] + 941 u[58]
   + 591 u[59] <= 11117
 primal_lower189: 676 u[0] + 229 u[1] + 63 u[2] + 252 u[3] + 953 u[4]
   + 754 u[5] + 826 u[6] + 548 u[7] + 346 u[8] + 307 u[9] + 432 u[10]
   + 204 u[11] + 849 u[12] + 141 u[13] + 121 u[14] + 885 u[15] + 994 u[16]
   + 17 u[17] + 534 u[18] + 631 u[19] + 698 u[20] + 240 u[21] + 225 u[22]
   + 127 u[23] + 9 u[24] + 721 u[25] + 487 u[26] + 984 u[27] + 274 u[28]
   + 320 u[29] + 926 u[30] + 668 u[31] + 856 u[32] + 46 u[33] + 649 u[34]
   + 962 u[35] + 233 u[36] + 45 u[37] + 929 u[38] + 679 u[39] + 36 u[40]
   + 994 u[41] + 371 u[42] + 342 u[43] + 516 u[44] + 595 u[45] + 14 u[46]
   + 562 u[47] + 212 u[48] + 833 u[49] + 163 u[50] + 489 u[51] + 322 u[52]
   + 165 u[53] + 141 u[54] + 536 u[55] + 806 u[56] + 595 u[57] + 937 u[58]
   + 931 u[59] <= 994
 primal_lower190: 571 u[0] + 100 u[1] + 334 u[2] + 259 u[3] + 928 u[4]
   + 993 u[5] + 673 u[6] + 675 u[7] + 777 u[8] + 738 u[9] + 511 u[10]
   + 91 u[11] + 736 u[12] + 156 u[13] + 880 u[14] + 340 u[15] + 145 u[16]
   + 384 u[17] + 461 u[18] + 350 u[19] + 953 u[20] + 735 u[21] + 976 u[22]
   + 254 u[23] + 136 u[24] + 544 u[25] + 390 u[26] + 271 u[27] + 425 u[28]
   + 471 u[29] + 77 u[30] + 3 u[31] + 31 u[32] + 125 u[33] + 200 u[34]
   + 841 u[35] + 592 u[36] + 228 u[37] + 648 u[38] + 206 u[39] + 403 u[40]
   + 201 u[41] + 434 u[42] + 653 u[43] + 627 u[44] + 722 u[45] + 237 u[46]
   + 777 u[47] + 851 u[48] + 480 u[49] + 410 u[50] + 728 u[51] + 465 u[52]
   + 868 u[53] + 908 u[54] + 87 u[55] + 653 u[56] + 946 u[57] + 344 u[58]
   + 26 u[59] <= 19352
 primal_lower191: 953 u[0] + 82 u[1] + 244 u[2] + 721 u[3] + 902 u[4]
   + 103 u[5] + 903 u[6] + 761 u[7] + 975 u[8] + 464 u[9] + 429 u[10]
   + 745 u[11] + 638 u[12] + 146 u[13] + 582 u[14] + 690 u[15] + 95 u[16]
   + 718 u[17] + 899 u[18] + 236 u[19] + 399 u[20] + 949 u[21] + 894 u[22]
   + 4 u[23] + 678 u[24] + 222 u[25] + 652 u[26] + 205 u[27] + 983 u[28]
   + 213 u[29] + 307 u[30] + 825 u[31] + 373 u[32] + 163 u[33] + 510 u[34]
   + 111 u[35] + 862 u[36] + 298 u[37] + 798 u[38] + 324 u[39] + 249 u[40]
   + 455 u[41] + 512 u[42] + 67 u[43] + 657 u[44] + 488 u[45] + 459 u[46]
   + 671 u[47] + 609 u[48] + 582 u[49] + 416 u[50] + 606 u[51] + 463 u[52]
   + 882 u[53] + 866 u[54] + 125 u[55] + 315 u[56] + 408 u[57] + 14 u[58]
   + 272 u[59] <= 10057
 primal_lower192: 195 u[0] + 15 u[1] + 669 u[2] + 334 u[3] + 143 u[4]
   + 253 u[5] + 600 u[6] + 55 u[7] + 264 u[8] + 517 u[9] + 39 u[10]
   + 430 u[11] + 959 u[12] + 263 u[13] + 960 u[14] + 208 u[15] + 184 u[16]
   + 283 u[17] + 900 u[18] + 337 u[19] + 912 u[20] + 307 u[21] + 239 u[22]
   + 242 u[23] + 48 u[24] + 227 u[25] + 621 u[26] + 723 u[27] + 177 u[28]
   + 634 u[29] + 421 u[30] + 471 u[31] + 343 u[32] + 24 u[33] + 983 u[34]
   + 828 u[35] + 831 u[36] + 600 u[37] + 615 u[38] + 138 u[39] + 458 u[40]
   + 781 u[41] + 777 u[42] + 865 u[43] + 962 u[44] + 102 u[45] + 813 u[46]
   + 773 u[47] + 994 u[48] + 691 u[49] + 482 u[50] + 363 u[51] + 184 u[52]
   + 431 u[53] + 620 u[54] + 595 u[55] + 628 u[56] + 590 u[57] + 775 u[58]
   + 933 u[59] <= 994
 primal_lower193: 232 u[0] + 665 u[1] + 891 u[2] + 352 u[3] + 813 u[4]
   + 342 u[5] + 670 u[6] + 792 u[7] + 214 u[8] + 591 u[9] + 572 u[10]
   + 584 u[11] + 813 u[12] + 513 u[13] + 821 u[14] + 457 u[15] + 726 u[16]
   + 253 u[17] + 258 u[18] + 243 u[19] + 214 u[20] + 340 u[21] + 277 u[22]
   + 923 u[23] + 781 u[24] + 725 u[25] + 67 u[26] + 756 u[27] + 606 u[28]
   + 452 u[29] + 554 u[30] + 232 u[31] + 892 u[32] + 794 u[33] + 117 u[34]
   + 950 u[35] + 285 u[36] + 729 u[37] + 917 u[38] + 243 u[39] + 760 u[40]
   + 222 u[41] + 223 u[42] + 858 u[43] + 744 u[44] + 135 u[45] + 546 u[46]
   + 838 u[47] + 136 u[48] + 949 u[49] + 295 u[50] + 125 u[51] + 982 u[52]
   + 49 u[53] + 89 u[54] + 204 u[55] + 242 u[56] + 439 u[57] + 653 u[58]
   + 79 u[59] <= 15112
 primal_lower194: 568 u[0] + 521 u[1] + 323 u[2] + 832 u[3] + 725 u[4]
   + 118 u[5] + 886 u[6] + 776 u[7] + 230 u[8] + 143 u[9] + 276 u[10]
   + 32 u[11] + 557 u[12] + 201 u[13] + 797 u[14] + 209 u[15] + 726 u[16]
   + 133 u[17] + 2 u[18] + 59 u[19] + 862 u[20] + 676 u[21] + 949 u[22]
   + 843 u[23] + 117 u[24] + 821 u[25] + 563 u[26] + 628 u[27] + 838 u[28]
   + 44 u[29] + 562 u[30] + 584 u[31] + 12 u[32] + 210 u[33] + 29 u[34]
   + 726 u[35] + 21 u[36] + 729 u[37] + 461 u[38] + 43 u[39] + 840 u[40]
   + 654 u[41] + 799 u[42] + 522 u[43] + 736 u[44] + 943 u[45] + 530 u[46]
   + 734 u[47] + 72 u[48] + 669 u[49] + 383 u[50] + 837 u[51] + 630 u[52]
   + 657 u[53] + 553 u[54] + 676 u[55] + 90 u[56] + 455 u[57] + 109 u[58]
   + 591 u[59] <= 4885
 primal_lower195: 276 u[0] + 565 u[1] + 479 u[2] + 828 u[3] + 241 u[4]
   + 194 u[5] + 466 u[6] + 116 u[7] + 506 u[8] + 139 u[9] + 616 u[10]
   + 836 u[11] + 697 u[12] + 85 u[13] + 369 u[14] + 309 u[15] + 354 u[16]
   + 593 u[17] + 246 u[18] + 87 u[19] + 922 u[20] + 952 u[21] + 617 u[22]
   + 447 u[23] + 713 u[24] + 65 u[25] + 831 u[26] + 216 u[27] + 34 u[28]
   + 440 u[29] + 670 u[30] + 260 u[31] + 832 u[32] + 694 u[33] + 521 u[34]
   + 778 u[35] + 977 u[36] + 333 u[37] + 553 u[38] + 575 u[39] + 180 u[40]
   + 42 u[41] + 59 u[42] + 566 u[43] + 732 u[44] + 427 u[45] + 110 u[46]
   + 18 u[47] + 20 u[48] + 985 u[49] + 995 u[50] + 769 u[51] + 554 u[52]
   + 581 u[53] + 389 u[54] + 536 u[55] + 310 u[56] + 795 u[57] + 753 u[58]
   + 683 u[59] <= 995
 primal_lower196: 583 u[0] + 931 u[1] + 665 u[2] + 138 u[3] + 259 u[4]
   + 361 u[5] + 500 u[6] + 251 u[7] + 652 u[8] + 369 u[9] + 91 u[10]
   + 738 u[11] + 875 u[12] + 923 u[13] + 964 u[14] + 428 u[15] + 412 u[16]
   + 87 u[17] + 328 u[18] + 909 u[19] + 532 u[20] + 847 u[21] + 667 u[22]
   + 6 u[23] + 812 u[24] + 39 u[25] + 585 u[26] + 95 u[27] + 101 u[28]
   + 366 u[29] + 209 u[30] + 667 u[31] + 635 u[32] + 260 u[33] + 651 u[34]
   + 568 u[35] + 275 u[36] + 612 u[37] + 515 u[38] + 110 u[39] + 806 u[40]
   + 905 u[41] + 957 u[42] + 669 u[43] + 302 u[44] + 114 u[45] + 321 u[46]
   + 937 u[47] + 334 u[48] + 431 u[49] + 286 u[50] + 407 u[51] + 428 u[52]
   + 779 u[53] + 352 u[54] + 783 u[55] + 120 u[56] + 554 u[57] + 499 u[58]
   + 65 u[59] <= 9688
 primal_lower197: 635 u[0] + 615 u[1] + 381 u[2] + 350 u[3] + 695 u[4]
   + 509 u[5] + 512 u[6] + 159 u[7] + 888 u[8] + 589 u[9] + 967 u[10]
   + 286 u[11] + 887 u[12] + 967 u[13] + 576 u[14] + 560 u[15] + 56 u[16]
   + 835 u[17] + 588 u[18] + 17 u[19] + 552 u[20] + 75 u[21] + 463 u[22]
   + 130 u[23] + 560 u[24] + 43 u[25] + 933 u[26] + 475 u[27] + 785 u[28]
   + 490 u[29] + 125 u[30] + 127 u[31] + 823 u[32] + 664 u[33] + 295 u[34]
   + 812 u[35] + 503 u[36] + 472 u[37] + 663 u[38] + 282 u[39] + 594 u[40]
   + 821 u[41] + 985 u[42] + 857 u[43] + 250 u[44] + 686 u[45] + 397 u[46]
   + 69 u[47] + 314 u[48] + 611 u[49] + 242 u[50] + 75 u[51] + 32 u[52]
   + 863 u[53] + 228 u[54] + 627 u[55] + 148 u[56] + 758 u[57] + 855 u[58]
   + 165 u[59] <= 985
 primal_lower198: 212 u[0] + 280 u[1] + 566 u[2] + 303 u[3] + 256 u[4]
   + 534 u[5] + 961 u[6] + 16 u[7] + 641 u[8] + 254 u[9] + 376 u[10]
   + 263 u[11] + 680 u[12] + 808 u[13] + 97 u[14] + 929 u[15] + 401 u[16]
   + 972 u[17] + 245 u[18] + 842 u[19] + 929 u[20] + 220 u[21] + 464 u[22]
   + 467 u[23] + 345 u[24] + 964 u[25] + 702 u[26] + 124 u[27] + 986 u[28]
   + 483 u[29] + 550 u[30] + 504 u[31] + 216 u[32] + 329 u[33] + 72 u[34]
   + 597 u[35] + 560 u[36] + u[37] + 504 u[38] + 659 u[39] + 339 u[40]
   + 654 u[41] + 178 u[42] + 402 u[43] + 179 u[44] + 231 u[45] + 790 u[46]
   + 878 u[47] + 931 u[48] + 212 u[49] + 99 u[50] + 436 u[51] + 697 u[52]
   + 776 u[53] + 781 u[54] + 956 u[55] + 509 u[56] + 719 u[57] + 88 u[58]
   + 254 u[59] <= 4903
 primal_lower199: 251 u[0] + 484 u[1] + 590 u[2] + 427 u[3] + 760 u[4]
   + 817 u[5] + 969 u[6] + 635 u[7] + 337 u[8] + 314 u[9] + 583 u[10]
   + 187 u[11] + 960 u[12] + 636 u[13] + 72 u[14] + 876 u[15] + 753 u[16]
   + 208 u[17] + 69 u[18] + 206 u[19] + 697 u[20] + 495 u[21] + 264 u[22]
   + 142 u[23] + 16 u[24] + 992 u[25] + 846 u[26] + 495 u[27] + 337 u[28]
   + 583 u[29] + 549 u[30] + 211 u[31] + 543 u[32] + 909 u[33] + 32 u[34]
   + 881 u[35] + 648 u[36] + 572 u[37] + 88 u[38] + 366 u[39] + 475 u[40]
   + 433 u[41] + 490 u[42] + 157 u[43] + 59 u[44] + 82 u[45] + 445 u[46]
   + 385 u[47] + 195 u[48] + 704 u[49] + 2 u[50] + 880 u[51] + 521 u[52]
   + 252 u[53] + 588 u[54] + 463 u[55] + 325 u[56] + 66 u[57] + 272 u[58]
   + 738 u[59] <= 18221
 primal_lower200: 246 u[0] + 335 u[1] + 977 u[2] + 302 u[3] + 779 u[4]
   + 356 u[5] + 604 u[6] + 902 u[7] + 876 u[8] + 669 u[9] + 954 u[10]
   + 230 u[11] + 179 u[12] + 767 u[13] + 515 u[14] + 607 u[15] + 924 u[16]
   + 299 u[17] + 48 u[18] + 969 u[19] + 932 u[20] + 474 u[21] + 139 u[22]
   + 889 u[23] + 803 u[24] + 99 u[25] + 121 u[26] + 730 u[27] + 244 u[28]
   + 298 u[29] + 616 u[30] + 158 u[31] + 986 u[32] + 360 u[33] + 627 u[34]
   + 612 u[35] + 307 u[36] + 175 u[37] + 91 u[38] + 977 u[39] + 254 u[40]
   + 940 u[41] + 757 u[42] + 496 u[43] + 470 u[44] + 373 u[45] + 760 u[46]
   + 932 u[47] + 766 u[48] + 587 u[49] + 269 u[50] + 3 u[51] + 708 u[52]
   + 455 u[53] + 999 u[54] + 658 u[55] + 680 u[56] + 453 u[57] + 243 u[58]
   + 149 u[59] <= 21418
 primal_lower201: 553 u[0] + 357 u[1] + 643 u[2] + 844 u[3] + 461 u[4]
   + 227 u[5] + 278 u[6] + 557 u[7] + 382 u[8] + 283 u[9] + 821 u[10]
   + 804 u[11] + 221 u[12] + 229 u[13] + 6 u[14] + 142 u[15] + 86 u[16]
   + 249 u[17] + 274 u[18] + 879 u[19] + 150 u[20] + 673 u[21] + 805 u[22]
   + 912 u[23] + 982 u[24] + 145 u[25] + 595 u[26] + 473 u[27] + 511 u[28]
   + 720 u[29] + 843 u[30] + 565 u[31] + 341 u[32] + 822 u[33] + 133 u[34]
   + 914 u[35] + 485 u[36] + 214 u[37] + 405 u[38] + 464 u[39] + 952 u[40]
   + 51 u[41] + 607 u[42] + 303 u[43] + 392 u[44] + 604 u[45] + 667 u[46]
   + 67 u[47] + 176 u[48] + 265 u[49] + 880 u[50] + 177 u[51] + 382 u[52]
   + 941 u[53] + 114 u[54] + 129 u[55] + 730 u[56] + 180 u[57] + 117 u[58]
   + 507 u[59] <= 9229
 primal_lower202: 601 u[0] + 730 u[1] + 52 u[2] + 353 u[3] + 358 u[4]
   + 87 u[5] + 767 u[6] + 513 u[7] + 983 u[8] + 256 u[9] + 365 u[10]
   + 113 u[11] + 558 u[12] + 498 u[13] + 454 u[14] + 506 u[15] + 239 u[16]
   + 662 u[17] + 499 u[18] + 116 u[19] + 599 u[20] + 637 u[21] + 950 u[22]
   + 284 u[23] + 166 u[24] + 486 u[25] + 604 u[26] + 597 u[27] + 399 u[28]
   + 541 u[29] + 603 u[30] + 65 u[31] + 189 u[32] + 603 u[33] + 190 u[34]
   + 719 u[35] + 6 u[36] + 794 u[37] + 86 u[38] + 948 u[39] + 33 u[40]
   + 303 u[41] + 416 u[42] + 899 u[43] + 17 u[44] + 24 u[45] + 11 u[46]
   + 295 u[47] + 897 u[48] + 54 u[49] + 120 u[50] + 214 u[51] + 87 u[52]
   + 250 u[53] + 586 u[54] + 229 u[55] + 987 u[56] + 872 u[57] + 718 u[58]
   + 864 u[59] <= 987
 primal_lower203: 96 u[0] + 153 u[1] + 107 u[2] + 392 u[3] + 821 u[4]
   + 838 u[5] + 622 u[6] + 528 u[7] + 206 u[8] + 679 u[9] + 348 u[10]
   + 544 u[11] + 53 u[12] + 937 u[13] + 765 u[14] + 897 u[15] + 22 u[16]
   + 413 u[17] + 554 u[18] + 483 u[19] + 974 u[20] + 100 u[21] + 629 u[22]
   + 59 u[23] + 629 u[24] + 341 u[25] + 427 u[26] + 28 u[27] + 910 u[28]
   + 532 u[29] + 298 u[30] + 568 u[31] + 668 u[32] + 58 u[33] + 405 u[34]
   + 598 u[35] + 565 u[36] + 713 u[37] + 389 u[38] + 515 u[39] + 768 u[40]
   + 782 u[41] + 271 u[42] + 658 u[43] + 688 u[44] + 791 u[45] + 114 u[46]
   + 878 u[47] + 904 u[48] + 189 u[49] + 231 u[50] + 789 u[51] + 862 u[52]
   + 969 u[53] + 921 u[54] + 172 u[55] + 618 u[56] + 71 u[57] + 893 u[58]
   + 111 u[59] <= 5090
 primal_lower204: 126 u[0] + 167 u[1] + 241 u[2] + 654 u[3] + 83 u[4]
   + 796 u[5] + 308 u[6] + 422 u[7] + 204 u[8] + 181 u[9] + 674 u[10]
   + 46 u[11] + 811 u[12] + 967 u[13] + 507 u[14] + 87 u[15] + 372 u[16]
   + 91 u[17] + 336 u[18] + 409 u[19] + 260 u[20] + 322 u[21] + 763 u[22]
   + 289 u[23] + 907 u[24] + 235 u[25] + 753 u[26] + 410 u[27] + 100 u[28]
   + 762 u[29] + 936 u[30] + 902 u[31] + 186 u[32] + 856 u[33] + 699 u[34]
   + 388 u[35] + 587 u[36] + 423 u[37] + 83 u[38] + 777 u[39] + 470 u[40]
   + 468 u[41] + 277 u[42] + 504 u[43] + 414 u[44] + 37 u[45] + 680 u[46]
   + 668 u[47] + 406 u[48] + 867 u[49] + 117 u[50] + 691 u[51] + 116 u[52]
   + 687 u[53] + 799 u[54] + 466 u[55] + 776 u[56] + 765 u[57] + 451 u[58]
   + 245 u[59] <= 967
 primal_lower205: 442 u[0] + 491 u[1] + 613 u[2] + 426 u[3] + 463 u[4]
   + 720 u[5] + 432 u[6] + 90 u[7] + 280 u[8] + 601 u[9] + 974 u[10]
   + 602 u[11] + 711 u[12] + 907 u[13] + 79 u[14] + 331 u[15] + 880 u[16]
   + 95 u[17] + 380 u[18] + 613 u[19] + 104 u[20] + 646 u[21] + 703 u[22]
   + 13 u[23] + 263 u[24] + 319 u[25] + 301 u[26] + 358 u[27] + 720 u[28]
   + 710 u[29] + 36 u[30] + 410 u[31] + 886 u[32] + 180 u[33] + 431 u[34]
   + 632 u[35] + 463 u[36] + 659 u[37] + 943 u[38] + 93 u[39] + 578 u[40]
   + 976 u[41] + 889 u[42] + 596 u[43] + 642 u[44] + 457 u[45] + 724 u[46]
   + 8 u[47] + 738 u[48] + 791 u[49] + 737 u[50] + 919 u[51] + 320 u[52]
   + 635 u[53] + 531 u[54] + 934 u[55] + 180 u[56] + 249 u[57] + 127 u[58]
   + 705 u[59] <= 15368
 primal_lower206: 436 u[0] + 8 u[1] + 270 u[2] + 727 u[3] + 560 u[4]
   + 494 u[5] + 697 u[6] + 424 u[7] + 329 u[8] + 518 u[9] + 216 u[10]
   + 79 u[11] + 552 u[12] + 960 u[13] + 113 u[14] + 777 u[15] + 305 u[16]
   + 716 u[17] + 45 u[18] + 802 u[19] + 977 u[20] + 92 u[21] + 528 u[22]
   + 995 u[23] + 369 u[24] + 956 u[25] + 822 u[26] + 620 u[27] + 538 u[28]
   + 243 u[29] + 894 u[30] + 880 u[31] + 216 u[32] + 497 u[33] + 960 u[34]
   + 173 u[35] + 440 u[36] + 473 u[37] + 312 u[38] + 907 u[39] + 795 u[40]
   + 766 u[41] + 162 u[42] + 890 u[43] + 299 u[44] + 471 u[45] + 862 u[46]
   + 438 u[47] + 907 u[48] + 220 u[49] + 11 u[50] + 676 u[51] + u[52]
   + 392 u[53] + 485 u[54] + 324 u[55] + 757 u[56] + 471 u[57] + 464 u[58]
   + 222 u[59] <= 5088
 primal_lower207: 426 u[0] + 723 u[1] + 173 u[2] + 90 u[3] + 999 u[4]
   + 640 u[5] + 80 u[6] + 170 u[7] + 736 u[8] + 969 u[9] + 502 u[10]
   + 226 u[11] + 63 u[12] + 819 u[13] + 199 u[14] + 507 u[15] + 176 u[16]
   + 863 u[17] + 132 u[18] + 381 u[19] + 176 u[20] + 878 u[21] + 591 u[22]
   + 949 u[23] + 255 u[24] + 751 u[25] + 141 u[26] + 6 u[27] + 576 u[28]
   + 486 u[29] + 380 u[30] + 274 u[31] + 822 u[32] + 268 u[33] + 143 u[34]
   + 416 u[35] + 71 u[36] + 539 u[37] + 487 u[38] + 893 u[39] + 634 u[40]
   + 784 u[41] + 441 u[42] + 988 u[43] + 978 u[44] + 393 u[45] + 164 u[46]
   + 584 u[47] + 322 u[48] + 47 u[49] + 809 u[50] + 119 u[51] + 424 u[52]
   + 659 u[53] + 763 u[54] + 438 u[55] + 284 u[56] + 337 u[57] + 151 u[58]
   + 129 u[59] <= 9141
 primal_lower208: 764 u[0] + 240 u[1] + 710 u[2] + 775 u[3] + 296 u[4]
   + 982 u[5] + 585 u[6] + 696 u[7] + 553 u[8] + 982 u[9] + 224 u[10]
   + 711 u[11] + 88 u[12] + 744 u[13] + 737 u[14] + 9 u[15] + 537 u[16]
   + 708 u[17] + 765 u[18] + 434 u[19] + 417 u[20] + 76 u[21] + 72 u[22]
   + 27 u[23] + 305 u[24] + 908 u[25] + 414 u[26] + 172 u[27] + 882 u[28]
   + 827 u[29] + 718 u[30] + 408 u[31] + 920 u[32] + 433 u[33] + 664 u[34]
   + 205 u[35] + 960 u[36] + 305 u[37] + 88 u[38] + 211 u[39] + 859 u[40]
   + 654 u[41] + 378 u[42] + 682 u[43] + 835 u[44] + 871 u[45] + 158 u[46]
   + 998 u[47] + 763 u[48] + 372 u[49] + 531 u[50] + 188 u[51] + 129 u[52]
   + 16 u[53] + 501 u[54] + 84 u[55] + 501 u[56] + 79 u[57] + 560 u[58]
   + 110 u[59] <= 14910
 primal_lower209: 402 u[0] + 950 u[1] + 996 u[2] + 133 u[3] + 878 u[4]
   + 540 u[5] + 719 u[6] + 606 u[7] + 255 u[8] + 972 u[9] + 846 u[10]
   + 237 u[11] + 758 u[12] + 878 u[13] + 151 u[14] + 119 u[15] + 711 u[16]
   + 770 u[17] + 275 u[18] + 240 u[19] + 687 u[20] + 138 u[21] + 22 u[22]
   + 185 u[23] + 351 u[24] + 954 u[25] + 588 u[26] + 146 u[27] + 304 u[28]
   + 665 u[29] + 820 u[30] + 230 u[31] + 214 u[32] + 703 u[33] + 182 u[34]
   + 947 u[35] + 678 u[36] + 703 u[37] + 366 u[38] + 729 u[39] + 145 u[40]
   + 876 u[41] + 96 u[42] + 448 u[43] + 265 u[44] + 557 u[45] + 508 u[46]
   + 468 u[47] + 625 u[48] + 642 u[49] + 681 u[50] + 2 u[51] + 279 u[52]
   + 38 u[53] + 403 u[54] + 850 u[55] + 523 u[56] + 589 u[57] + 566 u[58]
   + 788 u[59] <= 5066
 primal_lower210: 574 u[0] + 730 u[1] + 144 u[2] + 409 u[3] + 242 u[4]
   + 88 u[5] + 323 u[6] + 90 u[7] + 443 u[8] + 992 u[9] + 698 u[10]
   + 753 u[11] + 602 u[12] + 930 u[13] + 179 u[14] + 451 u[15] + 731 u[16]
   + 86 u[17] + 359 u[18] + 300 u[19] + 99 u[20] + 878 u[21] + 746 u[22]
   + 509 u[23] + 539 u[24] + 942 u[25] + 880 u[26] + 358 u[27] + 164 u[28]
   + 941 u[29] + 704 u[30] + 490 u[31] + 578 u[32] + 939 u[33] + 874 u[34]
   + 199 u[35] + 482 u[36] + 499 u[37] + 474 u[38] + 997 u[39] + 501 u[40]
   + 792 u[41] + 932 u[42] + 172 u[43] + 805 u[44] + 369 u[45] + 104 u[46]
   + 56 u[47] + 549 u[48] + 254 u[49] + 677 u[50] + 422 u[51] + 947 u[52]
   + 810 u[53] + 143 u[54] + 286 u[55] + 823 u[56] + 305 u[57] + 850 u[58]
   + 696 u[59] <= 15954
 primal_lower211: 673 u[0] + 757 u[1] + 83 u[2] + 84 u[3] + 845 u[4]
   + 355 u[5] + 998 u[6] + 421 u[7] + 14 u[8] + 139 u[9] + 157 u[10]
   + 948 u[11] + 389 u[12] + 725 u[13] + 270 u[14] + 294 u[15] + 998 u[16]
   + 313 u[17] + 874 u[18] + 495 u[19] + 878 u[20] + 257 u[21] + 149 u[22]
   + 984 u[23] + 206 u[24] + 33 u[25] + 795 u[26] + 521 u[27] + 71 u[28]
   + 720 u[29] + 323 u[30] + 93 u[31] + 53 u[32] + 734 u[33] + 741 u[34]
   + 370 u[35] + 693 u[36] + 678 u[37] + 21 u[38] + 136 u[39] + 880 u[40]
   + 163 u[41] + 871 u[42] + 407 u[43] + 136 u[44] + 620 u[45] + 619 u[46]
   + 819 u[47] + 280 u[48] + 129 u[49] + 720 u[50] + 249 u[51] + 214 u[52]
   + 333 u[53] + 666 u[54] + 505 u[55] + 698 u[56] + 796 u[57] + 413 u[58]
   + 875 u[59] <= 9560
 primal_lower212: 573 u[0] + 977 u[1] + 615 u[2] + 728 u[3] + 705 u[4]
   + 439 u[5] + 714 u[6] + 537 u[7] + 210 u[8] + 359 u[9] + 249 u[10]
   + 232 u[11] + 777 u[12] + 489 u[13] + 554 u[14] + 602 u[15] + 970 u[16]
   + 157 u[17] + 766 u[18] + 779 u[19] + 250 u[20] + 853 u[21] + 321 u[22]
   + 548 u[23] + 482 u[24] + 677 u[25] + 551 u[26] + 669 u[27] + 291 u[28]
   + 940 u[29] + 823 u[30] + 361 u[31] + 337 u[32] + 410 u[33] + 601 u[34]
   + 38 u[35] + 9 u[36] + 58 u[37] + 665 u[38] + 676 u[39] + 580 u[40]
   + 55 u[41] + 91 u[42] + 907 u[43] + 220 u[44] + 200 u[45] + 31 u[46]
   + 591 u[47] + 916 u[48] + 613 u[49] + 76 u[50] + 333 u[51] + 306 u[52]
   + 217 u[53] + 694 u[54] + 845 u[55] + 494 u[56] + 320 u[57] + 57 u[58]
   + 279 u[59] <= 14408
 primal_lower213: 689 u[0] + 546 u[1] + 28 u[2] + 89 u[3] + 158 u[4]
   + 183 u[5] + 191 u[6] + 729 u[7] + 543 u[8] + 608 u[9] + 365 u[10]
   + 937 u[11] + 502 u[12] + 170 u[13] + 718 u[14] + 650 u[15] + 903 u[16]
   + 734 u[17] + 571 u[18] + 484 u[19] + 223 u[20] + 389 u[21] + 966 u[22]
   + 988 u[23] + 94 u[24] + 614 u[25] + 716 u[26] + 109 u[27] + 839 u[28]
   + 93 u[29] + 387 u[30] + 617 u[31] + 21 u[32] + 227 u[33] + 790 u[34]
   + 559 u[35] + 718 u[36] + 650 u[37] + 886 u[38] + 428 u[39] + 505 u[40]
   + 359 u[41] + 128 u[42] + 891 u[43] + 593 u[44] + 720 u[45] + 195 u[46]
   + 431 u[47] + 193 u[48] + 198 u[49] + 328 u[50] + 806 u[51] + 991 u[52]
   + 42 u[53] + 890 u[54] + 5 u[55] + 619 u[56] + 16 u[57] + 406 u[58]
   + 504 u[59] <= 9644
 primal_lower214: 409 u[0] + 933 u[1] + 467 u[2] + 60 u[3] + 781 u[4]
   + 907 u[5] + 990 u[6] + 53 u[7] + 686 u[8] + 291 u[9] + 453 u[10]
   + 900 u[11] + 285 u[12] + 405 u[13] + 918 u[14] + 742 u[15] + 678 u[16]
   + 225 u[17] + 674 u[18] + 567 u[19] + 382 u[20] + 537 u[21] + 141 u[22]
   + 560 u[23] + 94 u[24] + 545 u[25] + 803 u[26] + 801 u[27] + 319 u[28]
   + 520 u[29] + 443 u[30] + 653 u[31] + 925 u[32] + 542 u[33] + 869 u[34]
   + 170 u[35] + 245 u[36] + 958 u[37] + 981 u[38] + 480 u[39] + 408 u[40]
   + 179 u[41] + 71 u[42] + 431 u[43] + 712 u[44] + 188 u[45] + 363 u[46]
   + 635 u[47] + 232 u[48] + 193 u[49] + 448 u[50] + 433 u[51] + 926 u[52]
   + 517 u[53] + 898 u[54] + 905 u[55] + 994 u[56] + 116 u[57] + 309 u[58]
   + 363 u[59] <= 10571
 primal_lower215: 348 u[0] + 269 u[1] + 303 u[2] + 844 u[3] + 241 u[4]
   + 106 u[5] + 370 u[6] + 932 u[7] + 498 u[8] + 627 u[9] + 728 u[10]
   + 956 u[11] + 241 u[12] + 485 u[13] + 841 u[14] + 45 u[15] + 418 u[16]
   + 81 u[17] + 406 u[18] + 119 u[19] + 34 u[20] + 240 u[21] + 329 u[22]
   + 359 u[23] + 713 u[24] + 697 u[25] + 695 u[26] + 856 u[27] + 722 u[28]
   + 72 u[29] + 870 u[30] + 868 u[31] + 152 u[32] + 686 u[33] + 209 u[34]
   + 722 u[35] + 177 u[36] + 637 u[37] + 249 u[38] + 999 u[39] + 588 u[40]
   + 770 u[41] + 83 u[42] + 654 u[43] + 996 u[44] + 603 u[45] + 814 u[46]
   + 138 u[47] + 996 u[48] + 617 u[49] + 979 u[50] + 97 u[51] + 362 u[52]
   + 685 u[53] + 885 u[54] + 848 u[55] + 286 u[56] + 187 u[57] + 977 u[58]
   + 723 u[59] <= 5238
 primal_lower216: 61 u[0] + 166 u[1] + 832 u[2] + 61 u[3] + 898 u[4]
   + 923 u[5] + 707 u[6] + 29 u[7] + 419 u[8] + 516 u[9] + 57 u[10]
   + 229 u[11] + 474 u[12] + 822 u[13] + 322 u[14] + 318 u[15] + 755 u[16]
   + 778 u[17] + 663 u[18] + 264 u[19] + 379 u[20] + 489 u[21] + 130 u[22]
   + 624 u[23] + 250 u[24] + 26 u[25] + 312 u[26] + 681 u[27] + 619 u[28]
   + 697 u[29] + 535 u[30] + 485 u[31] + 9 u[32] + 415 u[33] + 434 u[34]
   + 875 u[35] + 362 u[36] + 958 u[37] + 474 u[38] + 344 u[39] + 117 u[40]
   + 571 u[41] + 44 u[42] + 839 u[43] + 29 u[44] + 580 u[45] + 583 u[46]
   + 443 u[47] + 981 u[48] + 586 u[49] + 148 u[50] + 922 u[51] + 147 u[52]
   + 46 u[53] + 422 u[54] + 857 u[55] + 839 u[56] + 484 u[57] + 562 u[58]
   + 324 u[59] <= 4652
 primal_lower217: 214 u[0] + 762 u[1] + 336 u[2] + 473 u[3] + 778 u[4]
   + 464 u[5] + 971 u[6] + 690 u[7] + 123 u[8] + 600 u[9] + 938 u[10]
   + 281 u[11] + 898 u[12] + 138 u[13] + 451 u[14] + 819 u[15] + 163 u[16]
   + 558 u[17] + 447 u[18] + 508 u[19] + 779 u[20] + 558 u[21] + 874 u[22]
   + 381 u[23] + 387 u[24] + 302 u[25] + 920 u[26] + 750 u[27] + 900 u[28]
   + 405 u[29] + 64 u[30] + 986 u[31] + 546 u[32] + 611 u[33] + 538 u[34]
   + 871 u[35] + 538 u[36] + 627 u[37] + 234 u[38] + 645 u[39] + 669 u[40]
   + 712 u[41] + 924 u[42] + 780 u[43] + 645 u[44] + 193 u[45] + 312 u[46]
   + 480 u[47] + 981 u[48] + 422 u[49] + 229 u[50] + 774 u[51] + 499 u[52]
   + 66 u[53] + 31 u[54] + 958 u[55] + 983 u[56] + 577 u[57] + 658 u[58]
   + 440 u[59] <= 16930
 primal_lower218: 165 u[0] + 206 u[1] + 888 u[2] + 45 u[3] + 306 u[4]
   + 419 u[5] + 619 u[6] + 237 u[7] + 387 u[8] + 932 u[9] + 921 u[10]
   + 661 u[11] + 210 u[12] + 326 u[13] + 394 u[14] + 502 u[15] + 427 u[16]
   + 970 u[17] + 991 u[18] + 624 u[19] + 187 u[20] + 425 u[21] + 770 u[22]
   + 480 u[23] + 522 u[24] + 58 u[25] + 984 u[26] + 313 u[27] + 811 u[28]
   + 377 u[29] + 439 u[30] + 909 u[31] + 713 u[32] + 607 u[33] + 178 u[34]
   + 539 u[35] + 730 u[36] + 702 u[37] + 346 u[38] + 968 u[39] + 109 u[40]
   + 683 u[41] + 348 u[42] + 231 u[43] + 429 u[44] + 332 u[45] + 711 u[46]
   + 307 u[47] + 221 u[48] + 986 u[49] + 228 u[50] + 882 u[51] + 803 u[52]
   + 910 u[53] + 782 u[54] + 177 u[55] + 111 u[56] + 140 u[57] + 146 u[58]
   + 564 u[59] <= 10129
 primal_lower219: 164 u[0] + 869 u[1] + 103 u[2] + 876 u[3] + 33 u[4]
   + 522 u[5] + 914 u[6] + 372 u[7] + 250 u[8] + 363 u[9] + 1000 u[10]
   + 412 u[11] + 537 u[12] + 125 u[13] + 633 u[14] + 45 u[15] + 418 u[16]
   + 881 u[17] + 518 u[18] + 807 u[19] + 346 u[20] + 192 u[21] + 81 u[22]
   + 519 u[23] + 281 u[24] + 913 u[25] + 415 u[26] + 472 u[27] + 746 u[28]
   + 240 u[29] + 30 u[30] + 628 u[31] + 368 u[32] + 710 u[33] + 889 u[34]
   + 138 u[35] + 33 u[36] + 317 u[37] + 353 u[38] + 311 u[39] + 812 u[40]
   + 362 u[41] + 59 u[42] + 838 u[43] + 932 u[44] + 283 u[45] + 958 u[46]
   + 274 u[47] + 372 u[48] + 137 u[49] + 75 u[50] + 409 u[51] + 586 u[52]
   + 789 u[53] + 653 u[54] + 600 u[55] + 270 u[56] + 827 u[57] + 769 u[58]
   + 131 u[59] <= 13980
 primal_lower220: 841 u[0] + 221 u[1] + 491 u[2] + 844 u[3] + 413 u[4]
   + 579 u[5] + 654 u[6] + 213 u[7] + 398 u[8] + 379 u[9] + 853 u[10]
   + 12 u[11] + 597 u[12] + 717 u[13] + 758 u[14] + 86 u[15] + 54 u[16]
   + 649 u[17] + 2 u[18] + 423 u[19] + 174 u[20] + 825 u[21] + 565 u[22]
   + 784 u[23] + 190 u[24] + 673 u[25] + 515 u[26] + 185 u[27] + 863 u[28]
   + 528 u[29] + 363 u[30] + 493 u[31] + 917 u[32] + 350 u[33] + 397 u[34]
   + 722 u[35] + 973 u[36] + 990 u[37] + 469 u[38] + 736 u[39] + 384 u[40]
   + 403 u[41] + 79 u[42] + 503 u[43] + 992 u[44] + 596 u[45] + 683 u[46]
   + 59 u[47] + 320 u[48] + 361 u[49] + 704 u[50] + 993 u[51] + 550 u[52]
   + 29 u[53] + 306 u[54] + 393 u[55] + 794 u[56] + 468 u[57] + 349 u[58]
   + 555 u[59] <= 5069
 primal_lower221: 526 u[0] + 199 u[1] + 713 u[2] + 918 u[3] + 331 u[4]
   + 532 u[5] + 204 u[6] + 654 u[7] + 316 u[8] + 741 u[9] + 242 u[10]
   + 38 u[11] + 859 u[12] + 303 u[13] + 283 u[14] + 567 u[15] + 988 u[16]
   + 675 u[17] + 896 u[18] + 57 u[19] + 132 u[20] + 754 u[21] + 907 u[22]
   + 833 u[23] + 755 u[24] + 83 u[25] + 881 u[26] + 418 u[27] + 932 u[28]
   + 58 u[29] + 728 u[30] + 78 u[31] + 178 u[32] + 848 u[33] + 51 u[34]
   + 628 u[35] + 611 u[36] + 631 u[37] + 683 u[38] + 265 u[39] + 478 u[40]
   + 780 u[41] + 125 u[42] + 992 u[43] + 382 u[44] + 277 u[45] + 480 u[46]
   + 484 u[47] + 62 u[48] + 203 u[49] + 805 u[50] + 739 u[51] + 60 u[52]
   + 391 u[53] + 103 u[54] + 18 u[55] + 504 u[56] + 245 u[57] + 267 u[58]
   + 917 u[59] <= 14404
 primal_lower222: 22 u[0] + 890 u[1] + 776 u[2] + u[3] + 82 u[4] + 992 u[5]
   + 963 u[6] + 202 u[7] + 267 u[8] + 624 u[9] + 738 u[10] + 169 u[11]
   + 986 u[12] + 938 u[13] + 779 u[14] + 371 u[15] + 547 u[16] + 54 u[17]
   + 575 u[18] + 916 u[19] + 995 u[20] + 118 u[21] + 594 u[22] + 677 u[23]
   + 491 u[24] + 806 u[25] + 688 u[26] + 598 u[27] + 260 u[28] + 429 u[29]
   + 184 u[30] + 122 u[31] + 426 u[32] + 307 u[33] + 922 u[34] + 703 u[35]
   + 618 u[36] + 571 u[37] + 722 u[38] + 21 u[39] + 477 u[40] + 320 u[41]
   + 420 u[42] + 700 u[43] + 325 u[44] + 873 u[45] + 720 u[46] + 96 u[47]
   + 645 u[48] + 70 u[49] + 93 u[50] + 326 u[51] + 99 u[52] + 2 u[53]
   + 143 u[54] + 262 u[55] + 103 u[56] + 305 u[57] + 834 u[58] + 496 u[59]
   <= 4742
 primal_lower223: 777 u[0] + 322 u[1] + 28 u[2] + 777 u[3] + 814 u[4]
   + 199 u[5] + 223 u[6] + 865 u[7] + 495 u[8] + 544 u[9] + 925 u[10]
   + 337 u[11] + 510 u[12] + 218 u[13] + 894 u[14] + 842 u[15] + 79 u[16]
   + 798 u[17] + 131 u[18] + 788 u[19] + 127 u[20] + 165 u[21] + 110 u[22]
   + 708 u[23] + 518 u[24] + 222 u[25] + 860 u[26] + 925 u[27] + 287 u[28]
   + 157 u[29] + 203 u[30] + 97 u[31] + 765 u[32] + 683 u[33] + 998 u[34]
   + 839 u[35] + 454 u[36] + 602 u[37] + 198 u[38] + 948 u[39] + 121 u[40]
   + 391 u[41] + 696 u[42] + 891 u[43] + 841 u[44] + 496 u[45] + 539 u[46]
   + 495 u[47] + 401 u[48] + 934 u[49] + 696 u[50] + 230 u[51] + 351 u[52]
   + 698 u[53] + 786 u[54] + 893 u[55] + 283 u[56] + 80 u[57] + 654 u[58]
   + 120 u[59] <= 10342
 primal_lower224: 82 u[0] + 595 u[1] + 837 u[2] + 618 u[3] + 311 u[4]
   + 552 u[5] + 816 u[6] + 706 u[7] + 224 u[8] + 849 u[9] + 518 u[10]
   + 266 u[11] + 23 u[12] + 171 u[13] + 919 u[14] + 699 u[15] + 360 u[16]
   + 55 u[17] + 732 u[18] + 613 u[19] + 592 u[20] + 230 u[21] + 183 u[22]
   + 157 u[23] + 199 u[24] + 871 u[25] + 821 u[26] + 462 u[27] + 656 u[28]
   + 534 u[29] + 748 u[30] + 370 u[31] + 110 u[32] + 380 u[33] + 647 u[34]
   + 384 u[35] + 175 u[36] + 603 u[37] + 63 u[38] + 165 u[39] + 250 u[40]
   + 368 u[41] + u[42] + 588 u[43] + 922 u[44] + 137 u[45] + 140 u[46]
   + 80 u[47] + 242 u[48] + 983 u[49] + 249 u[50] + 423 u[51] + 96 u[52]
   + 459 u[53] + 507 u[54] + 502 u[55] + 876 u[56] + 161 u[57] + 479 u[58]
   + 601 u[59] <= 13180
 primal_lower225: 486 u[0] + 295 u[1] + 993 u[2] + 510 u[3] + 379 u[4]
   + 236 u[5] + 932 u[6] + 694 u[7] + 676 u[8] + 157 u[9] + 378 u[10]
   + 806 u[11] + 627 u[12] + 135 u[13] + 947 u[14] + 671 u[15] + 380 u[16]
   + 331 u[17] + 688 u[18] + 281 u[19] + 492 u[20] + 98 u[21] + 963 u[22]
   + 937 u[23] + 475 u[24] + 395 u[25] + 9 u[26] + 194 u[27] + 732 u[28]
   + 618 u[29] + 192 u[30] + 206 u[31] + 50 u[32] + 16 u[33] + 875 u[34]
   + 4 u[35] + 851 u[36] + 383 u[37] + 259 u[38] + 665 u[39] + 462 u[40]
   + 100 u[41] + 309 u[42] + 504 u[43] + 462 u[44] + 277 u[45] + 296 u[46]
   + 860 u[47] + 990 u[48] + 275 u[49] + 445 u[50] + 355 u[51] + 76 u[52]
   + 999 u[53] + 39 u[54] + 594 u[55] + 48 u[56] + 125 u[57] + 731 u[58]
   + 565 u[59] <= 18352
 primal_lower226: 539 u[0] + 788 u[1] + 470 u[2] + 747 u[3] + 912 u[4]
   + 289 u[5] + 33 u[6] + 603 u[7] + 433 u[8] + 778 u[9] + 287 u[10]
   + 691 u[11] + 112 u[12] + 340 u[13] + 392 u[14] + 404 u[15] + 617 u[16]
   + 296 u[17] + 709 u[18] + 214 u[19] + 961 u[20] + 343 u[21] + 392 u[22]
   + 638 u[23] + 496 u[24] + 216 u[25] + 774 u[26] + 383 u[27] + 521 u[28]
   + 335 u[29] + 981 u[30] + 571 u[31] + 167 u[32] + 461 u[33] + 744 u[34]
   + 305 u[35] + 880 u[36] + 44 u[37] + 240 u[38] + 958 u[39] + 851 u[40]
   + 233 u[41] + 258 u[42] + 573 u[43] + 27 u[44] + 954 u[45] + 405 u[46]
   + 521 u[47] + 339 u[48] + 240 u[49] + 154 u[50] + 960 u[51] + 401 u[52]
   + 708 u[53] + 556 u[54] + 663 u[55] + 637 u[56] + 522 u[57] + 936 u[58]
   + 418 u[59] <= 15210
 primal_lower227: 200 u[0] + 92 u[1] + 58 u[2] + 523 u[3] + 4 u[4]
   + 450 u[5] + 37 u[6] + 580 u[7] + 461 u[8] + 522 u[9] + 556 u[10]
   + 635 u[11] + 532 u[12] + 884 u[13] + 757 u[14] + 477 u[15] + 965 u[16]
   + 704 u[17] + 657 u[18] + 782 u[19] + 61 u[20] + 424 u[21] + 12 u[22]
   + 415 u[23] + 173 u[24] + 928 u[25] + 866 u[26] + 776 u[27] + 262 u[28]
   + 559 u[29] + 2 u[30] + 868 u[31] + 452 u[32] + 45 u[33] + 28 u[34]
   + 209 u[35] + 516 u[36] + 181 u[37] + 252 u[38] + 719 u[39] + 175 u[40]
   + 994 u[41] + 198 u[42] + 142 u[43] + 919 u[44] + 955 u[45] + 290 u[46]
   + 386 u[47] + 351 u[48] + 592 u[49] + 255 u[50] + 88 u[51] + 965 u[52]
   + 660 u[53] + 121 u[54] + 504 u[55] + 545 u[56] + 563 u[57] + 260 u[58]
   + 370 u[59] <= 8985
 primal_lower228: 489 u[0] + 930 u[1] + 508 u[2] + 929 u[3] + 406 u[4]
   + 71 u[5] + 783 u[6] + 737 u[7] + 159 u[8] + 184 u[9] + 581 u[10]
   + 761 u[11] + 782 u[12] + 930 u[13] + 454 u[14] + 874 u[15] + 759 u[16]
   + 830 u[17] + 939 u[18] + 308 u[19] + 39 u[20] + 693 u[21] + 294 u[22]
   + 476 u[23] + 78 u[24] + 166 u[25] + 868 u[26] + 541 u[27] + 511 u[28]
   + 469 u[29] + 867 u[30] + 585 u[31] + 933 u[32] + 779 u[33] + 518 u[34]
   + 151 u[35] + 238 u[36] + 50 u[37] + 966 u[38] + 116 u[39] + 609 u[40]
   + 703 u[41] + 576 u[42] + 323 u[43] + 641 u[44] + 848 u[45] + 123 u[46]
   + 551 u[47] + 657 u[48] + 302 u[49] + 776 u[50] + 502 u[51] + 295 u[52]
   + 754 u[53] + 834 u[54] + 493 u[55] + 555 u[56] + 360 u[57] + 958 u[58]
   + 472 u[59] <= 11028
 primal_lower229: 775 u[0] + 403 u[1] + 9 u[2] + 234 u[3] + 987 u[4]
   + 577 u[5] + 468 u[6] + 923 u[7] + 932 u[8] + 297 u[9] + 291 u[10]
   + 434 u[11] + 483 u[12] + 99 u[13] + 916 u[14] + 220 u[15] + 364 u[16]
   + 799 u[17] + 360 u[18] + 661 u[19] + 660 u[20] + 863 u[21] + 259 u[22]
   + 46 u[23] + 588 u[24] + 751 u[25] + 313 u[26] + 215 u[27] + 941 u[28]
   + 414 u[29] + 617 u[30] + 379 u[31] + 443 u[32] + 804 u[33] + 171 u[34]
   + 24 u[35] + 259 u[36] + 68 u[37] + 243 u[38] + 398 u[39] + 486 u[40]
   + 297 u[41] + 589 u[42] + 573 u[43] + 494 u[44] + 378 u[45] + 681 u[46]
   + 889 u[47] + 878 u[48] + 415 u[49] + 438 u[50] + 327 u[51] + 52 u[52]
   + 587 u[53] + 952 u[54] + 23 u[55] + 104 u[56] + 242 u[57] + 459 u[58]
   + 705 u[59] <= 9419
 primal_lower230: 76 u[0] + 677 u[1] + 279 u[2] + 220 u[3] + 657 u[4]
   + 242 u[5] + 818 u[6] + 660 u[7] + 554 u[8] + 123 u[9] + 528 u[10]
   + 468 u[11] + 49 u[12] + 909 u[13] + 569 u[14] + 949 u[15] + 362 u[16]
   + 633 u[17] + 214 u[18] + 983 u[19] + 770 u[20] + 272 u[21] + 297 u[22]
   + 479 u[23] + 673 u[24] + 689 u[25] + 375 u[26] + 32 u[27] + 914 u[28]
   + 480 u[29] + 382 u[30] + 692 u[31] + 552 u[32] + 670 u[33] + 177 u[34]
   + 770 u[35] + 33 u[36] + 309 u[37] + 537 u[38] + 639 u[39] + 668 u[40]
   + 722 u[41] + 579 u[42] + 894 u[43] + 764 u[44] + 147 u[45] + 134 u[46]
   + 2 u[47] + 844 u[48] + 153 u[49] + 107 u[50] + 345 u[51] + 690 u[52]
   + 341 u[53] + 573 u[54] + 952 u[55] + 22 u[56] + 747 u[57] + 169 u[58]
   + 779 u[59] <= 983
 primal_lower231: 634 u[0] + 318 u[1] + 492 u[2] + 581 u[3] + 302 u[4]
   + 180 u[5] + 231 u[6] + 678 u[7] + 711 u[8] + 388 u[9] + 102 u[10]
   + 189 u[11] + 206 u[12] + 462 u[13] + 879 u[14] + 735 u[15] + 407 u[16]
   + 794 u[17] + 195 u[18] + 256 u[19] + 959 u[20] + 466 u[21] + 550 u[22]
   + 641 u[23] + 647 u[24] + 922 u[25] + 196 u[26] + 554 u[27] + 136 u[28]
   + 201 u[29] + 708 u[30] + 926 u[31] + 582 u[32] + 983 u[33] + 686 u[34]
   + 451 u[35] + 294 u[36] + 799 u[37] + 470 u[38] + 97 u[39] + 249 u[40]
   + 140 u[41] + 288 u[42] + 384 u[43] + 633 u[44] + 317 u[45] + 516 u[46]
   + 716 u[47] + 209 u[48] + 290 u[49] + 777 u[50] + 746 u[51] + 247 u[52]
   + 366 u[53] + 259 u[54] + 234 u[55] + 563 u[56] + 373 u[57] + 790 u[58]
   + 196 u[59] <= 4716
 primal_lower232: 448 u[0] + 121 u[1] + 883 u[2] + 784 u[3] + 341 u[4]
   + 990 u[5] + 166 u[6] + 720 u[7] + 406 u[8] + 287 u[9] + 940 u[10]
   + 888 u[11] + 389 u[12] + 897 u[13] + 533 u[14] + 57 u[15] + 622 u[16]
   + 69 u[17] + 402 u[18] + 443 u[19] + 942 u[20] + 92 u[21] + 605 u[22]
   + 771 u[23] + 893 u[24] + 933 u[25] + 363 u[26] + 388 u[27] + 86 u[28]
   + 852 u[29] + 82 u[30] + 864 u[31] + 492 u[32] + 490 u[33] + 229 u[34]
   + 270 u[35] + 5 u[36] + 73 u[37] + 653 u[38] + 371 u[39] + 912 u[40]
   + 542 u[41] + 343 u[42] + 418 u[43] + 992 u[44] + 119 u[45] + 578 u[46]
   + 982 u[47] + 968 u[48] + 613 u[49] + 543 u[50] + 573 u[51] + 798 u[52]
   + 73 u[53] + u[54] + 108 u[55] + 930 u[56] + 839 u[57] + 813 u[58]
   + 223 u[59] <= 10402
 primal_lower233: 934 u[0] + 807 u[1] + 905 u[2] + 542 u[3] + 619 u[4]
   + 308 u[5] + 276 u[6] + 38 u[7] + 796 u[8] + 309 u[9] + 834 u[10]
   + 718 u[11] + 539 u[12] + 279 u[13] + 403 u[14] + 247 u[15] + 764 u[16]
   + 875 u[17] + 80 u[18] + 321 u[19] + 468 u[20] + 378 u[21] + 395 u[22]
   + 313 u[23] + 915 u[24] + 619 u[25] + 281 u[26] + 698 u[27] + 644 u[28]
   + 562 u[29] + 848 u[30] + 918 u[31] + 914 u[32] + 200 u[33] + 739 u[34]
   + 380 u[35] + 235 u[36] + 495 u[37] + 203 u[38] + 65 u[39] + 958 u[40]
   + 380 u[41] + 101 u[42] + 976 u[43] + 374 u[44] + 549 u[45] + 560 u[46]
   + 12 u[47] + 22 u[48] + 507 u[49] + 765 u[50] + 283 u[51] + 260 u[52]
   + 775 u[53] + 695 u[54] + 818 u[55] + 488 u[56] + 989 u[57] + 667 u[58]
   + 973 u[59] <= 10672
 primal_lower234: 780 u[0] + 317 u[1] + 783 u[2] + 716 u[3] + 473 u[4]
   + 634 u[5] + 298 u[6] + 644 u[7] + 138 u[8] + 203 u[9] + 880 u[10]
   + 668 u[11] + 841 u[12] + 413 u[13] + 649 u[14] + 557 u[15] + 442 u[16]
   + 81 u[17] + 710 u[18] + 591 u[19] + 418 u[20] + 16 u[21] + 873 u[22]
   + 927 u[23] + 737 u[24] + 65 u[25] + 63 u[26] + 416 u[27] + 874 u[28]
   + 448 u[29] + 574 u[30] + 172 u[31] + 488 u[32] + 38 u[33] + 345 u[34]
   + 330 u[35] + 609 u[36] + 349 u[37] + 393 u[38] + 775 u[39] + 308 u[40]
   + 162 u[41] + 883 u[42] + 894 u[43] + 12 u[44] + 587 u[45] + 758 u[46]
   + 970 u[47] + 772 u[48] + 729 u[49] + 171 u[50] + 737 u[51] + 418 u[52]
   + 381 u[53] + 461 u[54] + 360 u[55] + 718 u[56] + 435 u[57] + 305 u[58]
   + 731 u[59] <= 5086
 primal_lower235: 99 u[0] + 420 u[1] + 542 u[2] + 779 u[3] + 504 u[4]
   + 305 u[5] + 937 u[6] + 579 u[7] + 417 u[8] + 122 u[9] + 607 u[10]
   + 259 u[11] + 312 u[12] + 260 u[13] + 56 u[14] + 4 u[15] + 425 u[16]
   + 752 u[17] + 725 u[18] + 406 u[19] + 233 u[20] + 743 u[21] + 232 u[22]
   + 734 u[23] + 680 u[24] + 112 u[25] + 430 u[26] + 135 u[27] + 289 u[28]
   + 967 u[29] + 245 u[30] + 179 u[31] + 583 u[32] + 181 u[33] + 632 u[34]
   + 881 u[35] + 184 u[36] + 884 u[37] + 680 u[38] + 582 u[39] + 571 u[40]
   + 217 u[41] + 386 u[42] + 765 u[43] + 875 u[44] + 290 u[45] + 45 u[46]
   + 489 u[47] + 107 u[48] + 728 u[49] + 234 u[50] + 608 u[51] + 289 u[52]
   + 412 u[53] + 356 u[54] + 519 u[55] + 85 u[56] + 626 u[57] + 488 u[58]
   + 594 u[59] <= 8926
 primal_lower236: 57 u[0] + 314 u[1] + 300 u[2] + 513 u[3] + 310 u[4]
   + 599 u[5] + 815 u[6] + 969 u[7] + 135 u[8] + 880 u[9] + 293 u[10]
   + 369 u[11] + 374 u[12] + 650 u[13] + 654 u[14] + 874 u[15] + 767 u[16]
   + 910 u[17] + 227 u[18] + 596 u[19] + 207 u[20] + 885 u[21] + 726 u[22]
   + 860 u[23] + 950 u[24] + 254 u[25] + 324 u[26] + 29 u[27] + 983 u[28]
   + 893 u[29] + 19 u[30] + 441 u[31] + 77 u[32] + 547 u[33] + 446 u[34]
   + 967 u[35] + 230 u[36] + 234 u[37] + 862 u[38] + 140 u[39] + 241 u[40]
   + 759 u[41] + 816 u[42] + 459 u[43] + 57 u[44] + 240 u[45] + 779 u[46]
   + 343 u[47] + 849 u[48] + 982 u[49] + 688 u[50] + 566 u[51] + 119 u[52]
   + 746 u[53] + 418 u[54] + 445 u[55] + 779 u[56] + 64 u[57] + 598 u[58]
   + 512 u[59] <= 15570
 primal_lower237: 418 u[0] + 107 u[1] + 557 u[2] + 522 u[3] + 79 u[4]
   + 32 u[5] + 672 u[6] + 18 u[7] + 408 u[8] + 785 u[9] + 806 u[10]
   + 386 u[11] + 631 u[12] + 675 u[13] + 791 u[14] + 59 u[15] + 272 u[16]
   + 391 u[17] + 620 u[18] + 517 u[19] + 656 u[20] + 870 u[21] + 663 u[22]
   + 541 u[23] + 615 u[24] + 847 u[25] + 229 u[26] + 6 u[27] + 896 u[28]
   + 430 u[29] + 444 u[30] + 530 u[31] + 782 u[32] + 884 u[33] + 935 u[34]
   + 672 u[35] + 983 u[36] + 171 u[37] + 959 u[38] + 917 u[39] + 210 u[40]
   + 48 u[41] + 337 u[42] + 764 u[43] + 266 u[44] + 681 u[45] + 12 u[46]
   + 384 u[47] + 466 u[48] + 743 u[49] + 849 u[50] + 671 u[51] + 544 u[52]
   + 355 u[53] + 123 u[54] + 6 u[55] + 772 u[56] + 145 u[57] + 255 u[58]
   + 281 u[59] <= 19792
 primal_lower238: 65 u[0] + 405 u[1] + 835 u[2] + 372 u[3] + 861 u[4]
   + 51 u[5] + 718 u[6] + 885 u[7] + 950 u[8] + 75 u[9] + 85 u[10]
   + 252 u[11] + 613 u[12] + 613 u[13] + 702 u[14] + 958 u[15] + 262 u[16]
   + 281 u[17] + 810 u[18] + 527 u[19] + 286 u[20] + 113 u[21] + 333 u[22]
   + 592 u[23] + 550 u[24] + u[25] + 35 u[26] + 449 u[27] + 639 u[28]
   + 808 u[29] + 979 u[30] + 797 u[31] + 917 u[32] + 366 u[33] + 949 u[34]
   + 906 u[35] + 925 u[36] + 422 u[37] + 85 u[38] + 928 u[39] + 416 u[40]
   + 379 u[41] + 399 u[42] + 783 u[43] + 272 u[44] + 828 u[45] + 947 u[46]
   + 923 u[47] + 824 u[48] + 689 u[49] + 752 u[50] + 993 u[51] + 710 u[52]
   + 741 u[53] + 490 u[54] + u[55] + 786 u[56] + 820 u[57] + 645 u[58]
   + 163 u[59] <= 11320
 primal_lower239: 609 u[0] + 730 u[1] + 164 u[2] + 545 u[3] + 758 u[4]
   + 263 u[5] + 543 u[6] + 417 u[7] + 559 u[8] + 88 u[9] + 917 u[10]
   + 513 u[11] + 254 u[12] + 450 u[13] + 438 u[14] + 298 u[15] + 335 u[16]
   + 878 u[17] + 379 u[18] + 764 u[19] + 423 u[20] + 509 u[21] + 942 u[22]
   + 404 u[23] + 422 u[24] + 30 u[25] + 572 u[26] + 621 u[27] + 63 u[28]
   + 397 u[29] + 819 u[30] + 265 u[31] + 765 u[32] + 643 u[33] + 30 u[34]
   + 511 u[35] + 190 u[36] + 114 u[37] + 558 u[38] + 932 u[39] + 241 u[40]
   + 7 u[41] + 712 u[42] + 603 u[43] + 513 u[44] + 920 u[45] + 307 u[46]
   + 543 u[47] + 745 u[48] + 534 u[49] + 408 u[50] + 294 u[51] + 903 u[52]
   + 402 u[53] + 482 u[54] + 325 u[55] + 419 u[56] + 368 u[57] + 926 u[58]
   + 760 u[59] <= 9841
 primal_lower240: 502 u[0] + 503 u[1] + 273 u[2] + 166 u[3] + 43 u[4]
   + 436 u[5] + 780 u[6] + 926 u[7] + 108 u[8] + 965 u[9] + 714 u[10]
   + 478 u[11] + 859 u[12] + 631 u[13] + 203 u[14] + 271 u[15] + 172 u[16]
   + 59 u[17] + 848 u[18] + 785 u[19] + 660 u[20] + 370 u[21] + 443 u[22]
   + 625 u[23] + 947 u[24] + 659 u[25] + 369 u[26] + 530 u[27] + 708 u[28]
   + 978 u[29] + 568 u[30] + 582 u[31] + 162 u[32] + 760 u[33] + 611 u[34]
   + 836 u[35] + 179 u[36] + 7 u[37] + 803 u[38] + 185 u[39] + 350 u[40]
   + 548 u[41] + 53 u[42] + 136 u[43] + 494 u[44] + 221 u[45] + 992 u[46]
   + 428 u[47] + 406 u[48] + 267 u[49] + 701 u[50] + 419 u[51] + 684 u[52]
   + 343 u[53] + 583 u[54] + 26 u[55] + 808 u[56] + 13 u[57] + 755 u[58]
   + 157 u[59] <= 4848
 primal_lower241: 998 u[0] + 122 u[1] + 304 u[2] + 121 u[3] + 674 u[4]
   + 440 u[5] + 611 u[6] + 266 u[7] + 795 u[8] + 208 u[9] + 98 u[10]
   + 665 u[11] + 970 u[12] + 210 u[13] + 131 u[14] + 75 u[15] + 683 u[16]
   + 758 u[17] + 71 u[18] + 852 u[19] + 907 u[20] + 830 u[21] + 586 u[22]
   + 197 u[23] + 403 u[24] + 190 u[25] + 696 u[26] + 998 u[27] + 28 u[28]
   + 797 u[29] + 672 u[30] + 778 u[31] + 962 u[32] + 691 u[33] + 122 u[34]
   + 23 u[35] + 530 u[36] + 939 u[37] + 482 u[38] + 325 u[39] + 845 u[40]
   + 808 u[41] + 36 u[42] + 268 u[43] + 613 u[44] + 769 u[45] + 24 u[46]
   + 200 u[47] + 917 u[48] + 918 u[49] + 29 u[50] + 662 u[51] + 883 u[52]
   + 386 u[53] + 343 u[54] + 374 u[55] + 679 u[56] + 241 u[57] + 586 u[58]
   + 584 u[59] <= 5062
 primal_lower242: 454 u[0] + 346 u[1] + 40 u[2] + 113 u[3] + 346 u[4]
   + 648 u[5] + 659 u[6] + 290 u[7] + 139 u[8] + 344 u[9] + 890 u[10]
   + 465 u[11] + 474 u[12] + 650 u[13] + 867 u[14] + 419 u[15] + 99 u[16]
   + 262 u[17] + 39 u[18] + 740 u[19] + 723 u[20] + 662 u[21] + 834 u[22]
   + 389 u[23] + 203 u[24] + 198 u[25] + 936 u[26] + 126 u[27] + 420 u[28]
   + 877 u[29] + 416 u[30] + 466 u[31] + 450 u[32] + 707 u[33] + 154 u[34]
   + 407 u[35] + 306 u[36] + 491 u[37] + 890 u[38] + 845 u[39] + 493 u[40]
   + 712 u[41] + 348 u[42] + 764 u[43] + 405 u[44] + 417 u[45] + 432 u[46]
   + 688 u[47] + 437 u[48] + 6 u[49] + 493 u[50] + 246 u[51] + 763 u[52]
   + 442 u[53] + 623 u[54] + 510 u[55] + 831 u[56] + 969 u[57] + 298 u[58]
   + 392 u[59] <= 969
 primal_lower243: 508 u[0] + 581 u[1] + 695 u[2] + 28 u[3] + 265 u[4]
   + 858 u[5] + 82 u[6] + 148 u[7] + 474 u[8] + 419 u[9] + 648 u[10]
   + 292 u[11] + 425 u[12] + 533 u[13] + 241 u[14] + 461 u[15] + 482 u[16]
   + 849 u[17] + 798 u[18] + 679 u[19] + 922 u[20] + 48 u[21] + 753 u[22]
   + 503 u[23] + 521 u[24] + 673 u[25] + 975 u[26] + 168 u[27] + 858 u[28]
   + 328 u[29] + 190 u[30] + 876 u[31] + 184 u[32] + 158 u[33] + 401 u[34]
   + 410 u[35] + 153 u[36] + 197 u[37] + 769 u[38] + 375 u[39] + 572 u[40]
   + 554 u[41] + 947 u[42] + 366 u[43] + 708 u[44] + 227 u[45] + 470 u[46]
   + 154 u[47] + 476 u[48] + 217 u[49] + 379 u[50] + 489 u[51] + 490 u[52]
   + 517 u[53] + 781 u[54] + 480 u[55] + 998 u[56] + 331 u[57] + 25 u[58]
   + 291 u[59] <= 9466
 primal_lower244: 643 u[0] + 292 u[1] + 14 u[2] + 179 u[3] + 152 u[4]
   + 625 u[5] + 185 u[6] + 83 u[7] + 969 u[8] + 978 u[9] + 455 u[10]
   + 507 u[11] + 776 u[12] + 972 u[13] + 1000 u[14] + 980 u[15] + 137 u[16]
   + 544 u[17] + 629 u[18] + 694 u[19] + 545 u[20] + 263 u[21] + 872 u[22]
   + 950 u[23] + 600 u[24] + 984 u[25] + 246 u[26] + 631 u[27] + 505 u[28]
   + 967 u[29] + 461 u[30] + 723 u[31] + 871 u[32] + 421 u[33] + 752 u[34]
   + 761 u[35] + 712 u[36] + 404 u[37] + 400 u[38] + 14 u[39] + 651 u[40]
   + 9 u[41] + 490 u[42] + 69 u[43] + 251 u[44] + 114 u[45] + 437 u[46]
   + 137 u[47] + 219 u[48] + 384 u[49] + 762 u[50] + 232 u[51] + 225 u[52]
   + 524 u[53] + 868 u[54] + 55 u[55] + 941 u[56] + 378 u[57] + 464 u[58]
   + 338 u[59] <= 5074
 primal_lower245: 87 u[0] + 984 u[1] + 722 u[2] + 199 u[3] + 428 u[4]
   + 261 u[5] + 141 u[6] + 191 u[7] + 301 u[8] + 958 u[9] + 11 u[10]
   + 543 u[11] + 996 u[12] + 496 u[13] + 292 u[14] + 480 u[15] + 221 u[16]
   + 44 u[17] + 153 u[18] + 610 u[19] + 909 u[20] + 411 u[21] + 476 u[22]
   + 362 u[23] + 308 u[24] + 220 u[25] + 370 u[26] + 83 u[27] + 373 u[28]
   + 619 u[29] + 537 u[30] + 775 u[31] + 147 u[32] + 49 u[33] + 116 u[34]
   + 77 u[35] + 132 u[36] + 704 u[37] + 100 u[38] + 546 u[39] + 823 u[40]
   + 309 u[41] + 774 u[42] + 817 u[43] + 135 u[44] + 222 u[45] + 233 u[46]
   + 349 u[47] + 447 u[48] + 700 u[49] + 86 u[50] + 4 u[51] + 173 u[52]
   + 944 u[53] + 448 u[54] + 771 u[55] + 177 u[56] + 726 u[57] + 476 u[58]
   + 622 u[59] <= 4111
 primal_lower246: 401 u[0] + 202 u[1] + 172 u[2] + 721 u[3] + 862 u[4]
   + 631 u[5] + 119 u[6] + 681 u[7] + 31 u[8] + 728 u[9] + 413 u[10]
   + 201 u[11] + 222 u[12] + 650 u[13] + 118 u[14] + 170 u[15] + 359 u[16]
   + 638 u[17] + 227 u[18] + 604 u[19] + 239 u[20] + 565 u[21] + 966 u[22]
   + 700 u[23] + 110 u[24] + 870 u[25] + 628 u[26] + 525 u[27] + 471 u[28]
   + 853 u[29] + 987 u[30] + 185 u[31] + 309 u[32] + 315 u[33] + 878 u[34]
   + 575 u[35] + 510 u[36] + 466 u[37] + 246 u[38] + 876 u[39] + 273 u[40]
   + 535 u[41] + 216 u[42] + 483 u[43] + 489 u[44] + 120 u[45] + 203 u[46]
   + 31 u[47] + 961 u[48] + 254 u[49] + 336 u[50] + 366 u[51] + 375 u[52]
   + 450 u[53] + 514 u[54] + 917 u[55] + 531 u[56] + 480 u[57] + 302 u[58]
   + 608 u[59] <= 13934
 primal_lower247: 673 u[0] + 517 u[1] + 811 u[2] + 628 u[3] + 901 u[4]
   + 915 u[5] + 38 u[6] + 669 u[7] + 590 u[8] + 867 u[9] + 293 u[10]
   + 820 u[11] + 197 u[12] + 269 u[13] + 454 u[14] + 782 u[15] + 966 u[16]
   + 41 u[17] + 474 u[18] + 735 u[19] + 134 u[20] + 289 u[21] + 981 u[22]
   + 32 u[23] + 310 u[24] + 769 u[25] + 779 u[26] + 665 u[27] + 447 u[28]
   + 920 u[29] + 467 u[30] + 741 u[31] + 573 u[32] + 614 u[33] + 869 u[34]
   + 946 u[35] + 77 u[36] + 166 u[37] + 173 u[38] + 144 u[39] + 336 u[40]
   + 715 u[41] + 831 u[42] + 839 u[43] + 512 u[44] + 244 u[45] + 19 u[46]
   + 3 u[47] + 504 u[48] + 337 u[49] + 616 u[50] + 545 u[51] + 142 u[52]
   + 837 u[53] + 506 u[54] + 41 u[55] + 42 u[56] + 844 u[57] + 445 u[58]
   + 635 u[59] <= 5121
 primal_lower248: 672 u[0] + 516 u[1] + 698 u[2] + 307 u[3] + 84 u[4]
   + 794 u[5] + 397 u[6] + 84 u[7] + 773 u[8] + 562 u[9] + 876 u[10]
   + 939 u[11] + 876 u[12] + 60 u[13] + 189 u[14] + 541 u[15] + 117 u[16]
   + 520 u[17] + 273 u[18] + 662 u[19] + 549 u[20] + 184 u[21] + 348 u[22]
   + 623 u[23] + 685 u[24] + 960 u[25] + 90 u[26] + 304 u[27] + 614 u[28]
   + 855 u[29] + 66 u[30] + 852 u[31] + 292 u[32] + 901 u[33] + 604 u[34]
   + 233 u[35] + 300 u[36] + 365 u[37] + 156 u[38] + 239 u[39] + 119 u[40]
   + 730 u[41] + 998 u[42] + 622 u[43] + 807 u[44] + 43 u[45] + 858 u[46]
   + 114 u[47] + 255 u[48] + 216 u[49] + 559 u[50] + 984 u[51] + 813 u[52]
   + 380 u[53] + 137 u[54] + 600 u[55] + 865 u[56] + 963 u[57] + 532 u[58]
   + 186 u[59] <= 14970
 primal_lower249: 208 u[0] + 892 u[1] + 522 u[2] + 203 u[3] + 692 u[4]
   + 50 u[5] + 309 u[6] + 228 u[7] + 925 u[8] + 594 u[9] + 916 u[10]
   + 595 u[11] + 508 u[12] + 572 u[13] + 773 u[14] + 69 u[15] + 261 u[16]
   + 352 u[17] + 401 u[18] + 294 u[19] + 725 u[20] + 600 u[21] + 708 u[22]
   + 159 u[23] + 685 u[24] + 928 u[25] + 706 u[26] + 896 u[27] + 142 u[28]
   + 631 u[29] + 802 u[30] + 996 u[31] + 284 u[32] + 37 u[33] + 156 u[34]
   + 289 u[35] + 892 u[36] + 701 u[37] + 988 u[38] + 887 u[39] + 271 u[40]
   + 314 u[41] + 878 u[42] + 318 u[43] + 31 u[44] + 299 u[45] + 890 u[46]
   + 722 u[47] + 439 u[48] + 544 u[49] + 167 u[50] + 200 u[51] + 837 u[52]
   + 428 u[53] + 537 u[54] + 616 u[55] + 673 u[56] + 691 u[57] + 68 u[58]
   + 930 u[59] <= 10476
 primal_lower250: 831 u[0] + 11 u[1] + 289 u[2] + 930 u[3] + 515 u[4]
   + 313 u[5] + 300 u[6] + 99 u[7] + 716 u[8] + 793 u[9] + 43 u[10]
   + 978 u[11] + 611 u[12] + 563 u[13] + 956 u[14] + 988 u[15] + 44 u[16]
   + 903 u[17] + 512 u[18] + 421 u[19] + 468 u[20] + 407 u[21] + 3 u[22]
   + 206 u[23] + 724 u[24] + 527 u[25] + 937 u[26] + 151 u[27] + 77 u[28]
   + 894 u[29] + 401 u[30] + 539 u[31] + 203 u[32] + 412 u[33] + 355 u[34]
   + 256 u[35] + 275 u[36] + 468 u[37] + 555 u[38] + 198 u[39] + 270 u[40]
   + 305 u[41] + 965 u[42] + 333 u[43] + 46 u[44] + 146 u[45] + 769 u[46]
   + 961 u[47] + 62 u[48] + 415 u[49] + 814 u[50] + 695 u[51] + 908 u[52]
   + 731 u[53] + 920 u[54] + 175 u[55] + 112 u[56] + 506 u[57] + 515 u[58]
   + 961 u[59] <= 9827
 primal_lower251: 695 u[0] + 296 u[1] + 74 u[2] + 511 u[3] + 724 u[4]
   + 997 u[5] + 189 u[6] + 343 u[7] + 405 u[8] + 654 u[9] + 219 u[10]
   + 87 u[11] + 972 u[12] + 104 u[13] + 604 u[14] + 376 u[15] + 597 u[16]
   + 220 u[17] + 329 u[18] + 522 u[19] + 445 u[20] + 931 u[21] + 516 u[22]
   + 474 u[23] + 636 u[24] + 36 u[25] + 298 u[26] + 427 u[27] + 197 u[28]
   + 875 u[29] + 81 u[30] + 607 u[31] + 179 u[32] + 201 u[33] + 36 u[34]
   + 309 u[35] + 604 u[36] + 56 u[37] + 236 u[38] + 90 u[39] + 335 u[40]
   + 453 u[41] + 462 u[42] + 329 u[43] + 311 u[44] + 334 u[45] + 33 u[46]
   + 757 u[47] + 351 u[48] + 996 u[49] + 174 u[50] + 308 u[51] + 245 u[52]
   + 912 u[53] + 80 u[54] + 283 u[55] + 833 u[56] + 774 u[57] + 548 u[58]
   + 870 u[59] <= 8513
 primal_lower252: 455 u[0] + 843 u[1] + 497 u[2] + 746 u[3] + 187 u[4]
   + 657 u[5] + 860 u[6] + 139 u[7] + 780 u[8] + 449 u[9] + 755 u[10]
   + 730 u[11] + 739 u[12] + 299 u[13] + 316 u[14] + 316 u[15] + 420 u[16]
   + 719 u[17] + 136 u[18] + 821 u[19] + 4 u[20] + 615 u[21] + 947 u[22]
   + 550 u[23] + 684 u[24] + 559 u[25] + 857 u[26] + 175 u[27] + 277 u[28]
   + 310 u[29] + 81 u[30] + 747 u[31] + 451 u[32] + 292 u[33] + 955 u[34]
   + 960 u[35] + 643 u[36] + 964 u[37] + 323 u[38] + 358 u[39] + 238 u[40]
   + 201 u[41] + 109 u[42] + 885 u[43] + 958 u[44] + 482 u[45] + 849 u[46]
   + 369 u[47] + 766 u[48] + 783 u[49] + 374 u[50] + 327 u[51] + 188 u[52]
   + 811 u[53] + 16 u[54] + 183 u[55] + 816 u[56] + 378 u[57] + 443 u[58]
   + 945 u[59] <= 964
 primal_lower253: 706 u[0] + 683 u[1] + 117 u[2] + 482 u[3] + 871 u[4]
   + 344 u[5] + 976 u[6] + 450 u[7] + 880 u[8] + 33 u[9] + 622 u[10]
   + 274 u[11] + 711 u[12] + 699 u[13] + 647 u[14] + 979 u[15] + 176 u[16]
   + 535 u[17] + 852 u[18] + 453 u[19] + 888 u[20] + 510 u[21] + 439 u[22]
   + 301 u[23] + 927 u[24] + 807 u[25] + 957 u[26] + 318 u[27] + 64 u[28]
   + 518 u[29] + 644 u[30] + 426 u[31] + 598 u[32] + 12 u[33] + 719 u[34]
   + 696 u[35] + 679 u[36] + 67 u[37] + 399 u[38] + 941 u[39] + 394 u[40]
   + 320 u[41] + 33 u[42] + 284 u[43] + 58 u[44] + 961 u[45] + 876 u[46]
   + 272 u[47] + 250 u[48] + 215 u[49] + 529 u[50] + 63 u[51] + 592 u[52]
   + 763 u[53] + 659 u[54] + 86 u[55] + 924 u[56] + 609 u[57] + 863 u[58]
   + 641 u[59] <= 5298
 primal_lower254: 390 u[0] + 154 u[1] + 664 u[2] + 385 u[3] + 522 u[4]
   + 1000 u[5] + 923 u[6] + 594 u[7] + 523 u[8] + 936 u[9] + 306 u[10]
   + 257 u[11] + 130 u[12] + 786 u[13] + 923 u[14] + 571 u[15] + 203 u[16]
   + 318 u[17] + 751 u[18] + 852 u[19] + 955 u[20] + 198 u[21] + 930 u[22]
   + 621 u[23] + 995 u[24] + 302 u[25] + 856 u[26] + 982 u[27] + 196 u[28]
   + 45 u[29] + 248 u[30] + 946 u[31] + 378 u[32] + 643 u[33] + 634 u[34]
   + 279 u[35] + 178 u[36] + 827 u[37] + 610 u[38] + 829 u[39] + 645 u[40]
   + 608 u[41] + 396 u[42] + 244 u[43] + 277 u[44] + 113 u[45] + 528 u[46]
   + 576 u[47] + 725 u[48] + 582 u[49] + 429 u[50] + 822 u[51] + 819 u[52]
   + 130 u[53] + 751 u[54] + 638 u[55] + 975 u[56] + 225 u[57] + 194 u[58]
   + 168 u[59] <= 16342
 primal_lower255: 782 u[0] + 378 u[1] + 912 u[2] + 297 u[3] + 826 u[4]
   + 264 u[5] + 11 u[6] + 810 u[7] + 707 u[8] + 712 u[9] + 898 u[10]
   + 929 u[11] + 618 u[12] + 482 u[13] + 931 u[14] + 771 u[15] + 659 u[16]
   + 838 u[17] + 247 u[18] + 668 u[19] + 667 u[20] + 110 u[21] + 178 u[22]
   + 749 u[23] + 763 u[24] + 102 u[25] + 344 u[26] + 742 u[27] + 748 u[28]
   + 317 u[29] + 184 u[30] + 914 u[31] + 778 u[32] + 739 u[33] + 666 u[34]
   + 55 u[35] + 506 u[36] + 523 u[37] + 426 u[38] + 437 u[39] + 157 u[40]
   + 792 u[41] + 308 u[42] + 100 u[43] + 197 u[44] + 505 u[45] + 1000 u[46]
   + 728 u[47] + 261 u[48] + 510 u[49] + 789 u[50] + 6 u[51] + 251 u[52]
   + 194 u[53] + 831 u[54] + 798 u[55] + 983 u[56] + 553 u[57] + 930 u[58]
   + 696 u[59] <= 5546
 primal_lower256: 294 u[0] + 647 u[1] + 369 u[2] + 358 u[3] + 139 u[4]
   + 708 u[5] + 828 u[6] + 86 u[7] + 724 u[8] + 437 u[9] + 706 u[10]
   + 966 u[11] + 59 u[12] + 175 u[13] + 139 u[14] + 999 u[15] + 708 u[16]
   + 667 u[17] + 936 u[18] + 393 u[19] + 908 u[20] + 450 u[21] + 611 u[22]
   + 41 u[23] + 779 u[24] + 211 u[25] + 537 u[26] + 82 u[27] + 900 u[28]
   + 506 u[29] + 976 u[30] + 998 u[31] + 826 u[32] + 960 u[33] + 435 u[34]
   + 404 u[35] + 707 u[36] + 383 u[37] + 563 u[38] + 705 u[39] + 894 u[40]
   + 932 u[41] + 165 u[42] + 104 u[43] + 614 u[44] + 77 u[45] + 24 u[46]
   + 100 u[47] + 438 u[48] + 907 u[49] + 757 u[50] + 331 u[51] + 100 u[52]
   + 407 u[53] + 471 u[54] + 762 u[55] + 848 u[56] + 717 u[57] + 131 u[58]
   + 797 u[59] <= 21264
 primal_lower257: 398 u[0] + 975 u[1] + 441 u[2] + 734 u[3] + 59 u[4]
   + 732 u[5] + 36 u[6] + 822 u[7] + 780 u[8] + 653 u[9] + 210 u[10]
   + 638 u[11] + 763 u[12] + 831 u[13] + 891 u[14] + 503 u[15] + 508 u[16]
   + 155 u[17] + 136 u[18] + 929 u[19] + 36 u[20] + 738 u[21] + 331 u[22]
   + 497 u[23] + 579 u[24] + 315 u[25] + 457 u[26] + 338 u[27] + 700 u[28]
   + 74 u[29] + 840 u[30] + 654 u[31] + 306 u[32] + 408 u[33] + 331 u[34]
   + 524 u[35] + 379 u[36] + 199 u[37] + 755 u[38] + 281 u[39] + 422 u[40]
   + 740 u[41] + 885 u[42] + 488 u[43] + 990 u[44] + 301 u[45] + 144 u[46]
   + 100 u[47] + 310 u[48] + 859 u[49] + 21 u[50] + 499 u[51] + 572 u[52]
   + 439 u[53] + 623 u[54] + 754 u[55] + 128 u[56] + 853 u[57] + 211 u[58]
   + 589 u[59] <= 19909
 primal_lower258: 927 u[0] + 976 u[1] + 146 u[2] + 999 u[3] + 860 u[4]
   + 237 u[5] + 173 u[6] + 263 u[7] + 197 u[8] + 222 u[9] + 643 u[10]
   + 383 u[11] + 148 u[12] + 128 u[13] + 932 u[14] + 16 u[15] + 501 u[16]
   + 156 u[17] + 537 u[18] + 714 u[19] + 357 u[20] + 675 u[21] + 468 u[22]
   + 666 u[23] + 92 u[24] + 956 u[25] + 346 u[26] + 371 u[27] + 429 u[28]
   + 211 u[29] + 537 u[30] + 303 u[31] + 651 u[32] + 465 u[33] + 676 u[34]
   + 645 u[35] + 788 u[36] + 672 u[37] + 236 u[38] + 362 u[39] + 7 u[40]
   + 21 u[41] + 366 u[42] + 289 u[43] + 383 u[44] + 182 u[45] + 817 u[46]
   + 629 u[47] + 319 u[48] + 724 u[49] + 486 u[50] + 316 u[51] + 813 u[52]
   + 8 u[53] + 240 u[54] + 731 u[55] + 161 u[56] + 686 u[57] + 604 u[58]
   + 422 u[59] <= 9089
 primal_lower259: 844 u[0] + 672 u[1] + 966 u[2] + 343 u[3] + 672 u[4]
   + 230 u[5] + 833 u[6] + 952 u[7] + 745 u[8] + 518 u[9] + 392 u[10]
   + 847 u[11] + 400 u[12] + 776 u[13] + 657 u[14] + 337 u[15] + 849 u[16]
   + 164 u[17] + 213 u[18] + 994 u[19] + 385 u[20] + 444 u[21] + 936 u[22]
   + 795 u[23] + 921 u[24] + 348 u[25] + 446 u[26] + 412 u[27] + 442 u[28]
   + 171 u[29] + 174 u[30] + 488 u[31] + 816 u[32] + 889 u[33] + 928 u[34]
   + 341 u[35] + 880 u[36] + 505 u[37] + 968 u[38] + 995 u[39] + 859 u[40]
   + 614 u[41] + 962 u[42] + 370 u[43] + 579 u[44] + 535 u[45] + 62 u[46]
   + 614 u[47] + 755 u[48] + 740 u[49] + 467 u[50] + 476 u[51] + 777 u[52]
   + 320 u[53] + 325 u[54] + 612 u[55] + 877 u[56] + 959 u[57] + 856 u[58]
   + 558 u[59] <= 12335
 primal_lower260: 400 u[0] + 617 u[1] + 75 u[2] + 560 u[3] + 957 u[4]
   + 774 u[5] + 350 u[6] + 672 u[7] + 958 u[8] + 727 u[9] + 716 u[10]
   + 864 u[11] + 573 u[12] + 801 u[13] + 741 u[14] + 833 u[15] + 582 u[16]
   + 301 u[17] + 770 u[18] + 859 u[19] + 326 u[20] + 604 u[21] + 165 u[22]
   + 611 u[23] + 669 u[24] + 677 u[25] + 835 u[26] + 980 u[27] + 214 u[28]
   + 484 u[29] + 610 u[30] + 752 u[31] + 100 u[32] + 570 u[33] + 117 u[34]
   + 758 u[35] + 997 u[36] + 913 u[37] + 733 u[38] + 931 u[39] + 392 u[40]
   + 158 u[41] + 103 u[42] + 402 u[43] + 512 u[44] + 279 u[45] + 330 u[46]
   + 542 u[47] + 32 u[48] + 189 u[49] + 879 u[50] + 829 u[51] + 774 u[52]
   + 593 u[53] + 137 u[54] + 852 u[55] + 938 u[56] + 615 u[57] + 741 u[58]
   + 87 u[59] <= 17280
 primal_lower261: 827 u[0] + 935 u[1] + 821 u[2] + 870 u[3] + 471 u[4]
   + 429 u[5] + 312 u[6] + 159 u[7] + 336 u[8] + 93 u[9] + 751 u[10]
   + 654 u[11] + 359 u[12] + 151 u[13] + 424 u[14] + 960 u[15] + 112 u[16]
   + 195 u[17] + 956 u[18] + 857 u[19] + 96 u[20] + 395 u[21] + 863 u[22]
   + 634 u[23] + 224 u[24] + 635 u[25] + 381 u[26] + 459 u[27] + 633 u[28]
   + 34 u[29] + 221 u[30] + 839 u[31] + 375 u[32] + 104 u[33] + 383 u[34]
   + 588 u[35] + 367 u[36] + 688 u[37] + 935 u[38] + 522 u[39] + 962 u[40]
   + 269 u[41] + 377 u[42] + 273 u[43] + 602 u[44] + 494 u[45] + 645 u[46]
   + 237 u[47] + 146 u[48] + 827 u[49] + 906 u[50] + 531 u[51] + 456 u[52]
   + 151 u[53] + 788 u[54] + 91 u[55] + 372 u[56] + 414 u[57] + 135 u[58]
   + 973 u[59] <= 4949
 primal_lower262: 612 u[0] + 16 u[1] + 990 u[2] + 663 u[3] + 472 u[4]
   + 358 u[5] + 249 u[6] + 464 u[7] + 745 u[8] + 62 u[9] + 304 u[10]
   + 575 u[11] + 848 u[12] + 728 u[13] + 225 u[14] + 697 u[15] + 897 u[16]
   + 884 u[17] + 797 u[18] + 178 u[19] + 513 u[20] + 412 u[21] + 424 u[22]
   + 419 u[23] + 729 u[24] + 4 u[25] + 838 u[26] + 604 u[27] + 234 u[28]
   + 723 u[29] + 158 u[30] + 568 u[31] + 688 u[32] + 17 u[33] + 752 u[34]
   + 861 u[35] + 664 u[36] + 529 u[37] + 240 u[38] + 571 u[39] + 507 u[40]
   + 78 u[41] + 802 u[42] + 754 u[43] + 595 u[44] + 255 u[45] + 902 u[46]
   + 262 u[47] + 195 u[48] + 276 u[49] + 227 u[50] + 308 u[51] + 689 u[52]
   + 120 u[53] + 813 u[54] + 44 u[55] + 925 u[56] + 351 u[57] + 816 u[58]
   + 654 u[59] <= 15142
 primal_lower263: 344 u[0] + 377 u[1] + 875 u[2] + 896 u[3] + 965 u[4]
   + 406 u[5] + 54 u[6] + 488 u[7] + 446 u[8] + 815 u[9] + 908 u[10]
   + 944 u[11] + 341 u[12] + 809 u[13] + 917 u[14] + 969 u[15] + 878 u[16]
   + 549 u[17] + 82 u[18] + 395 u[19] + 614 u[20] + 204 u[21] + 149 u[22]
   + 315 u[23] + 893 u[24] + 709 u[25] + 875 u[26] + 284 u[27] + 478 u[28]
   + 420 u[29] + 554 u[30] + 552 u[31] + 116 u[32] + 602 u[33] + 349 u[34]
   + 582 u[35] + 557 u[36] + 9 u[37] + 837 u[38] + 131 u[39] + 760 u[40]
   + 318 u[41] + 263 u[42] + 354 u[43] + 144 u[44] + 583 u[45] + 138 u[46]
   + 550 u[47] + 312 u[48] + 677 u[49] + 23 u[50] + 789 u[51] + 902 u[52]
   + 761 u[53] + 721 u[54] + 252 u[55] + 970 u[56] + 839 u[57] + 317 u[58]
   + 255 u[59] <= 970
 primal_lower264: 687 u[0] + 659 u[1] + 145 u[2] + 82 u[3] + 955 u[4]
   + 641 u[5] + 748 u[6] + 611 u[7] + 284 u[8] + 633 u[9] + 787 u[10]
   + 18 u[11] + 883 u[12] + 603 u[13] + 436 u[14] + 396 u[15] + 684 u[16]
   + 367 u[17] + 176 u[18] + 901 u[19] + 316 u[20] + 367 u[21] + 691 u[22]
   + 126 u[23] + 924 u[24] + 119 u[25] + 817 u[26] + 191 u[27] + 893 u[28]
   + 54 u[29] + 353 u[30] + 283 u[31] + 235 u[32] + 660 u[33] + 643 u[34]
   + 592 u[35] + 691 u[36] + 28 u[37] + 491 u[38] + 830 u[39] + 230 u[40]
   + 905 u[41] + 741 u[42] + 37 u[43] + 998 u[44] + 586 u[45] + 673 u[46]
   + 177 u[47] + 190 u[48] + 559 u[49] + 342 u[50] + 295 u[51] + 676 u[52]
   + 875 u[53] + 792 u[54] + 39 u[55] + 104 u[56] + 82 u[57] + 443 u[58]
   + 969 u[59] <= 14856
 primal_lower265: 221 u[0] + 270 u[1] + 616 u[2] + 653 u[3] + 786 u[4]
   + 475 u[5] + 971 u[6] + 485 u[7] + 227 u[8] + 52 u[9] + 257 u[10]
   + 437 u[11] + 482 u[12] + 534 u[13] + 362 u[14] + 294 u[15] + 603 u[16]
   + 962 u[17] + 151 u[18] + 144 u[19] + 251 u[20] + 385 u[21] + 218 u[22]
   + 920 u[23] + 186 u[24] + 362 u[25] + 200 u[26] + 209 u[27] + 363 u[28]
   + 377 u[29] + 495 u[30] + 997 u[31] + 281 u[32] + 63 u[33] + 26 u[34]
   + 571 u[35] + 10 u[36] + 62 u[37] + 466 u[38] + 96 u[39] + 469 u[40]
   + 747 u[41] + 868 u[42] + 975 u[43] + 949 u[44] + 92 u[45] + 991 u[46]
   + 491 u[47] + 933 u[48] + 114 u[49] + 740 u[50] + 10 u[51] + 323 u[52]
   + 150 u[53] + 230 u[54] + 377 u[55] + 863 u[56] + 4 u[57] + 122 u[58]
   + 268 u[59] <= 8412
 primal_lower266: 978 u[0] + 118 u[1] + 724 u[2] + 261 u[3] + 790 u[4]
   + 364 u[5] + 967 u[6] + 422 u[7] + 367 u[8] + 340 u[9] + 390 u[10]
   + 949 u[11] + 478 u[12] + 262 u[13] + 415 u[14] + 591 u[15] + 735 u[16]
   + 450 u[17] + 835 u[18] + 792 u[19] + 167 u[20] + 138 u[21] + 910 u[22]
   + 361 u[23] + 847 u[24] + 706 u[25] + 628 u[26] + 746 u[27] + 840 u[28]
   + 225 u[29] + 580 u[30] + 518 u[31] + 606 u[32] + 591 u[33] + 350 u[34]
   + 987 u[35] + 398 u[36] + 951 u[37] + 966 u[38] + 593 u[39] + 145 u[40]
   + 220 u[41] + 528 u[42] + 64 u[43] + 641 u[44] + 229 u[45] + 484 u[46]
   + 404 u[47] + 721 u[48] + 274 u[49] + 849 u[50] + 90 u[51] + 327 u[52]
   + 582 u[53] + 371 u[54] + 314 u[55] + 899 u[56] + 333 u[57] + 462 u[58]
   + 516 u[59] <= 15894
 primal_lower267: 687 u[0] + 232 u[1] + 498 u[2] + 247 u[3] + 268 u[4]
   + 237 u[5] + 213 u[6] + 791 u[7] + 29 u[8] + 894 u[9] + 555 u[10]
   + 911 u[11] + 460 u[12] + 48 u[13] + 612 u[14] + 464 u[15] + 317 u[16]
   + 932 u[17] + 505 u[18] + 594 u[19] + 501 u[20] + 307 u[21] + 180 u[22]
   + 754 u[23] + 860 u[24] + 540 u[25] + 34 u[26] + 819 u[27] + 733 u[28]
   + 611 u[29] + 377 u[30] + 23 u[31] + 915 u[32] + 537 u[33] + 28 u[34]
   + 629 u[35] + 892 u[36] + 720 u[37] + 644 u[38] + 10 u[39] + 23 u[40]
   + 277 u[41] + 110 u[42] + 697 u[43] + 927 u[44] + 86 u[45] + 65 u[46]
   + 805 u[47] + 847 u[48] + 756 u[49] + 342 u[50] + 828 u[51] + 37 u[52]
   + 872 u[53] + 520 u[54] + 379 u[55] + 73 u[56] + 470 u[57] + 68 u[58]
   + 214 u[59] <= 9334
 primal_lower268: 217 u[0] + 245 u[1] + 947 u[2] + 508 u[3] + 661 u[4]
   + 811 u[5] + 654 u[6] + 61 u[7] + 966 u[8] + 203 u[9] + 725 u[10]
   + 908 u[11] + 917 u[12] + 749 u[13] + 854 u[14] + 246 u[15] + 646 u[16]
   + 705 u[17] + 34 u[18] + 623 u[19] + 742 u[20] + 265 u[21] + 821 u[22]
   + 192 u[23] + 878 u[24] + 953 u[25] + 499 u[26] + 769 u[27] + 879 u[28]
   + 560 u[29] + 619 u[30] + 173 u[31] + 789 u[32] + 462 u[33] + 557 u[34]
   + 530 u[35] + 613 u[36] + 54 u[37] + 485 u[38] + 48 u[39] + 696 u[40]
   + 563 u[41] + 143 u[42] + 111 u[43] + 176 u[44] + 308 u[45] + 27 u[46]
   + 195 u[47] + 936 u[48] + 489 u[49] + 72 u[50] + 457 u[51] + 518 u[52]
   + 109 u[53] + 786 u[54] + 889 u[55] + 538 u[56] + 780 u[57] + 205 u[58]
   + 323 u[59] <= 10296
 primal_lower269: 719 u[0] + 576 u[1] + 690 u[2] + 295 u[3] + 908 u[4]
   + 829 u[5] + 549 u[6] + 687 u[7] + 869 u[8] + 126 u[9] + 27 u[10]
   + 295 u[11] + 300 u[12] + 416 u[13] + 604 u[14] + 768 u[15] + 533 u[16]
   + 652 u[17] + 633 u[18] + 274 u[19] + 53 u[20] + 171 u[21] + 340 u[22]
   + 362 u[23] + 260 u[24] + 844 u[25] + 106 u[26] + 499 u[27] + 37 u[28]
   + 451 u[29] + 217 u[30] + 647 u[31] + 123 u[32] + 513 u[33] + 164 u[34]
   + 13 u[35] + 580 u[36] + 8 u[37] + 612 u[38] + 210 u[39] + 935 u[40]
   + 77 u[41] + 814 u[42] + 241 u[43] + 471 u[44] + 30 u[45] + 41 u[46]
   + 413 u[47] + 687 u[48] + 684 u[49] + 678 u[50] + 796 u[51] + 893 u[52]
   + 976 u[53] + 608 u[54] + 707 u[55] + 753 u[56] + 990 u[57] + 708 u[58]
   + 702 u[59] <= 990
 primal_lower270: 702 u[0] + 391 u[1] + 473 u[2] + 966 u[3] + 627 u[4]
   + 580 u[5] + 428 u[6] + 190 u[7] + 60 u[8] + 173 u[9] + 802 u[10]
   + 846 u[11] + 507 u[12] + 999 u[13] + 3 u[14] + 439 u[15] + 164 u[16]
   + 19 u[17] + 880 u[18] + 889 u[19] + 812 u[20] + 50 u[21] + 763 u[22]
   + 401 u[23] + 795 u[24] + 843 u[25] + 825 u[26] + 714 u[27] + 828 u[28]
   + 746 u[29] + 856 u[30] + 150 u[31] + 442 u[32] + 784 u[33] + 955 u[34]
   + 844 u[35] + 123 u[36] + 31 u[37] + 11 u[38] + 929 u[39] + 862 u[40]
   + 868 u[41] + 341 u[42] + 808 u[43] + 270 u[44] + 693 u[45] + 968 u[46]
   + 252 u[47] + 582 u[48] + 907 u[49] + 589 u[50] + 35 u[51] + 548 u[52]
   + 583 u[53] + 207 u[54] + 418 u[55] + 96 u[56] + 869 u[57] + 531 u[58]
   + 61 u[59] <= 16264
 primal_lower271: 331 u[0] + 372 u[1] + 294 u[2] + 907 u[3] + 472 u[4]
   + 193 u[5] + 353 u[6] + 963 u[7] + 585 u[8] + 474 u[9] + 143 u[10]
   + 747 u[11] + 416 u[12] + 412 u[13] + 920 u[14] + 228 u[15] + 177 u[16]
   + 552 u[17] + 525 u[18] + 718 u[19] + 113 u[20] + 279 u[21] + 24 u[22]
   + 190 u[23] + 968 u[24] + 768 u[25] + 278 u[26] + 695 u[27] + 313 u[28]
   + 447 u[29] + 469 u[30] + 411 u[31] + 55 u[32] + 21 u[33] + 152 u[34]
   + 817 u[35] + 832 u[36] + 732 u[37] + 776 u[38] + 478 u[39] + 51 u[40]
   + 257 u[41] + 218 u[42] + 829 u[43] + 963 u[44] + 738 u[45] + 733 u[46]
   + 113 u[47] + 715 u[48] + 392 u[49] + 882 u[50] + 544 u[51] + 833 u[52]
   + 652 u[53] + 84 u[54] + 39 u[55] + 445 u[56] + 546 u[57] + 488 u[58]
   + 826 u[59] <= 4824
 primal_lower272: 644 u[0] + 733 u[1] + 967 u[2] + 820 u[3] + 169 u[4]
   + 866 u[5] + 322 u[6] + 980 u[7] + 674 u[8] + 651 u[9] + 544 u[10]
   + 684 u[11] + 873 u[12] + 589 u[13] + 833 u[14] + 997 u[15] + 882 u[16]
   + 753 u[17] + 742 u[18] + 39 u[19] + 562 u[20] + 680 u[21] + 873 u[22]
   + 983 u[23] + 689 u[24] + 489 u[25] + 943 u[26] + 976 u[27] + 170 u[28]
   + 168 u[29] + 774 u[30] + 44 u[31] + 8 u[32] + 966 u[33] + 81 u[34]
   + 90 u[35] + 425 u[36] + 517 u[37] + 313 u[38] + 431 u[39] + 812 u[40]
   + 442 u[41] + 619 u[42] + 310 u[43] + 324 u[44] + 195 u[45] + 926 u[46]
   + 170 u[47] + 468 u[48] + 945 u[49] + 339 u[50] + 57 u[51] + 266 u[52]
   + 349 u[53] + 13 u[54] + 432 u[55] + 174 u[56] + 235 u[57] + 617 u[58]
   + 611 u[59] <= 5374
 primal_lower273: 106 u[0] + 891 u[1] + 61 u[2] + 994 u[3] + 631 u[4]
   + 584 u[5] + 8 u[6] + 810 u[7] + 664 u[8] + 577 u[9] + 46 u[10]
   + 218 u[11] + 719 u[12] + 11 u[13] + 279 u[14] + 531 u[15] + 512 u[16]
   + 879 u[17] + 132 u[18] + 45 u[19] + 216 u[20] + 382 u[21] + 343 u[22]
   + 701 u[23] + 695 u[24] + 319 u[25] + 21 u[26] + 318 u[27] + 888 u[28]
   + 686 u[29] + 244 u[30] + 906 u[31] + 814 u[32] + 516 u[33] + 183 u[34]
   + 80 u[35] + 671 u[36] + 819 u[37] + 967 u[38] + 909 u[39] + 674 u[40]
   + 600 u[41] + 201 u[42] + 76 u[43] + 874 u[44] + 137 u[45] + 588 u[46]
   + 896 u[47] + 106 u[48] + 743 u[49] + 369 u[50] + 215 u[51] + 696 u[52]
   + 443 u[53] + 123 u[54] + 230 u[55] + 676 u[56] + 809 u[57] + 127 u[58]
   + 249 u[59] <= 18805
 primal_lower274: 701 u[0] + 841 u[1] + 567 u[2] + 936 u[3] + 697 u[4]
   + 743 u[5] + 882 u[6] + 937 u[7] + 938 u[8] + 767 u[9] + 145 u[10]
   + 176 u[11] + 561 u[12] + 441 u[13] + 482 u[14] + 642 u[15] + 146 u[16]
   + 741 u[17] + 958 u[18] + 315 u[19] + 746 u[20] + 261 u[21] + 369 u[22]
   + 500 u[23] + 674 u[24] + 685 u[25] + 495 u[26] + 637 u[27] + 139 u[28]
   + 844 u[29] + 231 u[30] + 97 u[31] + u[32] + 114 u[33] + 97 u[34]
   + 278 u[35] + 793 u[36] + 794 u[37] + 609 u[38] + 988 u[39] + 884 u[40]
   + 735 u[41] + 243 u[42] + 347 u[43] + 172 u[44] + 608 u[45] + 7 u[46]
   + 31 u[47] + 428 u[48] + 117 u[49] + 564 u[50] + 805 u[51] + 450 u[52]
   + 729 u[53] + 430 u[54] + 29 u[55] + 230 u[56] + 248 u[57] + 945 u[58]
   + 767 u[59] <= 15368
 primal_lower275: 11 u[0] + 700 u[1] + 46 u[2] + 275 u[3] + 672 u[4]
   + 249 u[5] + 777 u[6] + 779 u[7] + 401 u[8] + 618 u[9] + 631 u[10]
   + 755 u[11] + 472 u[12] + 52 u[13] + 496 u[14] + 692 u[15] + 17 u[16]
   + 128 u[17] + 149 u[18] + 30 u[19] + 593 u[20] + 503 u[21] + 200 u[22]
   + 142 u[23] + 456 u[24] + 360 u[25] + 510 u[26] + 215 u[27] + 33 u[28]
   + 327 u[29] + 781 u[30] + 659 u[31] + 703 u[32] + 957 u[33] + 704 u[34]
   + 825 u[35] + 264 u[36] + 100 u[37] + 696 u[38] + 350 u[39] + 539 u[40]
   + 241 u[41] + 450 u[42] + 453 u[43] + 915 u[44] + 114 u[45] + 821 u[46]
   + 73 u[47] + 979 u[48] + 400 u[49] + 170 u[50] + 440 u[51] + 313 u[52]
   + 300 u[53] + 516 u[54] + 927 u[55] + 173 u[56] + 114 u[57] + 232 u[58]
   + 258 u[59] <= 12878
 primal_lower276: 370 u[0] + 118 u[1] + 756 u[2] + 989 u[3] + 14 u[4]
   + 36 u[5] + 583 u[6] + 926 u[7] + 599 u[8] + 796 u[9] + 542 u[10]
   + 557 u[11] + 230 u[12] + 286 u[13] + 703 u[14] + 719 u[15] + 567 u[16]
   + 186 u[17] + 139 u[18] + 248 u[19] + 655 u[20] + 226 u[21] + 678 u[22]
   + 177 u[23] + 679 u[24] + 842 u[25] + 140 u[26] + 938 u[27] + 416 u[28]
   + 961 u[29] + 604 u[30] + 302 u[31] + 294 u[32] + 423 u[33] + 182 u[34]
   + 587 u[35] + 878 u[36] + 735 u[37] + 534 u[38] + 953 u[39] + 393 u[40]
   + 188 u[41] + 360 u[42] + 576 u[43] + 169 u[44] + 397 u[45] + 652 u[46]
   + 620 u[47] + 201 u[48] + 250 u[49] + 785 u[50] + 858 u[51] + 471 u[52]
   + 382 u[53] + 43 u[54] + 58 u[55] + 339 u[56] + 413 u[57] + 838 u[58]
   + 412 u[59] <= 4828
 primal_lower277: 746 u[0] + 163 u[1] + 717 u[2] + 514 u[3] + 111 u[4]
   + 208 u[5] + 424 u[6] + 162 u[7] + 960 u[8] + 457 u[9] + 150 u[10]
   + 66 u[11] + 207 u[12] + 675 u[13] + 559 u[14] + 411 u[15] + 976 u[16]
   + 623 u[17] + 620 u[18] + 13 u[19] + 640 u[20] + 30 u[21] + 447 u[22]
   + 717 u[23] + 439 u[24] + 135 u[25] + 77 u[26] + 566 u[27] + 248 u[28]
   + 950 u[29] + 460 u[30] + 754 u[31] + 262 u[32] + 308 u[33] + 719 u[34]
   + 368 u[35] + 343 u[36] + 651 u[37] + 767 u[38] + 549 u[39] + 194 u[40]
   + 968 u[41] + 233 u[42] + 252 u[43] + 146 u[44] + 145 u[45] + 204 u[46]
   + 944 u[47] + 314 u[48] + 703 u[49] + 25 u[50] + 271 u[51] + 512 u[52]
   + 3 u[53] + 979 u[54] + 366 u[55] + 300 u[56] + 841 u[57] + 903 u[58]
   + 41 u[59] <= 4422
 primal_lower278: 506 u[0] + 734 u[1] + 708 u[2] + 421 u[3] + 750 u[4]
   + 884 u[5] + 63 u[6] + 222 u[7] + 175 u[8] + 812 u[9] + 934 u[10]
   + 333 u[11] + 606 u[12] + 470 u[13] + 23 u[14] + 839 u[15] + 815 u[16]
   + 338 u[17] + 483 u[18] + 536 u[19] + 263 u[20] + 650 u[21] + 446 u[22]
   + 921 u[23] + 487 u[24] + 394 u[25] + 908 u[26] + 170 u[27] + 520 u[28]
   + 945 u[29] + 956 u[30] + 814 u[31] + 310 u[32] + 807 u[33] + 934 u[34]
   + 675 u[35] + 614 u[36] + 479 u[37] + 174 u[38] + 441 u[39] + 249 u[40]
   + 740 u[41] + 152 u[42] + 624 u[43] + 801 u[44] + 773 u[45] + 820 u[46]
   + 580 u[47] + 25 u[48] + 914 u[49] + 81 u[50] + 738 u[51] + 415 u[52]
   + 166 u[53] + 35 u[54] + 698 u[55] + 547 u[56] + 325 u[57] + 566 u[58]
   + 220 u[59] <= 5338
 primal_lower279: 975 u[0] + 928 u[1] + 26 u[2] + 79 u[3] + 132 u[4]
   + 93 u[5] + 781 u[6] + 15 u[7] + 237 u[8] + 310 u[9] + 451 u[10]
   + 663 u[11] + 524 u[12] + 16 u[13] + 900 u[14] + 384 u[15] + 173 u[16]
   + 396 u[17] + 473 u[18] + 738 u[19] + 925 u[20] + 43 u[21] + 412 u[22]
   + 242 u[23] + 84 u[24] + 308 u[25] + 282 u[26] + 419 u[27] + 701 u[28]
   + 339 u[29] + 225 u[30] + 455 u[31] + 283 u[32] + 137 u[33] + 452 u[34]
   + 765 u[35] + 740 u[36] + 992 u[37] + 724 u[38] + 418 u[39] + 703 u[40]
   + 461 u[41] + 494 u[42] + 833 u[43] + 87 u[44] + 510 u[45] + 721 u[46]
   + 45 u[47] + 559 u[48] + 12 u[49] + 62 u[50] + 68 u[51] + 861 u[52]
   + 520 u[53] + 968 u[54] + 563 u[55] + 497 u[56] + 294 u[57] + 132 u[58]
   + 422 u[59] <= 992
 primal_lower280: 420 u[0] + 744 u[1] + 486 u[2] + 79 u[3] + 264 u[4]
   + 526 u[5] + 785 u[6] + 240 u[7] + 769 u[8] + 86 u[9] + 296 u[10]
   + 127 u[11] + 152 u[12] + 624 u[13] + 241 u[14] + 297 u[15] + 745 u[16]
   + 548 u[17] + 901 u[18] + 562 u[19] + 545 u[20] + 284 u[21] + 936 u[22]
   + 371 u[23] + 697 u[24] + 28 u[25] + 430 u[26] + 388 u[27] + 370 u[28]
   + 459 u[29] + 166 u[30] + 736 u[31] + 432 u[32] + 713 u[33] + 752 u[34]
   + 117 u[35] + 296 u[36] + 681 u[37] + 248 u[38] + 99 u[39] + 323 u[40]
   + 70 u[41] + 786 u[42] + 378 u[43] + 787 u[44] + 735 u[45] + 238 u[46]
   + 414 u[47] + 219 u[48] + 820 u[49] + 451 u[50] + 356 u[51] + 9 u[52]
   + 696 u[53] + 885 u[54] + 596 u[55] + 53 u[56] + 223 u[57] + 64 u[58]
   + 350 u[59] <= 4348
 primal_lower281: 854 u[0] + 815 u[1] + 761 u[2] + 942 u[3] + 707 u[4]
   + 884 u[5] + 684 u[6] + 790 u[7] + 140 u[8] + 997 u[9] + 722 u[10]
   + 150 u[11] + 331 u[12] + 775 u[13] + 267 u[14] + 15 u[15] + 476 u[16]
   + 67 u[17] + 360 u[18] + 657 u[19] + 212 u[20] + 58 u[21] + 611 u[22]
   + 681 u[23] + 939 u[24] + 179 u[25] + 585 u[26] + 218 u[27] + 684 u[28]
   + 994 u[29] + 664 u[30] + 70 u[31] + 242 u[32] + 104 u[33] + 59 u[34]
   + 188 u[35] + 547 u[36] + 607 u[37] + 907 u[38] + 89 u[39] + 806 u[40]
   + 252 u[41] + 365 u[42] + 384 u[43] + 446 u[44] + 5 u[45] + 568 u[46]
   + 316 u[47] + 374 u[48] + 651 u[49] + 309 u[50] + 667 u[51] + 820 u[52]
   + 159 u[53] + 511 u[54] + 738 u[55] + 264 u[56] + 621 u[57] + 547 u[58]
   + 293 u[59] <= 14564
 primal_lower282: 361 u[0] + 165 u[1] + 547 u[2] + 252 u[3] + 821 u[4]
   + 531 u[5] + 470 u[6] + 909 u[7] + 134 u[8] + 43 u[9] + 925 u[10]
   + 660 u[11] + 125 u[12] + 133 u[13] + 342 u[14] + 814 u[15] + 654 u[16]
   + 625 u[17] + 154 u[18] + 567 u[19] + 486 u[20] + 793 u[21] + 61 u[22]
   + 808 u[23] + 798 u[24] + 601 u[25] + 659 u[26] + 905 u[27] + 671 u[28]
   + 960 u[29] + 451 u[30] + 85 u[31] + 101 u[32] + 950 u[33] + 877 u[34]
   + 442 u[35] + 93 u[36] + 982 u[37] + 13 u[38] + 128 u[39] + 480 u[40]
   + 131 u[41] + 159 u[42] + 959 u[43] + 152 u[44] + 444 u[45] + 747 u[46]
   + 387 u[47] + 688 u[48] + 481 u[49] + 480 u[50] + 129 u[51] + 374 u[52]
   + 765 u[53] + 890 u[54] + 49 u[55] + 178 u[56] + 716 u[57] + 565 u[58]
   + 323 u[59] <= 9731
 primal_lower283: 290 u[0] + 451 u[1] + 933 u[2] + 426 u[3] + 407 u[4]
   + 280 u[5] + 768 u[6] + 354 u[7] + 800 u[8] + 377 u[9] + 526 u[10]
   + 778 u[11] + 823 u[12] + 819 u[13] + 175 u[14] + 971 u[15] + 824 u[16]
   + 447 u[17] + 644 u[18] + 5 u[19] + 344 u[20] + 150 u[21] + 15 u[22]
   + 741 u[23] + 367 u[24] + 319 u[25] + 461 u[26] + 910 u[27] + 464 u[28]
   + 6 u[29] + 340 u[30] + 954 u[31] + 254 u[32] + 988 u[33] + 823 u[34]
   + 816 u[35] + 647 u[36] + 227 u[37] + 303 u[38] + 453 u[39] + 898 u[40]
   + 176 u[41] + 889 u[42] + 428 u[43] + 802 u[44] + 281 u[45] + 108 u[46]
   + 408 u[47] + 402 u[48] + 343 u[49] + u[50] + 511 u[51] + 872 u[52]
   + 395 u[53] + 619 u[54] + 574 u[55] + 836 u[56] + 457 u[57] + 295 u[58]
   + 961 u[59] <= 10312
 primal_lower284: 190 u[0] + 359 u[1] + 809 u[2] + 382 u[3] + 907 u[4]
   + 252 u[5] + 44 u[6] + 926 u[7] + 820 u[8] + 397 u[9] + 66 u[10]
   + 254 u[11] + 155 u[12] + 831 u[13] + 451 u[14] + 743 u[15] + 268 u[16]
   + 35 u[17] + 624 u[18] + 297 u[19] + 28 u[20] + 786 u[21] + 667 u[22]
   + 865 u[23] + 115 u[24] + 131 u[25] + 641 u[26] + 746 u[27] + 516 u[28]
   + 594 u[29] + 104 u[30] + 422 u[31] + 450 u[32] + 920 u[33] + 219 u[34]
   + 324 u[35] + 523 u[36] + 279 u[37] + 363 u[38] + 793 u[39] + 126 u[40]
   + 572 u[41] + 229 u[42] + 24 u[43] + 734 u[44] + 533 u[45] + 776 u[46]
   + 780 u[47] + 118 u[48] + 291 u[49] + 373 u[50] + 115 u[51] + 60 u[52]
   + 999 u[53] + 671 u[54] + 146 u[55] + 632 u[56] + 509 u[57] + 363 u[58]
   + 469 u[59] <= 999
 primal_lower285: 836 u[0] + 888 u[1] + 30 u[2] + 607 u[3] + 664 u[4]
   + 934 u[5] + 425 u[6] + 176 u[7] + 609 u[8] + 846 u[9] + 560 u[10]
   + 743 u[11] + 464 u[12] + 112 u[13] + 785 u[14] + 865 u[15] + 833 u[16]
   + 756 u[17] + 941 u[18] + 538 u[19] + 265 u[20] + 828 u[21] + 480 u[22]
   + 3 u[23] + 105 u[24] + 684 u[25] + 862 u[26] + 300 u[27] + 378 u[28]
   + 35 u[29] + 566 u[30] + 56 u[31] + 568 u[32] + 385 u[33] + 880 u[34]
   + 925 u[35] + 344 u[36] + 441 u[37] + 456 u[38] + 155 u[39] + 683 u[40]
   + 326 u[41] + 770 u[42] + 890 u[43] + 619 u[44] + 255 u[45] + 550 u[46]
   + 470 u[47] + 659 u[48] + 596 u[49] + 211 u[50] + 452 u[51] + 553 u[52]
   + 576 u[53] + 941 u[54] + 908 u[55] + 533 u[56] + 111 u[57] + 600 u[58]
   + 62 u[59] <= 10697
 primal_lower286: 962 u[0] + 518 u[1] + 604 u[2] + 93 u[3] + 414 u[4]
   + 972 u[5] + 423 u[6] + 934 u[7] + 439 u[8] + 580 u[9] + 862 u[10]
   + 837 u[11] + 334 u[12] + 694 u[13] + 999 u[14] + 599 u[15] + 143 u[16]
   + 154 u[17] + 347 u[18] + 152 u[19] + 839 u[20] + 978 u[21] + 326 u[22]
   + 681 u[23] + 823 u[24] + 898 u[25] + 948 u[26] + 314 u[27] + 80 u[28]
   + 81 u[29] + 788 u[30] + 262 u[31] + 750 u[32] + 799 u[33] + 902 u[34]
   + 635 u[35] + 454 u[36] + 527 u[37] + 494 u[38] + 257 u[39] + 953 u[40]
   + 388 u[41] + 168 u[42] + 712 u[43] + 225 u[44] + 541 u[45] + 284 u[46]
   + 924 u[47] + 737 u[48] + 562 u[49] + 25 u[50] + 866 u[51] + 583 u[52]
   + 46 u[53] + 539 u[54] + 90 u[55] + 643 u[56] + 77 u[57] + 846 u[58]
   + 396 u[59] <= 16250
 primal_lower287: 860 u[0] + 661 u[1] + 207 u[2] + 756 u[3] + 785 u[4]
   + 226 u[5] + 786 u[6] + 932 u[7] + 90 u[8] + 843 u[9] + 216 u[10]
   + 540 u[11] + 769 u[12] + 53 u[13] + 833 u[14] + 253 u[15] + 490 u[16]
   + 657 u[17] + 798 u[18] + 679 u[19] + 754 u[20] + 568 u[21] + 49 u[22]
   + 767 u[23] + 201 u[24] + 673 u[25] + 223 u[26] + 160 u[27] + 650 u[28]
   + 856 u[29] + 126 u[30] + 292 u[31] + 176 u[32] + 142 u[33] + 649 u[34]
   + 394 u[35] + 545 u[36] + 277 u[37] + 385 u[38] + 511 u[39] + 172 u[40]
   + 234 u[41] + 115 u[42] + 622 u[43] + 332 u[44] + 91 u[45] + 206 u[46]
   + 778 u[47] + 356 u[48] + u[49] + 339 u[50] + 377 u[51] + 890 u[52]
   + 197 u[53] + 301 u[54] + 496 u[55] + 294 u[56] + 859 u[57] + 377 u[58]
   + 211 u[59] <= 13540
 primal_lower288: 483 u[0] + 812 u[1] + 190 u[2] + 667 u[3] + 496 u[4]
   + 889 u[5] + 249 u[6] + 323 u[7] + 833 u[8] + 554 u[9] + 783 u[10]
   + 987 u[11] + 416 u[12] + 524 u[13] + 352 u[14] + 52 u[15] + 897 u[16]
   + 184 u[17] + 909 u[18] + 166 u[19] + 721 u[20] + 199 u[21] + 16 u[22]
   + 126 u[23] + 984 u[24] + 744 u[25] + 430 u[26] + 983 u[27] + 561 u[28]
   + 271 u[29] + 637 u[30] + 827 u[31] + 807 u[32] + 165 u[33] + 856 u[34]
   + 537 u[35] + 776 u[36] + 956 u[37] + 200 u[38] + 262 u[39] + 435 u[40]
   + 249 u[41] + 898 u[42] + 173 u[43] + 739 u[44] + 162 u[45] + 581 u[46]
   + 145 u[47] + 35 u[48] + 16 u[49] + 410 u[50] + 480 u[51] + 57 u[52]
   + 956 u[53] + 284 u[54] + 663 u[55] + 301 u[56] + 922 u[57] + 184 u[58]
   + 682 u[59] <= 5032
 primal_lower289: 98 u[0] + 830 u[1] + 740 u[2] + 349 u[3] + 694 u[4]
   + 900 u[5] + 159 u[6] + 134 u[7] + 335 u[8] + 348 u[9] + 894 u[10]
   + 437 u[11] + 374 u[12] + 198 u[13] + 279 u[14] + 767 u[15] + 855 u[16]
   + 618 u[17] + 723 u[18] + 776 u[19] + 919 u[20] + 330 u[21] + 870 u[22]
   + 361 u[23] + 231 u[24] + 546 u[25] + 460 u[26] + 330 u[27] + 992 u[28]
   + 217 u[29] + 820 u[30] + 46 u[31] + 230 u[32] + 295 u[33] + 902 u[34]
   + 275 u[35] + 366 u[36] + 935 u[37] + 478 u[38] + 169 u[39] + 641 u[40]
   + 444 u[41] + 504 u[42] + 384 u[43] + 897 u[44] + 525 u[45] + 212 u[46]
   + 588 u[47] + 209 u[48] + 602 u[49] + 713 u[50] + 426 u[51] + 759 u[52]
   + 934 u[53] + 227 u[54] + 946 u[55] + 155 u[56] + 77 u[57] + 206 u[58]
   + 836 u[59] <= 5094
 primal_lower290: 158 u[0] + 879 u[1] + 513 u[2] + 542 u[3] + 67 u[4]
   + 756 u[5] + 180 u[6] + 118 u[7] + 316 u[8] + 997 u[9] + 90 u[10]
   + 862 u[11] + 547 u[12] + 615 u[13] + 715 u[14] + 487 u[15] + 564 u[16]
   + 163 u[17] + 736 u[18] + 193 u[19] + 908 u[20] + 138 u[21] + 651 u[22]
   + 569 u[23] + 859 u[24] + 539 u[25] + 681 u[26] + 330 u[27] + 996 u[28]
   + 826 u[29] + 504 u[30] + 294 u[31] + 362 u[32] + 472 u[33] + 59 u[34]
   + 636 u[35] + 43 u[36] + 207 u[37] + 467 u[38] + 169 u[39] + 726 u[40]
   + 436 u[41] + 325 u[42] + 760 u[43] + 142 u[44] + 245 u[45] + 744 u[46]
   + 356 u[47] + 710 u[48] + 283 u[49] + 165 u[50] + 987 u[51] + 956 u[52]
   + 911 u[53] + 439 u[54] + 154 u[55] + 688 u[56] + 773 u[57] + 723 u[58]
   + 965 u[59] <= 997
 primal_lower291: 722 u[0] + 374 u[1] + 740 u[2] + 773 u[3] + 46 u[4]
   + 716 u[5] + 423 u[6] + 646 u[7] + 695 u[8] + 204 u[9] + 774 u[10]
   + 141 u[11] + 534 u[12] + 590 u[13] + 151 u[14] + 583 u[15] + 103 u[16]
   + 138 u[17] + 667 u[18] + 192 u[19] + 135 u[20] + 378 u[21] + 734 u[22]
   + 297 u[23] + 471 u[24] + 506 u[25] + 132 u[26] + 922 u[27] + 392 u[28]
   + 553 u[29] + 348 u[30] + 22 u[31] + 894 u[32] + 919 u[33] + 350 u[34]
   + 715 u[35] + 622 u[36] + 167 u[37] + 118 u[38] + 569 u[39] + 73 u[40]
   + 644 u[41] + 40 u[42] + 944 u[43] + 641 u[44] + 197 u[45] + 300 u[46]
   + 860 u[47] + 281 u[48] + 226 u[49] + 89 u[50] + 850 u[51] + 223 u[52]
   + 846 u[53] + 723 u[54] + 474 u[55] + 851 u[56] + 469 u[57] + 638 u[58]
   + 76 u[59] <= 9300
 primal_lower292: 139 u[0] + 191 u[1] + 213 u[2] + 990 u[3] + 607 u[4]
   + 637 u[5] + 208 u[6] + 751 u[7] + 40 u[8] + 861 u[9] + 567 u[10]
   + 974 u[11] + 71 u[12] + 511 u[13] + 1000 u[14] + 928 u[15] + 424 u[16]
   + 563 u[17] + 332 u[18] + 577 u[19] + 592 u[20] + 507 u[21] + 959 u[22]
   + 946 u[23] + 472 u[24] + 187 u[25] + 421 u[26] + 875 u[27] + 249 u[28]
   + 434 u[29] + 221 u[30] + 735 u[31] + 255 u[32] + 496 u[33] + 7 u[34]
   + 220 u[35] + 167 u[36] + 944 u[37] + 535 u[38] + 2 u[39] + 450 u[40]
   + 165 u[41] + 297 u[42] + 881 u[43] + 874 u[44] + 718 u[45] + 941 u[46]
   + 405 u[47] + 58 u[48] + 163 u[49] + 74 u[50] + 131 u[51] + 736 u[52]
   + 879 u[53] + 332 u[54] + 51 u[55] + 340 u[56] + 678 u[57] + 767 u[58]
   + 277 u[59] <= 19350
 primal_lower293: 857 u[0] + 317 u[1] + 35 u[2] + 164 u[3] + 77 u[4]
   + 755 u[5] + 534 u[6] + 853 u[7] + 606 u[8] + 179 u[9] + 21 u[10]
   + 588 u[11] + 13 u[12] + 653 u[13] + 382 u[14] + 54 u[15] + 438 u[16]
   + 33 u[17] + 10 u[18] + 887 u[19] + 478 u[20] + 569 u[21] + 725 u[22]
   + 728 u[23] + 54 u[24] + 529 u[25] + 371 u[26] + 81 u[27] + 223 u[28]
   + 680 u[29] + 587 u[30] + 941 u[31] + 669 u[32] + 542 u[33] + 901 u[34]
   + 434 u[35] + 157 u[36] + 86 u[37] + 853 u[38] + 976 u[39] + 816 u[40]
   + 123 u[41] + 919 u[42] + 639 u[43] + 512 u[44] + 4 u[45] + 299 u[46]
   + 107 u[47] + 112 u[48] + 993 u[49] + 312 u[50] + 953 u[51] + 694 u[52]
   + 989 u[53] + 26 u[54] + 745 u[55] + 762 u[56] + 788 u[57] + 517 u[58]
   + 339 u[59] <= 9563
 primal_lower294: 338 u[0] + 110 u[1] + 708 u[2] + 653 u[3] + 262 u[4]
   + 60 u[5] + 687 u[6] + 142 u[7] + 127 u[8] + 84 u[9] + 678 u[10]
   + 525 u[11] + 134 u[12] + 150 u[13] + 63 u[14] + 927 u[15] + 383 u[16]
   + 786 u[17] + 355 u[18] + 776 u[19] + 999 u[20] + 906 u[21] + 510 u[22]
   + 817 u[23] + 631 u[24] + 226 u[25] + 972 u[26] + 266 u[27] + 896 u[28]
   + 673 u[29] + 20 u[30] + 790 u[31] + 966 u[32] + 647 u[33] + 478 u[34]
   + 691 u[35] + 990 u[36] + 79 u[37] + 974 u[38] + 281 u[39] + 9 u[40]
   + 524 u[41] + 832 u[42] + 872 u[43] + 337 u[44] + 213 u[45] + 60 u[46]
   + 468 u[47] + 41 u[48] + 634 u[49] + 329 u[50] + 602 u[51] + 367 u[52]
   + 926 u[53] + 995 u[54] + 418 u[55] + 19 u[56] + 901 u[57] + 606 u[58]
   + 172 u[59] <= 5014
 primal_lower295: 384 u[0] + 217 u[1] + 523 u[2] + 256 u[3] + 837 u[4]
   + 62 u[5] + 726 u[6] + 744 u[7] + 686 u[8] + 871 u[9] + 188 u[10]
   + 920 u[11] + 13 u[12] + 185 u[13] + 77 u[14] + 913 u[15] + 854 u[16]
   + 229 u[17] + 986 u[18] + 731 u[19] + 494 u[20] + 788 u[21] + 781 u[22]
   + 411 u[23] + 213 u[24] + 109 u[25] + 531 u[26] + 868 u[27] + 470 u[28]
   + 292 u[29] + 874 u[30] + 576 u[31] + 812 u[32] + 490 u[33] + 861 u[34]
   + 598 u[35] + 181 u[36] + 289 u[37] + 693 u[38] + 115 u[39] + 600 u[40]
   + 134 u[41] + 999 u[42] + 506 u[43] + 32 u[44] + 287 u[45] + 666 u[46]
   + 198 u[47] + 80 u[48] + 933 u[49] + 471 u[50] + 357 u[51] + 862 u[52]
   + 737 u[53] + 729 u[54] + 908 u[55] + 82 u[56] + 383 u[57] + 589 u[58]
   + 743 u[59] <= 999
 primal_lower296: 214 u[0] + 834 u[1] + 368 u[2] + 409 u[3] + 90 u[4]
   + 920 u[5] + 899 u[6] + 706 u[7] + 579 u[8] + 432 u[9] + 50 u[10]
   + 225 u[11] + 106 u[12] + 194 u[13] + 19 u[14] + 819 u[15] + 211 u[16]
   + 46 u[17] + 711 u[18] + 300 u[19] + 395 u[20] + 462 u[21] + 226 u[22]
   + 653 u[23] + 475 u[24] + 494 u[25] + 400 u[26] + 462 u[27] + 908 u[28]
   + 765 u[29] + 416 u[30] + 450 u[31] + 802 u[32] + 139 u[33] + 898 u[34]
   + 951 u[35] + 194 u[36] + 443 u[37] + 786 u[38] + 261 u[39] + 173 u[40]
   + 992 u[41] + 236 u[42] + 164 u[43] + 277 u[44] + 49 u[45] + 712 u[46]
   + 320 u[47] + 53 u[48] + 446 u[49] + 189 u[50] + 118 u[51] + 723 u[52]
   + 634 u[53] + 119 u[54] + 854 u[55] + 711 u[56] + 217 u[57] + 394 u[58]
   + 592 u[59] <= 13342
 primal_lower297: 801 u[0] + 922 u[1] + 260 u[2] + 137 u[3] + 398 u[4]
   + 767 u[5] + 351 u[6] + 257 u[7] + 807 u[8] + 328 u[9] + 813 u[10]
   + 657 u[11] + 350 u[12] + 546 u[13] + 102 u[14] + 626 u[15] + 767 u[16]
   + 310 u[17] + 499 u[18] + 76 u[19] + 87 u[20] + 389 u[21] + 686 u[22]
   + 508 u[23] + 798 u[24] + 574 u[25] + 508 u[26] + 189 u[27] + 711 u[28]
   + 349 u[29] + 403 u[30] + 553 u[31] + 5 u[32] + 515 u[33] + 286 u[34]
   + 983 u[35] + 582 u[36] + 346 u[37] + 950 u[38] + 268 u[39] + 713 u[40]
   + 927 u[41] + 352 u[42] + 947 u[43] + 753 u[44] + 80 u[45] + 227 u[46]
   + 415 u[47] + 233 u[48] + 318 u[49] + 808 u[50] + 342 u[51] + 719 u[52]
   + 386 u[53] + 706 u[54] + 405 u[55] + 971 u[56] + 832 u[57] + 670 u[58]
   + 136 u[59] <= 15202
 primal_lower298: 660 u[0] + 40 u[1] + 982 u[2] + 327 u[3] + 320 u[4]
   + 374 u[5] + 369 u[6] + 312 u[7] + 697 u[8] + 30 u[9] + 416 u[10]
   + 71 u[11] + 760 u[12] + 792 u[13] + 169 u[14] + 385 u[15] + 553 u[16]
   + 956 u[17] + 813 u[18] + 618 u[19] + 169 u[20] + 228 u[21] + 8 u[22]
   + 971 u[23] + 985 u[24] + 852 u[25] + 198 u[26] + 332 u[27] + 282 u[28]
   + 851 u[29] + 558 u[30] + 176 u[31] + 752 u[32] + 553 u[33] + 408 u[34]
   + 389 u[35] + 760 u[36] + 473 u[37] + 776 u[38] + 539 u[39] + 419 u[40]
   + 182 u[41] + 602 u[42] + 562 u[43] + 571 u[44] + 295 u[45] + 174 u[46]
   + 486 u[47] + 43 u[48] + 852 u[49] + 723 u[50] + 620 u[51] + 265 u[52]
   + 904 u[53] + 685 u[54] + 476 u[55] + 893 u[56] + 327 u[57] + 16 u[58]
   + 750 u[59] <= 19832
 primal_lower299: 149 u[0] + 161 u[1] + 871 u[2] + 992 u[3] + 105 u[4]
   + 951 u[5] + 826 u[6] + 225 u[7] + 458 u[8] + 935 u[9] + 129 u[10]
   + 608 u[11] + 537 u[12] + 89 u[13] + 770 u[14] + 194 u[15] + 274 u[16]
   + 885 u[17] + 798 u[18] + 387 u[19] + 82 u[20] + 413 u[21] + 641 u[22]
   + 868 u[23] + 866 u[24] + 573 u[25] + 847 u[26] + 85 u[27] + 835 u[28]
   + 436 u[29] + 967 u[30] + 537 u[31] + 313 u[32] + 170 u[33] + 657 u[34]
   + 934 u[35] + 569 u[36] + 762 u[37] + 105 u[38] + 60 u[39] + 308 u[40]
   + 623 u[41] + 11 u[42] + 411 u[43] + 748 u[44] + 744 u[45] + 287 u[46]
   + 719 u[47] + 4 u[48] + 53 u[49] + 900 u[50] + 509 u[51] + 2 u[52]
   + 977 u[53] + 694 u[54] + 101 u[55] + 654 u[56] + 344 u[57] + 505 u[58]
   + 879 u[59] <= 15268
 primal_lower300: 648 u[0] + 649 u[1] + 571 u[2] + 416 u[3] + 837 u[4]
   + 638 u[5] + 6 u[6] + 744 u[7] + 550 u[8] + 623 u[9] + 892 u[10]
   + 992 u[11] + 533 u[12] + 553 u[13] + 869 u[14] + 393 u[15] + 502 u[16]
   + 93 u[17] + 482 u[18] + 955 u[19] + 494 u[20] + 164 u[21] + 589 u[22]
   + 355 u[23] + 949 u[24] + 549 u[25] + 339 u[26] + 460 u[27] + 14 u[28]
   + 540 u[29] + 698 u[30] + 936 u[31] + 372 u[32] + 778 u[33] + 733 u[34]
   + 414 u[35] + 501 u[36] + 401 u[37] + 685 u[38] + 443 u[39] + 672 u[40]
   + 310 u[41] + 735 u[42] + 834 u[43] + 520 u[44] + 23 u[45] + 386 u[46]
   + 246 u[47] + 904 u[48] + 413 u[49] + 327 u[50] + 421 u[51] + 318 u[52]
   + 65 u[53] + 881 u[54] + 420 u[55] + 386 u[56] + 231 u[57] + 229 u[58]
   + 479 u[59] <= 5193
 primal_lower301: 95 u[0] + 96 u[1] + 762 u[2] + 727 u[3] + 636 u[4]
   + 461 u[5] + 77 u[6] + 687 u[7] + 101 u[8] + 990 u[9] + 539 u[10]
   + 847 u[11] + 892 u[12] + 816 u[13] + 100 u[14] + 96 u[15] + 725 u[16]
   + 604 u[17] + 185 u[18] + 298 u[19] + 597 u[20] + 3 u[21] + 788 u[22]
   + 34 u[23] + 980 u[24] + 172 u[25] + 650 u[26] + 739 u[27] + 653 u[28]
   + 683 u[29] + 905 u[30] + 711 u[31] + 891 u[32] + 833 u[33] + 188 u[34]
   + 989 u[35] + 460 u[36] + 744 u[37] + 540 u[38] + 618 u[39] + 679 u[40]
   + 933 u[41] + 166 u[42] + 17 u[43] + 143 u[44] + 846 u[45] + 801 u[46]
   + 117 u[47] + 919 u[48] + 732 u[49] + 22 u[50] + 188 u[51] + 453 u[52]
   + 480 u[53] + 976 u[54] + 947 u[55] + 401 u[56] + 982 u[57] + 924 u[58]
   + 326 u[59] <= 10988
 primal_lower302: 878 u[0] + 538 u[1] + 824 u[2] + 961 u[3] + 714 u[4]
   + 320 u[5] + 411 u[6] + 906 u[7] + 835 u[8] + 464 u[9] + 290 u[10]
   + 209 u[11] + 258 u[12] + 978 u[13] + 259 u[14] + 971 u[15] + 187 u[16]
   + 518 u[17] + 431 u[18] + 588 u[19] + 35 u[20] + 78 u[21] + 474 u[22]
   + 597 u[23] + 499 u[24] + 398 u[25] + 568 u[26] + 830 u[27] + 268 u[28]
   + 589 u[29] + 328 u[30] + 866 u[31] + 458 u[32] + 363 u[33] + 210 u[34]
   + 39 u[35] + 34 u[36] + 131 u[37] + 658 u[38] + 653 u[39] + 437 u[40]
   + 920 u[41] + 4 u[42] + 212 u[43] + 469 u[44] + 313 u[45] + 624 u[46]
   + 312 u[47] + 581 u[48] + 214 u[49] + 621 u[50] + 734 u[51] + 867 u[52]
   + 338 u[53] + 207 u[54] + 934 u[55] + 95 u[56] + 881 u[57] + 570 u[58]
   + 504 u[59] <= 9817
 primal_lower303: 416 u[0] + 569 u[1] + 475 u[2] + 168 u[3] + 733 u[4]
   + 334 u[5] + 790 u[6] + 200 u[7] + 990 u[8] + 7 u[9] + 468 u[10]
   + 280 u[11] + 245 u[12] + 505 u[13] + 821 u[14] + 289 u[15] + 934 u[16]
   + 365 u[17] + 626 u[18] + 923 u[19] + 734 u[20] + 996 u[21] + 141 u[22]
   + 499 u[23] + 181 u[24] + 653 u[25] + 787 u[26] + 676 u[27] + 982 u[28]
   + 276 u[29] + 770 u[30] + 280 u[31] + 780 u[32] + 370 u[33] + 189 u[34]
   + 174 u[35] + 189 u[36] + 377 u[37] + 901 u[38] + 835 u[39] + 104 u[40]
   + 742 u[41] + 959 u[42] + 698 u[43] + 320 u[44] + 735 u[45] + 370 u[46]
   + 134 u[47] + 144 u[48] + 317 u[49] + 415 u[50] + 77 u[51] + 358 u[52]
   + 713 u[53] + 625 u[54] + 516 u[55] + 354 u[56] + 927 u[57] + 501 u[58]
   + 815 u[59] <= 20501
 primal_lower304: 257 u[0] + 58 u[1] + 356 u[2] + 793 u[3] + 814 u[4]
   + 127 u[5] + 831 u[6] + 121 u[7] + 719 u[8] + 568 u[9] + 773 u[10]
   + 385 u[11] + 470 u[12] + 786 u[13] + 910 u[14] + 722 u[15] + 727 u[16]
   + 742 u[17] + 915 u[18] + 300 u[19] + 271 u[20] + 405 u[21] + 246 u[22]
   + 772 u[23] + 446 u[24] + 750 u[25] + 684 u[26] + 821 u[27] + 703 u[28]
   + 301 u[29] + 243 u[30] + 89 u[31] + 285 u[32] + 371 u[33] + 550 u[34]
   + 487 u[35] + 374 u[36] + 818 u[37] + 470 u[38] + 356 u[39] + 33 u[40]
   + 943 u[41] + 312 u[42] + 291 u[43] + 121 u[44] + 760 u[45] + 179 u[46]
   + 903 u[47] + 345 u[48] + 310 u[49] + 504 u[50] + 278 u[51] + 423 u[52]
   + 146 u[53] + 810 u[54] + 341 u[55] + 323 u[56] + 104 u[57] + 966 u[58]
   + 976 u[59] <= 4980
 primal_lower305: 679 u[0] + 512 u[1] + 106 u[2] + 231 u[3] + 772 u[4]
   + 421 u[5] + 973 u[6] + 551 u[7] + 533 u[8] + 814 u[9] + 219 u[10]
   + 855 u[11] + 476 u[12] + 800 u[13] + 772 u[14] + 432 u[15] + 613 u[16]
   + 748 u[17] + 609 u[18] + 234 u[19] + 973 u[20] + 603 u[21] + 972 u[22]
   + 266 u[23] + 932 u[24] + 324 u[25] + 882 u[26] + 67 u[27] + 237 u[28]
   + 523 u[29] + 233 u[30] + 967 u[31] + 723 u[32] + 801 u[33] + 476 u[34]
   + 237 u[35] + 180 u[36] + 480 u[37] + 748 u[38] + 754 u[39] + 471 u[40]
   + 37 u[41] + 334 u[42] + 217 u[43] + 303 u[44] + 206 u[45] + 193 u[46]
   + 141 u[47] + 943 u[48] + 444 u[49] + 782 u[50] + 612 u[51] + 701 u[52]
   + 528 u[53] + 472 u[54] + 187 u[55] + 961 u[56] + 774 u[57] + 212 u[58]
   + 38 u[59] <= 5214
 primal_lower306: 453 u[0] + 942 u[1] + 120 u[2] + 469 u[3] + 666 u[4]
   + 843 u[5] + 419 u[6] + 845 u[7] + 555 u[8] + 716 u[9] + 681 u[10]
   + 565 u[11] + 74 u[12] + 606 u[13] + 938 u[14] + 54 u[15] + 835 u[16]
   + 482 u[17] + 847 u[18] + 16 u[19] + 667 u[20] + 785 u[21] + 970 u[22]
   + 440 u[23] + 74 u[24] + 42 u[25] + 64 u[26] + 25 u[27] + 387 u[28]
   + 569 u[29] + 895 u[30] + 613 u[31] + 993 u[32] + 423 u[33] + 474 u[34]
   + 715 u[35] + 66 u[36] + 686 u[37] + 226 u[38] + 40 u[39] + 741 u[40]
   + 315 u[41] + 516 u[42] + 287 u[43] + 277 u[44] + 436 u[45] + 239 u[46]
   + 35 u[47] + 485 u[48] + 386 u[49] + 636 u[50] + 74 u[51] + 59 u[52]
   + 566 u[53] + 774 u[54] + 545 u[55] + 599 u[56] + 700 u[57] + 714 u[58]
   + 44 u[59] <= 19138
 primal_lower307: 880 u[0] + 681 u[1] + 587 u[2] + 16 u[3] + 805 u[4]
   + 502 u[5] + 262 u[6] + 536 u[7] + 494 u[8] + 967 u[9] + 644 u[10]
   + 384 u[11] + 629 u[12] + 337 u[13] + 909 u[14] + 177 u[15] + 846 u[16]
   + 549 u[17] + 130 u[18] + 419 u[19] + 510 u[20] + 172 u[21] + 869 u[22]
   + 67 u[23] + 629 u[24] + 989 u[25] + 875 u[26] + 388 u[27] + 422 u[28]
   + 4 u[29] + 578 u[30] + 240 u[31] + 484 u[32] + 874 u[33] + 21 u[34]
   + 422 u[35] + 5 u[36] + 721 u[37] + 621 u[38] + 59 u[39] + 696 u[40]
   + 430 u[41] + 471 u[42] + 402 u[43] + 288 u[44] + 743 u[45] + 994 u[46]
   + 542 u[47] + 888 u[48] + 717 u[49] + 327 u[50] + 253 u[51] + 398 u[52]
   + 729 u[53] + 169 u[54] + 668 u[55] + 954 u[56] + 391 u[57] + 181 u[58]
   + 95 u[59] <= 20026
 primal_lower308: 330 u[0] + 395 u[1] + 21 u[2] + 906 u[3] + 479 u[4]
   + 984 u[5] + 648 u[6] + 530 u[7] + 256 u[8] + 585 u[9] + 358 u[10]
   + 762 u[11] + 247 u[12] + 923 u[13] + 623 u[14] + 795 u[15] + 472 u[16]
   + 591 u[17] + 812 u[18] + 493 u[19] + 872 u[20] + 654 u[21] + 671 u[22]
   + 421 u[23] + 711 u[24] + 383 u[25] + 381 u[26] + 774 u[27] + 440 u[28]
   + 582 u[29] + 924 u[30] + 626 u[31] + 110 u[32] + 52 u[33] + 895 u[34]
   + 88 u[35] + 775 u[36] + 235 u[37] + 767 u[38] + 493 u[39] + 506 u[40]
   + 488 u[41] + 825 u[42] + 692 u[43] + 906 u[44] + 65 u[45] + 148 u[46]
   + 24 u[47] + 106 u[48] + 767 u[49] + 25 u[50] + 839 u[51] + 768 u[52]
   + 779 u[53] + 699 u[54] + 734 u[55] + 436 u[56] + 889 u[57] + 279 u[58]
   + 233 u[59] <= 21514
 primal_lower309: 495 u[0] + 200 u[1] + 266 u[2] + 119 u[3] + 196 u[4]
   + 653 u[5] + 709 u[6] + 127 u[7] + 477 u[8] + 382 u[9] + 411 u[10]
   + 783 u[11] + 148 u[12] + 400 u[13] + 444 u[14] + 576 u[15] + 197 u[16]
   + 868 u[17] + 201 u[18] + 738 u[19] + 277 u[20] + 339 u[21] + 668 u[22]
   + 850 u[23] + 724 u[24] + 20 u[25] + 450 u[26] + 459 u[27] + 493 u[28]
   + 339 u[29] + 241 u[30] + 543 u[31] + 139 u[32] + 353 u[33] + 92 u[34]
   + 309 u[35] + 140 u[36] + 576 u[37] + 692 u[38] + 530 u[39] + 191 u[40]
   + 717 u[41] + 134 u[42] + 81 u[43] + 743 u[44] + 750 u[45] + 617 u[46]
   + 773 u[47] + 647 u[48] + 284 u[49] + 670 u[50] + 580 u[51] + 429 u[52]
   + 944 u[53] + 560 u[54] + 587 u[55] + 857 u[56] + 294 u[57] + 284 u[58]
   + 150 u[59] <= 13458
 primal_lower310: 77 u[0] + 553 u[1] + 447 u[2] + 560 u[3] + 425 u[4]
   + 567 u[5] + 218 u[6] + 937 u[7] + 170 u[8] + 439 u[9] + 849 u[10]
   + 728 u[11] + 961 u[12] + 33 u[13] + 978 u[14] + 970 u[15] + 338 u[16]
   + 693 u[17] + 510 u[18] + 339 u[19] + 290 u[20] + 285 u[21] + 9 u[22]
   + 364 u[23] + 394 u[24] + 821 u[25] + 39 u[26] + 877 u[27] + 755 u[28]
   + 76 u[29] + 919 u[30] + 161 u[31] + 769 u[32] + 434 u[33] + 313 u[34]
   + 446 u[35] + 673 u[36] + 530 u[37] + 537 u[38] + 396 u[39] + 628 u[40]
   + 591 u[41] + 595 u[42] + 123 u[43] + 652 u[44] + 232 u[45] + 767 u[46]
   + 735 u[47] + 660 u[48] + 165 u[49] + 908 u[50] + 389 u[51] + 10 u[52]
   + 233 u[53] + 798 u[54] + 269 u[55] + 878 u[56] + 240 u[57] + 969 u[58]
   + 391 u[59] <= 10037
 primal_lower311: 416 u[0] + 932 u[1] + 658 u[2] + 931 u[3] + 364 u[4]
   + 962 u[5] + 125 u[6] + 372 u[7] + 445 u[8] + 10 u[9] + 396 u[10]
   + 419 u[11] + 852 u[12] + 956 u[13] + 637 u[14] + 293 u[15] + 117 u[16]
   + 728 u[17] + 353 u[18] + 142 u[19] + 429 u[20] + 496 u[21] + 500 u[22]
   + 79 u[23] + 725 u[24] + 280 u[25] + 274 u[26] + 464 u[27] + 342 u[28]
   + 311 u[29] + 450 u[30] + 964 u[31] + 412 u[32] + 61 u[33] + 636 u[34]
   + 441 u[35] + 652 u[36] + 669 u[37] + 436 u[38] + 367 u[39] + 399 u[40]
   + 706 u[41] + 342 u[42] + 110 u[43] + 503 u[44] + 75 u[45] + 306 u[46]
   + 994 u[47] + 639 u[48] + 552 u[49] + 679 u[50] + 952 u[51] + 413 u[52]
   + 20 u[53] + 425 u[54] + 368 u[55] + 249 u[56] + 731 u[57] + 604 u[58]
   + 2 u[59] <= 4694
 primal_lower312: 843 u[0] + 615 u[1] + 621 u[2] + 678 u[3] + 679 u[4]
   + 853 u[5] + 96 u[6] + 919 u[7] + 640 u[8] + 829 u[9] + 583 u[10]
   + 958 u[11] + 431 u[12] + 847 u[13] + 184 u[14] + 344 u[15] + 552 u[16]
   + 547 u[17] + 844 u[18] + 617 u[19] + 200 u[20] + 347 u[21] + 287 u[22]
   + 770 u[23] + 80 u[24] + 179 u[25] + 669 u[26] + 315 u[27] + 185 u[28]
   + 322 u[29] + 781 u[30] + 631 u[31] + 39 u[32] + 472 u[33] + 903 u[34]
   + 732 u[35] + 775 u[36] + 536 u[37] + 311 u[38] + 290 u[39] + 770 u[40]
   + 573 u[41] + 665 u[42] + 729 u[43] + 34 u[44] + 590 u[45] + 749 u[46]
   + 853 u[47] + 962 u[48] + 475 u[49] + 66 u[50] + 875 u[51] + 176 u[52]
   + 831 u[53] + 572 u[54] + 387 u[55] + 660 u[56] + 870 u[57] + 887 u[58]
   + 581 u[59] <= 11269
 primal_lower313: 4 u[0] + 592 u[1] + 710 u[2] + 823 u[3] + 984 u[4]
   + 598 u[5] + 233 u[6] + 912 u[7] + 417 u[8] + 358 u[9] + 120 u[10]
   + 743 u[11] + 56 u[12] + 560 u[13] + 89 u[14] + 169 u[15] + 113 u[16]
   + 364 u[17] + 469 u[18] + 418 u[19] + 305 u[20] + 364 u[21] + 256 u[22]
   + 755 u[23] + 985 u[24] + 780 u[25] + 598 u[26] + 820 u[27] + 794 u[28]
   + 451 u[29] + 270 u[30] + 808 u[31] + 104 u[32] + 313 u[33] + 408 u[34]
   + 509 u[35] + 240 u[36] + 265 u[37] + 944 u[38] + 747 u[39] + 731 u[40]
   + 14 u[41] + 18 u[42] + 746 u[43] + 99 u[44] + 415 u[45] + 214 u[46]
   + 526 u[47] + 475 u[48] + 620 u[49] + 299 u[50] + 708 u[51] + 961 u[52]
   + 768 u[53] + 549 u[54] + 260 u[55] + 285 u[56] + 735 u[57] + 504 u[58]
   + 790 u[59] <= 14582
 primal_lower314: 89 u[0] + 194 u[1] + 812 u[2] + 921 u[3] + 926 u[4]
   + 351 u[5] + 719 u[6] + 401 u[7] + 407 u[8] + 520 u[9] + 461 u[10]
   + 177 u[11] + 286 u[12] + 698 u[13] + 110 u[14] + 786 u[15] + 135 u[16]
   + 766 u[17] + 763 u[18] + 348 u[19] + 983 u[20] + 957 u[21] + 238 u[22]
   + 12 u[23] + 518 u[24] + 630 u[25] + 788 u[26] + 93 u[27] + 495 u[28]
   + 397 u[29] + 91 u[30] + 529 u[31] + 285 u[32] + 755 u[33] + 318 u[34]
   + 559 u[35] + 646 u[36] + 714 u[37] + 542 u[38] + 908 u[39] + 537 u[40]
   + 895 u[41] + 592 u[42] + 91 u[43] + 585 u[44] + 776 u[45] + 851 u[46]
   + 199 u[47] + 857 u[48] + 166 u[49] + 688 u[50] + 222 u[51] + 999 u[52]
   + 90 u[53] + 938 u[54] + 701 u[55] + 427 u[56] + 192 u[57] + 102 u[58]
   + 128 u[59] <= 10121
 primal_lower315: 482 u[0] + 110 u[1] + 380 u[2] + 61 u[3] + 422 u[4]
   + 948 u[5] + 343 u[6] + 398 u[7] + 71 u[8] + 724 u[9] + 710 u[10]
   + 989 u[11] + 142 u[12] + 974 u[13] + 727 u[14] + 863 u[15] + 983 u[16]
   + 362 u[17] + 323 u[18] + 680 u[19] + 71 u[20] + 714 u[21] + 238 u[22]
   + 497 u[23] + 943 u[24] + 658 u[25] + 12 u[26] + 770 u[27] + 72 u[28]
   + 865 u[29] + 508 u[30] + 774 u[31] + 918 u[32] + 391 u[33] + 374 u[34]
   + 483 u[35] + 326 u[36] + 479 u[37] + 342 u[38] + 273 u[39] + 337 u[40]
   + 172 u[41] + 560 u[42] + 224 u[43] + 993 u[44] + 621 u[45] + 508 u[46]
   + 140 u[47] + 977 u[48] + 74 u[49] + 89 u[50] + 978 u[51] + 567 u[52]
   + 390 u[53] + 467 u[54] + 306 u[55] + 675 u[56] + 269 u[57] + 726 u[58]
   + 556 u[59] <= 15014
 primal_lower316: 998 u[0] + 106 u[1] + 696 u[2] + 529 u[3] + 730 u[4]
   + 240 u[5] + 971 u[6] + 506 u[7] + 819 u[8] + 952 u[9] + 378 u[10]
   + 537 u[11] + 602 u[12] + 874 u[13] + 771 u[14] + 635 u[15] + 467 u[16]
   + 366 u[17] + 167 u[18] + 172 u[19] + 699 u[20] + 918 u[21] + 250 u[22]
   + 349 u[23] + 531 u[24] + 550 u[25] + 304 u[26] + 214 u[27] + 444 u[28]
   + 29 u[29] + 120 u[30] + 282 u[31] + 202 u[32] + 867 u[33] + 522 u[34]
   + 839 u[35] + 202 u[36] + 483 u[37] + 762 u[38] + 701 u[39] + 213 u[40]
   + 200 u[41] + 996 u[42] + 692 u[43] + 13 u[44] + 657 u[45] + 776 u[46]
   + 40 u[47] + 389 u[48] + 846 u[49] + 413 u[50] + 358 u[51] + 739 u[52]
   + 658 u[53] + 639 u[54] + 70 u[55] + 991 u[56] + 809 u[57] + 98 u[58]
   + 768 u[59] <= 998
 primal_lower317: 123 u[0] + 623 u[1] + 421 u[2] + 358 u[3] + 663 u[4]
   + 941 u[5] + 360 u[6] + 87 u[7] + 608 u[8] + 373 u[9] + 287 u[10]
   + 846 u[11] + 335 u[12] + 495 u[13] + 88 u[14] + 496 u[15] + 520 u[16]
   + 899 u[17] + 220 u[18] + 481 u[19] + 824 u[20] + 435 u[21] + 143 u[22]
   + 66 u[23] + 208 u[24] + 547 u[25] + 581 u[26] + 427 u[27] + 889 u[28]
   + 994 u[29] + 981 u[30] + 671 u[31] + 935 u[32] + 16 u[33] + 239 u[34]
   + 716 u[35] + 391 u[36] + 432 u[37] + 815 u[38] + 618 u[39] + 810 u[40]
   + 165 u[41] + 465 u[42] + 993 u[43] + 402 u[44] + 206 u[45] + 77 u[46]
   + 85 u[47] + 402 u[48] + 139 u[49] + 714 u[50] + 299 u[51] + 784 u[52]
   + 95 u[53] + 44 u[54] + 539 u[55] + 940 u[56] + 134 u[57] + 191 u[58]
   + 37 u[59] <= 9224
 primal_lower318: 437 u[0] + 430 u[1] + 832 u[2] + 637 u[3] + 546 u[4]
   + 107 u[5] + 443 u[6] + 325 u[7] + 59 u[8] + 660 u[9] + 177 u[10]
   + 525 u[11] + 314 u[12] + 430 u[13] + 450 u[14] + 502 u[15] + 507 u[16]
   + 66 u[17] + 719 u[18] + 656 u[19] + 163 u[20] + 441 u[21] + 266 u[22]
   + 688 u[23] + 10 u[24] + 258 u[25] + 448 u[26] + 89 u[27] + 219 u[28]
   + 553 u[29] + 7 u[30] + 509 u[31] + 537 u[32] + 791 u[33] + 986 u[34]
   + 435 u[35] + 298 u[36] + 534 u[37] + 834 u[38] + 944 u[39] + 685 u[40]
   + 371 u[41] + 316 u[42] + 87 u[43] + 285 u[44] + 716 u[45] + 495 u[46]
   + 363 u[47] + 909 u[48] + 770 u[49] + 580 u[50] + 498 u[51] + 683 u[52]
   + 134 u[53] + 734 u[54] + 329 u[55] + 951 u[56] + 900 u[57] + 322 u[58]
   + 84 u[59] <= 4674
 primal_lower319: 386 u[0] + 83 u[1] + 901 u[2] + 594 u[3] + 383 u[4]
   + 856 u[5] + 136 u[6] + 282 u[7] + 960 u[8] + 817 u[9] + 30 u[10]
   + 418 u[11] + 975 u[12] + 395 u[13] + 791 u[14] + 635 u[15] + 872 u[16]
   + 407 u[17] + 740 u[18] + 557 u[19] + 984 u[20] + 638 u[21] + 159 u[22]
   + 333 u[23] + 503 u[24] + 591 u[25] + 669 u[26] + 550 u[27] + 792 u[28]
   + 566 u[29] + 308 u[30] + 330 u[31] + 694 u[32] + 284 u[33] + 631 u[34]
   + 592 u[35] + 575 u[36] + 251 u[37] + 679 u[38] + 429 u[39] + 194 u[40]
   + 776 u[41] + 769 u[42] + 484 u[43] + 834 u[44] + 385 u[45] + 172 u[46]
   + 72 u[47] + 778 u[48] + 247 u[49] + 777 u[50] + 111 u[51] + 296 u[52]
   + 363 u[53] + 371 u[54] + 62 u[55] + 572 u[56] + 9 u[57] + 343 u[58]
   + 225 u[59] <= 4936
 primal_lower320: 250 u[0] + 203 u[1] + 309 u[2] + 442 u[3] + 311 u[4]
   + 688 u[5] + 328 u[6] + 914 u[7] + 136 u[8] + 369 u[9] + 246 u[10]
   + 218 u[11] + 455 u[12] + 275 u[13] + 543 u[14] + 491 u[15] + 320 u[16]
   + 367 u[17] + 580 u[18] + 317 u[19] + 120 u[20] + 798 u[21] + 879 u[22]
   + 309 u[23] + 167 u[24] + 703 u[25] + 309 u[26] + 358 u[27] + 272 u[28]
   + 870 u[29] + 492 u[30] + 890 u[31] + 870 u[32] + 52 u[33] + 23 u[34]
   + 704 u[35] + 767 u[36] + 547 u[37] + 423 u[38] + 805 u[39] + 762 u[40]
   + 360 u[41] + 833 u[42] + 452 u[43] + 234 u[44] + 825 u[45] + 812 u[46]
   + 1000 u[47] + 426 u[48] + 263 u[49] + 345 u[50] + 663 u[51] + 688 u[52]
   + 483 u[53] + 707 u[54] + 374 u[55] + 620 u[56] + 305 u[57] + 887 u[58]
   + 777 u[59] <= 19957
 primal_lower321: 469 u[0] + 33 u[1] + 959 u[2] + 328 u[3] + 617 u[4]
   + 279 u[5] + 906 u[6] + 857 u[7] + 946 u[8] + 743 u[9] + 25 u[10]
   + 848 u[11] + 9 u[12] + 521 u[13] + 162 u[14] + 930 u[15] + 234 u[16]
   + 69 u[17] + 310 u[18] + 403 u[19] + 762 u[20] + 77 u[21] + 569 u[22]
   + 100 u[23] + 930 u[24] + 717 u[25] + 743 u[26] + 469 u[27] + 707 u[28]
   + 532 u[29] + 71 u[30] + 169 u[31] + 409 u[32] + 474 u[33] + 817 u[34]
   + 638 u[35] + 945 u[36] + 386 u[37] + 921 u[38] + 812 u[39] + 124 u[40]
   + 639 u[41] + 395 u[42] + 315 u[43] + 988 u[44] + 920 u[45] + 895 u[46]
   + 863 u[47] + 308 u[48] + 765 u[49] + 988 u[50] + 581 u[51] + 466 u[52]
   + 521 u[53] + 934 u[54] + 5 u[55] + 230 u[56] + 144 u[57] + 161 u[58]
   + 783 u[59] <= 10640
 primal_lower322: 711 u[0] + 827 u[1] + 25 u[2] + 338 u[3] + 331 u[4]
   + 257 u[5] + 140 u[6] + 363 u[7] + 524 u[8] + 97 u[9] + 427 u[10]
   + 938 u[11] + 203 u[12] + 355 u[13] + 612 u[14] + 348 u[15] + 212 u[16]
   + 455 u[17] + 328 u[18] + 805 u[19] + 252 u[20] + 79 u[21] + 195 u[22]
   + 270 u[23] + 132 u[24] + 519 u[25] + 313 u[26] + 823 u[27] + 117 u[28]
   + 614 u[29] + 337 u[30] + 587 u[31] + 819 u[32] + 420 u[33] + 347 u[34]
   + 176 u[35] + 715 u[36] + 260 u[37] + 707 u[38] + 862 u[39] + 566 u[40]
   + 609 u[41] + 997 u[42] + 453 u[43] + 838 u[44] + 746 u[45] + 601 u[46]
   + 505 u[47] + 710 u[48] + 887 u[49] + 198 u[50] + 487 u[51] + 668 u[52]
   + 747 u[53] + 880 u[54] + 191 u[55] + 232 u[56] + 538 u[57] + 363 u[58]
   + 185 u[59] <= 4706
 primal_lower323: 967 u[0] + 123 u[1] + 665 u[2] + 322 u[3] + 539 u[4]
   + 753 u[5] + 308 u[6] + 739 u[7] + 956 u[8] + 657 u[9] + 75 u[10]
   + 410 u[11] + 259 u[12] + 115 u[13] + 484 u[14] + 84 u[15] + 84 u[16]
   + 951 u[17] + 376 u[18] + 341 u[19] + 860 u[20] + 415 u[21] + 155 u[22]
   + 214 u[23] + 564 u[24] + 127 u[25] + 265 u[26] + 39 u[27] + 589 u[28]
   + 886 u[29] + 185 u[30] + 243 u[31] + 115 u[32] + 4 u[33] + 163 u[34]
   + 704 u[35] + 59 u[36] + 884 u[37] + 299 u[38] + 782 u[39] + 558 u[40]
   + 745 u[41] + 45 u[42] + 357 u[43] + 974 u[44] + 242 u[45] + 161 u[46]
   + 489 u[47] + 502 u[48] + 999 u[49] + 86 u[50] + 503 u[51] + 252 u[52]
   + 939 u[53] + 800 u[54] + 751 u[55] + 32 u[56] + 482 u[57] + 603 u[58]
   + 817 u[59] <= 9032
 primal_lower324: 150 u[0] + 7 u[1] + 17 u[2] + 926 u[3] + 259 u[4]
   + 508 u[5] + 172 u[6] + 262 u[7] + 588 u[8] + 285 u[9] + 618 u[10]
   + 766 u[11] + 363 u[12] + 871 u[13] + 939 u[14] + 895 u[15] + 220 u[16]
   + 27 u[17] + 728 u[18] + 81 u[19] + 628 u[20] + 58 u[21] + 219 u[22]
   + 553 u[23] + 259 u[24] + 539 u[25] + 361 u[26] + 498 u[27] + 108 u[28]
   + 586 u[29] + 968 u[30] + 510 u[31] + 274 u[32] + 144 u[33] + 379 u[34]
   + 284 u[35] + 11 u[36] + 679 u[37] + 371 u[38] + 577 u[39] + 126 u[40]
   + 644 u[41] + 333 u[42] + 200 u[43] + 398 u[44] + 45 u[45] + 936 u[46]
   + 372 u[47] + 742 u[48] + 307 u[49] + 293 u[50] + 723 u[51] + 52 u[52]
   + 383 u[53] + 743 u[54] + 954 u[55] + 832 u[56] + 813 u[57] + 371 u[58]
   + 253 u[59] <= 13104
 primal_lower325: 918 u[0] + 807 u[1] + 761 u[2] + 806 u[3] + 467 u[4]
   + 660 u[5] + 692 u[6] + 926 u[7] + 292 u[8] + 309 u[9] + 306 u[10]
   + 190 u[11] + 91 u[12] + 687 u[13] + 459 u[14] + 791 u[15] + 700 u[16]
   + 787 u[17] + 944 u[18] + 841 u[19] + 484 u[20] + 986 u[21] + 315 u[22]
   + 969 u[23] + 579 u[24] + 835 u[25] + 289 u[26] + 426 u[27] + 892 u[28]
   + 490 u[29] + 584 u[30] + 510 u[31] + 938 u[32] + 264 u[33] + 387 u[34]
   + 124 u[35] + 355 u[36] + 471 u[37] + 947 u[38] + 585 u[39] + 62 u[40]
   + 548 u[41] + 869 u[42] + 448 u[43] + 830 u[44] + 805 u[45] + 128 u[46]
   + 908 u[47] + 862 u[48] + 427 u[49] + 149 u[50] + 531 u[51] + 932 u[52]
   + 983 u[53] + 575 u[54] + 138 u[55] + 528 u[56] + 341 u[57] + 187 u[58]
   + 741 u[59] <= 11618
 primal_lower326: 337 u[0] + 285 u[1] + 67 u[2] + 388 u[3] + 957 u[4]
   + 251 u[5] + 374 u[6] + 493 u[7] + 790 u[8] + 571 u[9] + 925 u[10]
   + 788 u[11] + 773 u[12] + 725 u[13] + 654 u[14] + 566 u[15] + 446 u[16]
   + 833 u[17] + 874 u[18] + 839 u[19] + 870 u[20] + 433 u[21] + 637 u[22]
   + 72 u[23] + 118 u[24] + 273 u[25] + 219 u[26] + 897 u[27] + 247 u[28]
   + 480 u[29] + 427 u[30] + 205 u[31] + 101 u[32] + 446 u[33] + 133 u[34]
   + 122 u[35] + 373 u[36] + 14 u[37] + 925 u[38] + 48 u[39] + 872 u[40]
   + 315 u[41] + 319 u[42] + 151 u[43] + 480 u[44] + 948 u[45] + 619 u[46]
   + 195 u[47] + 800 u[48] + 705 u[49] + 808 u[50] + 145 u[51] + 198 u[52]
   + 253 u[53] + 594 u[54] + 185 u[55] + 866 u[56] + 740 u[57] + 141 u[58]
   + 851 u[59] <= 957
 primal_lower327: 277 u[0] + 913 u[1] + 895 u[2] + 672 u[3] + 97 u[4]
   + 231 u[5] + 26 u[6] + 225 u[7] + 154 u[8] + 335 u[9] + 49 u[10]
   + 648 u[11] + 121 u[12] + 289 u[13] + 66 u[14] + 794 u[15] + 42 u[16]
   + 125 u[17] + 646 u[18] + 883 u[19] + 714 u[20] + 101 u[21] + 369 u[22]
   + 268 u[23] + 642 u[24] + 173 u[25] + 479 u[26] + 613 u[27] + 67 u[28]
   + 132 u[29] + 31 u[30] + 345 u[31] + 617 u[32] + 938 u[33] + 113 u[34]
   + 246 u[35] + 209 u[36] + 970 u[37] + 889 u[38] + 92 u[39] + 348 u[40]
   + 191 u[41] + 67 u[42] + 355 u[43] + 380 u[44] + 616 u[45] + 183 u[46]
   + 23 u[47] + 892 u[48] + 197 u[49] + 740 u[50] + 685 u[51] + 682 u[52]
   + 105 u[53] + 798 u[54] + 13 u[55] + 598 u[56] + 512 u[57] + 153 u[58]
   + 751 u[59] <= 7928
 primal_lower328: 443 u[0] + 316 u[1] + 174 u[2] + 43 u[3] + 312 u[4]
   + 825 u[5] + 969 u[6] + 851 u[7] + 777 u[8] + 874 u[9] + 535 u[10]
   + 259 u[11] + 744 u[12] + 212 u[13] + 272 u[14] + 372 u[15] + 881 u[16]
   + 704 u[17] + 237 u[18] + 926 u[19] + 761 u[20] + 767 u[21] + 672 u[22]
   + 54 u[23] + 600 u[24] + 968 u[25] + 918 u[26] + 951 u[27] + 793 u[28]
   + 71 u[29] + 269 u[30] + 3 u[31] + 383 u[32] + 45 u[33] + 256 u[34]
   + 681 u[35] + 592 u[36] + 108 u[37] + 304 u[38] + 30 u[39] + 3 u[40]
   + 993 u[41] + 850 u[42] + 245 u[43] + 51 u[44] + 674 u[45] + 5 u[46]
   + 313 u[47] + 443 u[48] + 456 u[49] + 298 u[50] + 160 u[51] + 185 u[52]
   + 988 u[53] + 68 u[54] + 271 u[55] + 237 u[56] + 66 u[57] + 656 u[58]
   + 466 u[59] <= 993
 primal_lower329: 138 u[0] + 59 u[1] + 973 u[2] + 794 u[3] + 759 u[4]
   + 672 u[5] + 208 u[6] + 770 u[7] + 832 u[8] + 17 u[9] + 854 u[10]
   + 458 u[11] + 407 u[12] + 403 u[13] + 415 u[14] + 955 u[15] + 8 u[16]
   + 839 u[17] + 540 u[18] + 781 u[19] + 312 u[20] + 422 u[21] + 935 u[22]
   + 261 u[23] + 983 u[24] + 959 u[25] + 349 u[26] + 198 u[27] + 8 u[28]
   + 462 u[29] + 276 u[30] + 226 u[31] + 798 u[32] + 980 u[33] + 399 u[34]
   + 128 u[35] + 391 u[36] + 563 u[37] + 967 u[38] + 629 u[39] + 506 u[40]
   + 432 u[41] + 393 u[42] + 316 u[43] + 762 u[44] + 145 u[45] + 652 u[46]
   + 696 u[47] + 938 u[48] + 479 u[49] + 553 u[50] + 79 u[51] + 392 u[52]
   + 763 u[53] + 243 u[54] + 966 u[55] + 524 u[56] + 417 u[57] + 319 u[58]
   + 609 u[59] <= 15656
 primal_lower330: 304 u[0] + 532 u[1] + 250 u[2] + 427 u[3] + 924 u[4]
   + 498 u[5] + 405 u[6] + 716 u[7] + 741 u[8] + 938 u[9] + 420 u[10]
   + 403 u[11] + 244 u[12] + 292 u[13] + 333 u[14] + 805 u[15] + 173 u[16]
   + 536 u[17] + 9 u[18] + 358 u[19] + 861 u[20] + 432 u[21] + 52 u[22]
   + 423 u[23] + 581 u[24] + 440 u[25] + 906 u[26] + 664 u[27] + 678 u[28]
   + 335 u[29] + 18 u[30] + 452 u[31] + 100 u[32] + 45 u[33] + 348 u[34]
   + 449 u[35] + 140 u[36] + 525 u[37] + 604 u[38] + 383 u[39] + 159 u[40]
   + 914 u[41] + 14 u[42] + 830 u[43] + 807 u[44] + 907 u[45] + 682 u[46]
   + 714 u[47] + 39 u[48] + 904 u[49] + 167 u[50] + 360 u[51] + 901 u[52]
   + 76 u[53] + 905 u[54] + 384 u[55] + 617 u[56] + 267 u[57] + 580 u[58]
   + 970 u[59] <= 9647
 primal_lower331: 480 u[0] + 652 u[1] + 786 u[2] + 347 u[3] + 100 u[4]
   + 898 u[5] + 893 u[6] + 44 u[7] + 29 u[8] + 538 u[9] + 676 u[10]
   + 75 u[11] + 876 u[12] + 740 u[13] + 485 u[14] + 485 u[15] + 301 u[16]
   + 392 u[17] + 729 u[18] + 206 u[19] + 925 u[20] + 824 u[21] + 556 u[22]
   + 911 u[23] + 533 u[24] + 200 u[25] + 370 u[26] + 56 u[27] + 758 u[28]
   + 663 u[29] + 602 u[30] + 60 u[31] + 916 u[32] + 645 u[33] + 892 u[34]
   + 585 u[35] + 996 u[36] + 109 u[37] + 380 u[38] + 623 u[39] + 39 u[40]
   + 530 u[41] + 110 u[42] + 70 u[43] + 63 u[44] + 275 u[45] + 770 u[46]
   + 834 u[47] + 487 u[48] + 584 u[49] + 991 u[50] + 504 u[51] + 357 u[52]
   + 700 u[53] + 729 u[54] + 888 u[55] + 481 u[56] + 251 u[57] + 108 u[58]
   + 770 u[59] <= 10292
 primal_lower332: 541 u[0] + 881 u[1] + 927 u[2] + 864 u[3] + 697 u[4]
   + 615 u[5] + 250 u[6] + 785 u[7] + 306 u[8] + 751 u[9] + 553 u[10]
   + 128 u[11] + 105 u[12] + 153 u[13] + 986 u[14] + 178 u[15] + 522 u[16]
   + 685 u[17] + 814 u[18] + 835 u[19] + 770 u[20] + 717 u[21] + 273 u[22]
   + 260 u[23] + 282 u[24] + 229 u[25] + 511 u[26] + 501 u[27] + 987 u[28]
   + 716 u[29] + 335 u[30] + 697 u[31] + 801 u[32] + 474 u[33] + 745 u[34]
   + 878 u[35] + 137 u[36] + 130 u[37] + 25 u[38] + 764 u[39] + 252 u[40]
   + 503 u[41] + 211 u[42] + 51 u[43] + 964 u[44] + 856 u[45] + 175 u[46]
   + 439 u[47] + 964 u[48] + 901 u[49] + 44 u[50] + 621 u[51] + 834 u[52]
   + 465 u[53] + 854 u[54] + 5 u[55] + 566 u[56] + 544 u[57] + 601 u[58]
   + 71 u[59] <= 10576
 primal_lower333: 223 u[0] + 475 u[1] + u[2] + 298 u[3] + 571 u[4]
   + 17 u[5] + 348 u[6] + 67 u[7] + 516 u[8] + 33 u[9] + 499 u[10]
   + 970 u[11] + 483 u[12] + 715 u[13] + 780 u[14] + 700 u[15] + 724 u[16]
   + 695 u[17] + 216 u[18] + 805 u[19] + 732 u[20] + 287 u[21] + 419 u[22]
   + 286 u[23] + 196 u[24] + 591 u[25] + 249 u[26] + 959 u[27] + 445 u[28]
   + 774 u[29] + 193 u[30] + 859 u[31] + 83 u[32] + 820 u[33] + 451 u[34]
   + 456 u[35] + 219 u[36] + 868 u[37] + 411 u[38] + 990 u[39] + 326 u[40]
   + 937 u[41] + 917 u[42] + 949 u[43] + 590 u[44] + 722 u[45] + 841 u[46]
   + 929 u[47] + 374 u[48] + 135 u[49] + 278 u[50] + 583 u[51] + 220 u[52]
   + 483 u[53] + 160 u[54] + 799 u[55] + 776 u[56] + 786 u[57] + 219 u[58]
   + 537 u[59] <= 5164
 primal_lower334: 630 u[0] + 231 u[1] + 201 u[2] + 38 u[3] + 483 u[4]
   + 348 u[5] + 388 u[6] + 302 u[7] + 820 u[8] + 253 u[9] + 298 u[10]
   + 494 u[11] + 11 u[12] + 855 u[13] + 603 u[14] + 679 u[15] + 796 u[16]
   + 643 u[17] + 712 u[18] + 905 u[19] + 444 u[20] + 346 u[21] + 539 u[22]
   + 209 u[23] + 459 u[24] + 875 u[25] + 561 u[26] + 114 u[27] + 916 u[28]
   + 594 u[29] + 384 u[30] + 614 u[31] + 122 u[32] + 136 u[33] + 603 u[34]
   + 100 u[35] + 659 u[36] + 575 u[37] + 507 u[38] + 369 u[39] + 70 u[40]
   + 84 u[41] + 173 u[42] + 928 u[43] + 38 u[44] + 525 u[45] + 72 u[46]
   + 20 u[47] + 78 u[48] + 147 u[49] + 469 u[50] + 139 u[51] + 884 u[52]
   + 575 u[53] + 39 u[54] + 58 u[55] + 376 u[56] + 877 u[57] + 579 u[58]
   + 381 u[59] <= 928
 primal_lower335: 743 u[0] + 123 u[1] + 281 u[2] + 258 u[3] + 403 u[4]
   + 761 u[5] + 140 u[6] + 675 u[7] + 892 u[8] + 801 u[9] + 123 u[10]
   + 210 u[11] + 459 u[12] + 835 u[13] + 932 u[14] + 844 u[15] + 332 u[16]
   + 151 u[17] + 984 u[18] + 261 u[19] + 228 u[20] + 751 u[21] + 443 u[22]
   + 230 u[23] + 708 u[24] + 207 u[25] + 345 u[26] + 927 u[27] + 437 u[28]
   + 982 u[29] + 73 u[30] + 331 u[31] + 923 u[32] + 260 u[33] + 395 u[34]
   + 528 u[35] + 907 u[36] + 988 u[37] + 395 u[38] + 294 u[39] + 294 u[40]
   + 969 u[41] + 133 u[42] + 957 u[43] + 646 u[44] + 594 u[45] + 185 u[46]
   + 793 u[47] + 694 u[48] + 55 u[49] + 646 u[50] + 951 u[51] + 780 u[52]
   + 179 u[53] + 336 u[54] + 503 u[55] + 560 u[56] + 530 u[57] + 283 u[58]
   + 977 u[59] <= 5270
 primal_lower336: 434 u[0] + 275 u[1] + 133 u[2] + 778 u[3] + 863 u[4]
   + 664 u[5] + 288 u[6] + 674 u[7] + 72 u[8] + 417 u[9] + 86 u[10]
   + 98 u[11] + 63 u[12] + 667 u[13] + 983 u[14] + 27 u[15] + 704 u[16]
   + 263 u[17] + 892 u[18] + 773 u[19] + 768 u[20] + 518 u[21] + 175 u[22]
   + 757 u[23] + 567 u[24] + 703 u[25] + 565 u[26] + 422 u[27] + 456 u[28]
   + 134 u[29] + 212 u[30] + 634 u[31] + 982 u[32] + 412 u[33] + 991 u[34]
   + 272 u[35] + 823 u[36] + 83 u[37] + 703 u[38] + 773 u[39] + 146 u[40]
   + 48 u[41] + 297 u[42] + 476 u[43] + 610 u[44] + 945 u[45] + 644 u[46]
   + 272 u[47] + 330 u[48] + 591 u[49] + 417 u[50] + 783 u[51] + 912 u[52]
   + 75 u[53] + 123 u[54] + 254 u[55] + 468 u[56] + 105 u[57] + 967 u[58]
   + 409 u[59] <= 19317
 primal_lower337: 19 u[0] + 388 u[1] + 694 u[2] + 779 u[3] + 904 u[4]
   + 313 u[5] + 113 u[6] + 139 u[7] + 801 u[8] + 634 u[9] + 439 u[10]
   + 539 u[11] + 304 u[12] + 60 u[13] + 664 u[14] + 332 u[15] + 777 u[16]
   + 88 u[17] + 925 u[18] + 494 u[19] + 729 u[20] + 607 u[21] + 480 u[22]
   + 630 u[23] + 376 u[24] + 456 u[25] + 902 u[26] + 927 u[27] + 721 u[28]
   + 551 u[29] + 261 u[30] + 59 u[31] + 999 u[32] + 869 u[33] + 80 u[34]
   + 457 u[35] + 8 u[36] + 92 u[37] + 584 u[38] + 942 u[39] + 275 u[40]
   + 449 u[41] + 866 u[42] + 253 u[43] + 259 u[44] + 874 u[45] + 181 u[46]
   + 113 u[47] + 907 u[48] + 728 u[49] + 282 u[50] + 40 u[51] + 417 u[52]
   + 364 u[53] + 628 u[54] + 447 u[55] + 605 u[56] + 330 u[57] + 864 u[58]
   + 258 u[59] <= 4879
 primal_lower338: 859 u[0] + 108 u[1] + 438 u[2] + 131 u[3] + 312 u[4]
   + 257 u[5] + 713 u[6] + 747 u[7] + 321 u[8] + 114 u[9] + 575 u[10]
   + 187 u[11] + 336 u[12] + 756 u[13] + 960 u[14] + 284 u[15] + 209 u[16]
   + 952 u[17] + 717 u[18] + 670 u[19] + 401 u[20] + 887 u[21] + 824 u[22]
   + 478 u[23] + 520 u[24] + 456 u[25] + 78 u[26] + 407 u[27] + 985 u[28]
   + 999 u[29] + 301 u[30] + 243 u[31] + 503 u[32] + 709 u[33] + 568 u[34]
   + 617 u[35] + 392 u[36] + 636 u[37] + 624 u[38] + 518 u[39] + 843 u[40]
   + 497 u[41] + 530 u[42] + 813 u[43] + 491 u[44] + 426 u[45] + 669 u[46]
   + 449 u[47] + 947 u[48] + 816 u[49] + 154 u[50] + 40 u[51] + 889 u[52]
   + 476 u[53] + 660 u[54] + 527 u[55] + 365 u[56] + 898 u[57] + 856 u[58]
   + 378 u[59] <= 16258
 primal_lower339: 632 u[0] + 636 u[1] + 154 u[2] + 355 u[3] + 524 u[4]
   + 570 u[5] + 493 u[6] + 444 u[7] + 573 u[8] + 138 u[9] + 540 u[10]
   + 811 u[11] + 404 u[12] + 988 u[13] + 773 u[14] + 965 u[15] + 781 u[16]
   + 792 u[17] + 481 u[18] + 78 u[19] + 613 u[20] + 784 u[21] + 940 u[22]
   + 55 u[23] + 37 u[24] + 344 u[25] + 794 u[26] + 800 u[27] + 14 u[28]
   + 135 u[29] + 138 u[30] + 556 u[31] + 684 u[32] + 797 u[33] + 220 u[34]
   + 985 u[35] + 188 u[36] + 373 u[37] + 500 u[38] + 783 u[39] + 327 u[40]
   + 274 u[41] + 286 u[42] + 358 u[43] + 231 u[44] + 659 u[45] + 458 u[46]
   + 786 u[47] + 743 u[48] + 624 u[49] + 423 u[50] + 464 u[51] + 613 u[52]
   + 588 u[53] + 393 u[54] + 760 u[55] + 689 u[56] + 491 u[57] + 756 u[58]
   + 426 u[59] <= 15610
 primal_lower340: 575 u[0] + 936 u[1] + 338 u[2] + 863 u[3] + 28 u[4]
   + 629 u[5] + 893 u[6] + 671 u[7] + 541 u[8] + 974 u[9] + 939 u[10]
   + 95 u[11] + 604 u[12] + 112 u[13] + 596 u[14] + 856 u[15] + 45 u[16]
   + 12 u[17] + 425 u[18] + 962 u[19] + 773 u[20] + 779 u[21] + 948 u[22]
   + 682 u[23] + 740 u[24] + 172 u[25] + 930 u[26] + 107 u[27] + 245 u[28]
   + 531 u[29] + 209 u[30] + 351 u[31] + 571 u[32] + 505 u[33] + 108 u[34]
   + 893 u[35] + 884 u[36] + 304 u[37] + 420 u[38] + 890 u[39] + 359 u[40]
   + 981 u[41] + 982 u[42] + 145 u[43] + 447 u[44] + 998 u[45] + 953 u[46]
   + 685 u[47] + 991 u[48] + 276 u[49] + 214 u[50] + 188 u[51] + 845 u[52]
   + 144 u[53] + 880 u[54] + 899 u[55] + 929 u[56] + 86 u[57] + 948 u[58]
   + 966 u[59] <= 5842
 primal_lower341: 157 u[0] + 382 u[1] + 56 u[2] + 909 u[3] + 418 u[4]
   + 555 u[5] + 979 u[6] + 269 u[7] + 483 u[8] + 700 u[9] + 225 u[10]
   + 597 u[11] + 282 u[12] + 158 u[13] + 266 u[14] + 590 u[15] + 51 u[16]
   + 706 u[17] + 639 u[18] + 112 u[19] + 819 u[20] + 185 u[21] + 538 u[22]
   + 408 u[23] + 570 u[24] + 370 u[25] + 760 u[26] + 281 u[27] + 331 u[28]
   + 393 u[29] + 839 u[30] + 205 u[31] + 553 u[32] + 887 u[33] + 258 u[34]
   + 83 u[35] + 706 u[36] + 734 u[37] + 34 u[38] + 656 u[39] + 789 u[40]
   + 947 u[41] + 372 u[42] + 639 u[43] + 781 u[44] + 372 u[45] + 327 u[46]
   + 675 u[47] + 381 u[48] + 506 u[49] + 284 u[50] + 906 u[51] + 339 u[52]
   + 734 u[53] + 854 u[54] + 481 u[55] + 703 u[56] + 364 u[57] + 386 u[58]
   + 412 u[59] <= 14698
 primal_lower342: 162 u[0] + 787 u[1] + 549 u[2] + 82 u[3] + 479 u[4]
   + 656 u[5] + 136 u[6] + 514 u[7] + 344 u[8] + 65 u[9] + 438 u[10]
   + 810 u[11] + 815 u[12] + 819 u[13] + 807 u[14] + 811 u[15] + 320 u[16]
   + 87 u[17] + 156 u[18] + 789 u[19] + 344 u[20] + 86 u[21] + 167 u[22]
   + 269 u[23] + 551 u[24] + 359 u[25] + 701 u[26] + 878 u[27] + 632 u[28]
   + 246 u[29] + 180 u[30] + 106 u[31] + 350 u[32] + 380 u[33] + 327 u[34]
   + 768 u[35] + 991 u[36] + 291 u[37] + 599 u[38] + 661 u[39] + 994 u[40]
   + 496 u[41] + 993 u[42] + 636 u[43] + 594 u[44] + 377 u[45] + 668 u[46]
   + 104 u[47] + 114 u[48] + 295 u[49] + 929 u[50] + 791 u[51] + 368 u[52]
   + 755 u[53] + 499 u[54] + 862 u[55] + 692 u[56] + 553 u[57] + 871 u[58]
   + 57 u[59] <= 20106
 primal_lower343: 367 u[0] + 280 u[1] + 2 u[2] + 111 u[3] + 380 u[4]
   + 581 u[5] + 477 u[6] + 583 u[7] + 813 u[8] + 350 u[9] + 739 u[10]
   + 559 u[11] + 196 u[12] + 608 u[13] + 92 u[14] + 464 u[15] + 253 u[16]
   + 844 u[17] + 217 u[18] + 82 u[19] + 517 u[20] + 395 u[21] + 508 u[22]
   + 770 u[23] + 140 u[24] + 964 u[25] + 282 u[26] + 595 u[27] + 453 u[28]
   + 203 u[29] + 673 u[30] + 847 u[31] + 803 u[32] + 801 u[33] + 124 u[34]
   + 653 u[35] + 540 u[36] + 672 u[37] + 228 u[38] + 122 u[39] + 111 u[40]
   + 981 u[41] + 350 u[42] + 761 u[43] + 311 u[44] + 550 u[45] + 521 u[46]
   + 685 u[47] + 55 u[48] + 372 u[49] + 686 u[50] + 852 u[51] + 901 u[52]
   + 888 u[53] + 576 u[54] + 107 u[55] + 369 u[56] + 814 u[57] + 596 u[58]
   + 382 u[59] <= 9718
 primal_lower344: 63 u[0] + 163 u[1] + 609 u[2] + 114 u[3] + 739 u[4]
   + 73 u[5] + 444 u[6] + 851 u[7] + 540 u[8] + 241 u[9] + 579 u[10]
   + 442 u[11] + 107 u[12] + 667 u[13] + 380 u[14] + 284 u[15] + 660 u[16]
   + 119 u[17] + 824 u[18] + 245 u[19] + 844 u[20] + 479 u[21] + 995 u[22]
   + 142 u[23] + 580 u[24] + 615 u[25] + 969 u[26] + 647 u[27] + 117 u[28]
   + 518 u[29] + 681 u[30] + 659 u[31] + 243 u[32] + 156 u[33] + 259 u[34]
   + 576 u[35] + 243 u[36] + 308 u[37] + 699 u[38] + 422 u[39] + 150 u[40]
   + 153 u[41] + 53 u[42] + 45 u[43] + 878 u[44] + 98 u[45] + 993 u[46]
   + 913 u[47] + 894 u[48] + 535 u[49] + 878 u[50] + 383 u[51] + 92 u[52]
   + 651 u[53] + 264 u[54] + 975 u[55] + 872 u[56] + 450 u[57] + 979 u[58]
   + 969 u[59] <= 4920
 primal_lower345: 905 u[0] + 341 u[1] + 947 u[2] + 180 u[3] + 469 u[4]
   + 67 u[5] + 878 u[6] + 813 u[7] + 910 u[8] + 907 u[9] + 941 u[10]
   + 4 u[11] + 597 u[12] + 405 u[13] + 918 u[14] + 422 u[15] + 966 u[16]
   + 953 u[17] + 210 u[18] + 703 u[19] + 662 u[20] + 841 u[21] + 213 u[22]
   + 576 u[23] + 134 u[24] + 881 u[25] + 787 u[26] + 841 u[27] + 503 u[28]
   + 976 u[29] + 819 u[30] + 557 u[31] + 557 u[32] + 742 u[33] + 229 u[34]
   + 442 u[35] + 765 u[36] + 222 u[37] + 893 u[38] + 648 u[39] + 16 u[40]
   + 843 u[41] + 359 u[42] + 567 u[43] + 40 u[44] + 996 u[45] + 411 u[46]
   + 363 u[47] + 424 u[48] + 305 u[49] + 848 u[50] + 857 u[51] + 966 u[52]
   + 261 u[53] + 34 u[54] + 473 u[55] + 18 u[56] + 228 u[57] + 781 u[58]
   + 683 u[59] <= 5716
 primal_lower346: 606 u[0] + 602 u[1] + 88 u[2] + 761 u[3] + 794 u[4]
   + 160 u[5] + 691 u[6] + 154 u[7] + 59 u[8] + 536 u[9] + 866 u[10]
   + 393 u[11] + 122 u[12] + 26 u[13] + 883 u[14] + 291 u[15] + 427 u[16]
   + 718 u[17] + 383 u[18] + 540 u[19] + 187 u[20] + 414 u[21] + 58 u[22]
   + 989 u[23] + 731 u[24] + 270 u[25] + 160 u[26] + 486 u[27] + 660 u[28]
   + 493 u[29] + 720 u[30] + 690 u[31] + 410 u[32] + 435 u[33] + 746 u[34]
   + 599 u[35] + 770 u[36] + 371 u[37] + 298 u[38] + 437 u[39] + 397 u[40]
   + 928 u[41] + 452 u[42] + 156 u[43] + 589 u[44] + 401 u[45] + 832 u[46]
   + 584 u[47] + 525 u[48] + 982 u[49] + 261 u[50] + 518 u[51] + 995 u[52]
   + 282 u[53] + 855 u[54] + 262 u[55] + 263 u[56] + 601 u[57] + 82 u[58]
   + 728 u[59] <= 9905
 primal_lower347: 491 u[0] + 28 u[1] + 590 u[2] + 667 u[3] + 640 u[4]
   + 433 u[5] + 425 u[6] + 851 u[7] + 393 u[8] + 690 u[9] + 479 u[10]
   + 411 u[11] + 736 u[12] + 644 u[13] + 424 u[14] + 36 u[15] + 137 u[16]
   + 864 u[17] + 773 u[18] + 190 u[19] + 585 u[20] + 975 u[21] + 448 u[22]
   + 870 u[23] + 696 u[24] + 864 u[25] + 838 u[26] + 143 u[27] + 441 u[28]
   + 207 u[29] + 101 u[30] + 611 u[31] + 535 u[32] + 789 u[33] + 968 u[34]
   + 377 u[35] + 928 u[36] + 724 u[37] + 752 u[38] + 902 u[39] + 155 u[40]
   + 985 u[41] + 130 u[42] + 221 u[43] + 323 u[44] + 626 u[45] + 501 u[46]
   + 913 u[47] + 907 u[48] + 952 u[49] + 770 u[50] + 208 u[51] + 161 u[52]
   + 4 u[53] + 828 u[54] + 831 u[55] + 109 u[56] + 722 u[57] + 216 u[58]
   + 418 u[59] <= 10878
 primal_lower348: 546 u[0] + 51 u[1] + 581 u[2] + 202 u[3] + 71 u[4]
   + 312 u[5] + 680 u[6] + 18 u[7] + 104 u[8] + 185 u[9] + 726 u[10]
   + 426 u[11] + 215 u[12] + 67 u[13] + 895 u[14] + 467 u[15] + 40 u[16]
   + 439 u[17] + 468 u[18] + 205 u[19] + 288 u[20] + 750 u[21] + 391 u[22]
   + 941 u[23] + 391 u[24] + 639 u[25] + 861 u[26] + 534 u[27] + 320 u[28]
   + 126 u[29] + 508 u[30] + 338 u[31] + 86 u[32] + 652 u[33] + 391 u[34]
   + 792 u[35] + 623 u[36] + 379 u[37] + 743 u[38] + 949 u[39] + 250 u[40]
   + 616 u[41] + 393 u[42] + 708 u[43] + 898 u[44] + 553 u[45] + 716 u[46]
   + 496 u[47] + 354 u[48] + 887 u[49] + 689 u[50] + 39 u[51] + 224 u[52]
   + 483 u[53] + 227 u[54] + 918 u[55] + 524 u[56] + 313 u[57] + 903 u[58]
   + 153 u[59] <= 4624
 primal_lower349: 501 u[0] + 41 u[1] + 7 u[2] + 664 u[3] + 369 u[4]
   + 447 u[5] + 802 u[6] + 641 u[7] + 418 u[8] + 647 u[9] + 889 u[10]
   + 880 u[11] + 297 u[12] + 657 u[13] + 610 u[14] + 914 u[15] + 418 u[16]
   + 661 u[17] + 94 u[18] + 875 u[19] + 418 u[20] + 397 u[21] + 737 u[22]
   + 460 u[23] + 786 u[24] + 141 u[25] + 911 u[26] + 141 u[27] + 419 u[28]
   + 12 u[29] + 847 u[30] + 681 u[31] + 929 u[32] + 250 u[33] + 713 u[34]
   + 534 u[35] + 833 u[36] + 42 u[37] + 481 u[38] + 484 u[39] + 508 u[40]
   + 303 u[41] + 115 u[42] + 827 u[43] + 628 u[44] + 104 u[45] + 487 u[46]
   + 15 u[47] + 660 u[48] + 381 u[49] + 444 u[50] + 837 u[51] + 762 u[52]
   + 977 u[53] + 790 u[54] + 645 u[55] + 550 u[56] + 656 u[57] + 393 u[58]
   + 23 u[59] <= 15576
 primal_lower350: 726 u[0] + 847 u[1] + 561 u[2] + 614 u[3] + 515 u[4]
   + 724 u[5] + 116 u[6] + 470 u[7] + 4 u[8] + 437 u[9] + 274 u[10]
   + 6 u[11] + 795 u[12] + 95 u[13] + 51 u[14] + 903 u[15] + 628 u[16]
   + 211 u[17] + 904 u[18] + 777 u[19] + 876 u[20] + 922 u[21] + 347 u[22]
   + 145 u[23] + 723 u[24] + 507 u[25] + 377 u[26] + 778 u[27] + 660 u[28]
   + 386 u[29] + 992 u[30] + 494 u[31] + 610 u[32] + 608 u[33] + 3 u[34]
   + 692 u[35] + 451 u[36] + 143 u[37] + 355 u[38] + 721 u[39] + 734 u[40]
   + 268 u[41] + 13 u[42] + 24 u[43] + 278 u[44] + 325 u[45] + 888 u[46]
   + 716 u[47] + 926 u[48] + 979 u[49] + 437 u[50] + 435 u[51] + 548 u[52]
   + 623 u[53] + 895 u[54] + 242 u[55] + 232 u[56] + 805 u[57] + 139 u[58]
   + 829 u[59] <= 5130
 primal_lower351: 533 u[0] + 630 u[1] + 448 u[2] + 893 u[3] + 122 u[4]
   + 539 u[5] + 75 u[6] + 805 u[7] + 147 u[8] + 780 u[9] + 433 u[10]
   + 957 u[11] + 946 u[12] + 430 u[13] + 226 u[14] + 142 u[15] + 587 u[16]
   + 602 u[17] + 791 u[18] + 824 u[19] + 587 u[20] + 225 u[21] + 338 u[22]
   + 816 u[23] + 266 u[24] + 770 u[25] + 504 u[26] + 905 u[27] + 155 u[28]
   + 481 u[29] + 759 u[30] + 541 u[31] + 129 u[32] + 631 u[33] + 210 u[34]
   + 459 u[35] + 122 u[36] + 46 u[37] + 866 u[38] + 632 u[39] + 725 u[40]
   + 139 u[41] + 796 u[42] + 311 u[43] + 245 u[44] + 396 u[45] + 991 u[46]
   + 435 u[47] + 973 u[48] + 618 u[49] + 100 u[50] + 178 u[51] + 731 u[52]
   + 94 u[53] + 462 u[54] + 649 u[55] + 127 u[56] + 156 u[57] + 658 u[58]
   + 356 u[59] <= 9830
 primal_lower352: 657 u[0] + 61 u[1] + 755 u[2] + 332 u[3] + 149 u[4]
   + 435 u[5] + 350 u[6] + 597 u[7] + 382 u[8] + 387 u[9] + 989 u[10]
   + 788 u[11] + 469 u[12] + 813 u[13] + 366 u[14] + 790 u[15] + 470 u[16]
   + 721 u[17] + 514 u[18] + 679 u[19] + 230 u[20] + 937 u[21] + 485 u[22]
   + 896 u[23] + 654 u[24] + 153 u[25] + 251 u[26] + 657 u[27] + 511 u[28]
   + 496 u[29] + 571 u[30] + 605 u[31] + 613 u[32] + 686 u[33] + 333 u[34]
   + 562 u[35] + 445 u[36] + 374 u[37] + 613 u[38] + 40 u[39] + 152 u[40]
   + 635 u[41] + 95 u[42] + 255 u[43] + 552 u[44] + 460 u[45] + 235 u[46]
   + 203 u[47] + 472 u[48] + 865 u[49] + 904 u[50] + 9 u[51] + 846 u[52]
   + 629 u[53] + 42 u[54] + 801 u[55] + 434 u[56] + 60 u[57] + 109 u[58]
   + 11 u[59] <= 989
 primal_lower353: 805 u[0] + 638 u[1] + 216 u[2] + 221 u[3] + 354 u[4]
   + 155 u[5] + 531 u[6] + 765 u[7] + 187 u[8] + 348 u[9] + 969 u[10]
   + 525 u[11] + 290 u[12] + 438 u[13] + 170 u[14] + 822 u[15] + 395 u[16]
   + 82 u[17] + 103 u[18] + 856 u[19] + 859 u[20] + 793 u[21] + 298 u[22]
   + 696 u[23] + 314 u[24] + 898 u[25] + 392 u[26] + 769 u[27] + 771 u[28]
   + 937 u[29] + 911 u[30] + 373 u[31] + 625 u[32] + 279 u[33] + 226 u[34]
   + 979 u[35] + 42 u[36] + 622 u[37] + 586 u[38] + 464 u[39] + 269 u[40]
   + 411 u[41] + 852 u[42] + 943 u[43] + 757 u[44] + 164 u[45] + 991 u[46]
   + 195 u[47] + 101 u[48] + 66 u[49] + 420 u[50] + 738 u[51] + 827 u[52]
   + 718 u[53] + 94 u[54] + 409 u[55] + 879 u[56] + 268 u[57] + 690 u[58]
   + 476 u[59] <= 20648
 primal_lower354: 319 u[0] + 123 u[1] + 769 u[2] + 58 u[3] + 683 u[4]
   + 793 u[5] + 356 u[6] + 755 u[7] + 652 u[8] + 537 u[9] + 723 u[10]
   + 546 u[11] + 811 u[12] + 627 u[13] + 756 u[14] + 804 u[15] + 372 u[16]
   + 239 u[17] + 408 u[18] + 37 u[19] + 580 u[20] + 687 u[21] + 899 u[22]
   + 726 u[23] + 396 u[24] + 695 u[25] + 849 u[26] + 191 u[27] + 357 u[28]
   + 102 u[29] + 521 u[30] + 923 u[31] + 283 u[32] + 748 u[33] + 859 u[34]
   + 224 u[35] + 667 u[36] + 348 u[37] + 315 u[38] + 782 u[39] + 254 u[40]
   + 145 u[41] + 645 u[42] + 389 u[43] + 222 u[44] + 746 u[45] + 153 u[46]
   + 945 u[47] + 86 u[48] + 111 u[49] + 670 u[50] + 487 u[51] + 788 u[52]
   + 987 u[53] + 616 u[54] + 591 u[55] + 200 u[56] + 962 u[57] + 947 u[58]
   + 617 u[59] <= 10693
 primal_lower355: 898 u[0] + 582 u[1] + 108 u[2] + 221 u[3] + 478 u[4]
   + 964 u[5] + 287 u[6] + 134 u[7] + 415 u[8] + 700 u[9] + 54 u[10]
   + 885 u[11] + 550 u[12] + 430 u[13] + 231 u[14] + 895 u[15] + 687 u[16]
   + 874 u[17] + 555 u[18] + 704 u[19] + 831 u[20] + 586 u[21] + 734 u[22]
   + 713 u[23] + 575 u[24] + 98 u[25] + 468 u[26] + 2 u[27] + 64 u[28]
   + 817 u[29] + 28 u[30] + 590 u[31] + 918 u[32] + 487 u[33] + 854 u[34]
   + 923 u[35] + 462 u[36] + 23 u[37] + 782 u[38] + 49 u[39] + 89 u[40]
   + 148 u[41] + 296 u[42] + 528 u[43] + 321 u[44] + 725 u[45] + 36 u[46]
   + 788 u[47] + 329 u[48] + 2 u[49] + 681 u[50] + 450 u[51] + 855 u[52]
   + 766 u[53] + 531 u[54] + 986 u[55] + 131 u[56] + 909 u[57] + 390 u[58]
   + 36 u[59] <= 14826
 primal_lower356: 511 u[0] + 595 u[1] + 921 u[2] + 154 u[3] + 411 u[4]
   + 817 u[5] + 324 u[6] + 427 u[7] + 932 u[8] + 657 u[9] + 923 u[10]
   + 242 u[11] + 419 u[12] + 995 u[13] + 708 u[14] + 596 u[15] + 324 u[16]
   + 951 u[17] + 440 u[18] + 789 u[19] + 708 u[20] + 703 u[21] + 683 u[22]
   + 766 u[23] + 172 u[24] + 215 u[25] + 577 u[26] + 503 u[27] + 5 u[28]
   + 150 u[29] + 929 u[30] + 827 u[31] + 91 u[32] + 100 u[33] + 379 u[34]
   + 680 u[35] + 651 u[36] + 804 u[37] + 43 u[38] + 878 u[39] + 742 u[40]
   + 537 u[41] + 277 u[42] + 485 u[43] + 222 u[44] + 10 u[45] + 513 u[46]
   + 897 u[47] + 630 u[48] + 287 u[49] + 822 u[50] + 407 u[51] + 604 u[52]
   + 795 u[53] + 216 u[54] + 831 u[55] + 184 u[56] + 650 u[57] + 907 u[58]
   + 449 u[59] <= 21643
 primal_lower357: 397 u[0] + 857 u[1] + 887 u[2] + 808 u[3] + 337 u[4]
   + 847 u[5] + 226 u[6] + 209 u[7] + 730 u[8] + 759 u[9] + 801 u[10]
   + 368 u[11] + 145 u[12] + 41 u[13] + 402 u[14] + 730 u[15] + 650 u[16]
   + 301 u[17] + 238 u[18] + 739 u[19] + 186 u[20] + 461 u[21] + 9 u[22]
   + 60 u[23] + 338 u[24] + 917 u[25] + 279 u[26] + 85 u[27] + 211 u[28]
   + 612 u[29] + 47 u[30] + 945 u[31] + 521 u[32] + 2 u[33] + 57 u[34]
   + 902 u[35] + 153 u[36] + 666 u[37] + 889 u[38] + 628 u[39] + 700 u[40]
   + 439 u[41] + 187 u[42] + 475 u[43] + 964 u[44] + 640 u[45] + 943 u[46]
   + 471 u[47] + 468 u[48] + 933 u[49] + 252 u[50] + 381 u[51] + 850 u[52]
   + 593 u[53] + 870 u[54] + 533 u[55] + 822 u[56] + 528 u[57] + 529 u[58]
   + 287 u[59] <= 15152
 primal_lower358: 931 u[0] + 335 u[1] + 117 u[2] + 374 u[3] + 511 u[4]
   + 909 u[5] + 256 u[6] + 911 u[7] + 656 u[8] + 141 u[9] + 559 u[10]
   + 462 u[11] + 79 u[12] + 863 u[13] + 744 u[14] + 656 u[15] + 960 u[16]
   + 171 u[17] + 420 u[18] + 185 u[19] + 840 u[20] + 587 u[21] + 319 u[22]
   + 362 u[23] + 112 u[24] + 931 u[25] + 589 u[26] + 235 u[27] + 441 u[28]
   + 962 u[29] + 437 u[30] + 151 u[31] + 111 u[32] + 888 u[33] + 831 u[34]
   + 788 u[35] + 695 u[36] + 320 u[37] + 295 u[38] + 522 u[39] + 994 u[40]
   + 549 u[41] + 601 u[42] + 849 u[43] + 994 u[44] + 574 u[45] + 973 u[46]
   + 77 u[47] + 90 u[48] + 803 u[49] + 130 u[50] + 43 u[51] + 152 u[52]
   + 943 u[53] + 220 u[54] + 787 u[55] + 380 u[56] + 382 u[57] + 951 u[58]
   + 917 u[59] <= 16032
 primal_lower359: 200 u[0] + 764 u[1] + 874 u[2] + 83 u[3] + 348 u[4]
   + 650 u[5] + 925 u[6] + 972 u[7] + 149 u[8] + 306 u[9] + 668 u[10]
   + 163 u[11] + 436 u[12] + 916 u[13] + 605 u[14] + 13 u[15] + 349 u[16]
   + 208 u[17] + 273 u[18] + 926 u[19] + 21 u[20] + 96 u[21] + 60 u[22]
   + 831 u[23] + 141 u[24] + 336 u[25] + 842 u[26] + 456 u[27] + 470 u[28]
   + 991 u[29] + 882 u[30] + 564 u[31] + 588 u[32] + 429 u[33] + 484 u[34]
   + 385 u[35] + 236 u[36] + 397 u[37] + 828 u[38] + 191 u[39] + 783 u[40]
   + 274 u[41] + 638 u[42] + 350 u[43] + 423 u[44] + 755 u[45] + 266 u[46]
   + 794 u[47] + 439 u[48] + 440 u[49] + 423 u[50] + 712 u[51] + 413 u[52]
   + 164 u[53] + 113 u[54] + 136 u[55] + 569 u[56] + 811 u[57] + 940 u[58]
   + 410 u[59] <= 14454
 primal_lower360: 353 u[0] + 125 u[1] + 539 u[2] + 660 u[3] + 733 u[4]
   + 787 u[5] + 462 u[6] + 621 u[7] + 790 u[8] + 843 u[9] + 509 u[10]
   + 108 u[11] + 437 u[12] + 869 u[13] + 102 u[14] + 390 u[15] + 198 u[16]
   + 553 u[17] + 386 u[18] + 863 u[19] + 414 u[20] + 105 u[21] + 101 u[22]
   + 408 u[23] + 214 u[24] + 841 u[25] + 859 u[26] + 961 u[27] + 399 u[28]
   + 256 u[29] + 435 u[30] + 805 u[31] + 613 u[32] + 694 u[33] + 165 u[34]
   + 418 u[35] + 421 u[36] + 758 u[37] + 741 u[38] + 672 u[39] + 320 u[40]
   + 787 u[41] + 79 u[42] + 143 u[43] + 968 u[44] + 868 u[45] + 579 u[46]
   + 459 u[47] + 288 u[48] + 473 u[49] + 504 u[50] + 97 u[51] + 126 u[52]
   + 989 u[53] + 450 u[54] + 769 u[55] + 682 u[56] + 292 u[57] + 661 u[58]
   + 771 u[59] <= 10304
 primal_lower361: 305 u[0] + 949 u[1] + 915 u[2] + 68 u[3] + 5 u[4]
   + 371 u[5] + 950 u[6] + 989 u[7] + 654 u[8] + 499 u[9] + 173 u[10]
   + 556 u[11] + 717 u[12] + 741 u[13] + 270 u[14] + 438 u[15] + 774 u[16]
   + 281 u[17] + 330 u[18] + 135 u[19] + 838 u[20] + 137 u[21] + 421 u[22]
   + 832 u[23] + 214 u[24] + 369 u[25] + 163 u[26] + 873 u[27] + 319 u[28]
   + 456 u[29] + 891 u[30] + 997 u[31] + 85 u[32] + 198 u[33] + 405 u[34]
   + 730 u[35] + 693 u[36] + 382 u[37] + 437 u[38] + 952 u[39] + 1000 u[40]
   + 315 u[41] + 399 u[42] + 727 u[43] + 792 u[44] + 420 u[45] + 163 u[46]
   + 419 u[47] + 72 u[48] + 201 u[49] + 672 u[50] + 729 u[51] + 654 u[52]
   + 5 u[53] + 594 u[54] + 881 u[55] + 474 u[56] + 820 u[57] + 717 u[58]
   + 595 u[59] <= 1000
 primal_lower362: 969 u[0] + 557 u[1] + 691 u[2] + 556 u[3] + 685 u[4]
   + 403 u[5] + 982 u[6] + 637 u[7] + 158 u[8] + 475 u[9] + 861 u[10]
   + 508 u[11] + 701 u[12] + 749 u[13] + 974 u[14] + 782 u[15] + 942 u[16]
   + 705 u[17] + 106 u[18] + 783 u[19] + 134 u[20] + 561 u[21] + 653 u[22]
   + 672 u[23] + 782 u[24] + 849 u[25] + 251 u[26] + 897 u[27] + 711 u[28]
   + 528 u[29] + 595 u[30] + 653 u[31] + 149 u[32] + 534 u[33] + 349 u[34]
   + 946 u[35] + 349 u[36] + 142 u[37] + 749 u[38] + 808 u[39] + 896 u[40]
   + 363 u[41] + 415 u[42] + 503 u[43] + 704 u[44] + 108 u[45] + 99 u[46]
   + 771 u[47] + 696 u[48] + 257 u[49] + 136 u[50] + 337 u[51] + 502 u[52]
   + 365 u[53] + 418 u[54] + 929 u[55] + 962 u[56] + 620 u[57] + 645 u[58]
   + 307 u[59] <= 17284
 primal_lower363: 303 u[0] + 400 u[1] + 818 u[2] + 231 u[3] + 76 u[4]
   + 533 u[5] + 405 u[6] + 735 u[7] + 533 u[8] + 94 u[9] + 515 u[10]
   + 887 u[11] + 772 u[12] + 376 u[13] + 748 u[14] + 832 u[15] + 757 u[16]
   + 812 u[17] + 217 u[18] + 562 u[19] + 773 u[20] + 347 u[21] + 28 u[22]
   + 930 u[23] + 92 u[24] + 212 u[25] + 26 u[26] + 987 u[27] + 437 u[28]
   + 363 u[29] + 73 u[30] + 135 u[31] + 643 u[32] + 529 u[33] + 548 u[34]
   + 357 u[35] + 364 u[36] + 144 u[37] + 36 u[38] + 10 u[39] + 23 u[40]
   + 989 u[41] + 302 u[42] + 265 u[43] + 695 u[44] + 334 u[45] + 393 u[46]
   + 5 u[47] + 919 u[48] + 220 u[49] + 646 u[50] + 500 u[51] + 557 u[52]
   + 152 u[53] + 816 u[54] + 491 u[55] + 609 u[56] + 198 u[57] + 132 u[58]
   + 302 u[59] <= 4364
 primal_lower364: 4 u[0] + 840 u[1] + 214 u[2] + 7 u[3] + 808 u[4]
   + 558 u[5] + 105 u[6] + 56 u[7] + 353 u[8] + 790 u[9] + 704 u[10]
   + 23 u[11] + 32 u[12] + 400 u[13] + 513 u[14] + 241 u[15] + 881 u[16]
   + 612 u[17] + 453 u[18] + 154 u[19] + 377 u[20] + 900 u[21] + 368 u[22]
   + 691 u[23] + 185 u[24] + 636 u[25] + 822 u[26] + 524 u[27] + 986 u[28]
   + 875 u[29] + 622 u[30] + 576 u[31] + 776 u[32] + 161 u[33] + 880 u[34]
   + 925 u[35] + 56 u[36] + 625 u[37] + 272 u[38] + 35 u[39] + 315 u[40]
   + 262 u[41] + 842 u[42] + 434 u[43] + 579 u[44] + 399 u[45] + 334 u[46]
   + 174 u[47] + 747 u[48] + 28 u[49] + 603 u[50] + 964 u[51] + 345 u[52]
   + 120 u[53] + 797 u[54] + 748 u[55] + 229 u[56] + 287 u[57] + 688 u[58]
   + 70 u[59] <= 986
 primal_lower365: 52 u[0] + 181 u[1] + 487 u[2] + 980 u[3] + 81 u[4]
   + 530 u[5] + 90 u[6] + 188 u[7] + 650 u[8] + 491 u[9] + 192 u[10]
   + 348 u[11] + 961 u[12] + 117 u[13] + 457 u[14] + 45 u[15] + 346 u[16]
   + 585 u[17] + 302 u[18] + 847 u[19] + 458 u[20] + 776 u[21] + 745 u[22]
   + 455 u[23] + 609 u[24] + u[25] + 183 u[26] + 48 u[27] + 474 u[28]
   + 184 u[29] + 638 u[30] + 884 u[31] + 280 u[32] + 630 u[33] + 449 u[34]
   + 690 u[35] + 217 u[36] + 293 u[37] + 393 u[38] + 375 u[39] + 844 u[40]
   + 682 u[41] + 123 u[42] + 566 u[43] + 68 u[44] + 643 u[45] + 150 u[46]
   + 50 u[47] + 948 u[48] + 937 u[49] + 571 u[50] + 801 u[51] + 258 u[52]
   + 677 u[53] + 533 u[54] + 944 u[55] + 822 u[56] + 883 u[57] + 57 u[58]
   + 547 u[59] <= 13908
 primal_lower366: 180 u[0] + 744 u[1] + 766 u[2] + 279 u[3] + 784 u[4]
   + 78 u[5] + 225 u[6] + 64 u[7] + 201 u[8] + 230 u[9] + 624 u[10]
   + 591 u[11] + 904 u[12] + 752 u[13] + 745 u[14] + 601 u[15] + 929 u[16]
   + 660 u[17] + 565 u[18] + 2 u[19] + 737 u[20] + 36 u[21] + 144 u[22]
   + 43 u[23] + 697 u[24] + 516 u[25] + 518 u[26] + 196 u[27] + 274 u[28]
   + 483 u[29] + 790 u[30] + 416 u[31] + 456 u[32] + 33 u[33] + 632 u[34]
   + 685 u[35] + 264 u[36] + 761 u[37] + 280 u[38] + 939 u[39] + 163 u[40]
   + 462 u[41] + 642 u[42] + 450 u[43] + 107 u[44] + 151 u[45] + 830 u[46]
   + 806 u[47] + 443 u[48] + 988 u[49] + 587 u[50] + 52 u[51] + 209 u[52]
   + 336 u[53] + 301 u[54] + 668 u[55] + 813 u[56] + 431 u[57] + 264 u[58]
   + 470 u[59] <= 9332
 primal_lower367: 587 u[0] + 207 u[1] + 781 u[2] + 710 u[3] + 823 u[4]
   + 821 u[5] + 992 u[6] + 447 u[7] + 144 u[8] + 21 u[9] + 383 u[10]
   + 310 u[11] + 39 u[12] + 407 u[13] + 464 u[14] + 848 u[15] + 144 u[16]
   + 363 u[17] + 20 u[18] + 417 u[19] + 64 u[20] + 939 u[21] + 911 u[22]
   + 570 u[23] + 56 u[24] + 859 u[25] + 461 u[26] + 691 u[27] + 329 u[28]
   + 202 u[29] + 613 u[30] + 247 u[31] + 399 u[32] + 808 u[33] + 335 u[34]
   + 756 u[35] + 799 u[36] + 192 u[37] + 871 u[38] + 794 u[39] + 610 u[40]
   + 133 u[41] + 161 u[42] + 449 u[43] + 938 u[44] + 318 u[45] + 141 u[46]
   + 765 u[47] + 10 u[48] + 739 u[49] + 570 u[50] + 539 u[51] + 824 u[52]
   + 743 u[53] + 964 u[54] + 851 u[55] + 164 u[56] + 14 u[57] + 279 u[58]
   + 581 u[59] <= 14808
 primal_lower368: 186 u[0] + 158 u[1] + 668 u[2] + 181 u[3] + 462 u[4]
   + 276 u[5] + 591 u[6] + 566 u[7] + 887 u[8] + 756 u[9] + 870 u[10]
   + 773 u[11] + 822 u[12] + 454 u[13] + 87 u[14] + 815 u[15] + 591 u[16]
   + 826 u[17] + 787 u[18] + 640 u[19] + 63 u[20] + 34 u[21] + 702 u[22]
   + 473 u[23] + 887 u[24] + 58 u[25] + 196 u[26] + 314 u[27] + 40 u[28]
   + 713 u[29] + 228 u[30] + 486 u[31] + 734 u[32] + 807 u[33] + 638 u[34]
   + 139 u[35] + 158 u[36] + 919 u[37] + 222 u[38] + 73 u[39] + 273 u[40]
   + 420 u[41] + 992 u[42] + 48 u[43] + 113 u[44] + 5 u[45] + 900 u[46]
   + 676 u[47] + 113 u[48] + 474 u[49] + 361 u[50] + 842 u[51] + 903 u[52]
   + 174 u[53] + 259 u[54] + 258 u[55] + 475 u[56] + 373 u[57] + 998 u[58]
   + 396 u[59] <= 18888
 primal_lower369: 104 u[0] + 460 u[1] + 10 u[2] + 707 u[3] + 572 u[4]
   + 170 u[5] + 893 u[6] + 764 u[7] + 653 u[8] + 34 u[9] + 860 u[10]
   + 723 u[11] + 52 u[12] + 188 u[13] + 925 u[14] + 493 u[15] + 597 u[16]
   + 400 u[17] + 745 u[18] + 606 u[19] + 757 u[20] + 584 u[21] + 772 u[22]
   + 119 u[23] + 861 u[24] + 160 u[25] + 522 u[26] + 360 u[27] + 166 u[28]
   + 359 u[29] + 674 u[30] + 500 u[31] + 836 u[32] + 605 u[33] + 700 u[34]
   + 105 u[35] + 908 u[36] + 157 u[37] + 380 u[38] + 447 u[39] + 975 u[40]
   + 10 u[41] + 958 u[42] + 206 u[43] + 439 u[44] + 995 u[45] + 66 u[46]
   + 754 u[47] + 439 u[48] + 424 u[49] + 519 u[50] + 272 u[51] + 45 u[52]
   + 372 u[53] + 505 u[54] + 312 u[55] + 905 u[56] + 475 u[57] + 84 u[58]
   + 354 u[59] <= 19358
 primal_lower370: 715 u[0] + 287 u[1] + 909 u[2] + 374 u[3] + 207 u[4]
   + 5 u[5] + 720 u[6] + 359 u[7] + 696 u[8] + 589 u[9] + 999 u[10]
   + 550 u[11] + 583 u[12] + 647 u[13] + 504 u[14] + 400 u[15] + 400 u[16]
   + 563 u[17] + 628 u[18] + 337 u[19] + 264 u[20] + 603 u[21] + 495 u[22]
   + 850 u[23] + 880 u[24] + 747 u[25] + 789 u[26] + 763 u[27] + 969 u[28]
   + 634 u[29] + 629 u[30] + 559 u[31] + 199 u[32] + 48 u[33] + 623 u[34]
   + 372 u[35] + 39 u[36] + 376 u[37] + 583 u[38] + 250 u[39] + 946 u[40]
   + 229 u[41] + 417 u[42] + 113 u[43] + 426 u[44] + 534 u[45] + 901 u[46]
   + 501 u[47] + 274 u[48] + 771 u[49] + 90 u[50] + 875 u[51] + 560 u[52]
   + 663 u[53] + 212 u[54] + 619 u[55] + 988 u[56] + 398 u[57] + 927 u[58]
   + 661 u[59] <= 5374
 primal_lower371: 740 u[0] + 984 u[1] + 382 u[2] + 799 u[3] + 664 u[4]
   + 710 u[5] + 817 u[6] + 784 u[7] + 881 u[8] + 622 u[9] + 752 u[10]
   + 719 u[11] + 384 u[12] + 408 u[13] + 633 u[14] + 617 u[15] + 937 u[16]
   + 740 u[17] + 253 u[18] + 58 u[19] + 849 u[20] + 548 u[21] + 688 u[22]
   + 955 u[23] + 137 u[24] + 484 u[25] + 46 u[26] + 236 u[27] + 258 u[28]
   + 331 u[29] + 830 u[30] + 144 u[31] + 128 u[32] + 705 u[33] + 808 u[34]
   + 549 u[35] + 760 u[36] + 801 u[37] + 792 u[38] + 747 u[39] + 579 u[40]
   + 62 u[41] + 962 u[42] + 114 u[43] + 763 u[44] + 743 u[45] + 582 u[46]
   + 862 u[47] + 643 u[48] + 948 u[49] + 99 u[50] + 540 u[51] + 961 u[52]
   + 848 u[53] + 429 u[54] + 540 u[55] + 765 u[56] + 167 u[57] + 416 u[58]
   + 118 u[59] <= 17410
 primal_lower372: 700 u[0] + 429 u[1] + 887 u[2] + 236 u[3] + 761 u[4]
   + 258 u[5] + 914 u[6] + 124 u[7] + 890 u[8] + 43 u[9] + 320 u[10]
   + 108 u[11] + 577 u[12] + 445 u[13] + 801 u[14] + 205 u[15] + 18 u[16]
   + 737 u[17] + 62 u[18] + 79 u[19] + 2 u[20] + 40 u[21] + 305 u[22]
   + 71 u[23] + 977 u[24] + 289 u[25] + 631 u[26] + 408 u[27] + 898 u[28]
   + 584 u[29] + 462 u[30] + 164 u[31] + 976 u[32] + 926 u[33] + 225 u[34]
   + 394 u[35] + 425 u[36] + 189 u[37] + 705 u[38] + 855 u[39] + 732 u[40]
   + 530 u[41] + 155 u[42] + 222 u[43] + 300 u[44] + 931 u[45] + 470 u[46]
   + 242 u[47] + 252 u[48] + 41 u[49] + 291 u[50] + 73 u[51] + 106 u[52]
   + 981 u[53] + 965 u[54] + 592 u[55] + 598 u[56] + 955 u[57] + 89 u[58]
   + 835 u[59] <= 981
 primal_lower373: 656 u[0] + 825 u[1] + 75 u[2] + 16 u[3] + 101 u[4]
   + 422 u[5] + 950 u[6] + 888 u[7] + 958 u[8] + 391 u[9] + 724 u[10]
   + 72 u[11] + 53 u[12] + 169 u[13] + 685 u[14] + 937 u[15] + 190 u[16]
   + 725 u[17] + 458 u[18] + 923 u[19] + 302 u[20] + 316 u[21] + 245 u[22]
   + 627 u[23] + 141 u[24] + 261 u[25] + 915 u[26] + 700 u[27] + 286 u[28]
   + 820 u[29] + 362 u[30] + 448 u[31] + 188 u[32] + 994 u[33] + 973 u[34]
   + 214 u[35] + 357 u[36] + 265 u[37] + 437 u[38] + 611 u[39] + 440 u[40]
   + 406 u[41] + 991 u[42] + 962 u[43] + 416 u[44] + 807 u[45] + 434 u[46]
   + 526 u[47] + 224 u[48] + 13 u[49] + 999 u[50] + 197 u[51] + 182 u[52]
   + 489 u[53] + 73 u[54] + 212 u[55] + 130 u[56] + 103 u[57] + 949 u[58]
   + 751 u[59] <= 14492
 primal_lower374: 39 u[0] + 792 u[1] + 490 u[2] + 15 u[3] + 756 u[4]
   + 453 u[5] + 989 u[6] + 799 u[7] + 189 u[8] + 358 u[9] + 147 u[10]
   + 671 u[11] + 100 u[12] + 32 u[13] + 100 u[14] + 88 u[15] + 389 u[16]
   + 380 u[17] + u[18] + 202 u[19] + 317 u[20] + 531 u[21] + 460 u[22]
   + 130 u[23] + 244 u[24] + 916 u[25] + 474 u[26] + 211 u[27] + 901 u[28]
   + 51 u[29] + 633 u[30] + 471 u[31] + 859 u[32] + 921 u[33] + 948 u[34]
   + 205 u[35] + 76 u[36] + 872 u[37] + 76 u[38] + 202 u[39] + 871 u[40]
   + 229 u[41] + 246 u[42] + 633 u[43] + 359 u[44] + 662 u[45] + 761 u[46]
   + 341 u[47] + 895 u[48] + 548 u[49] + 446 u[50] + 332 u[51] + 557 u[52]
   + 232 u[53] + 696 u[54] + 579 u[55] + 281 u[56] + 822 u[57] + 44 u[58]
   + 630 u[59] <= 8884
 primal_lower375: 544 u[0] + 572 u[1] + 674 u[2] + 627 u[3] + 92 u[4]
   + 514 u[5] + 389 u[6] + 84 u[7] + 77 u[8] + 162 u[9] + 956 u[10]
   + 91 u[11] + 292 u[12] + 668 u[13] + 893 u[14] + 941 u[15] + 349 u[16]
   + 280 u[17] + 425 u[18] + 974 u[19] + 725 u[20] + 304 u[21] + 812 u[22]
   + 223 u[23] + 909 u[24] + 168 u[25] + 458 u[26] + 776 u[27] + 382 u[28]
   + 159 u[29] + 2 u[30] + 44 u[31] + 180 u[32] + 133 u[33] + 340 u[34]
   + 113 u[35] + 660 u[36] + 349 u[37] + 372 u[38] + 15 u[39] + 79 u[40]
   + 970 u[41] + 942 u[42] + 678 u[43] + 367 u[44] + 171 u[45] + 962 u[46]
   + 810 u[47] + 367 u[48] + 72 u[49] + 719 u[50] + 808 u[51] + 133 u[52]
   + 252 u[53] + 33 u[54] + 688 u[55] + 113 u[56] + 795 u[57] + 884 u[58]
   + 314 u[59] <= 4480
 primal_lower376: 482 u[0] + 339 u[1] + 21 u[2] + 842 u[3] + 591 u[4]
   + 248 u[5] + 640 u[6] + 906 u[7] + 984 u[8] + 561 u[9] + 254 u[10]
   + 746 u[11] + 775 u[12] + 235 u[13] + 991 u[14] + 347 u[15] + 720 u[16]
   + 191 u[17] + 796 u[18] + 461 u[19] + 480 u[20] + 958 u[21] + 535 u[22]
   + 589 u[23] + 151 u[24] + 959 u[25] + 949 u[26] + 70 u[27] + 920 u[28]
   + 918 u[29] + 412 u[30] + 322 u[31] + 958 u[32] + 972 u[33] + 327 u[34]
   + 840 u[35] + 407 u[36] + 931 u[37] + 39 u[38] + 405 u[39] + 10 u[40]
   + 792 u[41] + 73 u[42] + 396 u[43] + 274 u[44] + 857 u[45] + 788 u[46]
   + 984 u[47] + 730 u[48] + 503 u[49] + 601 u[50] + 47 u[51] + 920 u[52]
   + 483 u[53] + 347 u[54] + 870 u[55] + 692 u[56] + 817 u[57] + 671 u[58]
   + 969 u[59] <= 5849
 primal_lower377: 628 u[0] + 928 u[1] + 494 u[2] + 871 u[3] + 368 u[4]
   + 350 u[5] + 265 u[6] + 800 u[7] + 9 u[8] + 974 u[9] + 1000 u[10]
   + 31 u[11] + 720 u[12] + 928 u[13] + 241 u[14] + 521 u[15] + 697 u[16]
   + 92 u[17] + 573 u[18] + 186 u[19] + 673 u[20] + 180 u[21] + 624 u[22]
   + 835 u[23] + 913 u[24] + 764 u[25] + 958 u[26] + 380 u[27] + 394 u[28]
   + 859 u[29] + 518 u[30] + 632 u[31] + 456 u[32] + 793 u[33] + 144 u[34]
   + 237 u[35] + 368 u[36] + 89 u[37] + 608 u[38] + 811 u[39] + 267 u[40]
   + 22 u[41] + 874 u[42] + 130 u[43] + 715 u[44] + 31 u[45] + 70 u[46]
   + 366 u[47] + 755 u[48] + 68 u[49] + 883 u[50] + 604 u[51] + 841 u[52]
   + 616 u[53] + 949 u[54] + 332 u[55] + 277 u[56] + 735 u[57] + 72 u[58]
   + 918 u[59] <= 5239
 primal_lower378: 476 u[0] + 581 u[1] + 215 u[2] + 556 u[3] + 769 u[4]
   + 562 u[5] + 914 u[6] + 732 u[7] + 466 u[8] + 611 u[9] + 592 u[10]
   + 236 u[11] + 721 u[12] + 349 u[13] + 353 u[14] + 549 u[15] + 162 u[16]
   + 481 u[17] + 526 u[18] + 911 u[19] + 762 u[20] + 72 u[21] + 785 u[22]
   + 623 u[23] + 41 u[24] + 297 u[25] + 991 u[26] + 624 u[27] + 354 u[28]
   + 992 u[29] + 662 u[30] + 444 u[31] + 232 u[32] + 286 u[33] + 889 u[34]
   + 898 u[35] + 393 u[36] + 533 u[37] + 449 u[38] + 223 u[39] + 780 u[40]
   + 698 u[41] + 483 u[42] + 310 u[43] + 620 u[44] + 547 u[45] + 606 u[46]
   + 330 u[47] + 348 u[48] + 57 u[49] + 339 u[50] + 793 u[51] + 834 u[52]
   + 933 u[53] + 541 u[54] + 312 u[55] + 78 u[56] + 35 u[57] + 257 u[58]
   + 19 u[59] <= 15116
 primal_lower379: 960 u[0] + 241 u[1] + 187 u[2] + 704 u[3] + 317 u[4]
   + 974 u[5] + 310 u[6] + 144 u[7] + 78 u[8] + 767 u[9] + 508 u[10]
   + 552 u[11] + 125 u[12] + 265 u[13] + 13 u[14] + 385 u[15] + 974 u[16]
   + 933 u[17] + 18 u[18] + 699 u[19] + 550 u[20] + 172 u[21] + 581 u[22]
   + 235 u[23] + 533 u[24] + 477 u[25] + 419 u[26] + 44 u[27] + 182 u[28]
   + 132 u[29] + 738 u[30] + 744 u[31] + 500 u[32] + 706 u[33] + 117 u[34]
   + 862 u[35] + 589 u[36] + 97 u[37] + 381 u[38] + 747 u[39] + 784 u[40]
   + 726 u[41] + 807 u[42] + 354 u[43] + 144 u[44] + 55 u[45] + 226 u[46]
   + 454 u[47] + 224 u[48] + 517 u[49] + 527 u[50] + 949 u[51] + 654 u[52]
   + 145 u[53] + 521 u[54] + 580 u[55] + 2 u[56] + 463 u[57] + 205 u[58]
   + 783 u[59] <= 974
 primal_lower380: 930 u[0] + 899 u[1] + 869 u[2] + 2 u[3] + 399 u[4]
   + 408 u[5] + 320 u[6] + 834 u[7] + 576 u[8] + 241 u[9] + 294 u[10]
   + 578 u[11] + 271 u[12] + 267 u[13] + 311 u[14] + 731 u[15] + 8 u[16]
   + 951 u[17] + 852 u[18] + 725 u[19] + 224 u[20] + 430 u[21] + 687 u[22]
   + 613 u[23] + 223 u[24] + 799 u[25] + 261 u[26] + 150 u[27] + 8 u[28]
   + 142 u[29] + 172 u[30] + 914 u[31] + 118 u[32] + 484 u[33] + 279 u[34]
   + 248 u[35] + 287 u[36] + 411 u[37] + 71 u[38] + 573 u[39] + 690 u[40]
   + 512 u[41] + 241 u[42] + 908 u[43] + 922 u[44] + 417 u[45] + 636 u[46]
   + 264 u[47] + 810 u[48] + 495 u[49] + u[50] + 671 u[51] + 848 u[52]
   + 931 u[53] + 635 u[54] + 110 u[55] + 676 u[56] + 209 u[57] + 327 u[58]
   + 881 u[59] <= 9581
 primal_lower381: 542 u[0] + 754 u[1] + 232 u[2] + 417 u[3] + 114 u[4]
   + 808 u[5] + 123 u[6] + 130 u[7] + 275 u[8] + 744 u[9] + 890 u[10]
   + 513 u[11] + 914 u[12] + 346 u[13] + 43 u[14] + 27 u[15] + 427 u[16]
   + 126 u[17] + 951 u[18] + 564 u[19] + 3 u[20] + 838 u[21] + 346 u[22]
   + 757 u[23] + 443 u[24] + 302 u[25] + 360 u[26] + 670 u[27] + 44 u[28]
   + 357 u[29] + 672 u[30] + 170 u[31] + 594 u[32] + 475 u[33] + 658 u[34]
   + 151 u[35] + 954 u[36] + 947 u[37] + 474 u[38] + 469 u[39] + 669 u[40]
   + 768 u[41] + 740 u[42] + 932 u[43] + 109 u[44] + 361 u[45] + 40 u[46]
   + 256 u[47] + 717 u[48] + 518 u[49] + 685 u[50] + 366 u[51] + 251 u[52]
   + 490 u[53] + 23 u[54] + 550 u[55] + 167 u[56] + 697 u[57] + 850 u[58]
   + 336 u[59] <= 9383
 primal_lower382: 440 u[0] + 692 u[1] + 562 u[2] + 755 u[3] + 516 u[4]
   + 834 u[5] + 557 u[6] + 940 u[7] + 453 u[8] + 522 u[9] + 228 u[10]
   + 755 u[11] + 476 u[12] + 732 u[13] + 533 u[14] + 709 u[15] + 117 u[16]
   + 608 u[17] + 345 u[18] + 694 u[19] + 21 u[20] + 440 u[21] + 308 u[22]
   + 79 u[23] + 53 u[24] + 656 u[25] + 274 u[26] + 128 u[27] + 366 u[28]
   + 799 u[29] + 906 u[30] + 228 u[31] + 116 u[32] + 773 u[33] + 244 u[34]
   + 737 u[35] + 612 u[36] + 309 u[37] + 436 u[38] + 735 u[39] + 439 u[40]
   + 602 u[41] + 470 u[42] + 894 u[43] + 471 u[44] + 483 u[45] + 466 u[46]
   + 562 u[47] + 143 u[48] + 248 u[49] + 327 u[50] + 672 u[51] + 989 u[52]
   + 956 u[53] + 609 u[54] + 168 u[55] + 81 u[56] + 579 u[57] + 196 u[58]
   + 330 u[59] <= 989
 primal_lower383: 375 u[0] + 632 u[1] + 394 u[2] + 743 u[3] + 988 u[4]
   + 733 u[5] + 149 u[6] + 527 u[7] + 685 u[8] + 702 u[9] + 323 u[10]
   + 455 u[11] + 612 u[12] + 504 u[13] + 932 u[14] + 912 u[15] + 109 u[16]
   + 20 u[17] + 465 u[18] + 154 u[19] + 421 u[20] + 499 u[21] + 892 u[22]
   + 906 u[23] + 884 u[24] + 868 u[25] + 714 u[26] + 75 u[27] + 125 u[28]
   + 707 u[29] + 257 u[30] + 127 u[31] + 395 u[32] + 849 u[33] + 780 u[34]
   + 317 u[35] + 972 u[36] + 224 u[37] + 396 u[38] + 482 u[39] + 223 u[40]
   + 437 u[41] + 142 u[42] + 601 u[43] + 199 u[44] + 406 u[45] + 657 u[46]
   + 45 u[47] + 839 u[48] + 460 u[49] + 878 u[50] + 956 u[51] + 557 u[52]
   + 432 u[53] + 128 u[54] + 451 u[55] + 961 u[56] + 366 u[57] + 756 u[58]
   + 78 u[59] <= 15438
 primal_lower384: 1000 u[0] + 665 u[1] + 283 u[2] + 744 u[3] + 733 u[4]
   + 878 u[5] + 886 u[6] + 712 u[7] + 222 u[8] + 759 u[9] + 260 u[10]
   + 256 u[11] + 453 u[12] + 401 u[13] + 501 u[14] + 745 u[15] + 6 u[16]
   + 581 u[17] + 802 u[18] + 331 u[19] + 230 u[20] + 156 u[21] + 477 u[22]
   + 523 u[23] + 845 u[24] + 757 u[25] + 315 u[26] + 588 u[27] + 174 u[28]
   + 332 u[29] + 394 u[30] + 112 u[31] + 300 u[32] + 154 u[33] + 837 u[34]
   + 118 u[35] + 437 u[36] + 129 u[37] + 229 u[38] + 67 u[39] + 1000 u[40]
   + 318 u[41] + 375 u[42] + 634 u[43] + 560 u[44] + 447 u[45] + 434 u[46]
   + 670 u[47] + 208 u[48] + 597 u[49] + 719 u[50] + 901 u[51] + 998 u[52]
   + 841 u[53] + 593 u[54] + 372 u[55] + 434 u[56] + 335 u[57] + 61 u[58]
   + 95 u[59] <= 9661
 primal_lower385: 943 u[0] + 707 u[1] + 473 u[2] + 882 u[3] + 531 u[4]
   + 177 u[5] + 44 u[6] + 843 u[7] + 972 u[8] + 761 u[9] + 659 u[10]
   + 210 u[11] + 771 u[12] + 523 u[13] + 692 u[14] + 60 u[15] + 980 u[16]
   + 615 u[17] + 240 u[18] + 701 u[19] + 852 u[20] + 359 u[21] + 539 u[22]
   + 942 u[23] + 964 u[24] + 679 u[25] + 545 u[26] + 703 u[27] + 365 u[28]
   + 94 u[29] + 41 u[30] + 171 u[31] + 667 u[32] + 588 u[33] + 987 u[34]
   + 896 u[35] + 219 u[36] + 484 u[37] + 755 u[38] + 654 u[39] + 638 u[40]
   + 793 u[41] + 157 u[42] + 61 u[43] + 654 u[44] + 290 u[45] + 113 u[46]
   + 513 u[47] + 710 u[48] + 263 u[49] + 734 u[50] + 55 u[51] + 684 u[52]
   + 715 u[53] + 656 u[54] + 111 u[55] + 960 u[56] + 474 u[57] + 691 u[58]
   + 321 u[59] <= 5480
 primal_lower386: 939 u[0] + 140 u[1] + 286 u[2] + 131 u[3] + 912 u[4]
   + 249 u[5] + 729 u[6] + 187 u[7] + 745 u[8] + 794 u[9] + 743 u[10]
   + 715 u[11] + 536 u[12] + 764 u[13] + 352 u[14] + 148 u[15] + 49 u[16]
   + 616 u[17] + 517 u[18] + 582 u[19] + 713 u[20] + 215 u[21] + 384 u[22]
   + 390 u[23] + 632 u[24] + 920 u[25] + 798 u[26] + 807 u[27] + 553 u[28]
   + 415 u[29] + 477 u[30] + 363 u[31] + 87 u[32] + 21 u[33] + 928 u[34]
   + 849 u[35] + 376 u[36] + 236 u[37] + 720 u[38] + 158 u[39] + 947 u[40]
   + 265 u[41] + 50 u[42] + 325 u[43] + 107 u[44] + 842 u[45] + 533 u[46]
   + 633 u[47] + 147 u[48] + 8 u[49] + 106 u[50] + 608 u[51] + 761 u[52]
   + 524 u[53] + 388 u[54] + 599 u[55] + 845 u[56] + 194 u[57] + 480 u[58]
   + 714 u[59] <= 4875
 primal_lower387: 636 u[0] + 93 u[1] + 175 u[2] + 796 u[3] + 49 u[4]
   + 186 u[5] + 546 u[6] + 508 u[7] + 906 u[8] + 307 u[9] + 320 u[10]
   + 740 u[11] + 489 u[12] + 349 u[13] + 313 u[14] + 37 u[15] + 898 u[16]
   + 473 u[17] + 622 u[18] + 983 u[19] + 338 u[20] + 416 u[21] + 409 u[22]
   + 247 u[23] + 417 u[24] + 513 u[25] + 647 u[26] + 64 u[27] + 890 u[28]
   + 392 u[29] + 230 u[30] + 532 u[31] + 832 u[32] + 662 u[33] + 273 u[34]
   + 970 u[35] + 689 u[36] + 893 u[37] + 17 u[38] + 311 u[39] + 164 u[40]
   + 290 u[41] + 411 u[42] + 862 u[43] + 268 u[44] + 675 u[45] + 798 u[46]
   + 674 u[47] + 52 u[48] + 305 u[49] + 155 u[50] + 745 u[51] + 794 u[52]
   + 637 u[53] + 861 u[54] + 416 u[55] + 382 u[56] + 203 u[57] + 769 u[58]
   + 363 u[59] <= 4832
 primal_lower388: 307 u[0] + 671 u[1] + 149 u[2] + 886 u[3] + 471 u[4]
   + 549 u[5] + 920 u[6] + 415 u[7] + 560 u[8] + 117 u[9] + 599 u[10]
   + 702 u[11] + 319 u[12] + 719 u[13] + 632 u[14] + 840 u[15] + 760 u[16]
   + 139 u[17] + 740 u[18] + 561 u[19] + 240 u[20] + 443 u[21] + 999 u[22]
   + 698 u[23] + 152 u[24] + 163 u[25] + 397 u[26] + 355 u[27] + 857 u[28]
   + 986 u[29] + 261 u[30] + 831 u[31] + 895 u[32] + 792 u[33] + 743 u[34]
   + 428 u[35] + 287 u[36] + 712 u[37] + 15 u[38] + 738 u[39] + 874 u[40]
   + 821 u[41] + 185 u[42] + 673 u[43] + 882 u[44] + 758 u[45] + 285 u[46]
   + 837 u[47] + 90 u[48] + 203 u[49] + 714 u[50] + 771 u[51] + 720 u[52]
   + 599 u[53] + 812 u[54] + 347 u[55] + 412 u[56] + 630 u[57] + 255 u[58]
   + 829 u[59] <= 5624
 primal_lower389: 117 u[0] + 921 u[1] + 119 u[2] + 64 u[3] + 665 u[4]
   + 215 u[5] + 698 u[6] + 249 u[7] + 26 u[8] + 855 u[9] + 209 u[10]
   + 424 u[11] + 449 u[12] + 449 u[13] + 66 u[14] + 770 u[15] + 730 u[16]
   + 437 u[17] + 126 u[18] + 667 u[19] + 178 u[20] + 277 u[21] + 505 u[22]
   + 36 u[23] + 490 u[24] + 741 u[25] + 847 u[26] + 685 u[27] + 515 u[28]
   + 492 u[29] + 391 u[30] + 561 u[31] + 881 u[32] + 178 u[33] + 81 u[34]
   + 998 u[35] + 385 u[36] + 394 u[37] + 553 u[38] + 724 u[39] + 164 u[40]
   + 319 u[41] + 699 u[42] + 595 u[43] + 228 u[44] + 880 u[45] + 823 u[46]
   + 79 u[47] + 100 u[48] + 293 u[49] + 756 u[50] + 301 u[51] + 274 u[52]
   + 89 u[53] + 486 u[54] + 277 u[55] + 270 u[56] + 904 u[57] + 769 u[58]
   + 175 u[59] <= 8883
 primal_lower390: 735 u[0] + 795 u[1] + 65 u[2] + 82 u[3] + 803 u[4]
   + 489 u[5] + 28 u[6] + 859 u[7] + 460 u[8] + 609 u[9] + 875 u[10]
   + 610 u[11] + 803 u[12] + 227 u[13] + 12 u[14] + 908 u[15] + 748 u[16]
   + 975 u[17] + 344 u[18] + 573 u[19] + 836 u[20] + 711 u[21] + 595 u[22]
   + 230 u[23] + 596 u[24] + 375 u[25] + 489 u[26] + 551 u[27] + 365 u[28]
   + 198 u[29] + 97 u[30] + 627 u[31] + 851 u[32] + 940 u[33] + 531 u[34]
   + 48 u[35] + 931 u[36] + 692 u[37] + 995 u[38] + 886 u[39] + 406 u[40]
   + 929 u[41] + 637 u[42] + 341 u[43] + 294 u[44] + 354 u[45] + 25 u[46]
   + 729 u[47] + 662 u[48] + 495 u[49] + 486 u[50] + 711 u[51] + 716 u[52]
   + 235 u[53] + 296 u[54] + 551 u[55] + 56 u[56] + 626 u[57] + 883 u[58]
   + 873 u[59] <= 995
 primal_lower391: 616 u[0] + 108 u[1] + 66 u[2] + 123 u[3] + 460 u[4]
   + 442 u[5] + 877 u[6] + 356 u[7] + 101 u[8] + 18 u[9] + 124 u[10]
   + 835 u[11] + 468 u[12] + 668 u[13] + 117 u[14] + 165 u[15] + 237 u[16]
   + 984 u[17] + 257 u[18] + 230 u[19] + 901 u[20] + 528 u[21] + 900 u[22]
   + 647 u[23] + 293 u[24] + 728 u[25] + 786 u[26] + 272 u[27] + 262 u[28]
   + 351 u[29] + 698 u[30] + 764 u[31] + 276 u[32] + 341 u[33] + 132 u[34]
   + 713 u[35] + 900 u[36] + 765 u[37] + 580 u[38] + 63 u[39] + 447 u[40]
   + 722 u[41] + 238 u[42] + 582 u[43] + 639 u[44] + 19 u[45] + 274 u[46]
   + 954 u[47] + 639 u[48] + 936 u[49] + 751 u[50] + 584 u[51] + 93 u[52]
   + 428 u[53] + 649 u[54] + 432 u[55] + 353 u[56] + 67 u[57] + 876 u[58]
   + 458 u[59] <= 9431
 primal_lower392: 258 u[0] + 899 u[1] + 525 u[2] + 810 u[3] + 799 u[4]
   + 624 u[5] + 200 u[6] + 834 u[7] + 192 u[8] + 289 u[9] + 54 u[10]
   + 978 u[11] + 871 u[12] + 427 u[13] + 463 u[14] + 11 u[15] + 944 u[16]
   + 743 u[17] + 868 u[18] + 485 u[19] + 944 u[20] + 246 u[21] + 359 u[22]
   + 469 u[23] + 655 u[24] + 39 u[25] + 885 u[26] + 198 u[27] + 168 u[28]
   + 238 u[29] + 28 u[30] + 178 u[31] + 734 u[32] + 60 u[33] + 783 u[34]
   + 720 u[35] + 831 u[36] + 531 u[37] + 359 u[38] + 109 u[39] + 90 u[40]
   + 376 u[41] + 313 u[42] + 708 u[43] + 130 u[44] + 89 u[45] + 708 u[46]
   + 368 u[47] + 578 u[48] + 47 u[49] + 681 u[50] + 15 u[51] + 240 u[52]
   + 227 u[53] + 243 u[54] + 982 u[55] + 260 u[56] + 545 u[57] + 983 u[58]
   + 553 u[59] <= 13972
 primal_lower393: 146 u[0] + 387 u[1] + 189 u[2] + 970 u[3] + 359 u[4]
   + 944 u[5] + 320 u[6] + 586 u[7] + 264 u[8] + 209 u[9] + 910 u[10]
   + 58 u[11] + 63 u[12] + 203 u[13] + 335 u[14] + 891 u[15] + 592 u[16]
   + 207 u[17] + 180 u[18] + 661 u[19] + 512 u[20] + 462 u[21] + 783 u[22]
   + 261 u[23] + 95 u[24] + 791 u[25] + 205 u[26] + 574 u[27] + 80 u[28]
   + 246 u[29] + 444 u[30] + 930 u[31] + 62 u[32] + 492 u[33] + 263 u[34]
   + 608 u[35] + 175 u[36] + 859 u[37] + 367 u[38] + 845 u[39] + 394 u[40]
   + 472 u[41] + 81 u[42] + 932 u[43] + 114 u[44] + 385 u[45] + 4 u[46]
   + 760 u[47] + 162 u[48] + 39 u[49] + 521 u[50] + 319 u[51] + 456 u[52]
   + 899 u[53] + 283 u[54] + 918 u[55] + 28 u[56] + 321 u[57] + 719 u[58]
   + 713 u[59] <= 8682
 primal_lower394: 887 u[0] + 835 u[1] + 745 u[2] + 274 u[3] + 51 u[4]
   + 121 u[5] + 692 u[6] + 595 u[7] + 132 u[8] + 641 u[9] + 515 u[10]
   + 434 u[11] + 499 u[12] + 315 u[13] + 724 u[14] + 268 u[15] + 996 u[16]
   + 623 u[17] + 80 u[18] + 181 u[19] + 788 u[20] + 399 u[21] + 283 u[22]
   + 502 u[23] + 492 u[24] + 567 u[25] + 329 u[26] + 999 u[27] + 813 u[28]
   + 94 u[29] + 793 u[30] + 83 u[31] + 291 u[32] + 940 u[33] + 139 u[34]
   + 864 u[35] + 939 u[36] + 124 u[37] + 635 u[38] + 334 u[39] + 278 u[40]
   + 921 u[41] + 445 u[42] + 509 u[43] + 134 u[44] + 530 u[45] + 641 u[46]
   + 329 u[47] + 998 u[48] + 943 u[49] + 222 u[50] + 927 u[51] + 356 u[52]
   + 475 u[53] + 208 u[54] + 911 u[55] + 208 u[56] + 418 u[57] + 715 u[58]
   + 617 u[59] <= 20534
 primal_lower395: 598 u[0] + 279 u[1] + 577 u[2] + 46 u[3] + 99 u[4]
   + 436 u[5] + 780 u[6] + 966 u[7] + 636 u[8] + 925 u[9] + 826 u[10]
   + 278 u[11] + 755 u[12] + 439 u[13] + 363 u[14] + 447 u[15] + 444 u[16]
   + 147 u[17] + 288 u[18] + 737 u[19] + 388 u[20] + 18 u[21] + 579 u[22]
   + 273 u[23] + 435 u[24] + 619 u[25] + 481 u[26] + 370 u[27] + 820 u[28]
   + 898 u[29] + 792 u[30] + 70 u[31] + 290 u[32] + 64 u[33] + 851 u[34]
   + 100 u[35] + 99 u[36] + 279 u[37] + 587 u[38] + 689 u[39] + 366 u[40]
   + 284 u[41] + 725 u[42] + 32 u[43] + 238 u[44] + 85 u[45] + 632 u[46]
   + 740 u[47] + 462 u[48] + 675 u[49] + 357 u[50] + 731 u[51] + 860 u[52]
   + 151 u[53] + 375 u[54] + 10 u[55] + 904 u[56] + 381 u[57] + 403 u[58]
   + 669 u[59] <= 13924
 primal_lower396: 557 u[0] + 593 u[1] + 783 u[2] + 368 u[3] + 73 u[4]
   + 223 u[5] + 762 u[6] + 673 u[7] + 266 u[8] + 711 u[9] + 57 u[10]
   + 144 u[11] + 257 u[12] + 281 u[13] + 34 u[14] + 802 u[15] + 330 u[16]
   + 325 u[17] + 262 u[18] + 515 u[19] + 962 u[20] + 405 u[21] + 369 u[22]
   + 492 u[23] + 722 u[24] + 253 u[25] + 503 u[26] + 373 u[27] + 363 u[28]
   + 876 u[29] + 279 u[30] + 881 u[31] + 825 u[32] + 10 u[33] + 425 u[34]
   + 542 u[35] + 225 u[36] + 82 u[37] + 465 u[38] + 188 u[39] + 708 u[40]
   + 255 u[41] + 667 u[42] + 899 u[43] + 892 u[44] + 80 u[45] + 455 u[46]
   + 439 u[47] + 764 u[48] + 973 u[49] + 516 u[50] + 949 u[51] + 42 u[52]
   + 577 u[53] + 318 u[54] + 501 u[55] + 614 u[56] + 368 u[57] + 457 u[58]
   + 807 u[59] <= 14268
 primal_lower397: 255 u[0] + 443 u[1] + 153 u[2] + 234 u[3] + 635 u[4]
   + 425 u[5] + 12 u[6] + 467 u[7] + 28 u[8] + 377 u[9] + 499 u[10]
   + 850 u[11] + 779 u[12] + 347 u[13] + 164 u[14] + 52 u[15] + 356 u[16]
   + 431 u[17] + 112 u[18] + 29 u[19] + 332 u[20] + 175 u[21] + 619 u[22]
   + 366 u[23] + 916 u[24] + 991 u[25] + 585 u[26] + 519 u[27] + 549 u[28]
   + 406 u[29] + 977 u[30] + 99 u[31] + 691 u[32] + 380 u[33] + 475 u[34]
   + 120 u[35] + 619 u[36] + 812 u[37] + 171 u[38] + 190 u[39] + 566 u[40]
   + 961 u[41] + 853 u[42] + 541 u[43] + 542 u[44] + 226 u[45] + 561 u[46]
   + 593 u[47] + 982 u[48] + 415 u[49] + 854 u[50] + 887 u[51] + 84 u[52]
   + 123 u[53] + 472 u[54] + 255 u[55] + 32 u[56] + 370 u[57] + 947 u[58]
   + 313 u[59] <= 13608
 primal_lower398: 584 u[0] + 68 u[1] + 882 u[2] + 251 u[3] + 276 u[4]
   + 578 u[5] + 477 u[6] + 556 u[7] + 325 u[8] + 842 u[9] + 204 u[10]
   + 819 u[11] + 964 u[12] + 980 u[13] + 165 u[14] + 621 u[15] + 557 u[16]
   + 760 u[17] + 97 u[18] + 214 u[19] + 685 u[20] + 736 u[21] + 156 u[22]
   + 295 u[23] + 485 u[24] + 136 u[25] + 970 u[26] + 808 u[27] + 150 u[28]
   + 359 u[29] + 370 u[30] + 868 u[31] + 412 u[32] + 253 u[33] + 748 u[34]
   + 777 u[35] + 652 u[36] + 197 u[37] + 268 u[38] + 247 u[39] + 703 u[40]
   + 418 u[41] + 990 u[42] + 414 u[43] + 55 u[44] + 659 u[45] + 538 u[46]
   + 642 u[47] + 959 u[48] + 632 u[49] + 23 u[50] + 128 u[51] + 5 u[52]
   + 220 u[53] + 57 u[54] + 888 u[55] + 369 u[56] + 651 u[57] + 412 u[58]
   + 722 u[59] <= 4879
 primal_lower399: 308 u[0] + 365 u[1] + 391 u[2] + 436 u[3] + 481 u[4]
   + 810 u[5] + 98 u[6] + 972 u[7] + 858 u[8] + 43 u[9] + 864 u[10]
   + 724 u[11] + 9 u[12] + 317 u[13] + 505 u[14] + 149 u[15] + 810 u[16]
   + 737 u[17] + 6 u[18] + 343 u[19] + 394 u[20] + 584 u[21] + 385 u[22]
   + 655 u[23] + 625 u[24] + 201 u[25] + 823 u[26] + 632 u[27] + 522 u[28]
   + 440 u[29] + 142 u[30] + 804 u[31] + 216 u[32] + 662 u[33] + 33 u[34]
   + 98 u[35] + 417 u[36] + 389 u[37] + 825 u[38] + 207 u[39] + 572 u[40]
   + 898 u[41] + 267 u[42] + 974 u[43] + 884 u[44] + 603 u[45] + 630 u[46]
   + 514 u[47] + 924 u[48] + 497 u[49] + 811 u[50] + 713 u[51] + 378 u[52]
   + 293 u[53] + 821 u[54] + 424 u[55] + 830 u[56] + 67 u[57] + 249 u[58]
   + 371 u[59] <= 20000
 primal_lower400: 256 u[0] + 833 u[1] + 579 u[2] + 608 u[3] + 189 u[4]
   + 958 u[5] + 62 u[6] + 544 u[7] + 454 u[8] + 55 u[9] + 212 u[10]
   + 504 u[11] + 133 u[12] + 265 u[13] + 189 u[14] + 217 u[15] + 62 u[16]
   + 341 u[17] + 410 u[18] + 147 u[19] + 958 u[20] + 52 u[21] + 781 u[22]
   + 67 u[23] + 797 u[24] + 317 u[25] + 563 u[26] + 388 u[27] + 638 u[28]
   + 12 u[29] + 538 u[30] + 344 u[31] + 476 u[32] + 362 u[33] + 821 u[34]
   + 534 u[35] + 309 u[36] + 769 u[37] + 133 u[38] + 83 u[39] + 96 u[40]
   + 926 u[41] + 479 u[42] + 274 u[43] + 584 u[44] + 295 u[45] + 666 u[46]
   + 166 u[47] + 656 u[48] + 277 u[49] + 151 u[50] + 317 u[51] + 166 u[52]
   + 921 u[53] + 985 u[54] + 548 u[55] + 562 u[56] + 895 u[57] + 573 u[58]
   + 295 u[59] <= 4298
 primal_lower401: 865 u[0] + 501 u[1] + 107 u[2] + 628 u[3] + 597 u[4]
   + 411 u[5] + 206 u[6] + 557 u[7] + 670 u[8] + 851 u[9] + 661 u[10]
   + 28 u[11] + 925 u[12] + 29 u[13] + 758 u[14] + 670 u[15] + 990 u[16]
   + 81 u[17] + 306 u[18] + 367 u[19] + 782 u[20] + 65 u[21] + 581 u[22]
   + 480 u[23] + 814 u[24] + 481 u[25] + 323 u[26] + 257 u[27] + 511 u[28]
   + 104 u[29] + 499 u[30] + 533 u[31] + 861 u[32] + 662 u[33] + 525 u[34]
   + 426 u[35] + 141 u[36] + 750 u[37] + 845 u[38] + 856 u[39] + 176 u[40]
   + 27 u[41] + 431 u[42] + 415 u[43] + 152 u[44] + 292 u[45] + 883 u[46]
   + 715 u[47] + 656 u[48] + 241 u[49] + 208 u[50] + 289 u[51] + 6 u[52]
   + 285 u[53] + 26 u[54] + 9 u[55] + 906 u[56] + 684 u[57] + 509 u[58]
   + 195 u[59] <= 13904
 primal_lower402: 461 u[0] + 89 u[1] + 159 u[2] + 128 u[3] + 41 u[4]
   + 63 u[5] + 194 u[6] + 905 u[7] + 306 u[8] + 343 u[9] + 249 u[10]
   + 536 u[11] + 481 u[12] + 409 u[13] + 602 u[14] + 18 u[15] + 906 u[16]
   + 101 u[17] + 414 u[18] + 683 u[19] + 10 u[20] + 549 u[21] + 881 u[22]
   + 300 u[23] + 874 u[24] + 29 u[25] + 999 u[26] + 149 u[27] + 235 u[28]
   + 100 u[29] + 15 u[30] + 929 u[31] + 697 u[32] + 282 u[33] + 449 u[34]
   + 70 u[35] + 577 u[36] + 234 u[37] + 777 u[38] + 116 u[39] + 500 u[40]
   + 183 u[41] + 731 u[42] + 107 u[43] + 972 u[44] + 816 u[45] + 719 u[46]
   + 71 u[47] + 732 u[48] + 501 u[49] + 196 u[50] + 757 u[51] + 34 u[52]
   + 913 u[53] + 94 u[54] + 397 u[55] + 742 u[56] + 200 u[57] + 945 u[58]
   + 975 u[59] <= 12972
 primal_lower403: 685 u[0] + 401 u[1] + 119 u[2] + 232 u[3] + 889 u[4]
   + 463 u[5] + 834 u[6] + 817 u[7] + 898 u[8] + 543 u[9] + 561 u[10]
   + 272 u[11] + 9 u[12] + 513 u[13] + 754 u[14] + 282 u[15] + 866 u[16]
   + 813 u[17] + 94 u[18] + 131 u[19] + 858 u[20] + 821 u[21] + 209 u[22]
   + 20 u[23] + 890 u[24] + 901 u[25] + 359 u[26] + 605 u[27] + 787 u[28]
   + 996 u[29] + 695 u[30] + 649 u[31] + 801 u[32] + 818 u[33] + 161 u[34]
   + 78 u[35] + 681 u[36] + 458 u[37] + 577 u[38] + 700 u[39] + 332 u[40]
   + 71 u[41] + 355 u[42] + 723 u[43] + 812 u[44] + 744 u[45] + 471 u[46]
   + 199 u[47] + 732 u[48] + 525 u[49] + 660 u[50] + 381 u[51] + 106 u[52]
   + 249 u[53] + 670 u[54] + 901 u[55] + 310 u[56] + 88 u[57] + 97 u[58]
   + 959 u[59] <= 15812
 primal_lower404: 345 u[0] + 141 u[1] + 35 u[2] + 60 u[3] + 277 u[4]
   + 3 u[5] + 518 u[6] + 477 u[7] + 190 u[8] + 75 u[9] + 677 u[10]
   + 28 u[11] + 917 u[12] + 253 u[13] + 286 u[14] + 38 u[15] + 318 u[16]
   + 921 u[17] + 410 u[18] + 895 u[19] + 798 u[20] + 953 u[21] + 445 u[22]
   + 136 u[23] + 22 u[24] + 937 u[25] + 91 u[26] + 721 u[27] + 319 u[28]
   + 976 u[29] + 579 u[30] + 293 u[31] + 797 u[32] + 286 u[33] + 733 u[34]
   + 618 u[35] + 757 u[36] + 894 u[37] + 989 u[38] + 312 u[39] + 552 u[40]
   + 883 u[41] + 631 u[42] + 15 u[43] + 72 u[44] + 84 u[45] + 531 u[46]
   + 987 u[47] + 968 u[48] + 873 u[49] + 24 u[50] + 321 u[51] + 454 u[52]
   + 565 u[53] + 258 u[54] + 785 u[55] + 938 u[56] + 420 u[57] + 133 u[58]
   + 499 u[59] <= 14256
 primal_lower405: 549 u[0] + 998 u[1] + 672 u[2] + 661 u[3] + 810 u[4]
   + 555 u[5] + 195 u[6] + 717 u[7] + 923 u[8] + 364 u[9] + 905 u[10]
   + 917 u[11] + 290 u[12] + 494 u[13] + 194 u[14] + 694 u[15] + 627 u[16]
   + 42 u[17] + 391 u[18] + 408 u[19] + 667 u[20] + 761 u[21] + 146 u[22]
   + 216 u[23] + 962 u[24] + 362 u[25] + 160 u[26] + 417 u[27] + 499 u[28]
   + 969 u[29] + 943 u[30] + 717 u[31] + 881 u[32] + 399 u[33] + 786 u[34]
   + 771 u[35] + 578 u[36] + 566 u[37] + 346 u[38] + 304 u[39] + 965 u[40]
   + 523 u[41] + 564 u[42] + 743 u[43] + 973 u[44] + 404 u[45] + 319 u[46]
   + 427 u[47] + 405 u[48] + 186 u[49] + 236 u[50] + 258 u[51] + 43 u[52]
   + 6 u[53] + 134 u[54] + 881 u[55] + 319 u[56] + 484 u[57] + 770 u[58]
   + 12 u[59] <= 10502
 primal_lower406: 946 u[0] + 427 u[1] + 957 u[2] + 234 u[3] + 463 u[4]
   + 344 u[5] + 936 u[6] + 922 u[7] + 48 u[8] + 361 u[9] + 710 u[10]
   + 554 u[11] + 207 u[12] + 779 u[13] + 967 u[14] + 531 u[15] + 552 u[16]
   + 759 u[17] + 884 u[18] + 573 u[19] + 744 u[20] + 686 u[21] + 727 u[22]
   + 21 u[23] + 967 u[24] + 415 u[25] + 269 u[26] + 870 u[27] + 760 u[28]
   + 926 u[29] + 612 u[30] + 706 u[31] + 334 u[32] + 748 u[33] + 367 u[34]
   + 712 u[35] + 575 u[36] + 19 u[37] + 991 u[38] + 293 u[39] + 378 u[40]
   + 872 u[41] + 289 u[42] + 876 u[43] + 514 u[44] + 57 u[45] + 628 u[46]
   + 904 u[47] + 914 u[48] + 183 u[49] + 673 u[50] + 551 u[51] + 368 u[52]
   + 899 u[53] + 379 u[54] + 438 u[55] + 12 u[56] + 633 u[57] + 399 u[58]
   + 657 u[59] <= 5753
 primal_lower407: 22 u[0] + 39 u[1] + 817 u[2] + 790 u[3] + 875 u[4]
   + 156 u[5] + 604 u[6] + 942 u[7] + 452 u[8] + 725 u[9] + 170 u[10]
   + 622 u[11] + 827 u[12] + 191 u[13] + 531 u[14] + 783 u[15] + 372 u[16]
   + 171 u[17] + 464 u[18] + 201 u[19] + 292 u[20] + 114 u[21] + 147 u[22]
   + 825 u[23] + 851 u[24] + 867 u[25] + 153 u[26] + 58 u[27] + 84 u[28]
   + 978 u[29] + 488 u[30] + 126 u[31] + 642 u[32] + 456 u[33] + 323 u[34]
   + 788 u[35] + 723 u[36] + 407 u[37] + 819 u[38] + 209 u[39] + 54 u[40]
   + 660 u[41] + 173 u[42] + 840 u[43] + 230 u[44] + 557 u[45] + 256 u[46]
   + 772 u[47] + 102 u[48] + 827 u[49] + 421 u[50] + 491 u[51] + 588 u[52]
   + 847 u[53] + 127 u[54] + 458 u[55] + 992 u[56] + 997 u[57] + 771 u[58]
   + 981 u[59] <= 10082
 primal_lower408: 417 u[0] + 61 u[1] + 35 u[2] + 532 u[3] + 669 u[4]
   + 795 u[5] + 598 u[6] + 421 u[7] + 814 u[8] + 531 u[9] + 317 u[10]
   + 252 u[11] + 221 u[12] + 941 u[13] + 870 u[14] + 286 u[15] + 462 u[16]
   + 25 u[17] + 178 u[18] + 311 u[19] + 422 u[20] + 689 u[21] + 693 u[22]
   + 376 u[23] + 654 u[24] + 641 u[25] + 339 u[26] + 465 u[27] + 607 u[28]
   + 328 u[29] + 195 u[30] + 477 u[31] + 445 u[32] + 814 u[33] + 21 u[34]
   + 938 u[35] + 413 u[36] + 454 u[37] + 453 u[38] + 880 u[39] + 992 u[40]
   + 27 u[41] + 951 u[42] + 327 u[43] + 872 u[44] + 876 u[45] + 827 u[46]
   + 595 u[47] + 696 u[48] + 33 u[49] + 40 u[50] + 705 u[51] + 46 u[52]
   + 269 u[53] + 458 u[54] + 681 u[55] + 2 u[56] + 460 u[57] + 117 u[58]
   + 131 u[59] <= 14072
 primal_lower409: 618 u[0] + 411 u[1] + 693 u[2] + 834 u[3] + 927 u[4]
   + 928 u[5] + 416 u[6] + 162 u[7] + 456 u[8] + 57 u[9] + 230 u[10]
   + 26 u[11] + 431 u[12] + 283 u[13] + 263 u[14] + 811 u[15] + 208 u[16]
   + 383 u[17] + 772 u[18] + 325 u[19] + 8 u[20] + 150 u[21] + 911 u[22]
   + 317 u[23] + 471 u[24] + 343 u[25] + 253 u[26] + 38 u[27] + 16 u[28]
   + 254 u[29] + 396 u[30] + 754 u[31] + 958 u[32] + 540 u[33] + 455 u[34]
   + 56 u[35] + 703 u[36] + 443 u[37] + 983 u[38] + 325 u[39] + 346 u[40]
   + 400 u[41] + 177 u[42] + 308 u[43] + 514 u[44] + 273 u[45] + 308 u[46]
   + 832 u[47] + 618 u[48] + 559 u[49] + 185 u[50] + 903 u[51] + 832 u[52]
   + 875 u[53] + 875 u[54] + 262 u[55] + 548 u[56] + 673 u[57] + 255 u[58]
   + 169 u[59] <= 13760
 primal_lower410: 679 u[0] + 336 u[1] + 634 u[2] + 175 u[3] + 260 u[4]
   + 917 u[5] + 837 u[6] + 615 u[7] + 861 u[8] + 22 u[9] + 555 u[10]
   + 711 u[11] + 516 u[12] + 16 u[13] + 916 u[14] + 360 u[15] + 893 u[16]
   + 988 u[17] + 81 u[18] + 290 u[19] + 517 u[20] + 971 u[21] + 404 u[22]
   + 410 u[23] + 820 u[24] + 468 u[25] + 138 u[26] + 75 u[27] + 53 u[28]
   + 459 u[29] + 425 u[30] + 663 u[31] + 307 u[32] + 481 u[33] + 556 u[34]
   + 93 u[35] + 20 u[36] + 128 u[37] + 780 u[38] + 82 u[39] + 391 u[40]
   + 261 u[41] + 14 u[42] + 913 u[43] + 647 u[44] + 270 u[45] + 281 u[46]
   + 333 u[47] + 935 u[48] + 252 u[49] + 438 u[50] + 508 u[51] + 349 u[52]
   + 744 u[53] + 312 u[54] + 787 u[55] + 937 u[56] + 54 u[57] + 764 u[58]
   + 102 u[59] <= 9268
 primal_lower411: 867 u[0] + 36 u[1] + 518 u[2] + 387 u[3] + 400 u[4]
   + 977 u[5] + 561 u[6] + 443 u[7] + 633 u[8] + 498 u[9] + 15 u[10]
   + 451 u[11] + 16 u[12] + 460 u[13] + 376 u[14] + 268 u[15] + 449 u[16]
   + 680 u[17] + 525 u[18] + 334 u[19] + 609 u[20] + 47 u[21] + 272 u[22]
   + 326 u[23] + 496 u[24] + 808 u[25] + 758 u[26] + 911 u[27] + 641 u[28]
   + 495 u[29] + 165 u[30] + 787 u[31] + 631 u[32] + 221 u[33] + 48 u[34]
   + 329 u[35] + 920 u[36] + 140 u[37] + 736 u[38] + 886 u[39] + 739 u[40]
   + 729 u[41] + 514 u[42] + 133 u[43] + 355 u[44] + 466 u[45] + 757 u[46]
   + 857 u[47] + 723 u[48] + 464 u[49] + 482 u[50] + 776 u[51] + 673 u[52]
   + 868 u[53] + 468 u[54] + 535 u[55] + 69 u[56] + 562 u[57] + 520 u[58]
   + 122 u[59] <= 4988
 primal_lower412: 270 u[0] + 447 u[1] + 353 u[2] + 566 u[3] + 331 u[4]
   + 204 u[5] + 932 u[6] + 510 u[7] + 180 u[8] + 509 u[9] + 818 u[10]
   + 62 u[11] + 331 u[12] + 871 u[13] + 267 u[14] + 487 u[15] + 684 u[16]
   + 947 u[17] + 216 u[18] + 945 u[19] + 604 u[20] + 458 u[21] + 531 u[22]
   + 97 u[23] + 811 u[24] + 643 u[25] + 393 u[26] + 658 u[27] + 276 u[28]
   + 242 u[29] + 440 u[30] + 502 u[31] + 898 u[32] + 80 u[33] + 51 u[34]
   + 972 u[35] + 515 u[36] + 239 u[37] + 787 u[38] + 721 u[39] + 6 u[40]
   + 396 u[41] + 381 u[42] + 224 u[43] + 830 u[44] + 741 u[45] + 568 u[46]
   + 612 u[47] + 398 u[48] + 699 u[49] + 629 u[50] + 939 u[51] + 316 u[52]
   + 783 u[53] + 647 u[54] + 706 u[55] + 56 u[56] + 357 u[57] + 979 u[58]
   + 893 u[59] <= 20672
 primal_lower413: 720 u[0] + 292 u[1] + 186 u[2] + 979 u[3] + 300 u[4]
   + 42 u[5] + 645 u[6] + 788 u[7] + 789 u[8] + 906 u[9] + 212 u[10]
   + 347 u[11] + 620 u[12] + 92 u[13] + 517 u[14] + 349 u[15] + 5 u[16]
   + 344 u[17] + 305 u[18] + 366 u[19] + 133 u[20] + 464 u[21] + 628 u[22]
   + 47 u[23] + 741 u[24] + 952 u[25] + 418 u[26] + 328 u[27] + 470 u[28]
   + 559 u[29] + 306 u[30] + 500 u[31] + 684 u[32] + 589 u[33] + 980 u[34]
   + 345 u[35] + 580 u[36] + 141 u[37] + 364 u[38] + 919 u[39] + 447 u[40]
   + 586 u[41] + 166 u[42] + 934 u[43] + 303 u[44] + 483 u[45] + 10 u[46]
   + 498 u[47] + 23 u[48] + 384 u[49] + 751 u[50] + 40 u[51] + 5 u[52]
   + 812 u[53] + 569 u[54] + 736 u[55] + 81 u[56] + 387 u[57] + 740 u[58]
   + 194 u[59] <= 9033
 primal_lower414: 307 u[0] + 852 u[1] + 326 u[2] + 211 u[3] + 888 u[4]
   + 601 u[5] + 257 u[6] + 171 u[7] + 49 u[8] + 682 u[9] + 279 u[10]
   + 331 u[11] + 376 u[12] + 524 u[13] + 888 u[14] + 812 u[15] + 81 u[16]
   + 696 u[17] + 5 u[18] + 582 u[19] + 97 u[20] + 527 u[21] + 936 u[22]
   + 838 u[23] + 272 u[24] + 200 u[25] + 318 u[26] + 799 u[27] + 273 u[28]
   + 431 u[29] + 117 u[30] + 27 u[31] + 455 u[32] + 445 u[33] + 632 u[34]
   + 361 u[35] + 560 u[36] + 460 u[37] + 864 u[38] + 878 u[39] + 3 u[40]
   + 801 u[41] + 466 u[42] + 277 u[43] + 539 u[44] + 426 u[45] + 965 u[46]
   + 865 u[47] + 67 u[48] + 648 u[49] + 314 u[50] + 328 u[51] + 809 u[52]
   + 388 u[53] + 532 u[54] + 447 u[55] + 965 u[56] + 34 u[57] + 424 u[58]
   + 2 u[59] <= 13854
 primal_lower415: 181 u[0] + 990 u[1] + 856 u[2] + 325 u[3] + 258 u[4]
   + 995 u[5] + 835 u[6] + 29 u[7] + 259 u[8] + 580 u[9] + 921 u[10]
   + 85 u[11] + 706 u[12] + 438 u[13] + 226 u[14] + 446 u[15] + 603 u[16]
   + 442 u[17] + 519 u[18] + 912 u[19] + 467 u[20] + 753 u[21] + 314 u[22]
   + 688 u[23] + 226 u[24] + 770 u[25] + 400 u[26] + 673 u[27] + 963 u[28]
   + 729 u[29] + 95 u[30] + 549 u[31] + 361 u[32] + 815 u[33] + 738 u[34]
   + 611 u[35] + 962 u[36] + 470 u[37] + 834 u[38] + 496 u[39] + 781 u[40]
   + 291 u[41] + 284 u[42] + 343 u[43] + 437 u[44] + 460 u[45] + 359 u[46]
   + 923 u[47] + 629 u[48] + 346 u[49] + 620 u[50] + 770 u[51] + 539 u[52]
   + 294 u[53] + 582 u[54] + 273 u[55] + 791 u[56] + 140 u[57] + 674 u[58]
   + 204 u[59] <= 5376
 primal_lower416: 486 u[0] + 239 u[1] + 489 u[2] + 518 u[3] + 747 u[4]
   + 468 u[5] + 868 u[6] + 550 u[7] + 740 u[8] + 725 u[9] + 794 u[10]
   + 718 u[11] + 459 u[12] + 295 u[13] + 331 u[14] + 791 u[15] + 612 u[16]
   + 891 u[17] + 704 u[18] + 545 u[19] + 420 u[20] + 562 u[21] + 851 u[22]
   + 809 u[23] + 275 u[24] + 539 u[25] + 785 u[26] + 490 u[27] + 540 u[28]
   + 194 u[29] + 840 u[30] + 246 u[31] + 378 u[32] + 976 u[33] + 595 u[34]
   + 780 u[35] + 35 u[36] + 23 u[37] + 931 u[38] + 377 u[39] + 878 u[40]
   + 852 u[41] + 485 u[42] + 816 u[43] + 982 u[44] + 485 u[45] + 176 u[46]
   + 212 u[47] + 910 u[48] + 867 u[49] + 949 u[50] + 99 u[51] + 692 u[52]
   + 647 u[53] + 791 u[54] + 298 u[55] + 104 u[56] + 573 u[57] + 547 u[58]
   + 285 u[59] <= 17132
 primal_lower417: 451 u[0] + 700 u[1] + 894 u[2] + 211 u[3] + 544 u[4]
   + 865 u[5] + 145 u[6] + 811 u[7] + 953 u[8] + 690 u[9] + 367 u[10]
   + 947 u[11] + 376 u[12] + 852 u[13] + 616 u[14] + 188 u[15] + 233 u[16]
   + 320 u[17] + 861 u[18] + 542 u[19] + 225 u[20] + 151 u[21] + 632 u[22]
   + 990 u[23] + 912 u[24] + 656 u[25] + 998 u[26] + 223 u[27] + 865 u[28]
   + 279 u[29] + 597 u[30] + 475 u[31] + 319 u[32] + 405 u[33] + 592 u[34]
   + 385 u[35] + 384 u[36] + 572 u[37] + 32 u[38] + 534 u[39] + 475 u[40]
   + 89 u[41] + 170 u[42] + 549 u[43] + 883 u[44] + 706 u[45] + 285 u[46]
   + 25 u[47] + 747 u[48] + 424 u[49] + 570 u[50] + 464 u[51] + 633 u[52]
   + 476 u[53] + 548 u[54] + 519 u[55] + 685 u[56] + 330 u[57] + 48 u[58]
   + 850 u[59] <= 998
 primal_lower418: 972 u[0] + 744 u[1] + 526 u[2] + 951 u[3] + 800 u[4]
   + 734 u[5] + 641 u[6] + 304 u[7] + 449 u[8] + 182 u[9] + 8 u[10]
   + 919 u[11] + 360 u[12] + 64 u[13] + 137 u[14] + 817 u[15] + 433 u[16]
   + 140 u[17] + 309 u[18] + 402 u[19] + 89 u[20] + 764 u[21] + 320 u[22]
   + 403 u[23] + 177 u[24] + 188 u[25] + 782 u[26] + 356 u[27] + 874 u[28]
   + 651 u[29] + 942 u[30] + 912 u[31] + 240 u[32] + 225 u[33] + 24 u[34]
   + 765 u[35] + 992 u[36] + 697 u[37] + 632 u[38] + 931 u[39] + 795 u[40]
   + 710 u[41] + 770 u[42] + 578 u[43] + 323 u[44] + 55 u[45] + 286 u[46]
   + 214 u[47] + 795 u[48] + 316 u[49] + 571 u[50] + 252 u[51] + 873 u[52]
   + 560 u[53] + 957 u[54] + 908 u[55] + 301 u[56] + 319 u[57] + 232 u[58]
   + 862 u[59] <= 10511
 primal_lower419: 416 u[0] + 65 u[1] + 899 u[2] + 320 u[3] + 21 u[4]
   + 926 u[5] + 126 u[6] + 352 u[7] + 462 u[8] + 855 u[9] + 300 u[10]
   + 936 u[11] + 517 u[12] + 873 u[13] + 221 u[14] + 265 u[15] + 534 u[16]
   + 453 u[17] + 146 u[18] + 747 u[19] + 710 u[20] + 580 u[21] + 525 u[22]
   + 763 u[23] + 21 u[24] + 509 u[25] + 155 u[26] + 140 u[27] + 582 u[28]
   + 284 u[29] + 202 u[30] + 472 u[31] + 676 u[32] + 578 u[33] + 437 u[34]
   + 342 u[35] + 429 u[36] + 49 u[37] + 813 u[38] + 739 u[39] + 536 u[40]
   + 630 u[41] + 247 u[42] + 674 u[43] + 616 u[44] + 647 u[45] + 594 u[46]
   + 510 u[47] + 760 u[48] + 237 u[49] + 199 u[50] + 813 u[51] + 758 u[52]
   + 137 u[53] + 513 u[54] + 452 u[55] + 258 u[56] + 799 u[57] + 861 u[58]
   + 671 u[59] <= 9784
 primal_lower420: 655 u[0] + 291 u[1] + 777 u[2] + 578 u[3] + 115 u[4]
   + 977 u[5] + 44 u[6] + 395 u[7] + 4 u[8] + 241 u[9] + 787 u[10]
   + 530 u[11] + 283 u[12] + 947 u[13] + 332 u[14] + 580 u[15] + 388 u[16]
   + 839 u[17] + 632 u[18] + 29 u[19] + 60 u[20] + 439 u[21] + 995 u[22]
   + 382 u[23] + 892 u[24] + 743 u[25] + 977 u[26] + 599 u[27] + 989 u[28]
   + 494 u[29] + 97 u[30] + 83 u[31] + 507 u[32] + 148 u[33] + 715 u[34]
   + 832 u[35] + 355 u[36] + 676 u[37] + 755 u[38] + 486 u[39] + 94 u[40]
   + 689 u[41] + 933 u[42] + 269 u[43] + 918 u[44] + 834 u[45] + 721 u[46]
   + 273 u[47] + 598 u[48] + 103 u[49] + 782 u[50] + 271 u[51] + 36 u[52]
   + 171 u[53] + 192 u[54] + 127 u[55] + 144 u[56] + 106 u[57] + 851 u[58]
   + 273 u[59] <= 14516
 primal_lower421: 518 u[0] + 682 u[1] + 752 u[2] + 553 u[3] + 250 u[4]
   + 720 u[5] + 27 u[6] + 906 u[7] + 931 u[8] + 80 u[9] + 698 u[10]
   + 833 u[11] + 562 u[12] + 938 u[13] + 355 u[14] + 779 u[15] + 27 u[16]
   + 334 u[17] + 671 u[18] + 836 u[19] + 387 u[20] + 286 u[21] + 730 u[22]
   + 213 u[23] + 763 u[24] + 974 u[25] + 920 u[26] + 662 u[27] + 620 u[28]
   + 877 u[29] + 648 u[30] + 98 u[31] + 786 u[32] + 971 u[33] + 106 u[34]
   + 831 u[35] + 42 u[36] + 787 u[37] + 578 u[38] + 389 u[39] + 869 u[40]
   + 952 u[41] + 900 u[42] + 316 u[43] + 437 u[44] + 673 u[45] + 912 u[46]
   + 64 u[47] + 829 u[48] + 742 u[49] + 821 u[50] + 382 u[51] + 75 u[52]
   + 786 u[53] + 727 u[54] + 686 u[55] + 47 u[56] + 721 u[57] + 426 u[58]
   + 864 u[59] <= 17674
 primal_lower422: 504 u[0] + 401 u[1] + 979 u[2] + 848 u[3] + 21 u[4]
   + 118 u[5] + 886 u[6] + 288 u[7] + 878 u[8] + 567 u[9] + 804 u[10]
   + 960 u[11] + 421 u[12] + 393 u[13] + 421 u[14] + 553 u[15] + 878 u[16]
   + 677 u[17] + 978 u[18] + 155 u[19] + 710 u[20] + 308 u[21] + 397 u[22]
   + 347 u[23] + 997 u[24] + 117 u[25] + 155 u[26] + 196 u[27] + 430 u[28]
   + 764 u[29] + 746 u[30] + 528 u[31] + 196 u[32] + 674 u[33] + 869 u[34]
   + 678 u[35] + 741 u[36] + 689 u[37] + 541 u[38] + 643 u[39] + 496 u[40]
   + 22 u[41] + 159 u[42] + 386 u[43] + 240 u[44] + 495 u[45] + 834 u[46]
   + 654 u[47] + 432 u[48] + 461 u[49] + 87 u[50] + 565 u[51] + 910 u[52]
   + 721 u[53] + 769 u[54] + 892 u[55] + 962 u[56] + 351 u[57] + 933 u[58]
   + 519 u[59] <= 997
 primal_lower423: 393 u[0] + 26 u[1] + 668 u[2] + 121 u[3] + 598 u[4]
   + 655 u[5] + 175 u[6] + 537 u[7] + 431 u[8] + 960 u[9] + 773 u[10]
   + 929 u[11] + 702 u[12] + 226 u[13] + 302 u[14] + 626 u[15] + 671 u[16]
   + 814 u[17] + 251 u[18] + 636 u[19] + 431 u[20] + 413 u[21] + 310 u[22]
   + 428 u[23] + 918 u[24] + 966 u[25] + 52 u[26] + 477 u[27] + 199 u[28]
   + 573 u[29] + 131 u[30] + 673 u[31] + 493 u[32] + 99 u[33] + 446 u[34]
   + 775 u[35] + 654 u[36] + 602 u[37] + 494 u[38] + 708 u[39] + 505 u[40]
   + 439 u[41] + 768 u[42] + 355 u[43] + 785 u[44] + 336 u[45] + 155 u[46]
   + 751 u[47] + 641 u[48] + 462 u[49] + 664 u[50] + 590 u[51] + 703 u[52]
   + 26 u[53] + 514 u[54] + 933 u[55] + 787 u[56] + 416 u[57] + 774 u[58]
   + 336 u[59] <= 10425
 primal_lower424: 751 u[0] + 107 u[1] + 785 u[2] + 858 u[3] + 859 u[4]
   + 737 u[5] + 276 u[6] + 819 u[7] + 492 u[8] + 569 u[9] + 763 u[10]
   + 482 u[11] + 979 u[12] + 451 u[13] + 556 u[14] + 196 u[15] + 212 u[16]
   + 975 u[17] + 960 u[18] + 229 u[19] + 844 u[20] + 711 u[21] + 99 u[22]
   + 502 u[23] + 900 u[24] + 111 u[25] + 113 u[26] + 167 u[27] + 517 u[28]
   + 262 u[29] + 929 u[30] + 843 u[31] + 739 u[32] + 668 u[33] + 635 u[34]
   + 136 u[35] + 763 u[36] + 852 u[37] + 147 u[38] + 462 u[39] + 62 u[40]
   + 65 u[41] + 389 u[42] + 85 u[43] + 542 u[44] + 378 u[45] + 233 u[46]
   + 265 u[47] + 14 u[48] + 655 u[49] + 126 u[50] + 727 u[51] + 452 u[52]
   + 603 u[53] + 528 u[54] + 487 u[55] + 304 u[56] + 402 u[57] + 811 u[58]
   + 249 u[59] <= 9944
 primal_lower425: 679 u[0] + 120 u[1] + 458 u[2] + 719 u[3] + 60 u[4]
   + 37 u[5] + 469 u[6] + 295 u[7] + 229 u[8] + 862 u[9] + 27 u[10]
   + 607 u[11] + 756 u[12] + 728 u[13] + 804 u[14] + 40 u[15] + 813 u[16]
   + 180 u[17] + 473 u[18] + 98 u[19] + 813 u[20] + 715 u[21] + 868 u[22]
   + 274 u[23] + 188 u[24] + 588 u[25] + 562 u[26] + 163 u[27] + 453 u[28]
   + 739 u[29] + 9 u[30] + 87 u[31] + 979 u[32] + 753 u[33] + 956 u[34]
   + 717 u[35] + 564 u[36] + 872 u[37] + 12 u[38] + 938 u[39] + 167 u[40]
   + 845 u[41] + 910 u[42] + 497 u[43] + 111 u[44] + 462 u[45] + 497 u[46]
   + 37 u[47] + 375 u[48] + 724 u[49] + 406 u[50] + 644 u[51] + 757 u[52]
   + 336 u[53] + 800 u[54] + 203 u[55] + 657 u[56] + 406 u[57] + 620 u[58]
   + 702 u[59] <= 14930
 primal_lower426: 630 u[0] + 975 u[1] + 49 u[2] + 342 u[3] + 139 u[4]
   + 196 u[5] + 12 u[6] + 902 u[7] + 772 u[8] + 677 u[9] + 522 u[10]
   + 966 u[11] + 123 u[12] + 943 u[13] + 211 u[14] + 215 u[15] + 228 u[16]
   + 827 u[17] + 592 u[18] + 841 u[19] + 20 u[20] + 922 u[21] + 131 u[22]
   + 897 u[23] + 323 u[24] + 283 u[25] + 17 u[26] + 506 u[27] + 940 u[28]
   + 386 u[29] + 808 u[30] + 774 u[31] + 706 u[32] + 48 u[33] + 611 u[34]
   + 164 u[35] + 227 u[36] + 607 u[37] + 443 u[38] + 457 u[39] + 182 u[40]
   + 836 u[41] + 733 u[42] + 520 u[43] + 366 u[44] + 989 u[45] + 256 u[46]
   + 268 u[47] + 238 u[48] + 19 u[49] + 597 u[50] + 915 u[51] + 556 u[52]
   + 647 u[53] + 311 u[54] + 586 u[55] + 128 u[56] + 957 u[57] + 995 u[58]
   + 765 u[59] <= 20197
 primal_lower427: 863 u[0] + 328 u[1] + 50 u[2] + 711 u[3] + 436 u[4]
   + 757 u[5] + 333 u[6] + 799 u[7] + 877 u[8] + 334 u[9] + 475 u[10]
   + 671 u[11] + 332 u[12] + 400 u[13] + 844 u[14] + 824 u[15] + 365 u[16]
   + 980 u[17] + 617 u[18] + 442 u[19] + 669 u[20] + 443 u[21] + 956 u[22]
   + 106 u[23] + 372 u[24] + 228 u[25] + 730 u[26] + 491 u[27] + 21 u[28]
   + 219 u[29] + 545 u[30] + 863 u[31] + 403 u[32] + 409 u[33] + 780 u[34]
   + 389 u[35] + 100 u[36] + 48 u[37] + 652 u[38] + 914 u[39] + 871 u[40]
   + 669 u[41] + 910 u[42] + 905 u[43] + 647 u[44] + 838 u[45] + 369 u[46]
   + 629 u[47] + 543 u[48] + 908 u[49] + 134 u[50] + 916 u[51] + 901 u[52]
   + 896 u[53] + 832 u[54] + 299 u[55] + 465 u[56] + 806 u[57] + 644 u[58]
   + 806 u[59] <= 5794
 primal_lower428: 851 u[0] + 324 u[1] + 582 u[2] + 43 u[3] + 760 u[4]
   + 857 u[5] + 273 u[6] + 859 u[7] + 25 u[8] + 490 u[9] + 127 u[10]
   + 163 u[11] + 728 u[12] + 212 u[13] + 112 u[14] + 324 u[15] + 321 u[16]
   + 696 u[17] + 69 u[18] + 30 u[19] + 753 u[20] + 815 u[21] + 272 u[22]
   + 390 u[23] + 880 u[24] + 288 u[25] + 822 u[26] + 71 u[27] + 497 u[28]
   + 503 u[29] + 861 u[30] + 611 u[31] + 431 u[32] + 541 u[33] + 848 u[34]
   + 337 u[35] + 344 u[36] + 380 u[37] + 608 u[38] + 166 u[39] + 379 u[40]
   + 593 u[41] + 698 u[42] + 405 u[43] + 979 u[44] + 194 u[45] + 317 u[46]
   + 81 u[47] + 387 u[48] + 936 u[49] + 50 u[50] + 232 u[51] + 161 u[52]
   + 244 u[53] + 948 u[54] + 527 u[55] + 117 u[56] + 394 u[57] + 728 u[58]
   + 634 u[59] <= 13634
 primal_lower429: 393 u[0] + 610 u[1] + 844 u[2] + 961 u[3] + 686 u[4]
   + 199 u[5] + 303 u[6] + 961 u[7] + 687 u[8] + 848 u[9] + 53 u[10]
   + 385 u[11] + 222 u[12] + 866 u[13] + 414 u[14] + 722 u[15] + 791 u[16]
   + 630 u[17] + 507 u[18] + 308 u[19] + 567 u[20] + 269 u[21] + 670 u[22]
   + 916 u[23] + 734 u[24] + 350 u[25] + 156 u[26] + 661 u[27] + 815 u[28]
   + 69 u[29] + 299 u[30] + 25 u[31] + 421 u[32] + 131 u[33] + 134 u[34]
   + 879 u[35] + 390 u[36] + 546 u[37] + 990 u[38] + 748 u[39] + 169 u[40]
   + 831 u[41] + 48 u[42] + 411 u[43] + 865 u[44] + 976 u[45] + 675 u[46]
   + 351 u[47] + 321 u[48] + 214 u[49] + 256 u[50] + 758 u[51] + 975 u[52]
   + 234 u[53] + 330 u[54] + 365 u[55] + 203 u[56] + 400 u[57] + 230 u[58]
   + 408 u[59] <= 15090
 primal_lower430: 782 u[0] + 346 u[1] + 776 u[2] + 761 u[3] + 394 u[4]
   + 568 u[5] + 315 u[6] + 986 u[7] + 403 u[8] + 440 u[9] + 842 u[10]
   + 945 u[11] + 210 u[12] + 930 u[13] + 427 u[14] + 211 u[15] + 971 u[16]
   + 398 u[17] + 871 u[18] + 932 u[19] + 107 u[20] + 830 u[21] + 410 u[22]
   + 949 u[23] + 3 u[24] + 126 u[25] + 696 u[26] + 950 u[27] + 348 u[28]
   + 613 u[29] + 440 u[30] + 722 u[31] + 434 u[32] + 427 u[33] + 178 u[34]
   + 207 u[35] + 338 u[36] + 419 u[37] + 866 u[38] + 485 u[39] + 605 u[40]
   + 960 u[41] + 780 u[42] + 636 u[43] + 253 u[44] + 329 u[45] + 664 u[46]
   + 568 u[47] + 741 u[48] + 822 u[49] + 517 u[50] + 806 u[51] + 459 u[52]
   + 250 u[53] + 95 u[54] + 894 u[55] + 319 u[56] + 649 u[57] + 698 u[58]
   + 816 u[59] <= 16958
 primal_lower431: 386 u[0] + 339 u[1] + 973 u[2] + 642 u[3] + 271 u[4]
   + 304 u[5] + 736 u[6] + 986 u[7] + 360 u[8] + 537 u[9] + 614 u[10]
   + 674 u[11] + 727 u[12] + 187 u[13] + 967 u[14] + 587 u[15] + 504 u[16]
   + 71 u[17] + 236 u[18] + 805 u[19] + 744 u[20] + 518 u[21] + 663 u[22]
   + 133 u[23] + 463 u[24] + 687 u[25] + 77 u[26] + 382 u[27] + 1000 u[28]
   + 942 u[29] + 524 u[30] + 178 u[31] + 934 u[32] + 36 u[33] + 295 u[34]
   + 200 u[35] + 711 u[36] + 219 u[37] + 247 u[38] + 237 u[39] + 370 u[40]
   + 832 u[41] + 657 u[42] + 820 u[43] + 58 u[44] + 681 u[45] + 828 u[46]
   + 48 u[47] + 82 u[48] + 111 u[49] + 497 u[50] + 119 u[51] + 512 u[52]
   + 587 u[53] + 235 u[54] + 830 u[55] + 916 u[56] + 585 u[57] + 991 u[58]
   + 281 u[59] <= 15068
 primal_lower432: 672 u[0] + 700 u[1] + 738 u[2] + 419 u[3] + 852 u[4]
   + 978 u[5] + 261 u[6] + 580 u[7] + 909 u[8] + 450 u[9] + 348 u[10]
   + 251 u[11] + 420 u[12] + 796 u[13] + 797 u[14] + 493 u[15] + 701 u[16]
   + 504 u[17] + 313 u[18] + 118 u[19] + 501 u[20] + 160 u[21] + 308 u[22]
   + 959 u[23] + 557 u[24] + 864 u[25] + 18 u[26] + 424 u[27] + 814 u[28]
   + 63 u[29] + 122 u[30] + 236 u[31] + 276 u[32] + 317 u[33] + 716 u[34]
   + 761 u[35] + 588 u[36] + 709 u[37] + 364 u[38] + 239 u[39] + 791 u[40]
   + 314 u[41] + 766 u[42] + 574 u[43] + 399 u[44] + 675 u[45] + 306 u[46]
   + 58 u[47] + 487 u[48] + 864 u[49] + 319 u[50] + 840 u[51] + 805 u[52]
   + 36 u[53] + 721 u[54] + 280 u[55] + 481 u[56] + 707 u[57] + 444 u[58]
   + 898 u[59] <= 5176
 primal_lower433: 716 u[0] + 360 u[1] + 54 u[2] + 631 u[3] + 336 u[4]
   + 582 u[5] + 97 u[6] + 960 u[7] + 777 u[8] + 726 u[9] + 528 u[10]
   + 375 u[11] + 920 u[12] + 912 u[13] + 337 u[14] + 641 u[15] + 105 u[16]
   + 764 u[17] + 93 u[18] + 202 u[19] + 657 u[20] + 612 u[21] + 672 u[22]
   + 531 u[23] + 593 u[24] + 748 u[25] + 958 u[26] + 836 u[27] + 618 u[28]
   + 59 u[29] + 382 u[30] + 912 u[31] + 736 u[32] + 289 u[33] + 248 u[34]
   + 165 u[35] + 664 u[36] + 801 u[37] + 960 u[38] + 771 u[39] + 667 u[40]
   + 686 u[41] + 562 u[42] + 714 u[43] + 955 u[44] + 591 u[45] + 270 u[46]
   + 422 u[47] + 595 u[48] + 108 u[49] + 107 u[50] + 780 u[51] + 113 u[52]
   + 880 u[53] + 861 u[54] + 148 u[55] + 893 u[56] + 111 u[57] + 576 u[58]
   + 262 u[59] <= 21752
 primal_lower434: 115 u[0] + 639 u[1] + 917 u[2] + 758 u[3] + 399 u[4]
   + 965 u[5] + 416 u[6] + 943 u[7] + 8 u[8] + 605 u[9] + 455 u[10]
   + 574 u[11] + 815 u[12] + 879 u[13] + 464 u[14] + 952 u[15] + 640 u[16]
   + 75 u[17] + 436 u[18] + 705 u[19] + 16 u[20] + 475 u[21] + 487 u[22]
   + 794 u[23] + 16 u[24] + 643 u[25] + 813 u[26] + 187 u[27] + 809 u[28]
   + 714 u[29] + 125 u[30] + 159 u[31] + 119 u[32] + 608 u[33] + 999 u[34]
   + 916 u[35] + 535 u[36] + 568 u[37] + 63 u[38] + 450 u[39] + 42 u[40]
   + 69 u[41] + 209 u[42] + 865 u[43] + 698 u[44] + 422 u[45] + 837 u[46]
   + 805 u[47] + 82 u[48] + 539 u[49] + 42 u[50] + 523 u[51] + 112 u[52]
   + 671 u[53] + 852 u[54] + 555 u[55] + 196 u[56] + 262 u[57] + 663 u[58]
   + 765 u[59] <= 15232
 primal_lower435: 970 u[0] + 14 u[1] + 252 u[2] + 597 u[3] + 646 u[4]
   + 36 u[5] + 759 u[6] + 294 u[7] + 31 u[8] + 404 u[9] + 862 u[10]
   + 621 u[11] + 166 u[12] + 702 u[13] + 167 u[14] + 47 u[15] + 903 u[16]
   + 114 u[17] + 123 u[18] + 808 u[19] + 167 u[20] + 890 u[21] + 798 u[22]
   + 361 u[23] + 743 u[24] + 994 u[25] + 340 u[26] + 218 u[27] + 768 u[28]
   + 305 u[29] + 268 u[30] + 470 u[31] + 238 u[32] + 903 u[33] + 278 u[34]
   + 267 u[35] + 390 u[36] + 711 u[37] + 382 u[38] + 849 u[39] + 689 u[40]
   + 404 u[41] + 392 u[42] + 512 u[43] + 569 u[44] + 301 u[45] + 644 u[46]
   + 964 u[47] + 473 u[48] + 890 u[49] + 137 u[50] + 466 u[51] + 495 u[52]
   + 918 u[53] + 459 u[54] + 418 u[55] + 883 u[56] + 101 u[57] + 478 u[58]
   + 396 u[59] <= 14722
 primal_lower436: 731 u[0] + 996 u[1] + 982 u[2] + 931 u[3] + 496 u[4]
   + 185 u[5] + 481 u[6] + 11 u[7] + 465 u[8] + 274 u[9] + 903 u[10]
   + 963 u[11] + 576 u[12] + 964 u[13] + 416 u[14] + 172 u[15] + 457 u[16]
   + 120 u[17] + 925 u[18] + 206 u[19] + 641 u[20] + 943 u[21] + 664 u[22]
   + 398 u[23] + 936 u[24] + 400 u[25] + 102 u[26] + 543 u[27] + 945 u[28]
   + 671 u[29] + 925 u[30] + 547 u[31] + 167 u[32] + 157 u[33] + 600 u[34]
   + 961 u[35] + 792 u[36] + 540 u[37] + 352 u[38] + 110 u[39] + 763 u[40]
   + 761 u[41] + 746 u[42] + 685 u[43] + 59 u[44] + 34 u[45] + 573 u[46]
   + 169 u[47] + 355 u[48] + 96 u[49] + 362 u[50] + 312 u[51] + 361 u[52]
   + 420 u[53] + 676 u[54] + 47 u[55] + 877 u[56] + 418 u[57] + 168 u[58]
   + 610 u[59] <= 5190
 primal_lower437: 265 u[0] + 981 u[1] + 651 u[2] + 940 u[3] + 733 u[4]
   + 595 u[5] + 702 u[6] + 493 u[7] + 374 u[8] + 131 u[9] + 813 u[10]
   + 276 u[11] + 533 u[12] + 349 u[13] + 902 u[14] + 294 u[15] + 46 u[16]
   + 329 u[17] + 362 u[18] + 455 u[19] + 414 u[20] + 377 u[21] + 229 u[22]
   + 824 u[23] + 238 u[24] + 425 u[25] + 859 u[26] + 97 u[27] + 551 u[28]
   + 776 u[29] + 699 u[30] + 557 u[31] + 93 u[32] + 598 u[33] + 541 u[34]
   + 82 u[35] + 109 u[36] + 118 u[37] + 205 u[38] + 960 u[39] + 168 u[40]
   + 587 u[41] + 167 u[42] + 239 u[43] + 344 u[44] + 20 u[45] + 339 u[46]
   + 315 u[47] + 616 u[48] + 249 u[49] + 616 u[50] + 345 u[51] + 974 u[52]
   + 213 u[53] + 194 u[54] + 137 u[55] + 786 u[56] + 740 u[57] + 781 u[58]
   + 923 u[59] <= 18486
 primal_lower438: 118 u[0] + 186 u[1] + 600 u[2] + 649 u[3] + 170 u[4]
   + 952 u[5] + 699 u[6] + 18 u[7] + 251 u[8] + 736 u[9] + 826 u[10]
   + 649 u[11] + 586 u[12] + 282 u[13] + 43 u[14] + 715 u[15] + 755 u[16]
   + 694 u[17] + 519 u[18] + 68 u[19] + 739 u[20] + 254 u[21] + 746 u[22]
   + 213 u[23] + 275 u[24] + 390 u[25] + 800 u[26] + 38 u[27] + 996 u[28]
   + 437 u[29] + 88 u[30] + 386 u[31] + 794 u[32] + 211 u[33] + 490 u[34]
   + 991 u[35] + 746 u[36] + 155 u[37] + 690 u[38] + 469 u[39] + 53 u[40]
   + 976 u[41] + 316 u[42] + 724 u[43] + 453 u[44] + 25 u[45] + 400 u[46]
   + 496 u[47] + 341 u[48] + 470 u[49] + 797 u[50] + 214 u[51] + 155 u[52]
   + 130 u[53] + 663 u[54] + 254 u[55] + 287 u[56] + 41 u[57] + 666 u[58]
   + 512 u[59] <= 9132
 primal_lower439: 259 u[0] + 100 u[1] + 14 u[2] + 995 u[3] + 872 u[4]
   + 425 u[5] + 377 u[6] + 787 u[7] + 665 u[8] + 498 u[9] + 279 u[10]
   + 27 u[11] + 584 u[12] + 588 u[13] + 480 u[14] + 324 u[15] + 465 u[16]
   + 680 u[17] + 581 u[18] + 70 u[19] + 217 u[20] + 695 u[21] + 192 u[22]
   + 550 u[23] + 848 u[24] + 896 u[25] + 758 u[26] + 687 u[27] + 17 u[28]
   + 447 u[29] + 485 u[30] + 147 u[31] + 391 u[32] + 485 u[33] + 48 u[34]
   + 625 u[35] + 928 u[36] + 940 u[37] + 424 u[38] + 342 u[39] + 899 u[40]
   + 361 u[41] + 402 u[42] + 381 u[43] + 771 u[44] + 794 u[45] + 597 u[46]
   + 585 u[47] + 51 u[48] + 816 u[49] + 154 u[50] + 136 u[51] + 401 u[52]
   + 556 u[53] + 420 u[54] + 895 u[55] + 29 u[56] + 450 u[57] + 168 u[58]
   + 586 u[59] <= 9548
 primal_lower440: 278 u[0] + 970 u[1] + 432 u[2] + 337 u[3] + 282 u[4]
   + 416 u[5] + 571 u[6] + 258 u[7] + 259 u[8] + 216 u[9] + 858 u[10]
   + 345 u[11] + 282 u[12] + 410 u[13] + 539 u[14] + 595 u[15] + 339 u[16]
   + 742 u[17] + 15 u[18] + 260 u[19] + 91 u[20] + 198 u[21] + 18 u[22]
   + 293 u[23] + 483 u[24] + 534 u[25] + 64 u[26] + 902 u[27] + 132 u[28]
   + 981 u[29] + 424 u[30] + 202 u[31] + 394 u[32] + 355 u[33] + 138 u[34]
   + 663 u[35] + 314 u[36] + 939 u[37] + 546 u[38] + 989 u[39] + 437 u[40]
   + 40 u[41] + 364 u[42] + 188 u[43] + 925 u[44] + 753 u[45] + 496 u[46]
   + 784 u[47] + 685 u[48] + 462 u[49] + 949 u[50] + 286 u[51] + 91 u[52]
   + 594 u[53] + 743 u[54] + 238 u[55] + 623 u[56] + 409 u[57] + 122 u[58]
   + 536 u[59] <= 8929
 primal_lower441: 150 u[0] + 458 u[1] + 760 u[2] + 569 u[3] + 498 u[4]
   + 280 u[5] + 299 u[6] + 706 u[7] + 635 u[8] + 136 u[9] + 186 u[10]
   + 705 u[11] + 218 u[12] + 594 u[13] + 467 u[14] + 19 u[15] + 731 u[16]
   + 118 u[17] + 191 u[18] + 956 u[19] + 675 u[20] + 22 u[21] + 554 u[22]
   + 549 u[23] + 587 u[24] + 502 u[25] + 584 u[26] + 198 u[27] + 292 u[28]
   + 917 u[29] + 384 u[30] + 546 u[31] + 746 u[32] + 659 u[33] + 266 u[34]
   + 295 u[35] + 970 u[36] + 435 u[37] + 298 u[38] + 53 u[39] + 653 u[40]
   + 304 u[41] + 708 u[42] + 692 u[43] + 365 u[44] + 113 u[45] + 168 u[46]
   + 264 u[47] + 109 u[48] + 374 u[49] + 173 u[50] + 838 u[51] + 787 u[52]
   + 666 u[53] + 663 u[54] + 494 u[55] + 239 u[56] + 729 u[57] + 570 u[58]
   + 656 u[59] <= 9257
 primal_lower442: 701 u[0] + 670 u[1] + 272 u[2] + 821 u[3] + 522 u[4]
   + 819 u[5] + 323 u[6] + 461 u[7] + 131 u[8] + 812 u[9] + 601 u[10]
   + 309 u[11] + 90 u[12] + 302 u[13] + 882 u[14] + 150 u[15] + 899 u[16]
   + 530 u[17] + 663 u[18] + 912 u[19] + 523 u[20] + 305 u[21] + 106 u[22]
   + 432 u[23] + 498 u[24] + 554 u[25] + 144 u[26] + 625 u[27] + 355 u[28]
   + 449 u[29] + 719 u[30] + 405 u[31] + 545 u[32] + 759 u[33] + 362 u[34]
   + 531 u[35] + 10 u[36] + 502 u[37] + 570 u[38] + 752 u[39] + 493 u[40]
   + 963 u[41] + 28 u[42] + 7 u[43] + 437 u[44] + 508 u[45] + 231 u[46]
   + 947 u[47] + 469 u[48] + 146 u[49] + 452 u[50] + 146 u[51] + 699 u[52]
   + 934 u[53] + 494 u[54] + 689 u[55] + 431 u[56] + 788 u[57] + 778 u[58]
   + 332 u[59] <= 19992
 primal_lower443: 972 u[0] + 389 u[1] + 991 u[2] + 892 u[3] + 881 u[4]
   + 490 u[5] + 810 u[6] + 196 u[7] + 298 u[8] + 131 u[9] + 272 u[10]
   + 28 u[11] + 473 u[12] + 685 u[13] + 289 u[14] + 205 u[15] + 50 u[16]
   + 345 u[17] + 718 u[18] + 511 u[19] + 362 u[20] + 152 u[21] + 257 u[22]
   + 7 u[23] + 377 u[24] + 297 u[25] + 615 u[26] + 472 u[27] + 298 u[28]
   + 400 u[29] + 678 u[30] + 108 u[31] + 352 u[32] + 774 u[33] + 481 u[34]
   + 210 u[35] + 337 u[36] + 205 u[37] + 833 u[38] + 215 u[39] + 804 u[40]
   + 746 u[41] + 3 u[42] + 694 u[43] + 524 u[44] + 651 u[45] + 46 u[46]
   + 458 u[47] + 60 u[48] + 801 u[49] + 683 u[50] + 345 u[51] + 954 u[52]
   + 445 u[53] + 637 u[54] + 40 u[55] + 902 u[56] + 883 u[57] + 529 u[58]
   + 203 u[59] <= 13732
 primal_lower444: 561 u[0] + 922 u[1] + 540 u[2] + 337 u[3] + 110 u[4]
   + 319 u[5] + 791 u[6] + 81 u[7] + 47 u[8] + 472 u[9] + 333 u[10]
   + 121 u[11] + 294 u[12] + 674 u[13] + 606 u[14] + 122 u[15] + 951 u[16]
   + 422 u[17] + 971 u[18] + 516 u[19] + 471 u[20] + 141 u[21] + 894 u[22]
   + 988 u[23] + 798 u[24] + 870 u[25] + 596 u[26] + 997 u[27] + 807 u[28]
   + 181 u[29] + 27 u[30] + 233 u[31] + 29 u[32] + 835 u[33] + 166 u[34]
   + 551 u[35] + 550 u[36] + 426 u[37] + 790 u[38] + 108 u[39] + 553 u[40]
   + 319 u[41] + 208 u[42] + 19 u[43] + 73 u[44] + 496 u[45] + 819 u[46]
   + 807 u[47] + 457 u[48] + 486 u[49] + 944 u[50] + 38 u[51] + 919 u[52]
   + 26 u[53] + 122 u[54] + 285 u[55] + 539 u[56] + 232 u[57] + 678 u[58]
   + 64 u[59] <= 997
 primal_lower445: 398 u[0] + 791 u[1] + 593 u[2] + 814 u[3] + 291 u[4]
   + 548 u[5] + 172 u[6] + 326 u[7] + 452 u[8] + 957 u[9] + 738 u[10]
   + 326 u[11] + 219 u[12] + 95 u[13] + 283 u[14] + 551 u[15] + 924 u[16]
   + 979 u[17] + 904 u[18] + 281 u[19] + 892 u[20] + 570 u[21] + 563 u[22]
   + 969 u[23] + 707 u[24] + 219 u[25] + 529 u[26] + 218 u[27] + 500 u[28]
   + 58 u[29] + 976 u[30] + 270 u[31] + 322 u[32] + 992 u[33] + 219 u[34]
   + 996 u[35] + 91 u[36] + 855 u[37] + 547 u[38] + 89 u[39] + 750 u[40]
   + 156 u[41] + 309 u[42] + 536 u[43] + 590 u[44] + 861 u[45] + 696 u[46]
   + 156 u[47] + 78 u[48] + 19 u[49] + 261 u[50] + 835 u[51] + 580 u[52]
   + 975 u[53] + 39 u[54] + 882 u[55] + 512 u[56] + 917 u[57] + 491 u[58]
   + 69 u[59] <= 996
 primal_lower446: 982 u[0] + 903 u[1] + 929 u[2] + 142 u[3] + 779 u[4]
   + 780 u[5] + 324 u[6] + 902 u[7] + 12 u[8] + 725 u[9] + 58 u[10]
   + 158 u[11] + 467 u[12] + 399 u[13] + 915 u[14] + 935 u[15] + 468 u[16]
   + 435 u[17] + 360 u[18] + 553 u[19] + 932 u[20] + 98 u[21] + 331 u[22]
   + 137 u[23] + 259 u[24] + 659 u[25] + 313 u[26] + 138 u[27] + 700 u[28]
   + 50 u[29] + 792 u[30] + 990 u[31] + 426 u[32] + 264 u[33] + 755 u[34]
   + 796 u[35] + 179 u[36] + 255 u[37] + 907 u[38] + 649 u[39] + 374 u[40]
   + 956 u[41] + 213 u[42] + 168 u[43] + 982 u[44] + 637 u[45] + 40 u[46]
   + 884 u[47] + 942 u[48] + 107 u[49] + 221 u[50] + 747 u[51] + 60 u[52]
   + 127 u[53] + 847 u[54] + 338 u[55] + 376 u[56] + 605 u[57] + 603 u[58]
   + 413 u[59] <= 990
 primal_lower447: 110 u[0] + 559 u[1] + 745 u[2] + 430 u[3] + 451 u[4]
   + 532 u[5] + 228 u[6] + 374 u[7] + 812 u[8] + 325 u[9] + 338 u[10]
   + 958 u[11] + 275 u[12] + 447 u[13] + 531 u[14] + 23 u[15] + 108 u[16]
   + 379 u[17] + 336 u[18] + 257 u[19] + 436 u[20] + 818 u[21] + 979 u[22]
   + 937 u[23] + 507 u[24] + 379 u[25] + 889 u[26] + 42 u[27] + 132 u[28]
   + 666 u[29] + 896 u[30] + 566 u[31] + 954 u[32] + 968 u[33] + 59 u[34]
   + 652 u[35] + 515 u[36] + 391 u[37] + 563 u[38] + 113 u[39] + 686 u[40]
   + 828 u[41] + 661 u[42] + 504 u[43] + 254 u[44] + 845 u[45] + 944 u[46]
   + 860 u[47] + 6 u[48] + 699 u[49] + 69 u[50] + 907 u[51] + 732 u[52]
   + 87 u[53] + 159 u[54] + 770 u[55] + 312 u[56] + 485 u[57] + 563 u[58]
   + 541 u[59] <= 15296
 primal_lower448: 485 u[0] + 689 u[1] + 391 u[2] + 488 u[3] + 625 u[4]
   + 631 u[5] + 322 u[6] + 297 u[7] + 618 u[8] + 319 u[9] + 137 u[10]
   + 48 u[11] + 321 u[12] + 929 u[13] + 810 u[14] + 994 u[15] + 594 u[16]
   + 613 u[17] + 782 u[18] + 971 u[19] + 162 u[20] + 773 u[21] + 265 u[22]
   + 908 u[23] + 154 u[24] + 381 u[25] + 647 u[26] + 413 u[27] + 659 u[28]
   + 100 u[29] + 215 u[30] + 193 u[31] + 937 u[32] + 306 u[33] + 737 u[34]
   + 406 u[35] + 705 u[36] + 978 u[37] + 529 u[38] + 436 u[39] + 900 u[40]
   + 719 u[41] + 387 u[42] + 355 u[43] + 884 u[44] + 400 u[45] + 407 u[46]
   + 991 u[47] + 564 u[48] + 885 u[49] + 116 u[50] + 869 u[51] + 402 u[52]
   + 601 u[53] + 14 u[54] + 717 u[55] + 238 u[56] + 952 u[57] + 961 u[58]
   + 183 u[59] <= 5418
 primal_lower449: 328 u[0] + 100 u[1] + 154 u[2] + 251 u[3] + 76 u[4]
   + 178 u[5] + 837 u[6] + 284 u[7] + 557 u[8] + 450 u[9] + 60 u[10]
   + 739 u[11] + 868 u[12] + 68 u[13] + 37 u[14] + 29 u[15] + 173 u[16]
   + 416 u[17] + u[18] + 910 u[19] + 453 u[20] + 376 u[21] + 52 u[22]
   + 231 u[23] + 909 u[24] + 816 u[25] + 906 u[26] + 136 u[27] + 894 u[28]
   + 823 u[29] + 282 u[30] + 716 u[31] + 996 u[32] + 757 u[33] + 956 u[34]
   + 745 u[35] + 100 u[36] + 357 u[37] + 604 u[38] + 559 u[39] + 199 u[40]
   + 618 u[41] + 142 u[42] + 422 u[43] + 775 u[44] + 315 u[45] + 842 u[46]
   + 474 u[47] + 543 u[48] + 600 u[49] + 815 u[50] + 272 u[51] + 669 u[52]
   + 12 u[53] + 89 u[54] + 184 u[55] + 641 u[56] + 307 u[57] + 172 u[58]
   + 298 u[59] <= 996
 primal_lower450: 509 u[0] + 6 u[1] + 120 u[2] + 725 u[3] + 794 u[4]
   + 603 u[5] + 355 u[6] + 789 u[7] + 43 u[8] + 884 u[9] + 401 u[10]
   + 421 u[11] + 482 u[12] + 934 u[13] + 930 u[14] + 166 u[15] + 755 u[16]
   + 626 u[17] + 631 u[18] + 160 u[19] + 395 u[20] + 289 u[21] + 322 u[22]
   + 392 u[23] + 722 u[24] + 842 u[25] + 416 u[26] + 505 u[27] + 707 u[28]
   + 401 u[29] + 311 u[30] + 501 u[31] + 737 u[32] + 215 u[33] + 650 u[34]
   + 75 u[35] + 834 u[36] + 854 u[37] + 842 u[38] + 464 u[39] + 5 u[40]
   + 763 u[41] + 396 u[42] + 911 u[43] + 437 u[44] + 244 u[45] + 679 u[46]
   + 995 u[47] + 925 u[48] + 970 u[49] + 108 u[50] + 226 u[51] + 883 u[52]
   + 126 u[53] + 86 u[54] + 257 u[55] + 255 u[56] + 100 u[57] + 818 u[58]
   + 692 u[59] <= 10228
 primal_lower451: 580 u[0] + 576 u[1] + 590 u[2] + 223 u[3] + 320 u[4]
   + 238 u[5] + 617 u[6] + 232 u[7] + 201 u[8] + 30 u[9] + 192 u[10]
   + 143 u[11] + 40 u[12] + 208 u[13] + 553 u[14] + 689 u[15] + 745 u[16]
   + 868 u[17] + 797 u[18] + 514 u[19] + 641 u[20] + 580 u[21] + 376 u[22]
   + 403 u[23] + 801 u[24] + 436 u[25] + 518 u[26] + 300 u[27] + 322 u[28]
   + 803 u[29] + 358 u[30] + 712 u[31] + 512 u[32] + 977 u[33] + 464 u[34]
   + 213 u[35] + 480 u[36] + 169 u[37] + 144 u[38] + 611 u[39] + 867 u[40]
   + 582 u[41] + 682 u[42] + 410 u[43] + 883 u[44] + 647 u[45] + 934 u[46]
   + 518 u[47] + 531 u[48] + 604 u[49] + 707 u[50] + 132 u[51] + 17 u[52]
   + 848 u[53] + 933 u[54] + 236 u[55] + 45 u[56] + 543 u[57] + 680 u[58]
   + 614 u[59] <= 9863
 primal_lower452: 667 u[0] + 676 u[1] + 70 u[2] + 83 u[3] + 728 u[4]
   + 313 u[5] + 945 u[6] + 155 u[7] + 649 u[8] + 602 u[9] + 815 u[10]
   + 723 u[11] + 856 u[12] + 12 u[13] + 288 u[14] + 444 u[15] + 745 u[16]
   + 248 u[17] + 389 u[18] + 598 u[19] + 993 u[20] + 39 u[21] + 912 u[22]
   + 422 u[23] + 248 u[24] + 456 u[25] + 318 u[26] + 983 u[27] + 521 u[28]
   + 247 u[29] + 53 u[30] + 603 u[31] + 783 u[32] + 717 u[33] + 248 u[34]
   + 529 u[35] + 384 u[36] + 700 u[37] + 192 u[38] + 190 u[39] + 19 u[40]
   + 129 u[41] + 42 u[42] + 901 u[43] + 627 u[44] + 890 u[45] + 341 u[46]
   + 761 u[47] + 491 u[48] + 240 u[49] + 842 u[50] + 288 u[51] + u[52]
   + 804 u[53] + 276 u[54] + 983 u[55] + 349 u[56] + 482 u[57] + 336 u[58]
   + 954 u[59] <= 14650
 primal_lower453: 636 u[0] + 528 u[1] + 582 u[2] + 495 u[3] + 800 u[4]
   + 270 u[5] + 809 u[6] + 888 u[7] + 817 u[8] + 950 u[9] + 360 u[10]
   + 823 u[11] + 304 u[12] + 856 u[13] + 697 u[14] + 41 u[15] + 321 u[16]
   + 324 u[17] + 805 u[18] + 994 u[19] + 841 u[20] + 820 u[21] + 120 u[22]
   + 99 u[23] + 857 u[24] + 332 u[25] + 614 u[26] + 564 u[27] + 258 u[28]
   + 787 u[29] + 262 u[30] + 872 u[31] + 720 u[32] + 881 u[33] + 80 u[34]
   + 125 u[35] + 808 u[36] + u[37] + 104 u[38] + 459 u[39] + 963 u[40]
   + 726 u[41] + 298 u[42] + 658 u[43] + 83 u[44] + 871 u[45] + 134 u[46]
   + 374 u[47] + 619 u[48] + 564 u[49] + 379 u[50] + 964 u[51] + 881 u[52]
   + 512 u[53] + 749 u[54] + 164 u[55] + 813 u[56] + 839 u[57] + 416 u[58]
   + 702 u[59] <= 16806
 primal_lower454: 632 u[0] + 36 u[1] + 370 u[2] + 923 u[3] + 300 u[4]
   + 634 u[5] + 725 u[6] + 260 u[7] + 341 u[8] + 186 u[9] + 540 u[10]
   + 419 u[11] + 708 u[12] + 12 u[13] + 493 u[14] + 429 u[15] + 445 u[16]
   + 584 u[17] + 129 u[18] + 726 u[19] + 269 u[20] + 16 u[21] + 436 u[22]
   + 719 u[23] + 349 u[24] + 320 u[25] + 298 u[26] + 832 u[27] + 6 u[28]
   + 63 u[29] + 610 u[30] + 516 u[31] + 996 u[32] + 749 u[33] + 124 u[34]
   + 889 u[35] + 124 u[36] + 973 u[37] + 476 u[38] + 119 u[39] + 31 u[40]
   + 274 u[41] + 158 u[42] + 726 u[43] + 359 u[44] + 907 u[45] + 690 u[46]
   + 218 u[47] + 727 u[48] + 800 u[49] + 215 u[50] + 184 u[51] + 197 u[52]
   + 652 u[53] + 681 u[54] + 24 u[55] + 585 u[56] + 75 u[57] + 620 u[58]
   + 538 u[59] <= 4406
 primal_lower455: 14 u[0] + 623 u[1] + 769 u[2] + 86 u[3] + 19 u[4]
   + 420 u[5] + 924 u[6] + 158 u[7] + 780 u[8] + 637 u[9] + 282 u[10]
   + 142 u[11] + 787 u[12] + 191 u[13] + 875 u[14] + 407 u[15] + 332 u[16]
   + 923 u[17] + 272 u[18] + 41 u[19] + 268 u[20] + 258 u[21] + 419 u[22]
   + 89 u[23] + 587 u[24] + 203 u[25] + 425 u[26] + 186 u[27] + 612 u[28]
   + 258 u[29] + 416 u[30] + 270 u[31] + 170 u[32] + 976 u[33] + 499 u[34]
   + 428 u[35] + 763 u[36] + 839 u[37] + 531 u[38] + 561 u[39] + 222 u[40]
   + 732 u[41] + 325 u[42] + 72 u[43] + 454 u[44] + 349 u[45] + 640 u[46]
   + 900 u[47] + 470 u[48] + 171 u[49] + 685 u[50] + 795 u[51] + 540 u[52]
   + 415 u[53] + 103 u[54] + 498 u[55] + 880 u[56] + 829 u[57] + 147 u[58]
   + 717 u[59] <= 9128
 primal_lower456: 845 u[0] + 185 u[1] + 951 u[2] + 920 u[3] + u[4]
   + 735 u[5] + 706 u[6] + 865 u[7] + 906 u[8] + 23 u[9] + 593 u[10]
   + 968 u[11] + 705 u[12] + 449 u[13] + 250 u[14] + 162 u[15] + 642 u[16]
   + 861 u[17] + 590 u[18] + 131 u[19] + 210 u[20] + 957 u[21] + 481 u[22]
   + 100 u[23] + 98 u[24] + 853 u[25] + 623 u[26] + 469 u[27] + 115 u[28]
   + 540 u[29] + 31 u[30] + 273 u[31] + 401 u[32] + 962 u[33] + 809 u[34]
   + 750 u[35] + 249 u[36] + 434 u[37] + 433 u[38] + 28 u[39] + 524 u[40]
   + 327 u[41] + 211 u[42] + 187 u[43] + 284 u[44] + 472 u[45] + 759 u[46]
   + 487 u[47] + 76 u[48] + 517 u[49] + 812 u[50] + 645 u[51] + 42 u[52]
   + 713 u[53] + 750 u[54] + 885 u[55] + 646 u[56] + 648 u[57] + 745 u[58]
   + 983 u[59] <= 5169
 primal_lower457: 235 u[0] + 407 u[1] + 437 u[2] + 838 u[3] + 127 u[4]
   + 461 u[5] + 480 u[6] + 799 u[7] + 104 u[8] + 45 u[9] + 735 u[10]
   + 150 u[11] + 879 u[12] + 847 u[13] + 944 u[14] + 8 u[15] + 720 u[16]
   + 491 u[17] + 308 u[18] + 425 u[19] + 32 u[20] + 203 u[21] + 559 u[22]
   + 730 u[23] + 600 u[24] + 531 u[25] + 869 u[26] + 475 u[27] + 769 u[28]
   + 130 u[29] + 333 u[30] + 455 u[31] + 607 u[32] + 160 u[33] + 23 u[34]
   + 428 u[35] + 319 u[36] + 720 u[37] + 95 u[38] + 314 u[39] + 314 u[40]
   + 541 u[41] + 817 u[42] + 873 u[43] + 434 u[44] + 510 u[45] + 685 u[46]
   + 637 u[47] + 650 u[48] + 83 u[49] + 210 u[50] + 115 u[51] + 928 u[52]
   + 375 u[53] + 764 u[54] + 483 u[55] + 396 u[56] + 558 u[57] + 591 u[58]
   + 365 u[59] <= 14060
 primal_lower458: 75 u[0] + 343 u[1] + 357 u[2] + 646 u[3] + 735 u[4]
   + 477 u[5] + 640 u[6] + 727 u[7] + 64 u[8] + 877 u[9] + 591 u[10]
   + 94 u[11] + 863 u[12] + 639 u[13] + 160 u[14] + 664 u[15] + 424 u[16]
   + 163 u[17] + 900 u[18] + 601 u[19] + 216 u[20] + 739 u[21] + 247 u[22]
   + 714 u[23] + 184 u[24] + 411 u[25] + 621 u[26] + 867 u[27] + 633 u[28]
   + 298 u[29] + 173 u[30] + 215 u[31] + 439 u[32] + 536 u[33] + 111 u[34]
   + 772 u[35] + 159 u[36] + 520 u[37] + 903 u[38] + 34 u[39] + 914 u[40]
   + 5 u[41] + 777 u[42] + 849 u[43] + 202 u[44] + 678 u[45] + 149 u[46]
   + 77 u[47] + 250 u[48] + 699 u[49] + 306 u[50] + 979 u[51] + 184 u[52]
   + 87 u[53] + 308 u[54] + 147 u[55] + 436 u[56] + 774 u[57] + 535 u[58]
   + 885 u[59] <= 4678
 primal_lower459: 185 u[0] + 450 u[1] + 740 u[2] + 169 u[3] + 326 u[4]
   + 743 u[5] + 415 u[6] + 833 u[7] + 431 u[8] + 72 u[9] + 493 u[10]
   + 697 u[11] + 86 u[12] + 730 u[13] + 118 u[14] + 498 u[15] + 791 u[16]
   + 550 u[17] + 819 u[18] + 252 u[19] + 479 u[20] + 277 u[21] + 422 u[22]
   + 268 u[23] + 974 u[24] + 998 u[25] + 68 u[26] + 613 u[27] + 623 u[28]
   + 749 u[29] + 195 u[30] + 713 u[31] + 741 u[32] + 635 u[33] + 14 u[34]
   + 807 u[35] + 286 u[36] + 394 u[37] + 902 u[38] + 884 u[39] + 353 u[40]
   + 911 u[41] + 896 u[42] + 3 u[43] + 25 u[44] + 248 u[45] + 659 u[46]
   + 919 u[47] + u[48] + 230 u[49] + 704 u[50] + 158 u[51] + 431 u[52]
   + 210 u[53] + 914 u[54] + 509 u[55] + 547 u[56] + 1000 u[57] + 430 u[58]
   + 680 u[59] <= 10089
 primal_lower460: 989 u[0] + 137 u[1] + 767 u[2] + 848 u[3] + 49 u[4]
   + 47 u[5] + 994 u[6] + 425 u[7] + 26 u[8] + 183 u[9] + 233 u[10]
   + 592 u[11] + 457 u[12] + 505 u[13] + 266 u[14] + 610 u[15] + 274 u[16]
   + 757 u[17] + 902 u[18] + 435 u[19] + 986 u[20] + 117 u[21] + 201 u[22]
   + 28 u[23] + 762 u[24] + 973 u[25] + 567 u[26] + 173 u[27] + 883 u[28]
   + 92 u[29] + 775 u[30] + 369 u[31] + 233 u[32] + 906 u[33] + 137 u[34]
   + 838 u[35] + 385 u[36] + 274 u[37] + 209 u[38] + 548 u[39] + 764 u[40]
   + 919 u[41] + 115 u[42] + 187 u[43] + 652 u[44] + 832 u[45] + 591 u[46]
   + 615 u[47] + 692 u[48] + 269 u[49] + 644 u[50] + 541 u[51] + 994 u[52]
   + 17 u[53] + 646 u[54] + 461 u[55] + 854 u[56] + 832 u[57] + 81 u[58]
   + 615 u[59] <= 10091
 primal_lower461: 694 u[0] + 463 u[1] + 473 u[2] + 358 u[3] + 995 u[4]
   + 372 u[5] + 548 u[6] + 190 u[7] + 396 u[8] + 837 u[9] + 746 u[10]
   + 662 u[11] + 155 u[12] + 223 u[13] + 803 u[14] + 967 u[15] + 52 u[16]
   + 443 u[17] + 888 u[18] + 849 u[19] + 268 u[20] + 434 u[21] + 411 u[22]
   + 257 u[23] + 995 u[24] + 987 u[25] + 281 u[26] + 178 u[27] + 940 u[28]
   + 890 u[29] + 352 u[30] + 598 u[31] + 298 u[32] + 416 u[33] + 995 u[34]
   + 268 u[35] + 83 u[36] + 335 u[37] + 587 u[38] + 857 u[39] + 678 u[40]
   + 828 u[41] + 717 u[42] + 560 u[43] + 46 u[44] + 701 u[45] + 40 u[46]
   + 620 u[47] + 342 u[48] + 715 u[49] + 413 u[50] + 515 u[51] + 260 u[52]
   + 703 u[53] + 263 u[54] + 922 u[55] + 296 u[56] + 549 u[57] + 995 u[58]
   + 69 u[59] <= 995
 primal_lower462: 203 u[0] + 927 u[1] + 141 u[2] + 998 u[3] + 287 u[4]
   + 773 u[5] + 616 u[6] + 183 u[7] + 600 u[8] + 645 u[9] + 567 u[10]
   + 758 u[11] + 271 u[12] + 631 u[13] + 16 u[14] + 752 u[15] + 16 u[16]
   + 619 u[17] + 612 u[18] + 321 u[19] + 912 u[20] + 555 u[21] + 351 u[22]
   + 434 u[23] + 152 u[24] + 939 u[25] + 909 u[26] + 251 u[27] + 249 u[28]
   + 554 u[29] + 925 u[30] + 327 u[31] + 711 u[32] + 904 u[33] + 863 u[34]
   + 548 u[35] + 839 u[36] + 648 u[37] + 7 u[38] + 690 u[39] + 722 u[40]
   + 597 u[41] + 913 u[42] + 609 u[43] + 34 u[44] + 222 u[45] + 653 u[46]
   + 213 u[47] + 242 u[48] + 267 u[49] + 2 u[50] + 987 u[51] + 824 u[52]
   + 287 u[53] + 532 u[54] + 683 u[55] + 452 u[56] + 630 u[57] + 759 u[58]
   + 861 u[59] <= 16096
 primal_lower463: 452 u[0] + 845 u[1] + 879 u[2] + 212 u[3] + 985 u[4]
   + 898 u[5] + 450 u[6] + 620 u[7] + 490 u[8] + 467 u[9] + 8 u[10]
   + 716 u[11] + 113 u[12] + 173 u[13] + 209 u[14] + 621 u[15] + 986 u[16]
   + 817 u[17] + 590 u[18] + 391 u[19] + 234 u[20] + 64 u[21] + 353 u[22]
   + 943 u[23] + 905 u[24] + 657 u[25] + 647 u[26] + 816 u[27] + 714 u[28]
   + 64 u[29] + 702 u[30] + 484 u[31] + 304 u[32] + 982 u[33] + 577 u[34]
   + 66 u[35] + 665 u[36] + 813 u[37] + 769 u[38] + 671 u[39] + 700 u[40]
   + 826 u[41] + 627 u[42] + 534 u[43] + 852 u[44] + 811 u[45] + 54 u[46]
   + 786 u[47] + 140 u[48] + 785 u[49] + 547 u[50] + 521 u[51] + 218 u[52]
   + 261 u[53] + 477 u[54] + 136 u[55] + 318 u[56] + 875 u[57] + 241 u[58]
   + 795 u[59] <= 5476
 primal_lower464: 135 u[0] + 352 u[1] + 426 u[2] + 439 u[3] + 420 u[4]
   + 573 u[5] + 429 u[6] + 519 u[7] + 85 u[8] + 158 u[9] + 539 u[10]
   + 367 u[11] + 44 u[12] + 552 u[13] + 148 u[14] + 752 u[15] + 581 u[16]
   + 852 u[17] + 833 u[18] + 962 u[19] + 149 u[20] + 923 u[21] + 252 u[22]
   + 642 u[23] + 484 u[24] + 188 u[25] + 10 u[26] + 139 u[27] + 221 u[28]
   + 251 u[29] + 57 u[30] + 383 u[31] + 659 u[32] + 689 u[33] + 396 u[34]
   + 93 u[35] + 540 u[36] + 888 u[37] + 92 u[38] + 562 u[39] + 855 u[40]
   + 357 u[41] + 814 u[42] + 113 u[43] + 759 u[44] + 718 u[45] + 617 u[46]
   + 357 u[47] + 199 u[48] + 236 u[49] + 70 u[50] + 780 u[51] + 949 u[52]
   + 248 u[53] + 168 u[54] + 171 u[55] + 97 u[56] + 542 u[57] + 356 u[58]
   + 550 u[59] <= 17160
 primal_lower465: 710 u[0] + 111 u[1] + 529 u[2] + 654 u[3] + 939 u[4]
   + 44 u[5] + 236 u[6] + 262 u[7] + 604 u[8] + 317 u[9] + 50 u[10]
   + 694 u[11] + 883 u[12] + 679 u[13] + 891 u[14] + 959 u[15] + 548 u[16]
   + 763 u[17] + 656 u[18] + 905 u[19] + 172 u[20] + 786 u[21] + 907 u[22]
   + 585 u[23] + 651 u[24] + 411 u[25] + u[26] + 186 u[27] + 684 u[28]
   + 506 u[29] + 248 u[30] + 734 u[31] + 258 u[32] + 344 u[33] + 531 u[34]
   + 652 u[35] + 715 u[36] + 935 u[37] + 955 u[38] + 961 u[39] + 54 u[40]
   + 100 u[41] + 453 u[42] + 952 u[43] + 6 u[44] + 485 u[45] + 824 u[46]
   + 420 u[47] + 374 u[48] + 379 u[49] + 125 u[50] + 243 u[51] + 556 u[52]
   + 103 u[53] + 727 u[54] + 162 u[55] + 904 u[56] + 141 u[57] + 331 u[58]
   + 693 u[59] <= 10229
 primal_lower466: 338 u[0] + 270 u[1] + 380 u[2] + 117 u[3] + 830 u[4]
   + 172 u[5] + 183 u[6] + 318 u[7] + 631 u[8] + 620 u[9] + 622 u[10]
   + 541 u[11] + 726 u[12] + 598 u[13] + 559 u[14] + 367 u[15] + 695 u[16]
   + 154 u[17] + 979 u[18] + 232 u[19] + 439 u[20] + 626 u[21] + 742 u[22]
   + 825 u[23] + 871 u[24] + 250 u[25] + 324 u[26] + 474 u[27] + 496 u[28]
   + 969 u[29] + 276 u[30] + 406 u[31] + 622 u[32] + 335 u[33] + 798 u[34]
   + 843 u[35] + 822 u[36] + 167 u[37] + 222 u[38] + 137 u[39] + 457 u[40]
   + 692 u[41] + 304 u[42] + 408 u[43] + 393 u[44] + 37 u[45] + 724 u[46]
   + 116 u[47] + 521 u[48] + 946 u[49] + 57 u[50] + 402 u[51] + 575 u[52]
   + 982 u[53] + 259 u[54] + 514 u[55] + 355 u[56] + 997 u[57] + 566 u[58]
   + 484 u[59] <= 4960
 primal_lower467: 870 u[0] + 431 u[1] + 489 u[2] + 702 u[3] + 27 u[4]
   + 668 u[5] + 676 u[6] + 38 u[7] + 44 u[8] + 13 u[9] + 778 u[10]
   + 198 u[11] + 651 u[12] + 679 u[13] + 851 u[14] + 447 u[15] + 476 u[16]
   + 755 u[17] + 752 u[18] + 977 u[19] + 748 u[20] + 130 u[21] + 531 u[22]
   + 209 u[23] + 27 u[24] + 627 u[25] + 465 u[26] + 434 u[27] + 28 u[28]
   + 714 u[29] + 816 u[30] + 822 u[31] + 858 u[32] + 720 u[33] + 107 u[34]
   + 724 u[35] + 11 u[36] + 295 u[37] + 715 u[38] + 49 u[39] + 630 u[40]
   + 692 u[41] + 573 u[42] + 312 u[43] + 462 u[44] + 613 u[45] + 16 u[46]
   + 956 u[47] + 78 u[48] + 435 u[49] + 749 u[50] + 3 u[51] + 516 u[52]
   + 615 u[53] + 239 u[54] + 266 u[55] + 208 u[56] + 501 u[57] + 843 u[58]
   + 37 u[59] <= 14148
 primal_lower468: 124 u[0] + 536 u[1] + 702 u[2] + 151 u[3] + 224 u[4]
   + 406 u[5] + 433 u[6] + 704 u[7] + 185 u[8] + 782 u[9] + 872 u[10]
   + 655 u[11] + 80 u[12] + 312 u[13] + 425 u[14] + 297 u[15] + 913 u[16]
   + 540 u[17] + 61 u[18] + 82 u[19] + 777 u[20] + 724 u[21] + 896 u[22]
   + 547 u[23] + 681 u[24] + 332 u[25] + 206 u[26] + 292 u[27] + 130 u[28]
   + 931 u[29] + 478 u[30] + 408 u[31] + 8 u[32] + 377 u[33] + 352 u[34]
   + 357 u[35] + 184 u[36] + 961 u[37] + 752 u[38] + 283 u[39] + 83 u[40]
   + 454 u[41] + 138 u[42] + 866 u[43] + 683 u[44] + 439 u[45] + 782 u[46]
   + 166 u[47] + 51 u[48] + 356 u[49] + 3 u[50] + 212 u[51] + 129 u[52]
   + 256 u[53] + 621 u[54] + 780 u[55] + 509 u[56] + 751 u[57] + 880 u[58]
   + 518 u[59] <= 17891
 primal_lower469: 800 u[0] + 633 u[1] + 939 u[2] + 424 u[3] + 261 u[4]
   + 310 u[5] + 606 u[6] + 144 u[7] + 94 u[8] + 223 u[9] + 756 u[10]
   + 728 u[11] + 253 u[12] + 993 u[13] + 157 u[14] + 873 u[15] + 790 u[16]
   + 493 u[17] + 426 u[18] + 827 u[19] + 182 u[20] + 124 u[21] + 973 u[22]
   + 499 u[23] + 453 u[24] + 693 u[25] + 763 u[26] + 204 u[27] + 270 u[28]
   + 12 u[29] + 42 u[30] + 432 u[31] + 140 u[32] + 738 u[33] + 61 u[34]
   + 6 u[35] + 501 u[36] + 665 u[37] + 805 u[38] + 603 u[39] + 768 u[40]
   + 54 u[41] + 911 u[42] + 122 u[43] + 880 u[44] + 407 u[45] + 882 u[46]
   + 198 u[47] + 352 u[48] + 453 u[49] + 759 u[50] + 573 u[51] + 574 u[52]
   + 761 u[53] + 545 u[54] + 292 u[55] + 786 u[56] + 471 u[57] + 69 u[58]
   + 943 u[59] <= 4949
 primal_lower470: 80 u[0] + 241 u[1] + 603 u[2] + 184 u[3] + 733 u[4]
   + 846 u[5] + 606 u[6] + 384 u[7] + 942 u[8] + 767 u[9] + 652 u[10]
   + 280 u[11] + 181 u[12] + 737 u[13] + 749 u[14] + 881 u[15] + 222 u[16]
   + 205 u[17] + 778 u[18] + 667 u[19] + 622 u[20] + 524 u[21] + 621 u[22]
   + 643 u[23] + 445 u[24] + 581 u[25] + 307 u[26] + 252 u[27] + 750 u[28]
   + 396 u[29] + 938 u[30] + 312 u[31] + 900 u[32] + 474 u[33] + 13 u[34]
   + 414 u[35] + 861 u[36] + 961 u[37] + 21 u[38] + 83 u[39] + 816 u[40]
   + 838 u[41] + 199 u[42] + 282 u[43] + 568 u[44] + 823 u[45] + 946 u[46]
   + 966 u[47] + 344 u[48] + 205 u[49] + 575 u[50] + 493 u[51] + 710 u[52]
   + 473 u[53] + 785 u[54] + 884 u[55] + 74 u[56] + 687 u[57] + 637 u[58]
   + 39 u[59] <= 10733
 primal_lower471: 123 u[0] + 719 u[1] + 629 u[2] + 750 u[3] + 175 u[4]
   + 469 u[5] + 656 u[6] + 615 u[7] + 504 u[8] + 173 u[9] + 927 u[10]
   + 86 u[11] + 303 u[12] + 839 u[13] + 768 u[14] + 8 u[15] + 648 u[16]
   + 3 u[17] + 92 u[18] + 465 u[19] + 144 u[20] + 787 u[21] + 223 u[22]
   + 474 u[23] + 736 u[24] + 619 u[25] + 445 u[26] + 859 u[27] + 689 u[28]
   + 74 u[29] + 941 u[30] + 903 u[31] + 711 u[32] + 80 u[33] + 391 u[34]
   + 980 u[35] + 695 u[36] + 504 u[37] + 943 u[38] + 378 u[39] + 346 u[40]
   + 861 u[41] + 881 u[42] + 793 u[43] + 570 u[44] + 870 u[45] + 69 u[46]
   + 221 u[47] + 34 u[48] + 883 u[49] + 706 u[50] + 507 u[51] + 600 u[52]
   + 263 u[53] + 836 u[54] + 19 u[55] + 948 u[56] + 614 u[57] + 879 u[58]
   + 589 u[59] <= 5336
 primal_lower472: 68 u[0] + 688 u[1] + 70 u[2] + 351 u[3] + 488 u[4]
   + 718 u[5] + 673 u[6] + 888 u[7] + 137 u[8] + 774 u[9] + 872 u[10]
   + 903 u[11] + 432 u[12] + 272 u[13] + 545 u[14] + 505 u[15] + 881 u[16]
   + 12 u[17] + 885 u[18] + 130 u[19] + 753 u[20] + 668 u[21] + 80 u[22]
   + 923 u[23] + 473 u[24] + 604 u[25] + 430 u[26] + 532 u[27] + 602 u[28]
   + 11 u[29] + 478 u[30] + 96 u[31] + 592 u[32] + 121 u[33] + 776 u[34]
   + 373 u[35] + 872 u[36] + 49 u[37] + 904 u[38] + 3 u[39] + 851 u[40]
   + 422 u[41] + 362 u[42] + 466 u[43] + 59 u[44] + 439 u[45] + 126 u[46]
   + 502 u[47] + 555 u[48] + 300 u[49] + 371 u[50] + 924 u[51] + 897 u[52]
   + 104 u[53] + 821 u[54] + 460 u[55] + 133 u[56] + 999 u[57] + 920 u[58]
   + 270 u[59] <= 19742
 primal_lower473: 217 u[0] + 701 u[1] + 587 u[2] + 420 u[3] + 805 u[4]
   + 131 u[5] + 982 u[6] + 133 u[7] + 22 u[8] + 827 u[9] + 117 u[10]
   + 332 u[11] + 61 u[12] + 493 u[13] + 782 u[14] + 462 u[15] + 950 u[16]
   + 593 u[17] + 42 u[18] + 575 u[19] + 998 u[20] + 681 u[21] + 333 u[22]
   + 472 u[23] + 214 u[24] + 289 u[25] + 91 u[26] + 729 u[27] + 295 u[28]
   + 272 u[29] + 83 u[30] + 293 u[31] + 597 u[32] + 310 u[33] + 413 u[34]
   + 330 u[35] + 877 u[36] + 14 u[37] + 101 u[38] + 184 u[39] + 272 u[40]
   + 427 u[41] + 287 u[42] + 95 u[43] + 336 u[44] + 300 u[45] + 411 u[46]
   + 499 u[47] + 464 u[48] + 809 u[49] + 208 u[50] + 217 u[51] + 374 u[52]
   + 205 u[53] + 458 u[54] + 937 u[55] + 474 u[56] + 380 u[57] + 125 u[58]
   + 771 u[59] <= 4142
 primal_lower474: 73 u[0] + 277 u[1] + 603 u[2] + 444 u[3] + 125 u[4]
   + 811 u[5] + 502 u[6] + 629 u[7] + 326 u[8] + 835 u[9] + 749 u[10]
   + 428 u[11] + 125 u[12] + 477 u[13] + 694 u[14] + 870 u[15] + 542 u[16]
   + 761 u[17] + 442 u[18] + 263 u[19] + 230 u[20] + 737 u[21] + 669 u[22]
   + 312 u[23] + 326 u[24] + 689 u[25] + 299 u[26] + 57 u[27] + 295 u[28]
   + 72 u[29] + 683 u[30] + 381 u[31] + 181 u[32] + 30 u[33] + 149 u[34]
   + 586 u[35] + 637 u[36] + 758 u[37] + 677 u[38] + 200 u[39] + 728 u[40]
   + 555 u[41] + 751 u[42] + 415 u[43] + 656 u[44] + 76 u[45] + 915 u[46]
   + 875 u[47] + 328 u[48] + 929 u[49] + 776 u[50] + 473 u[51] + 918 u[52]
   + 781 u[53] + 50 u[54] + 713 u[55] + 738 u[56] + 124 u[57] + 125 u[58]
   + 627 u[59] <= 4916
 primal_lower475: 811 u[0] + 375 u[1] + 597 u[2] + 102 u[3] + 783 u[4]
   + 605 u[5] + 192 u[6] + 55 u[7] + 560 u[8] + 701 u[9] + 279 u[10]
   + 694 u[11] + 15 u[12] + 87 u[13] + 264 u[14] + 600 u[15] + 880 u[16]
   + 755 u[17] + 356 u[18] + 465 u[19] + 824 u[20] + 859 u[21] + 247 u[22]
   + 234 u[23] + 528 u[24] + 43 u[25] + 725 u[26] + 947 u[27] + 289 u[28]
   + 546 u[29] + 229 u[30] + 855 u[31] + 623 u[32] + 336 u[33] + 807 u[34]
   + 276 u[35] + 911 u[36] + 168 u[37] + 263 u[38] + 658 u[39] + 722 u[40]
   + 77 u[41] + 801 u[42] + 33 u[43] + 66 u[44] + 486 u[45] + 317 u[46]
   + 245 u[47] + 522 u[48] + 259 u[49] + 962 u[50] + 451 u[51] + 336 u[52]
   + 239 u[53] + 308 u[54] + 859 u[55] + 372 u[56] + 86 u[57] + 23 u[58]
   + 317 u[59] <= 4504
 primal_lower476: 459 u[0] + 79 u[1] + 717 u[2] + 918 u[3] + 63 u[4]
   + 357 u[5] + 120 u[6] + 951 u[7] + 504 u[8] + 925 u[9] + 183 u[10]
   + 150 u[11] + 911 u[12] + 279 u[13] + 560 u[14] + 296 u[15] + 792 u[16]
   + 139 u[17] + 940 u[18] + 273 u[19] + 288 u[20] + 83 u[21] + 415 u[22]
   + 834 u[23] + 408 u[24] + 163 u[25] + 901 u[26] + 43 u[27] + 897 u[28]
   + 298 u[29] + 685 u[30] + 863 u[31] + 111 u[32] + 624 u[33] + 767 u[34]
   + 108 u[35] + 871 u[36] + 832 u[37] + 879 u[38] + 570 u[39] + 898 u[40]
   + 981 u[41] + 529 u[42] + 553 u[43] + 714 u[44] + 6 u[45] + 797 u[46]
   + 517 u[47] + 890 u[48] + 947 u[49] + 970 u[50] + 507 u[51] + 152 u[52]
   + 959 u[53] + 84 u[54] + 259 u[55] + 796 u[56] + 102 u[57] + 911 u[58]
   + 997 u[59] <= 5470
 primal_lower477: 585 u[0] + 941 u[1] + 187 u[2] + 996 u[3] + 501 u[4]
   + 771 u[5] + 350 u[6] + 93 u[7] + 294 u[8] + 835 u[9] + 541 u[10]
   + 396 u[11] + 773 u[12] + 173 u[13] + 30 u[14] + 470 u[15] + 462 u[16]
   + 393 u[17] + 426 u[18] + 943 u[19] + 918 u[20] + 857 u[21] + 37 u[22]
   + 984 u[23] + 454 u[24] + 401 u[25] + 819 u[26] + 977 u[27] + 207 u[28]
   + 1000 u[29] + 707 u[30] + 341 u[31] + 397 u[32] + 254 u[33] + 661 u[34]
   + 858 u[35] + 469 u[36] + 822 u[37] + 909 u[38] + 144 u[39] + 120 u[40]
   + 491 u[41] + 519 u[42] + 295 u[43] + 8 u[44] + 972 u[45] + 403 u[46]
   + 459 u[47] + 520 u[48] + 249 u[49] + 472 u[50] + 65 u[51] + 614 u[52]
   + 53 u[53] + 226 u[54] + 433 u[55] + 970 u[56] + 996 u[57] + 661 u[58]
   + 795 u[59] <= 10565
 primal_lower478: 482 u[0] + 622 u[1] + 524 u[2] + 157 u[3] + 198 u[4]
   + 36 u[5] + 735 u[6] + 614 u[7] + 63 u[8] + 780 u[9] + 878 u[10]
   + 501 u[11] + 454 u[12] + 558 u[13] + 79 u[14] + 767 u[15] + 55 u[16]
   + 498 u[17] + 123 u[18] + 560 u[19] + 591 u[20] + 666 u[21] + 54 u[22]
   + 905 u[23] + 671 u[24] + 850 u[25] + 636 u[26] + 242 u[27] + 488 u[28]
   + 809 u[29] + 324 u[30] + 662 u[31] + 590 u[32] + 87 u[33] + 510 u[34]
   + 507 u[35] + 406 u[36] + 607 u[37] + 478 u[38] + 697 u[39] + 497 u[40]
   + 92 u[41] + 528 u[42] + 896 u[43] + 441 u[44] + 405 u[45] + 12 u[46]
   + 900 u[47] + 585 u[48] + 802 u[49] + 529 u[50] + 802 u[51] + 807 u[52]
   + 838 u[53] + 387 u[54] + 842 u[55] + 363 u[56] + 421 u[57] + 638 u[58]
   + 476 u[59] <= 5120
 primal_lower479: 829 u[0] + 545 u[1] + 127 u[2] + 160 u[3] + 937 u[4]
   + 775 u[5] + 122 u[6] + 185 u[7] + 210 u[8] + 703 u[9] + 201 u[10]
   + 896 u[11] + 761 u[12] + 377 u[13] + 770 u[14] + 730 u[15] + 690 u[16]
   + 709 u[17] + 406 u[18] + 243 u[19] + 634 u[20] + 981 u[21] + 929 u[22]
   + 948 u[23] + 746 u[24] + 21 u[25] + 303 u[26] + 309 u[27] + 555 u[28]
   + 740 u[29] + 439 u[30] + 745 u[31] + 633 u[32] + 762 u[33] + 489 u[34]
   + 166 u[35] + 817 u[36] + 298 u[37] + 353 u[38] + 220 u[39] + 380 u[40]
   + 855 u[41] + 259 u[42] + 723 u[43] + 180 u[44] + 104 u[45] + 495 u[46]
   + 327 u[47] + 348 u[48] + 277 u[49] + 492 u[50] + 469 u[51] + 58 u[52]
   + 361 u[53] + 374 u[54] + 477 u[55] + 518 u[56] + 464 u[57] + 625 u[58]
   + 591 u[59] <= 4973
 primal_lower480: 926 u[0] + 167 u[1] + 305 u[2] + 518 u[3] + 499 u[4]
   + 628 u[5] + 500 u[6] + 374 u[7] + 28 u[8] + 965 u[9] + 418 u[10]
   + 774 u[11] + 155 u[12] + 39 u[13] + 883 u[14] + 95 u[15] + 972 u[16]
   + 595 u[17] + 152 u[18] + 265 u[19] + 244 u[20] + 114 u[21] + 931 u[22]
   + 577 u[23] + 643 u[24] + 643 u[25] + 985 u[26] + 786 u[27] + 364 u[28]
   + 978 u[29] + 304 u[30] + 406 u[31] + 738 u[32] + 88 u[33] + 931 u[34]
   + 260 u[35] + 499 u[36] + 871 u[37] + 907 u[38] + 945 u[39] + 502 u[40]
   + 228 u[41] + 893 u[42] + 336 u[43] + 126 u[44] + 221 u[45] + 624 u[46]
   + 324 u[47] + 414 u[48] + 867 u[49] + 581 u[50] + 971 u[51] + 788 u[52]
   + 871 u[53] + 543 u[54] + 802 u[55] + 888 u[56] + 149 u[57] + 627 u[58]
   + 725 u[59] <= 10984
 primal_lower481: 691 u[0] + 628 u[1] + 582 u[2] + 883 u[3] + 712 u[4]
   + 49 u[5] + 969 u[6] + 779 u[7] + 257 u[8] + 906 u[9] + 927 u[10]
   + 539 u[11] + 416 u[12] + 476 u[13] + 544 u[14] + 884 u[15] + u[16]
   + 720 u[17] + 933 u[18] + 310 u[19] + 225 u[20] + 495 u[21] + 880 u[22]
   + 238 u[23] + 16 u[24] + 168 u[25] + 430 u[26] + 703 u[27] + 953 u[28]
   + 87 u[29] + 429 u[30] + 139 u[31] + 39 u[32] + 557 u[33] + 160 u[34]
   + 737 u[35] + 760 u[36] + 676 u[37] + 640 u[38] + 78 u[39] + 131 u[40]
   + 417 u[41] + 2 u[42] + 93 u[43] + 931 u[44] + 434 u[45] + 485 u[46]
   + 793 u[47] + 451 u[48] + 40 u[49] + 474 u[50] + 616 u[51] + 401 u[52]
   + 76 u[53] + 852 u[54] + 551 u[55] + 389 u[56] + 290 u[57] + 304 u[58]
   + 578 u[59] <= 4820
 primal_lower482: 837 u[0] + 334 u[1] + 768 u[2] + 165 u[3] + 850 u[4]
   + 427 u[5] + 539 u[6] + 397 u[7] + 971 u[8] + 148 u[9] + 49 u[10]
   + 485 u[11] + 986 u[12] + 62 u[13] + 234 u[14] + 102 u[15] + 307 u[16]
   + 914 u[17] + 223 u[18] + 584 u[19] + 155 u[20] + 241 u[21] + 754 u[22]
   + 832 u[23] + 378 u[24] + 866 u[25] + 64 u[26] + 873 u[27] + 851 u[28]
   + 65 u[29] + 95 u[30] + 261 u[31] + 217 u[32] + 407 u[33] + 506 u[34]
   + 371 u[35] + 658 u[36] + 758 u[37] + 746 u[38] + 528 u[39] + 605 u[40]
   + 347 u[41] + 220 u[42] + 503 u[43] + 141 u[44] + 308 u[45] + 967 u[46]
   + 691 u[47] + 413 u[48] + 674 u[49] + 812 u[50] + 138 u[51] + 19 u[52]
   + 918 u[53] + 702 u[54] + 689 u[55] + 7 u[56] + 996 u[57] + 410 u[58]
   + 324 u[59] <= 9630
 primal_lower483: 312 u[0] + 804 u[1] + 962 u[2] + 611 u[3] + 700 u[4]
   + 810 u[5] + 645 u[6] + 388 u[7] + 45 u[8] + 698 u[9] + 700 u[10]
   + 723 u[11] + 732 u[12] + 60 u[13] + 637 u[14] + 669 u[15] + 989 u[16]
   + 464 u[17] + 665 u[18] + 118 u[19] + 989 u[20] + 744 u[21] + 788 u[22]
   + 295 u[23] + 301 u[24] + 416 u[25] + 538 u[26] + 336 u[27] + 558 u[28]
   + 695 u[29] + 834 u[30] + 196 u[31] + 500 u[32] + 517 u[33] + 740 u[34]
   + 513 u[35] + 300 u[36] + 653 u[37] + 484 u[38] + 503 u[39] + 271 u[40]
   + 706 u[41] + 878 u[42] + 566 u[43] + 871 u[44] + 355 u[45] + 722 u[46]
   + 322 u[47] + 991 u[48] + 56 u[49] + 831 u[50] + 344 u[51] + 581 u[52]
   + 860 u[53] + 889 u[54] + 848 u[55] + 369 u[56] + 619 u[57] + 796 u[58]
   + 794 u[59] <= 17650
 primal_lower484: 862 u[0] + 743 u[1] + 761 u[2] + 550 u[3] + 339 u[4]
   + 900 u[5] + 564 u[6] + 790 u[7] + 804 u[8] + 141 u[9] + 778 u[10]
   + 334 u[11] + 683 u[12] + 359 u[13] + 467 u[14] + 487 u[15] + 588 u[16]
   + 643 u[17] + 160 u[18] + 697 u[19] + 756 u[20] + 482 u[21] + 155 u[22]
   + 17 u[23] + 931 u[24] + 35 u[25] + 937 u[26] + 754 u[27] + 764 u[28]
   + 658 u[29] + 168 u[30] + 622 u[31] + 194 u[32] + 472 u[33] + 19 u[34]
   + 764 u[35] + 587 u[36] + 303 u[37] + 331 u[38] + 969 u[39] + 798 u[40]
   + 100 u[41] + 989 u[42] + 632 u[43] + 670 u[44] + 997 u[45] + 496 u[46]
   + 948 u[47] + 614 u[48] + 843 u[49] + 677 u[50] + 187 u[51] + 108 u[52]
   + 231 u[53] + 455 u[54] + 234 u[55] + 872 u[56] + 941 u[57] + 83 u[58]
   + 285 u[59] <= 16364
 primal_lower485: 154 u[0] + 283 u[1] + 861 u[2] + 42 u[3] + 367 u[4]
   + 72 u[5] + 888 u[6] + 762 u[7] + 432 u[8] + 889 u[9] + 718 u[10]
   + 258 u[11] + 199 u[12] + 235 u[13] + 223 u[14] + 995 u[15] + 16 u[16]
   + 959 u[17] + 796 u[18] + 965 u[19] + 496 u[20] + 606 u[21] + 559 u[22]
   + 605 u[23] + 327 u[24] + 863 u[25] + 101 u[26] + 318 u[27] + 568 u[28]
   + 398 u[29] + 396 u[30] + 290 u[31] + 670 u[32] + 548 u[33] + 543 u[34]
   + 144 u[35] + 47 u[36] + 451 u[37] + 231 u[38] + 773 u[39] + 26 u[40]
   + 680 u[41] + 177 u[42] + 908 u[43] + 394 u[44] + 201 u[45] + 596 u[46]
   + 232 u[47] + 882 u[48] + 543 u[49] + 425 u[50] + 639 u[51] + 952 u[52]
   + 835 u[53] + 491 u[54] + 510 u[55] + 972 u[56] + 929 u[57] + 215 u[58]
   + 17 u[59] <= 995
 primal_lower486: 693 u[0] + 742 u[1] + 272 u[2] + 213 u[3] + 890 u[4]
   + 611 u[5] + 251 u[6] + 461 u[7] + 467 u[8] + 476 u[9] + 545 u[10]
   + 125 u[11] + 738 u[12] + 526 u[13] + 682 u[14] + 678 u[15] + 787 u[16]
   + 146 u[17] + 863 u[18] + 872 u[19] + 979 u[20] + 689 u[21] + 562 u[22]
   + 288 u[23] + 506 u[24] + 506 u[25] + 792 u[26] + 89 u[27] + 275 u[28]
   + 593 u[29] + 215 u[30] + 661 u[31] + 593 u[32] + 199 u[33] + 402 u[34]
   + 955 u[35] + 970 u[36] + 614 u[37] + 146 u[38] + 680 u[39] + 309 u[40]
   + 115 u[41] + 404 u[42] + 567 u[43] + 213 u[44] + 516 u[45] + 111 u[46]
   + 315 u[47] + 229 u[48] + 762 u[49] + 84 u[50] + 626 u[51] + 219 u[52]
   + 54 u[53] + 550 u[54] + 193 u[55] + 631 u[56] + 276 u[57] + 242 u[58]
   + 340 u[59] <= 14254
 primal_lower487: 224 u[0] + 556 u[1] + 714 u[2] + 419 u[3] + 956 u[4]
   + 274 u[5] + 453 u[6] + 228 u[7] + 61 u[8] + 882 u[9] + 836 u[10]
   + 771 u[11] + 404 u[12] + 932 u[13] + 365 u[14] + 13 u[15] + 293 u[16]
   + 120 u[17] + 193 u[18] + 182 u[19] + 813 u[20] + 832 u[21] + 796 u[22]
   + 639 u[23] + 669 u[24] + 832 u[25] + 602 u[26] + 968 u[27] + 302 u[28]
   + 343 u[29] + 2 u[30] + 292 u[31] + 188 u[32] + 773 u[33] + 268 u[34]
   + 441 u[35] + 972 u[36] + 285 u[37] + 836 u[38] + 31 u[39] + 447 u[40]
   + 202 u[41] + 318 u[42] + 6 u[43] + 671 u[44] + 283 u[45] + 938 u[46]
   + 178 u[47] + 919 u[48] + 120 u[49] + 519 u[50] + 240 u[51] + 413 u[52]
   + 380 u[53] + 425 u[54] + 608 u[55] + 81 u[56] + 523 u[57] + 140 u[58]
   + 914 u[59] <= 14042
 primal_lower488: 628 u[0] + 821 u[1] + 463 u[2] + 612 u[3] + 273 u[4]
   + 874 u[5] + 306 u[6] + 836 u[7] + 602 u[8] + 547 u[9] + 848 u[10]
   + 420 u[11] + u[12] + 389 u[13] + 817 u[14] + 981 u[15] + 82 u[16]
   + 545 u[17] + 966 u[18] + 31 u[19] + 210 u[20] + 104 u[21] + 673 u[22]
   + 375 u[23] + 505 u[24] + 729 u[25] + 15 u[26] + 200 u[27] + 10 u[28]
   + 32 u[29] + 414 u[30] + 788 u[31] + 240 u[32] + 190 u[33] + 689 u[34]
   + 906 u[35] + 529 u[36] + 765 u[37] + 137 u[38] + 191 u[39] + 860 u[40]
   + 498 u[41] + 739 u[42] + 934 u[43] + 204 u[44] + 419 u[45] + 758 u[46]
   + 258 u[47] + 908 u[48] + 961 u[49] + 491 u[50] + 953 u[51] + 114 u[52]
   + 45 u[53] + 69 u[54] + 952 u[55] + 630 u[56] + 851 u[57] + 553 u[58]
   + 347 u[59] <= 10096
 primal_lower489: 217 u[0] + 141 u[1] + 699 u[2] + 388 u[3] + 461 u[4]
   + 763 u[5] + 446 u[6] + 333 u[7] + 558 u[8] + 51 u[9] + 173 u[10]
   + 900 u[11] + 165 u[12] + 21 u[13] + 566 u[14] + 366 u[15] + 974 u[16]
   + 433 u[17] + 578 u[18] + 471 u[19] + 902 u[20] + 729 u[21] + 605 u[22]
   + 608 u[23] + 854 u[24] + 289 u[25] + 235 u[26] + 489 u[27] + 895 u[28]
   + 856 u[29] + 163 u[30] + 525 u[31] + 821 u[32] + 478 u[33] + 997 u[34]
   + 274 u[35] + 301 u[36] + 518 u[37] + 877 u[38] + 992 u[39] + 928 u[40]
   + 67 u[41] + 943 u[42] + 383 u[43] + 152 u[44] + 228 u[45] + 515 u[46]
   + 419 u[47] + 1000 u[48] + 513 u[49] + 688 u[50] + 889 u[51] + 390 u[52]
   + 85 u[53] + 906 u[54] + 385 u[55] + 242 u[56] + 700 u[57] + 301 u[58]
   + 539 u[59] <= 20923
 primal_lower490: 69 u[0] + 646 u[1] + 952 u[2] + 813 u[3] + 642 u[4]
   + 299 u[5] + 179 u[6] + 517 u[7] + 491 u[8] + 132 u[9] + 529 u[10]
   + 157 u[11] + 266 u[12] + 614 u[13] + 346 u[14] + 838 u[15] + 427 u[16]
   + 498 u[17] + 159 u[18] + 864 u[19] + 163 u[20] + 33 u[21] + 170 u[22]
   + 160 u[23] + 474 u[24] + 978 u[25] + 256 u[26] + 577 u[27] + 491 u[28]
   + 177 u[29] + 823 u[30] + 997 u[31] + 721 u[32] + 839 u[33] + 730 u[34]
   + 843 u[35] + 266 u[36] + 494 u[37] + 330 u[38] + 608 u[39] + 125 u[40]
   + 555 u[41] + 780 u[42] + 751 u[43] + 29 u[44] + 84 u[45] + 855 u[46]
   + 291 u[47] + 917 u[48] + 106 u[49] + 604 u[50] + 626 u[51] + 411 u[52]
   + 894 u[53] + 310 u[54] + 585 u[55] + 103 u[56] + 228 u[57] + 642 u[58]
   + 452 u[59] <= 4819
 primal_lower491: 265 u[0] + 802 u[1] + 396 u[2] + 937 u[3] + 326 u[4]
   + 855 u[5] + 7 u[6] + 513 u[7] + 703 u[8] + 64 u[9] + 741 u[10]
   + 529 u[11] + 606 u[12] + 754 u[13] + 718 u[14] + 562 u[15] + 191 u[16]
   + 294 u[17] + 491 u[18] + 508 u[19] + 335 u[20] + 397 u[21] + 734 u[22]
   + 92 u[23] + 742 u[24] + 198 u[25] + 436 u[26] + 205 u[27] + 159 u[28]
   + 589 u[29] + 243 u[30] + 249 u[31] + 621 u[32] + 659 u[33] + 726 u[34]
   + 863 u[35] + 614 u[36] + 978 u[37] + 374 u[38] + 724 u[39] + 449 u[40]
   + 591 u[41] + 720 u[42] + 851 u[43] + 393 u[44] + 360 u[45] + 819 u[46]
   + 367 u[47] + 889 u[48] + 118 u[49] + 72 u[50] + 350 u[51] + 215 u[52]
   + 74 u[53] + 34 u[54] + 669 u[55] + 603 u[56] + 24 u[57] + 718 u[58]
   + 200 u[59] <= 4786
 primal_lower492: 688 u[0] + 316 u[1] + 466 u[2] + 179 u[3] + 172 u[4]
   + 762 u[5] + 253 u[6] + 828 u[7] + 813 u[8] + 466 u[9] + 404 u[10]
   + 299 u[11] + 740 u[12] + 508 u[13] + 381 u[14] + 925 u[15] + 509 u[16]
   + 384 u[17] + 897 u[18] + 630 u[19] + 37 u[20] + 232 u[21] + 228 u[22]
   + 487 u[23] + 453 u[24] + 504 u[25] + 90 u[26] + 448 u[27] + 158 u[28]
   + 783 u[29] + 274 u[30] + 180 u[31] + 700 u[32] + 933 u[33] + 764 u[34]
   + 297 u[35] + 860 u[36] + 589 u[37] + 172 u[38] + 391 u[39] + 615 u[40]
   + 754 u[41] + 974 u[42] + 694 u[43] + 607 u[44] + 283 u[45] + 754 u[46]
   + 698 u[47] + 999 u[48] + 648 u[49] + 759 u[50] + 176 u[51] + 501 u[52]
   + 300 u[53] + 449 u[54] + 808 u[55] + 425 u[56] + 587 u[57] + 548 u[58]
   + 834 u[59] <= 999
 primal_lower493: 513 u[0] + 973 u[1] + 443 u[2] + 396 u[3] + 733 u[4]
   + 891 u[5] + 126 u[6] + 373 u[7] + 198 u[8] + 851 u[9] + 125 u[10]
   + 252 u[11] + 885 u[12] + 597 u[13] + 774 u[14] + 414 u[15] + 414 u[16]
   + 265 u[17] + 186 u[18] + 303 u[19] + 526 u[20] + 121 u[21] + 877 u[22]
   + 96 u[23] + 190 u[24] + 81 u[25] + 531 u[26] + 657 u[27] + 935 u[28]
   + 368 u[29] + 987 u[30] + 469 u[31] + 453 u[32] + 590 u[33] + 285 u[34]
   + 698 u[35] + 125 u[36] + 894 u[37] + 165 u[38] + 808 u[39] + 496 u[40]
   + 99 u[41] + 15 u[42] + 943 u[43] + 664 u[44] + 892 u[45] + 331 u[46]
   + 531 u[47] + 936 u[48] + 329 u[49] + 568 u[50] + 177 u[51] + 278 u[52]
   + 869 u[53] + 586 u[54] + 521 u[55] + 362 u[56] + 428 u[57] + 765 u[58]
   + 851 u[59] <= 987
 primal_lower494: 281 u[0] + 170 u[1] + 540 u[2] + 57 u[3] + 558 u[4]
   + 975 u[5] + 351 u[6] + 729 u[7] + 23 u[8] + 408 u[9] + 829 u[10]
   + 217 u[11] + 622 u[12] + 698 u[13] + 854 u[14] + 602 u[15] + 295 u[16]
   + 390 u[17] + 275 u[18] + 276 u[19] + 943 u[20] + 389 u[21] + 446 u[22]
   + 788 u[23] + 262 u[24] + 294 u[25] + 148 u[26] + 749 u[27] + 735 u[28]
   + 437 u[29] + 67 u[30] + 241 u[31] + 197 u[32] + 91 u[33] + 974 u[34]
   + 847 u[35] + 582 u[36] + 690 u[37] + 358 u[38] + 100 u[39] + 785 u[40]
   + 399 u[41] + 936 u[42] + 19 u[43] + 481 u[44] + 128 u[45] + 179 u[46]
   + 583 u[47] + 785 u[48] + 230 u[49] + 56 u[50] + 406 u[51] + 223 u[52]
   + 474 u[53] + 650 u[54] + 197 u[55] + 699 u[56] + 8 u[57] + 702 u[58]
   + 912 u[59] <= 975
 primal_lower495: 314 u[0] + 907 u[1] + 829 u[2] + 74 u[3] + 103 u[4]
   + 424 u[5] + 264 u[6] + 634 u[7] + 744 u[8] + 833 u[9] + 998 u[10]
   + 938 u[11] + 111 u[12] + 915 u[13] + 31 u[14] + 435 u[15] + 288 u[16]
   + 639 u[17] + 668 u[18] + 893 u[19] + 408 u[20] + 22 u[21] + 599 u[22]
   + 485 u[23] + 103 u[24] + 791 u[25] + 13 u[26] + 166 u[27] + 296 u[28]
   + 646 u[29] + 284 u[30] + 298 u[31] + 614 u[32] + 812 u[33] + 679 u[34]
   + 856 u[35] + 783 u[36] + 531 u[37] + 647 u[38] + 245 u[39] + 770 u[40]
   + 576 u[41] + 561 u[42] + 644 u[43] + 810 u[44] + 105 u[45] + 28 u[46]
   + 872 u[47] + 746 u[48] + 223 u[49] + 849 u[50] + 911 u[51] + 680 u[52]
   + 435 u[53] + 307 u[54] + 398 u[55] + 164 u[56] + 201 u[57] + 903 u[58]
   + 921 u[59] <= 998
 primal_lower496: 69 u[0] + 78 u[1] + 304 u[2] + 725 u[3] + 42 u[4]
   + 251 u[5] + 915 u[6] + 965 u[7] + 563 u[8] + 452 u[9] + 585 u[10]
   + 557 u[11] + 786 u[12] + 190 u[13] + 378 u[14] + 862 u[15] + 587 u[16]
   + 922 u[17] + 183 u[18] + 248 u[19] + 379 u[20] + 545 u[21] + 242 u[22]
   + 624 u[23] + 354 u[24] + 738 u[25] + 408 u[26] + 209 u[27] + 883 u[28]
   + 617 u[29] + 39 u[30] + 341 u[31] + 377 u[32] + 295 u[33] + 314 u[34]
   + 595 u[35] + 562 u[36] + 198 u[37] + 866 u[38] + 896 u[39] + 381 u[40]
   + 387 u[41] + 988 u[42] + 391 u[43] + 101 u[44] + 508 u[45] + 423 u[46]
   + 75 u[47] + 229 u[48] + 162 u[49] + 668 u[50] + 354 u[51] + 787 u[52]
   + 902 u[53] + 334 u[54] + 753 u[55] + 663 u[56] + 524 u[57] + 738 u[58]
   + 252 u[59] <= 4794
 primal_lower497: 47 u[0] + 176 u[1] + 210 u[2] + 183 u[3] + 988 u[4]
   + 493 u[5] + 165 u[6] + 567 u[7] + 365 u[8] + 174 u[9] + 979 u[10]
   + 359 u[11] + 924 u[12] + 672 u[13] + 444 u[14] + 96 u[15] + 741 u[16]
   + 996 u[17] + 625 u[18] + 818 u[19] + 589 u[20] + 915 u[21] + 612 u[22]
   + 66 u[23] + 748 u[24] + 796 u[25] + 554 u[26] + 483 u[27] + 973 u[28]
   + 259 u[29] + 769 u[30] + 943 u[31] + 795 u[32] + 281 u[33] + 92 u[34]
   + 909 u[35] + 868 u[36] + 336 u[37] + 804 u[38] + 706 u[39] + 343 u[40]
   + 325 u[41] + 374 u[42] + 937 u[43] + 191 u[44] + 694 u[45] + 41 u[46]
   + 53 u[47] + 199 u[48] + 324 u[49] + 910 u[50] + 636 u[51] + 5 u[52]
   + 720 u[53] + 984 u[54] + 827 u[55] + 729 u[56] + 86 u[57] + 436 u[58]
   + 14 u[59] <= 20898
 primal_lower498: 925 u[0] + u[1] + 623 u[2] + 464 u[3] + 401 u[4]
   + 847 u[5] + 354 u[6] + 177 u[7] + 698 u[8] + 351 u[9] + 233 u[10]
   + 392 u[11] + 953 u[12] + 169 u[13] + 722 u[14] + 514 u[15] + 210 u[16]
   + 717 u[17] + 782 u[18] + 851 u[19] + 818 u[20] + 837 u[21] + 505 u[22]
   + 684 u[23] + 770 u[24] + 629 u[25] + 575 u[26] + 957 u[27] + 891 u[28]
   + 236 u[29] + 599 u[30] + 817 u[31] + 657 u[32] + 546 u[33] + 377 u[34]
   + 606 u[35] + 777 u[36] + 778 u[37] + 761 u[38] + 524 u[39] + 596 u[40]
   + 679 u[41] + 627 u[42] + 283 u[43] + 364 u[44] + 272 u[45] + 647 u[46]
   + 375 u[47] + 716 u[48] + 989 u[49] + 732 u[50] + 157 u[51] + 130 u[52]
   + 353 u[53] + 158 u[54] + 565 u[55] + 38 u[56] + 296 u[57] + 225 u[58]
   + 919 u[59] <= 5474
 primal_lower499: 589 u[0] + 766 u[1] + 288 u[2] + 277 u[3] + 370 u[4]
   + 755 u[5] + 131 u[6] + 957 u[7] + 899 u[8] + 588 u[9] + 73 u[10]
   + 757 u[11] + 562 u[12] + 814 u[13] + 786 u[14] + 446 u[15] + 555 u[16]
   + 426 u[17] + 839 u[18] + 952 u[19] + 931 u[20] + 633 u[21] + 234 u[22]
   + 40 u[23] + 194 u[24] + 570 u[25] + 336 u[26] + 289 u[27] + 483 u[28]
   + 673 u[29] + 719 u[30] + 85 u[31] + 321 u[32] + 951 u[33] + 130 u[34]
   + 707 u[35] + 546 u[36] + 30 u[37] + 842 u[38] + 672 u[39] + 493 u[40]
   + 867 u[41] + 988 u[42] + 511 u[43] + 37 u[44] + 60 u[45] + 639 u[46]
   + 427 u[47] + 293 u[48] + 226 u[49] + 724 u[50] + 674 u[51] + 779 u[52]
   + 414 u[53] + 54 u[54] + 641 u[55] + 703 u[56] + 196 u[57] + 306 u[58]
   + 156 u[59] <= 5067
 primal_lower500: 210 u[0] + 454 u[1] + 892 u[2] + 365 u[3] + 590 u[4]
   + 308 u[5] + 783 u[6] + 670 u[7] + 327 u[8] + 484 u[9] + 398 u[10]
   + 725 u[11] + 326 u[12] + 102 u[13] + 639 u[14] + 839 u[15] + 743 u[16]
   + 842 u[17] + 379 u[18] + 264 u[19] + 687 u[20] + 186 u[21] + 862 u[22]
   + 825 u[23] + 383 u[24] + 506 u[25] + 396 u[26] + 170 u[27] + 272 u[28]
   + 57 u[29] + 916 u[30] + 22 u[31] + 438 u[32] + 751 u[33] + 174 u[34]
   + 835 u[35] + 654 u[36] + 135 u[37] + 318 u[38] + 817 u[39] + 697 u[40]
   + 652 u[41] + 192 u[42] + 728 u[43] + 65 u[44] + 813 u[45] + 348 u[46]
   + 492 u[47] + 785 u[48] + 234 u[49] + 481 u[50] + 442 u[51] + 503 u[52]
   + 158 u[53] + 683 u[54] + 986 u[55] + 275 u[56] + 213 u[57] + 646 u[58]
   + 44 u[59] <= 9727
 primal_lower501: 295 u[0] + 619 u[1] + 745 u[2] + 90 u[3] + 419 u[4]
   + 561 u[5] + 524 u[6] + 891 u[7] + 236 u[8] + 745 u[9] + 667 u[10]
   + 466 u[11] + 939 u[12] + 643 u[13] + 36 u[14] + 340 u[15] + 812 u[16]
   + 831 u[17] + 912 u[18] + 733 u[19] + 748 u[20] + 623 u[21] + 403 u[22]
   + 334 u[23] + 836 u[24] + 415 u[25] + 257 u[26] + 551 u[27] + 541 u[28]
   + 990 u[29] + 473 u[30] + 699 u[31] + 627 u[32] + 980 u[33] + 723 u[34]
   + 344 u[35] + 843 u[36] + 676 u[37] + 691 u[38] + 222 u[39] + 390 u[40]
   + 497 u[41] + 597 u[42] + 133 u[43] + 670 u[44] + 826 u[45] + 457 u[46]
   + 161 u[47] + 886 u[48] + 279 u[49] + 742 u[50] + 583 u[51] + 236 u[52]
   + 467 u[53] + 296 u[54] + 559 u[55] + 520 u[56] + 690 u[57] + 619 u[58]
   + 345 u[59] <= 11144
 primal_lower502: 981 u[0] + 102 u[1] + 656 u[2] + 525 u[3] + 674 u[4]
   + 43 u[5] + 187 u[6] + 573 u[7] + 499 u[8] + 564 u[9] + 833 u[10]
   + 717 u[11] + 58 u[12] + 262 u[13] + 618 u[14] + 86 u[15] + 611 u[16]
   + 482 u[17] + 487 u[18] + 808 u[19] + 507 u[20] + 73 u[21] + 802 u[22]
   + 720 u[23] + 378 u[24] + 586 u[25] + 944 u[26] + 681 u[27] + 651 u[28]
   + 769 u[29] + 807 u[30] + 981 u[31] + 81 u[32] + 791 u[33] + 394 u[34]
   + 603 u[35] + 18 u[36] + 254 u[37] + 818 u[38] + 560 u[39] + 269 u[40]
   + 971 u[41] + 996 u[42] + 863 u[43] + 469 u[44] + 988 u[45] + 383 u[46]
   + 907 u[47] + 261 u[48] + 706 u[49] + 732 u[50] + 154 u[51] + 675 u[52]
   + 54 u[53] + 766 u[54] + 689 u[55] + 695 u[56] + 284 u[57] + 90 u[58]
   + 300 u[59] <= 10812
 primal_lower503: 263 u[0] + 304 u[1] + 18 u[2] + 983 u[3] + 860 u[4]
   + 533 u[5] + 357 u[6] + 79 u[7] + 245 u[8] + 462 u[9] + 459 u[10]
   + 383 u[11] + 212 u[12] + 896 u[13] + 196 u[14] + 424 u[15] + 213 u[16]
   + 316 u[17] + 193 u[18] + 162 u[19] + 469 u[20] + 147 u[21] + 988 u[22]
   + 522 u[23] + 828 u[24] + 28 u[25] + 826 u[26] + 795 u[27] + 661 u[28]
   + 91 u[29] + 369 u[30] + 271 u[31] + 531 u[32] + 361 u[33] + 852 u[34]
   + 405 u[35] + 308 u[36] + 896 u[37] + 924 u[38] + 114 u[39] + 295 u[40]
   + 925 u[41] + 126 u[42] + 705 u[43] + 135 u[44] + 286 u[45] + 49 u[46]
   + 797 u[47] + 119 u[48] + 836 u[49] + 326 u[50] + 708 u[51] + 269 u[52]
   + 248 u[53] + 888 u[54] + 363 u[55] + 249 u[56] + 734 u[57] + 468 u[58]
   + 198 u[59] <= 4444
 primal_lower504: 779 u[0] + 55 u[1] + 973 u[2] + 726 u[3] + 511 u[4]
   + 29 u[5] + 632 u[6] + 615 u[7] + 560 u[8] + 837 u[9] + 55 u[10]
   + 318 u[11] + 999 u[12] + 319 u[13] + 24 u[14] + 592 u[15] + 680 u[16]
   + 251 u[17] + 284 u[18] + 817 u[19] + 144 u[20] + 931 u[21] + 463 u[22]
   + 138 u[23] + 320 u[24] + 283 u[25] + 925 u[26] + 931 u[27] + 369 u[28]
   + 266 u[29] + 885 u[30] + 343 u[31] + 999 u[32] + 768 u[33] + 967 u[34]
   + 740 u[35] + 71 u[36] + 992 u[37] + 807 u[38] + 82 u[39] + 770 u[40]
   + 109 u[41] + 561 u[42] + 305 u[43] + 530 u[44] + 22 u[45] + 949 u[46]
   + 661 u[47] + 786 u[48] + 563 u[49] + 482 u[50] + 123 u[51] + 440 u[52]
   + 207 u[53] + 148 u[54] + 155 u[55] + 764 u[56] + 446 u[57] + 151 u[58]
   + 933 u[59] <= 20390
 primal_lower505: 73 u[0] + 282 u[1] + 308 u[2] + 713 u[3] + 30 u[4]
   + 551 u[5] + 703 u[6] + 257 u[7] + 143 u[8] + 416 u[9] + 765 u[10]
   + 913 u[11] + 414 u[12] + 690 u[13] + 94 u[14] + 770 u[15] + 335 u[16]
   + 558 u[17] + 987 u[18] + 340 u[19] + 631 u[20] + 189 u[21] + 38 u[22]
   + 404 u[23] + 334 u[24] + 870 u[25] + 668 u[26] + 317 u[27] + 335 u[28]
   + 261 u[29] + 731 u[30] + 465 u[31] + 517 u[32] + 171 u[33] + 118 u[34]
   + 375 u[35] + 942 u[36] + 154 u[37] + 366 u[38] + 668 u[39] + 777 u[40]
   + 951 u[41] + 520 u[42] + 715 u[43] + 657 u[44] + 808 u[45] + 875 u[46]
   + 95 u[47] + 489 u[48] + 182 u[49] + 840 u[50] + 926 u[51] + 847 u[52]
   + 594 u[53] + 802 u[54] + 413 u[55] + 75 u[56] + 1000 u[57] + 846 u[58]
   + 864 u[59] <= 1000
 primal_lower506: 104 u[0] + 92 u[1] + 10 u[2] + 323 u[3] + 684 u[4]
   + 506 u[5] + 133 u[6] + 660 u[7] + 837 u[8] + 498 u[9] + 108 u[10]
   + 371 u[11] + 484 u[12] + 836 u[13] + 733 u[14] + 909 u[15] + 749 u[16]
   + 392 u[17] + 97 u[18] + 126 u[19] + 133 u[20] + 176 u[21] + 140 u[22]
   + 767 u[23] + 485 u[24] + 656 u[25] + 994 u[26] + 88 u[27] + 342 u[28]
   + 775 u[29] + 114 u[30] + 724 u[31] + 236 u[32] + 109 u[33] + 804 u[34]
   + 377 u[35] + 820 u[36] + 469 u[37] + 652 u[38] + 551 u[39] + 535 u[40]
   + 34 u[41] + 974 u[42] + 374 u[43] + 703 u[44] + 971 u[45] + 330 u[46]
   + 450 u[47] + 511 u[48] + 200 u[49] + 151 u[50] + 968 u[51] + 557 u[52]
   + 572 u[53] + 9 u[54] + 464 u[55] + 769 u[56] + 331 u[57] + 388 u[58]
   + 682 u[59] <= 18691
 primal_lower507: 616 u[0] + 457 u[1] + 675 u[2] + 968 u[3] + 317 u[4]
   + 478 u[5] + 438 u[6] + 464 u[7] + 750 u[8] + 23 u[9] + 556 u[10]
   + 648 u[11] + 893 u[12] + 873 u[13] + 621 u[14] + 649 u[15] + 926 u[16]
   + 325 u[17] + 658 u[18] + 27 u[19] + 694 u[20] + 676 u[21] + 461 u[22]
   + 467 u[23] + 221 u[24] + 837 u[25] + 243 u[26] + 860 u[27] + 102 u[28]
   + 44 u[29] + 58 u[30] + 848 u[31] + 60 u[32] + 586 u[33] + 725 u[34]
   + 990 u[35] + 133 u[36] + 401 u[37] + 917 u[38] + 579 u[39] + 616 u[40]
   + 870 u[41] + 439 u[42] + 370 u[43] + 288 u[44] + 207 u[45] + 346 u[46]
   + 958 u[47] + 512 u[48] + 149 u[49] + 303 u[50] + 501 u[51] + 222 u[52]
   + 145 u[53] + 249 u[54] + 908 u[55] + 642 u[56] + 783 u[57] + 277 u[58]
   + 719 u[59] <= 5128
 primal_lower508: 85 u[0] + 329 u[1] + 815 u[2] + 240 u[3] + 369 u[4]
   + 991 u[5] + 898 u[6] + 153 u[7] + 650 u[8] + 399 u[9] + 681 u[10]
   + 856 u[11] + 505 u[12] + 553 u[13] + 98 u[14] + 370 u[15] + 490 u[16]
   + 877 u[17] + 270 u[18] + 91 u[19] + 914 u[20] + 557 u[21] + 73 u[22]
   + 484 u[23] + 450 u[24] + 245 u[25] + 439 u[26] + 53 u[27] + 803 u[28]
   + 68 u[29] + 471 u[30] + 513 u[31] + 449 u[32] + 842 u[33] + 169 u[34]
   + 670 u[35] + 81 u[36] + 794 u[37] + u[38] + 716 u[39] + 404 u[40]
   + 879 u[41] + 339 u[42] + 955 u[43] + 868 u[44] + 816 u[45] + 743 u[46]
   + 551 u[47] + 532 u[48] + 661 u[49] + 748 u[50] + 661 u[51] + 402 u[52]
   + 913 u[53] + 758 u[54] + 501 u[55] + 630 u[56] + 64 u[57] + 953 u[58]
   + 303 u[59] <= 20795
 primal_lower509: 948 u[0] + 16 u[1] + 758 u[2] + 663 u[3] + 80 u[4]
   + 750 u[5] + 713 u[6] + 560 u[7] + 937 u[8] + 134 u[9] + 424 u[10]
   + 375 u[11] + 144 u[12] + 648 u[13] + 553 u[14] + 961 u[15] + 929 u[16]
   + 892 u[17] + 693 u[18] + 394 u[19] + 57 u[20] + 100 u[21] + 88 u[22]
   + 395 u[23] + 417 u[24] + 788 u[25] + 430 u[26] + 676 u[27] + 250 u[28]
   + 675 u[29] + 230 u[30] + 32 u[31] + 880 u[32] + 825 u[33] + 96 u[34]
   + 317 u[35] + 392 u[36] + 969 u[37] + 192 u[38] + 899 u[39] + 307 u[40]
   + 646 u[41] + 170 u[42] + 258 u[43] + 491 u[44] + 823 u[45] + 462 u[46]
   + 806 u[47] + 811 u[48] + 500 u[49] + 195 u[50] + 540 u[51] + 897 u[52]
   + 568 u[53] + 509 u[54] + 12 u[55] + 941 u[56] + 183 u[57] + 488 u[58]
   + 414 u[59] <= 10100
 primal_lower510: 662 u[0] + 111 u[1] + 713 u[2] + 446 u[3] + 291 u[4]
   + 100 u[5] + 484 u[6] + 926 u[7] + 92 u[8] + 701 u[9] + 466 u[10]
   + 302 u[11] + 923 u[12] + 95 u[13] + 59 u[14] + 591 u[15] + 164 u[16]
   + 499 u[17] + 248 u[18] + 657 u[19] + 28 u[20] + 226 u[21] + 51 u[22]
   + 361 u[23] + 27 u[24] + 443 u[25] + 25 u[26] + 370 u[27] + 428 u[28]
   + 98 u[29] + 456 u[30] + 894 u[31] + 522 u[32] + 536 u[33] + 667 u[34]
   + 692 u[35] + 75 u[36] + 247 u[37] + 379 u[38] + 329 u[39] + 366 u[40]
   + 412 u[41] + 757 u[42] + 368 u[43] + 566 u[44] + 61 u[45] + 336 u[46]
   + 684 u[47] + 278 u[48] + 139 u[49] + 469 u[50] + 795 u[51] + 764 u[52]
   + 727 u[53] + 367 u[54] + 314 u[55] + 24 u[56] + 5 u[57] + 83 u[58]
   + 997 u[59] <= 3982
 primal_lower511: 194 u[0] + 635 u[1] + 925 u[2] + 954 u[3] + 663 u[4]
   + 520 u[5] + 536 u[6] + 122 u[7] + 312 u[8] + 241 u[9] + 550 u[10]
   + 826 u[11] + 319 u[12] + 315 u[13] + 951 u[14] + 355 u[15] + 1000 u[16]
   + 311 u[17] + 316 u[18] + 805 u[19] + 560 u[20] + 878 u[21] + 911 u[22]
   + 621 u[23] + 359 u[24] + 951 u[25] + 517 u[26] + 342 u[27] + 744 u[28]
   + 238 u[29] + 508 u[30] + 2 u[31] + 22 u[32] + 468 u[33] + 903 u[34]
   + 512 u[35] + 239 u[36] + 859 u[37] + 719 u[38] + 477 u[39] + 930 u[40]
   + 800 u[41] + 241 u[42] + 804 u[43] + 370 u[44] + 737 u[45] + 596 u[46]
   + 416 u[47] + 794 u[48] + 599 u[49] + 657 u[50] + 247 u[51] + 264 u[52]
   + 963 u[53] + 283 u[54] + 406 u[55] + 676 u[56] + 969 u[57] + 335 u[58]
   + 985 u[59] <= 22501
 primal_lower512: 3 u[0] + 655 u[1] + 333 u[2] + 222 u[3] + 679 u[4]
   + 765 u[5] + 568 u[6] + 863 u[7] + 48 u[8] + 837 u[9] + 199 u[10]
   + 102 u[11] + 687 u[12] + 575 u[13] + 856 u[14] + 368 u[15] + 768 u[16]
   + 67 u[17] + 836 u[18] + 249 u[19] + 312 u[20] + 363 u[21] + 871 u[22]
   + 458 u[23] + 56 u[24] + 419 u[25] + 341 u[26] + 11 u[27] + 721 u[28]
   + 434 u[29] + 525 u[30] + 295 u[31] + 879 u[32] + 368 u[33] + 23 u[34]
   + 12 u[35] + 479 u[36] + 480 u[37] + 735 u[38] + 234 u[39] + 138 u[40]
   + 885 u[41] + 601 u[42] + 529 u[43] + 730 u[44] + 614 u[45] + 693 u[46]
   + 925 u[47] + 610 u[48] + 139 u[49] + 130 u[50] + 955 u[51] + 328 u[52]
   + 519 u[53] + 516 u[54] + 139 u[55] + 340 u[56] + 814 u[57] + 991 u[58]
   + 661 u[59] <= 9651
 primal_lower513: 482 u[0] + 987 u[1] + 741 u[2] + 402 u[3] + 191 u[4]
   + 80 u[5] + 744 u[6] + 674 u[7] + 688 u[8] + 41 u[9] + 30 u[10]
   + 250 u[11] + 55 u[12] + 99 u[13] + 943 u[14] + 691 u[15] + 960 u[16]
   + 423 u[17] + 428 u[18] + 37 u[19] + 400 u[20] + 726 u[21] + 951 u[22]
   + 573 u[23] + 663 u[24] + 791 u[25] + 485 u[26] + 806 u[27] + 912 u[28]
   + 270 u[29] + 44 u[30] + 242 u[31] + 942 u[32] + 964 u[33] + 703 u[34]
   + 968 u[35] + 159 u[36] + 699 u[37] + 343 u[38] + 837 u[39] + 298 u[40]
   + 848 u[41] + 577 u[42] + 260 u[43] + 882 u[44] + 897 u[45] + 140 u[46]
   + 872 u[47] + 794 u[48] + 87 u[49] + 889 u[50] + 23 u[51] + 888 u[52]
   + 91 u[53] + 691 u[54] + 622 u[55] + 340 u[56] + 761 u[57] + 719 u[58]
   + 361 u[59] <= 21642
 primal_lower514: 313 u[0] + 845 u[1] + 779 u[2] + 140 u[3] + 205 u[4]
   + 499 u[5] + 518 u[6] + 165 u[7] + 822 u[8] + 371 u[9] + 173 u[10]
   + 756 u[11] + 853 u[12] + 773 u[13] + 158 u[14] + 542 u[15] + 198 u[16]
   + 33 u[17] + 754 u[18] + 439 u[19] + 822 u[20] + 473 u[21] + 389 u[22]
   + 176 u[23] + 254 u[24] + 441 u[25] + 59 u[26] + 617 u[27] + 999 u[28]
   + 608 u[29] + 843 u[30] + 357 u[31] + 693 u[32] + 446 u[33] + 685 u[34]
   + 266 u[35] + 565 u[36] + 166 u[37] + 109 u[38] + 880 u[39] + 632 u[40]
   + 331 u[41] + 495 u[42] + 703 u[43] + 264 u[44] + 236 u[45] + 947 u[46]
   + 699 u[47] + 792 u[48] + 705 u[49] + 576 u[50] + 857 u[51] + 342 u[52]
   + 941 u[53] + 802 u[54] + 665 u[55] + 610 u[56] + 428 u[57] + 213 u[58]
   + 707 u[59] <= 15564
 primal_lower515: 248 u[0] + 33 u[1] + 115 u[2] + 120 u[3] + 501 u[4]
   + 166 u[5] + 982 u[6] + 896 u[7] + 990 u[8] + 175 u[9] + 44 u[10]
   + 544 u[11] + 157 u[12] + 577 u[13] + 981 u[14] + 817 u[15] + 766 u[16]
   + 693 u[17] + 858 u[18] + 827 u[19] + 294 u[20] + 876 u[21] + 85 u[22]
   + 131 u[23] + 285 u[24] + 317 u[25] + 723 u[26] + 268 u[27] + 758 u[28]
   + 940 u[29] + 546 u[30] + 216 u[31] + 644 u[32] + 562 u[33] + 693 u[34]
   + 262 u[35] + 741 u[36] + 249 u[37] + 589 u[38] + 915 u[39] + 1000 u[40]
   + 414 u[41] + 799 u[42] + 290 u[43] + 472 u[44] + 143 u[45] + 66 u[46]
   + 830 u[47] + 568 u[48] + 325 u[49] + 239 u[50] + 397 u[51] + 294 u[52]
   + 961 u[53] + 569 u[54] + 436 u[55] + 434 u[56] + 767 u[57] + 765 u[58]
   + 735 u[59] <= 15544
 primal_lower516: 76 u[0] + 200 u[1] + 326 u[2] + 447 u[3] + 664 u[4]
   + 982 u[5] + 649 u[6] + 200 u[7] + 705 u[8] + 854 u[9] + 400 u[10]
   + 623 u[11] + 440 u[12] + 616 u[13] + 881 u[14] + 393 u[15] + 49 u[16]
   + 556 u[17] + 757 u[18] + 466 u[19] + 97 u[20] + 492 u[21] + 888 u[22]
   + 259 u[23] + 265 u[24] + 340 u[25] + 214 u[26] + 28 u[27] + 874 u[28]
   + 3 u[29] + 510 u[30] + 992 u[31] + 648 u[32] + 49 u[33] + 944 u[34]
   + 189 u[35] + 136 u[36] + 689 u[37] + 512 u[38] + 411 u[39] + 411 u[40]
   + 46 u[41] + 626 u[42] + 842 u[43] + 3 u[44] + 119 u[45] + 734 u[46]
   + 510 u[47] + 819 u[48] + 700 u[49] + 291 u[50] + 828 u[51] + 953 u[52]
   + 704 u[53] + 637 u[54] + 92 u[55] + 253 u[56] + 839 u[57] + 40 u[58]
   + 86 u[59] <= 9452
 primal_lower517: 538 u[0] + 691 u[1] + 229 u[2] + 682 u[3] + 39 u[4]
   + 344 u[5] + 64 u[6] + 378 u[7] + 368 u[8] + 529 u[9] + 422 u[10]
   + 842 u[11] + 151 u[12] + 907 u[13] + 663 u[14] + 163 u[15] + 960 u[16]
   + 631 u[17] + 452 u[18] + 781 u[19] + 528 u[20] + 622 u[21] + 775 u[22]
   + 141 u[23] + 519 u[24] + 831 u[25] + 357 u[26] + 174 u[27] + 848 u[28]
   + 830 u[29] + 788 u[30] + 442 u[31] + 478 u[32] + 20 u[33] + 847 u[34]
   + 656 u[35] + 479 u[36] + 171 u[37] + 783 u[38] + 589 u[39] + 810 u[40]
   + 744 u[41] + 369 u[42] + 820 u[43] + 602 u[44] + 137 u[45] + 220 u[46]
   + 80 u[47] + 802 u[48] + 639 u[49] + 257 u[50] + 599 u[51] + 560 u[52]
   + 403 u[53] + 259 u[54] + 254 u[55] + 356 u[56] + 505 u[57] + 271 u[58]
   + 169 u[59] <= 960
 primal_lower518: 210 u[0] + 675 u[1] + 965 u[2] + 282 u[3] + 695 u[4]
   + 928 u[5] + 352 u[6] + 618 u[7] + 776 u[8] + 417 u[9] + 942 u[10]
   + 314 u[11] + 375 u[12] + 411 u[13] + 959 u[14] + 251 u[15] + 616 u[16]
   + 255 u[17] + 340 u[18] + 533 u[19] + 600 u[20] + 894 u[21] + 767 u[22]
   + 437 u[23] + 23 u[24] + 759 u[25] + 341 u[26] + 534 u[27] + 104 u[28]
   + 966 u[29] + 572 u[30] + 682 u[31] + 102 u[32] + 620 u[33] + 935 u[34]
   + 1000 u[35] + 415 u[36] + 595 u[37] + 775 u[38] + 621 u[39] + 778 u[40]
   + 272 u[41] + 257 u[42] + 252 u[43] + 602 u[44] + 353 u[45] + 900 u[46]
   + 8 u[47] + 506 u[48] + 15 u[49] + 769 u[50] + 951 u[51] + 24 u[52]
   + 571 u[53] + 755 u[54] + 78 u[55] + 700 u[56] + 545 u[57] + 319 u[58]
   + 681 u[59] <= 15996
 primal_lower519: 618 u[0] + 339 u[1] + 661 u[2] + 706 u[3] + 807 u[4]
   + 472 u[5] + 488 u[6] + 954 u[7] + 192 u[8] + 417 u[9] + 118 u[10]
   + 82 u[11] + 415 u[12] + 227 u[13] + 695 u[14] + 811 u[15] + 160 u[16]
   + 895 u[17] + 508 u[18] + 533 u[19] + 200 u[20] + 246 u[21] + 367 u[22]
   + 45 u[23] + 383 u[24] + 151 u[25] + 773 u[26] + 326 u[27] + 8 u[28]
   + 894 u[29] + 852 u[30] + 290 u[31] + 702 u[32] + 12 u[33] + 903 u[34]
   + 168 u[35] + 47 u[36] + 627 u[37] + 623 u[38] + 709 u[39] + 842 u[40]
   + 120 u[41] + 57 u[42] + 924 u[43] + 882 u[44] + 417 u[45] + 100 u[46]
   + 992 u[47] + 546 u[48] + 535 u[49] + 225 u[50] + 751 u[51] + 800 u[52]
   + 307 u[53] + 595 u[54] + 366 u[55] + 820 u[56] + 33 u[57] + 711 u[58]
   + 17 u[59] <= 14232
 primal_lower520: 644 u[0] + 445 u[1] + 759 u[2] + 428 u[3] + 657 u[4]
   + 338 u[5] + 218 u[6] + 452 u[7] + 970 u[8] + 659 u[9] + 904 u[10]
   + 636 u[11] + 905 u[12] + 245 u[13] + 153 u[14] + 485 u[15] + 754 u[16]
   + 457 u[17] + 870 u[18] + 55 u[19] + 242 u[20] + 520 u[21] + 793 u[22]
   + 383 u[23] + 969 u[24] + 417 u[25] + 79 u[26] + 352 u[27] + 562 u[28]
   + 896 u[29] + 814 u[30] + 812 u[31] + 424 u[32] + 902 u[33] + 929 u[34]
   + 634 u[35] + 121 u[36] + 445 u[37] + 185 u[38] + 671 u[39] + 276 u[40]
   + 746 u[41] + 203 u[42] + 702 u[43] + 156 u[44] + 723 u[45] + 934 u[46]
   + 34 u[47] + 836 u[48] + 393 u[49] + 155 u[50] + 849 u[51] + 450 u[52]
   + 181 u[53] + 413 u[54] + 760 u[55] + 166 u[56] + 755 u[57] + 121 u[58]
   + 867 u[59] <= 10634
 primal_lower521: 526 u[0] + 943 u[1] + 833 u[2] + 62 u[3] + 251 u[4]
   + 892 u[5] + 604 u[6] + 142 u[7] + 916 u[8] + 213 u[9] + 850 u[10]
   + 782 u[11] + 107 u[12] + 511 u[13] + 107 u[14] + 615 u[15] + 356 u[16]
   + 11 u[17] + 400 u[18] + 617 u[19] + 372 u[20] + 682 u[21] + 595 u[22]
   + 33 u[23] + 795 u[24] + 987 u[25] + 665 u[26] + 778 u[27] + 532 u[28]
   + 682 u[29] + 512 u[30] + 230 u[31] + 746 u[32] + 904 u[33] + 579 u[34]
   + 20 u[35] + 667 u[36] + 663 u[37] + 307 u[38] + 457 u[39] + 302 u[40]
   + 916 u[41] + 45 u[42] + 656 u[43] + 158 u[44] + 981 u[45] + 824 u[46]
   + 508 u[47] + 758 u[48] + 531 u[49] + 893 u[50] + 923 u[51] + 844 u[52]
   + 167 u[53] + 239 u[54] + 250 u[55] + 160 u[56] + 669 u[57] + 811 u[58]
   + 53 u[59] <= 15816
 primal_lower522: 937 u[0] + 114 u[1] + 236 u[2] + 329 u[3] + 990 u[4]
   + 343 u[5] + 823 u[6] + 473 u[7] + 967 u[8] + 928 u[9] + 957 u[10]
   + 201 u[11] + 790 u[12] + 106 u[13] + 142 u[14] + 794 u[15] + 527 u[16]
   + 70 u[17] + 139 u[18] + 492 u[19] + 975 u[20] + 645 u[21] + 582 u[22]
   + 268 u[23] + 294 u[24] + 414 u[25] + 308 u[26] + 725 u[27] + 631 u[28]
   + 845 u[29] + 787 u[30] + 801 u[31] + 741 u[32] + 539 u[33] + 838 u[34]
   + 703 u[35] + 342 u[36] + 378 u[37] + 294 u[38] + 796 u[39] + 905 u[40]
   + 455 u[41] + 808 u[42] + 3 u[43] + 249 u[44] + 728 u[45] + 363 u[46]
   + 919 u[47] + 969 u[48] + 382 u[49] + 264 u[50] + 54 u[51] + 927 u[52]
   + 34 u[53] + 482 u[54] + 349 u[55] + 211 u[56] + 472 u[57] + 766 u[58]
   + 920 u[59] <= 5420
 primal_lower523: 469 u[0] + 198 u[1] + 336 u[2] + 61 u[3] + 898 u[4]
   + 131 u[5] + 603 u[6] + 661 u[7] + 459 u[8] + 52 u[9] + 793 u[10]
   + 349 u[11] + 890 u[12] + 990 u[13] + 58 u[14] + 462 u[15] + 339 u[16]
   + 234 u[17] + 479 u[18] + 744 u[19] + 411 u[20] + 249 u[21] + 362 u[22]
   + 584 u[23] + 986 u[24] + 922 u[25] + 464 u[26] + 937 u[27] + 539 u[28]
   + 209 u[29] + 567 u[30] + 869 u[31] + 209 u[32] + 303 u[33] + 298 u[34]
   + 579 u[35] + 890 u[36] + 678 u[37] + 50 u[38] + 328 u[39] + 621 u[40]
   + 203 u[41] + 636 u[42] + 151 u[43] + 45 u[44] + 668 u[45] + 519 u[46]
   + 731 u[47] + 949 u[48] + 330 u[49] + 780 u[50] + 834 u[51] + 603 u[52]
   + 582 u[53] + 758 u[54] + 801 u[55] + 903 u[56] + 116 u[57] + 650 u[58]
   + 332 u[59] <= 990
 primal_lower524: 19 u[0] + 295 u[1] + 157 u[2] + 982 u[3] + 743 u[4]
   + 917 u[5] + 344 u[6] + 543 u[7] + 744 u[8] + 965 u[9] + 591 u[10]
   + 174 u[11] + 631 u[12] + 647 u[13] + 336 u[14] + 800 u[15] + 720 u[16]
   + 219 u[17] + 20 u[18] + 137 u[19] + 696 u[20] + 339 u[21] + 231 u[22]
   + 610 u[23] + 408 u[24] + 251 u[25] + 661 u[26] + 171 u[27] + 89 u[28]
   + 234 u[29] + 117 u[30] + 15 u[31] + 647 u[32] + 568 u[33] + 343 u[34]
   + 596 u[35] + 719 u[36] + 616 u[37] + 815 u[38] + 234 u[39] + 282 u[40]
   + 165 u[41] + 745 u[42] + 801 u[43] + 834 u[44] + 982 u[45] + 765 u[46]
   + 85 u[47] + 530 u[48] + 187 u[49] + 450 u[50] + 131 u[51] + 312 u[52]
   + 63 u[53] + 892 u[54] + 547 u[55] + 660 u[56] + 998 u[57] + 111 u[58]
   + 245 u[59] <= 998
 primal_lower525: 99 u[0] + 927 u[1] + 981 u[2] + 606 u[3] + 567 u[4]
   + 845 u[5] + 128 u[6] + 359 u[7] + 400 u[8] + 597 u[9] + 759 u[10]
   + 286 u[11] + 335 u[12] + 631 u[13] + 200 u[14] + 8 u[15] + 704 u[16]
   + 91 u[17] + 172 u[18] + 209 u[19] + 352 u[20] + 51 u[21] + 487 u[22]
   + 858 u[23] + 400 u[24] + 931 u[25] + 877 u[26] + 347 u[27] + 665 u[28]
   + 722 u[29] + 821 u[30] + 175 u[31] + 919 u[32] + 736 u[33] + 799 u[34]
   + 924 u[35] + 959 u[36] + 808 u[37] + 935 u[38] + 538 u[39] + 682 u[40]
   + 933 u[41] + 393 u[42] + 137 u[43] + 322 u[44] + 150 u[45] + 397 u[46]
   + 29 u[47] + 746 u[48] + 203 u[49] + 610 u[50] + 979 u[51] + 600 u[52]
   + 47 u[53] + 524 u[54] + 355 u[55] + 244 u[56] + 902 u[57] + 679 u[58]
   + 277 u[59] <= 5236
 primal_lower526: 216 u[0] + 692 u[1] + 178 u[2] + 883 u[3] + 380 u[4]
   + 842 u[5] + 581 u[6] + 876 u[7] + 197 u[8] + 474 u[9] + 84 u[10]
   + 555 u[11] + 676 u[12] + 452 u[13] + 981 u[14] + 469 u[15] + 557 u[16]
   + 1000 u[17] + 953 u[18] + 614 u[19] + 389 u[20] + 776 u[21] + 596 u[22]
   + 95 u[23] + 197 u[24] + 736 u[25] + 354 u[26] + 16 u[27] + 214 u[28]
   + 703 u[29] + 794 u[30] + 316 u[31] + 116 u[32] + 29 u[33] + 476 u[34]
   + 561 u[35] + 460 u[36] + 413 u[37] + 532 u[38] + 55 u[39] + 367 u[40]
   + 826 u[41] + 558 u[42] + 494 u[43] + 335 u[44] + 643 u[45] + 490 u[46]
   + 58 u[47] + 527 u[48] + 304 u[49] + 887 u[50] + 120 u[51] + 517 u[52]
   + 388 u[53] + 145 u[54] + 728 u[55] + 609 u[56] + 819 u[57] + 876 u[58]
   + 490 u[59] <= 4944
 primal_lower527: 530 u[0] + 179 u[1] + 973 u[2] + 586 u[3] + 863 u[4]
   + 80 u[5] + 88 u[6] + 66 u[7] + 800 u[8] + 641 u[9] + 894 u[10]
   + 122 u[11] + 143 u[12] + 563 u[13] + 135 u[14] + 83 u[15] + 792 u[16]
   + 279 u[17] + 580 u[18] + 445 u[19] + 184 u[20] + 606 u[21] + 967 u[22]
   + 805 u[23] + 535 u[24] + 903 u[25] + 573 u[26] + 678 u[27] + 576 u[28]
   + 838 u[29] + 948 u[30] + 546 u[31] + 230 u[32] + 92 u[33] + 871 u[34]
   + 648 u[35] + 215 u[36] + 531 u[37] + 367 u[38] + 181 u[39] + 250 u[40]
   + 120 u[41] + 105 u[42] + 444 u[43] + 658 u[44] + 457 u[45] + 612 u[46]
   + 72 u[47] + 346 u[48] + 239 u[49] + 529 u[50] + 695 u[51] + 504 u[52]
   + 803 u[53] + 443 u[54] + 622 u[55] + 236 u[56] + 857 u[57] + 151 u[58]
   + 353 u[59] <= 4772
 primal_lower528: 415 u[0] + 344 u[1] + 698 u[2] + 175 u[3] + 916 u[4]
   + 165 u[5] + 21 u[6] + 623 u[7] + 725 u[8] + 494 u[9] + 907 u[10]
   + 207 u[11] + 908 u[12] + 176 u[13] + 100 u[14] + 784 u[15] + 269 u[16]
   + 964 u[17] + 929 u[18] + 770 u[19] + 421 u[20] + 835 u[21] + 676 u[22]
   + 794 u[23] + 724 u[24] + 220 u[25] + 666 u[26] + 243 u[27] + 109 u[28]
   + 987 u[29] + 873 u[30] + 727 u[31] + 971 u[32] + 553 u[33] + 652 u[34]
   + 221 u[35] + 124 u[36] + 520 u[37] + 564 u[38] + 562 u[39] + 975 u[40]
   + 725 u[41] + 934 u[42] + 681 u[43] + 975 u[44] + 462 u[45] + 665 u[46]
   + 397 u[47] + 647 u[48] + 284 u[49] + 62 u[50] + 116 u[51] + 909 u[52]
   + 488 u[53] + 800 u[54] + 723 u[55] + 401 u[56] + 718 u[57] + 300 u[58]
   + 942 u[59] <= 22824
 primal_lower529: 639 u[0] + 291 u[1] + 441 u[2] + 842 u[3] + 771 u[4]
   + 329 u[5] + 460 u[6] + 283 u[7] + 500 u[8] + 433 u[9] + 259 u[10]
   + 2 u[11] + 835 u[12] + 547 u[13] + 388 u[14] + 124 u[15] + 324 u[16]
   + 751 u[17] + 496 u[18] + 549 u[19] + 76 u[20] + 855 u[21] + 107 u[22]
   + 38 u[23] + 748 u[24] + 151 u[25] + 985 u[26] + 327 u[27] + 237 u[28]
   + 422 u[29] + 833 u[30] + 675 u[31] + 531 u[32] + 20 u[33] + 363 u[34]
   + 576 u[35] + 475 u[36] + 652 u[37] + 499 u[38] + 814 u[39] + 198 u[40]
   + 857 u[41] + 701 u[42] + 741 u[43] + 374 u[44] + 90 u[45] + 289 u[46]
   + 361 u[47] + 438 u[48] + 23 u[49] + 166 u[50] + 519 u[51] + 708 u[52]
   + 571 u[53] + 72 u[54] + 447 u[55] + 184 u[56] + 266 u[57] + 371 u[58]
   + 41 u[59] <= 4344
 primal_lower530: 647 u[0] + 152 u[1] + 306 u[2] + 783 u[3] + 996 u[4]
   + 629 u[5] + 805 u[6] + 703 u[7] + 717 u[8] + 518 u[9] + 27 u[10]
   + 535 u[11] + 268 u[12] + 96 u[13] + 420 u[14] + 496 u[15] + 989 u[16]
   + 636 u[17] + 577 u[18] + 874 u[19] + 405 u[20] + 19 u[21] + 476 u[22]
   + 194 u[23] + 468 u[24] + 188 u[25] + 418 u[26] + 411 u[27] + 349 u[28]
   + 107 u[29] + 33 u[30] + 847 u[31] + 563 u[32] + 193 u[33] + 932 u[34]
   + 861 u[35] + 972 u[36] + 928 u[37] + 252 u[38] + 738 u[39] + 735 u[40]
   + 821 u[41] + 974 u[42] + 905 u[43] + 159 u[44] + 958 u[45] + 969 u[46]
   + 565 u[47] + 575 u[48] + 444 u[49] + 638 u[50] + 340 u[51] + 893 u[52]
   + 696 u[53] + 488 u[54] + 555 u[55] + 401 u[56] + 630 u[57] + 892 u[58]
   + 926 u[59] <= 5682
 primal_lower531: 170 u[0] + 411 u[1] + 733 u[2] + 706 u[3] + 655 u[4]
   + 136 u[5] + 272 u[6] + 226 u[7] + 136 u[8] + 153 u[9] + 134 u[10]
   + 818 u[11] + 831 u[12] + 723 u[13] + 159 u[14] + 331 u[15] + 896 u[16]
   + 975 u[17] + 180 u[18] + 165 u[19] + 552 u[20] + 630 u[21] + 295 u[22]
   + 349 u[23] + 951 u[24] + 503 u[25] + 797 u[26] + 6 u[27] + 520 u[28]
   + 254 u[29] + 172 u[30] + 930 u[31] + 766 u[32] + 860 u[33] + 727 u[34]
   + 704 u[35] + 399 u[36] + 459 u[37] + 175 u[38] + 157 u[39] + 10 u[40]
   + 40 u[41] + 353 u[42] + 508 u[43] + 50 u[44] + 785 u[45] + 356 u[46]
   + 632 u[47] + 194 u[48] + 55 u[49] + 305 u[50] + 799 u[51] + 888 u[52]
   + 739 u[53] + 947 u[54] + 574 u[55] + 604 u[56] + 961 u[57] + 231 u[58]
   + 681 u[59] <= 4788
 primal_lower532: 104 u[0] + 65 u[1] + 579 u[2] + 56 u[3] + 965 u[4]
   + 358 u[5] + 830 u[6] + 464 u[7] + 350 u[8] + 807 u[9] + 68 u[10]
   + 872 u[11] + 365 u[12] + 305 u[13] + 821 u[14] + 249 u[15] + 854 u[16]
   + 749 u[17] + 266 u[18] + 467 u[19] + 974 u[20] + 348 u[21] + 741 u[22]
   + 251 u[23] + 733 u[24] + 53 u[25] + 523 u[26] + 556 u[27] + 174 u[28]
   + 260 u[29] + 610 u[30] + 424 u[31] + 36 u[32] + 938 u[33] + 285 u[34]
   + 318 u[35] + 765 u[36] + 761 u[37] + 781 u[38] + 67 u[39] + 32 u[40]
   + 598 u[41] + 407 u[42] + 402 u[43] + 760 u[44] + 719 u[45] + 954 u[46]
   + 510 u[47] + 152 u[48] + 765 u[49] + 943 u[50] + 221 u[51] + 694 u[52]
   + 633 u[53] + 833 u[54] + 260 u[55] + 442 u[56] + 111 u[57] + 877 u[58]
   + 231 u[59] <= 974
 primal_lower533: 335 u[0] + 280 u[1] + 522 u[2] + 639 u[3] + 884 u[4]
   + 285 u[5] + 309 u[6] + 167 u[7] + 805 u[8] + 542 u[9] + 683 u[10]
   + 695 u[11] + 492 u[12] + 424 u[13] + 204 u[14] + 552 u[15] + 933 u[16]
   + 668 u[17] + 945 u[18] + 314 u[19] + 357 u[20] + 419 u[21] + 540 u[22]
   + 890 u[23] + 660 u[24] + 588 u[25] + 298 u[26] + 51 u[27] + 949 u[28]
   + 867 u[29] + 145 u[30] + 223 u[31] + 851 u[32] + 929 u[33] + 612 u[34]
   + 949 u[35] + 780 u[36] + 816 u[37] + 908 u[38] + 778 u[39] + 319 u[40]
   + 317 u[41] + 886 u[42] + 705 u[43] + 415 u[44] + 870 u[45] + 657 u[46]
   + 861 u[47] + 927 u[48] + 404 u[49] + 646 u[50] + 348 u[51] + 245 u[52]
   + 304 u[53] + 336 u[54] + 747 u[55] + 449 u[56] + 518 u[57] + 636 u[58]
   + 918 u[59] <= 11598
 primal_lower534: 756 u[0] + 605 u[1] + 815 u[2] + 828 u[3] + 889 u[4]
   + 42 u[5] + 10 u[6] + 660 u[7] + 602 u[8] + 411 u[9] + 824 u[10]
   + 252 u[11] + 993 u[12] + 333 u[13] + 617 u[14] + 141 u[15] + 538 u[16]
   + 225 u[17] + 190 u[18] + 455 u[19] + 594 u[20] + 72 u[21] + 977 u[22]
   + 575 u[23] + 41 u[24] + 305 u[25] + 295 u[26] + 520 u[27] + 642 u[28]
   + 240 u[29] + 222 u[30] + 980 u[31] + 888 u[32] + 462 u[33] + 633 u[34]
   + 874 u[35] + 337 u[36] + 885 u[37] + 481 u[38] + 367 u[39] + 260 u[40]
   + 706 u[41] + 131 u[42] + 342 u[43] + 780 u[44] + 275 u[45] + 990 u[46]
   + 722 u[47] + 316 u[48] + 985 u[49] + 603 u[50] + 521 u[51] + 586 u[52]
   + 117 u[53] + 909 u[54] + 576 u[55] + 238 u[56] + 923 u[57] + 241 u[58]
   + 99 u[59] <= 15448
 primal_lower535: 258 u[0] + 638 u[1] + 748 u[2] + 685 u[3] + 6 u[4]
   + 436 u[5] + 399 u[6] + 502 u[7] + 975 u[8] + 988 u[9] + 454 u[10]
   + 429 u[11] + 22 u[12] + 614 u[13] + 887 u[14] + 159 u[15] + 711 u[16]
   + 282 u[17] + 827 u[18] + 160 u[19] + 783 u[20] + 722 u[21] + 678 u[22]
   + 577 u[23] + 879 u[24] + 570 u[25] + 300 u[26] + 106 u[27] + 728 u[28]
   + 481 u[29] + 572 u[30] + 246 u[31] + 158 u[32] + 975 u[33] + 342 u[34]
   + 323 u[35] + 582 u[36] + 167 u[37] + 102 u[38] + 833 u[39] + 57 u[40]
   + 116 u[41] + 464 u[42] + 72 u[43] + 905 u[44] + 869 u[45] + 92 u[46]
   + 172 u[47] + 305 u[48] + 930 u[49] + 897 u[50] + 554 u[51] + 287 u[52]
   + 998 u[53] + 819 u[54] + 706 u[55] + 579 u[56] + 93 u[57] + 806 u[58]
   + 452 u[59] <= 10159
 primal_lower536: 998 u[0] + 615 u[1] + 57 u[2] + 486 u[3] + 611 u[4]
   + 900 u[5] + 612 u[6] + 678 u[7] + 620 u[8] + 733 u[9] + 946 u[10]
   + 446 u[11] + 947 u[12] + 647 u[13] + 179 u[14] + 879 u[15] + 404 u[16]
   + 419 u[17] + 624 u[18] + 49 u[19] + 596 u[20] + 522 u[21] + 139 u[22]
   + 73 u[23] + 875 u[24] + 179 u[25] + 249 u[26] + 786 u[27] + 652 u[28]
   + 42 u[29] + 96 u[30] + 974 u[31] + 626 u[32] + 944 u[33] + 955 u[34]
   + 788 u[35] + 755 u[36] + 15 u[37] + 35 u[38] + 561 u[39] + 734 u[40]
   + 92 u[41] + 837 u[42] + 88 u[43] + 166 u[44] + 909 u[45] + 480 u[46]
   + 660 u[47] + 278 u[48] + 635 u[49] + 845 u[50] + 291 u[51] + 572 u[52]
   + 751 u[53] + 175 u[54] + 346 u[55] + 328 u[56] + 965 u[57] + 395 u[58]
   + 901 u[59] <= 16080
 primal_lower537: 389 u[0] + 857 u[1] + 775 u[2] + 616 u[3] + 129 u[4]
   + 863 u[5] + 450 u[6] + 113 u[7] + 154 u[8] + 735 u[9] + 441 u[10]
   + 968 u[11] + 449 u[12] + 281 u[13] + 226 u[14] + 746 u[15] + 554 u[16]
   + 85 u[17] + 358 u[18] + 91 u[19] + 362 u[20] + 589 u[21] + 17 u[22]
   + 132 u[23] + 274 u[24] + 373 u[25] + 119 u[26] + 61 u[27] + 547 u[28]
   + 756 u[29] + 831 u[30] + 937 u[31] + 945 u[32] + 962 u[33] + 217 u[34]
   + 918 u[35] + 969 u[36] + 154 u[37] + 417 u[38] + 644 u[39] + 300 u[40]
   + 927 u[41] + 891 u[42] + 771 u[43] + 468 u[44] + 744 u[45] + 647 u[46]
   + 223 u[47] + 620 u[48] + 261 u[49] + 964 u[50] + 301 u[51] + 34 u[52]
   + 441 u[53] + 782 u[54] + 245 u[55] + 390 u[56] + 840 u[57] + 321 u[58]
   + 391 u[59] <= 20043
 primal_lower538: 51 u[0] + 47 u[1] + 133 u[2] + 462 u[3] + 607 u[4]
   + 445 u[5] + 448 u[6] + 623 u[7] + 624 u[8] + 149 u[9] + 63 u[10]
   + 950 u[11] + 167 u[12] + 991 u[13] + 800 u[14] + 832 u[15] + 272 u[16]
   + 339 u[17] + 500 u[18] + 169 u[19] + 592 u[20] + 779 u[21] + 87 u[22]
   + 170 u[23] + 496 u[24] + 771 u[25] + 421 u[26] + 11 u[27] + 401 u[28]
   + 146 u[29] + 485 u[30] + 679 u[31] + 735 u[32] + 400 u[33] + 575 u[34]
   + 76 u[35] + 663 u[36] + 112 u[37] + 999 u[38] + 98 u[39] + 490 u[40]
   + 965 u[41] + 385 u[42] + 169 u[43] + 250 u[44] + 870 u[45] + 701 u[46]
   + 261 u[47] + 386 u[48] + 939 u[49] + 994 u[50] + 379 u[51] + 584 u[52]
   + 103 u[53] + 884 u[54] + 419 u[55] + 636 u[56] + 934 u[57] + 887 u[58]
   + 429 u[59] <= 9677
 primal_lower539: 508 u[0] + 765 u[1] + 735 u[2] + 140 u[3] + 33 u[4]
   + 42 u[5] + 946 u[6] + 452 u[7] + 610 u[8] + 115 u[9] + 120 u[10]
   + 412 u[11] + 969 u[12] + 269 u[13] + 657 u[14] + 413 u[15] + 874 u[16]
   + 833 u[17] + 30 u[18] + 327 u[19] + 66 u[20] + 24 u[21] + 521 u[22]
   + 31 u[23] + 201 u[24] + 769 u[25] + 903 u[26] + 288 u[27] + 250 u[28]
   + 344 u[29] + 54 u[30] + 260 u[31] + 168 u[32] + 574 u[33] + 513 u[34]
   + 938 u[35] + 441 u[36] + 541 u[37] + 977 u[38] + 567 u[39] + 244 u[40]
   + 138 u[41] + 523 u[42] + 318 u[43] + 300 u[44] + 667 u[45] + 918 u[46]
   + 290 u[47] + 708 u[48] + 865 u[49] + 139 u[50] + 153 u[51] + 482 u[52]
   + 173 u[53] + 365 u[54] + 352 u[55] + 614 u[56] + 267 u[57] + 937 u[58]
   + 3 u[59] <= 4356
 primal_lower540: 120 u[0] + 372 u[1] + 594 u[2] + 563 u[3] + 924 u[4]
   + 866 u[5] + 877 u[6] + 796 u[7] + 373 u[8] + 186 u[9] + 748 u[10]
   + 259 u[11] + 252 u[12] + 508 u[13] + 965 u[14] + 829 u[15] + 525 u[16]
   + 952 u[17] + 337 u[18] + 238 u[19] + 581 u[20] + 896 u[21] + 876 u[22]
   + 47 u[23] + 221 u[24] + 416 u[25] + 778 u[26] + 912 u[27] + 94 u[28]
   + 135 u[29] + 394 u[30] + 556 u[31] + 780 u[32] + 525 u[33] + 420 u[34]
   + 617 u[35] + 292 u[36] + 717 u[37] + 52 u[38] + 175 u[39] + 639 u[40]
   + 338 u[41] + 390 u[42] + 654 u[43] + 7 u[44] + 819 u[45] + 202 u[46]
   + 634 u[47] + 535 u[48] + 672 u[49] + 327 u[50] + 784 u[51] + 501 u[52]
   + 188 u[53] + 505 u[54] + 304 u[55] + 353 u[56] + 203 u[57] + 276 u[58]
   + 370 u[59] <= 965
 primal_lower541: 317 u[0] + 718 u[1] + 816 u[2] + 549 u[3] + 642 u[4]
   + 571 u[5] + 251 u[6] + 613 u[7] + 899 u[8] + 652 u[9] + 673 u[10]
   + 37 u[11] + 418 u[12] + 494 u[13] + 586 u[14] + 326 u[15] + 387 u[16]
   + 90 u[17] + 831 u[18] + 864 u[19] + 411 u[20] + 249 u[21] + 498 u[22]
   + 688 u[23] + 818 u[24] + 226 u[25] + 616 u[26] + 505 u[27] + 259 u[28]
   + 561 u[29] + 959 u[30] + 981 u[31] + 721 u[32] + 279 u[33] + 242 u[34]
   + 147 u[35] + 330 u[36] + 550 u[37] + 322 u[38] + 368 u[39] + 997 u[40]
   + 147 u[41] + 340 u[42] + 959 u[43] + 29 u[44] + 612 u[45] + 767 u[46]
   + 179 u[47] + 421 u[48] + 634 u[49] + 716 u[50] + 162 u[51] + 251 u[52]
   + 974 u[53] + 70 u[54] + 697 u[55] + 695 u[56] + 156 u[57] + 578 u[58]
   + 572 u[59] <= 15210
 primal_lower542: 407 u[0] + 288 u[1] + 162 u[2] + 639 u[3] + 340 u[4]
   + 733 u[5] + 149 u[6] + 271 u[7] + 861 u[8] + 86 u[9] + 155 u[10]
   + 991 u[11] + 372 u[12] + 504 u[13] + 716 u[14] + 432 u[15] + 533 u[16]
   + 652 u[17] + 881 u[18] + 10 u[19] + 997 u[20] + 779 u[21] + 476 u[22]
   + 250 u[23] + 252 u[24] + 124 u[25] + 610 u[26] + 291 u[27] + 829 u[28]
   + 347 u[29] + 665 u[30] + 559 u[31] + 899 u[32] + 617 u[33] + 860 u[34]
   + 533 u[35] + 612 u[36] + 648 u[37] + 260 u[38] + 778 u[39] + 895 u[40]
   + 349 u[41] + 366 u[42] + 169 u[43] + 447 u[44] + 630 u[45] + 409 u[46]
   + 85 u[47] + 255 u[48] + 660 u[49] + 430 u[50] + 996 u[51] + 13 u[52]
   + 304 u[53] + 520 u[54] + 843 u[55] + 121 u[56] + 14 u[57] + 36 u[58]
   + 518 u[59] <= 19085
 primal_lower543: 468 u[0] + 341 u[1] + 639 u[2] + 100 u[3] + 425 u[4]
   + 138 u[5] + 370 u[6] + 884 u[7] + 466 u[8] + 315 u[9] + 176 u[10]
   + 708 u[11] + 641 u[12] + 133 u[13] + 361 u[14] + 53 u[15] + 842 u[16]
   + 185 u[17] + 246 u[18] + 695 u[19] + 386 u[20] + 40 u[21] + 817 u[22]
   + 743 u[23] + 889 u[24] + 489 u[25] + 7 u[26] + 744 u[27] + 66 u[28]
   + 336 u[29] + 590 u[30] + 892 u[31] + 176 u[32] + 126 u[33] + 793 u[34]
   + 682 u[35] + 593 u[36] + 317 u[37] + 937 u[38] + 247 u[39] + 836 u[40]
   + 546 u[41] + 147 u[42] + 38 u[43] + 692 u[44] + 275 u[45] + 902 u[46]
   + 74 u[47] + 724 u[48] + 785 u[49] + 947 u[50] + 201 u[51] + 138 u[52]
   + 285 u[53] + 293 u[54] + 560 u[55] + 182 u[56] + 395 u[57] + 81 u[58]
   + 883 u[59] <= 9013
 primal_lower544: 418 u[0] + 118 u[1] + 380 u[2] + 197 u[3] + 662 u[4]
   + 172 u[5] + 335 u[6] + 454 u[7] + 919 u[8] + 412 u[9] + 126 u[10]
   + 949 u[11] + 382 u[12] + 870 u[13] + 535 u[14] + 87 u[15] + 951 u[16]
   + 642 u[17] + 547 u[18] + 496 u[19] + 799 u[20] + 786 u[21] + 534 u[22]
   + 401 u[23] + 303 u[24] + 810 u[25] + 116 u[26] + 754 u[27] + 672 u[28]
   + 177 u[29] + 588 u[30] + 142 u[31] + 222 u[32] + 231 u[33] + 46 u[34]
   + 547 u[35] + 518 u[36] + 423 u[37] + 302 u[38] + 777 u[39] + 81 u[40]
   + 876 u[41] + 56 u[42] + 160 u[43] + 609 u[44] + 821 u[45] + 140 u[46]
   + 356 u[47] + 489 u[48] + 298 u[49] + 249 u[50] + 114 u[51] + 455 u[52]
   + 758 u[53] + 403 u[54] + 906 u[55] + 219 u[56] + 549 u[57] + 86 u[58]
   + 108 u[59] <= 8844
 primal_lower545: 248 u[0] + 665 u[1] + 35 u[2] + 88 u[3] + 157 u[4]
   + 990 u[5] + 254 u[6] + 96 u[7] + 718 u[8] + 591 u[9] + 100 u[10]
   + 920 u[11] + 261 u[12] + 105 u[13] + 765 u[14] + 913 u[15] + 790 u[16]
   + 533 u[17] + 394 u[18] + 723 u[19] + 198 u[20] + 924 u[21] + 165 u[22]
   + 267 u[23] + 925 u[24] + 509 u[25] + 59 u[26] + 28 u[27] + 358 u[28]
   + 524 u[29] + 818 u[30] + 448 u[31] + 868 u[32] + 730 u[33] + 277 u[34]
   + 206 u[35] + 165 u[36] + 561 u[37] + 173 u[38] + 723 u[39] + 656 u[40]
   + 246 u[41] + 455 u[42] + 386 u[43] + 288 u[44] + 71 u[45] + 170 u[46]
   + 750 u[47] + 104 u[48] + 837 u[49] + 911 u[50] + 877 u[51] + 310 u[52]
   + 841 u[53] + 209 u[54] + 884 u[55] + 202 u[56] + 87 u[57] + 133 u[58]
   + 311 u[59] <= 990
 primal_lower546: 687 u[0] + 955 u[1] + 113 u[2] + 530 u[3] + 723 u[4]
   + 657 u[5] + 772 u[6] + 699 u[7] + 644 u[8] + 529 u[9] + 235 u[10]
   + 234 u[11] + 435 u[12] + 899 u[13] + 676 u[14] + 980 u[15] + 676 u[16]
   + 887 u[17] + 560 u[18] + 589 u[19] + 324 u[20] + 63 u[21] + 971 u[22]
   + 206 u[23] + 20 u[24] + 431 u[25] + 865 u[26] + 943 u[27] + 709 u[28]
   + 278 u[29] + 561 u[30] + 595 u[31] + 579 u[32] + 820 u[33] + 987 u[34]
   + 240 u[35] + 123 u[36] + 900 u[37] + 859 u[38] + 110 u[39] + 166 u[40]
   + 601 u[41] + 413 u[42] + 485 u[43] + 910 u[44] + 754 u[45] + 201 u[46]
   + 641 u[47] + 46 u[48] + 759 u[49] + 750 u[50] + 63 u[51] + 132 u[52]
   + 915 u[53] + 200 u[54] + 799 u[55] + 512 u[56] + 586 u[57] + 403 u[58]
   + 489 u[59] <= 5481
 primal_lower547: 32 u[0] + 489 u[1] + 291 u[2] + 160 u[3] + 717 u[4]
   + 862 u[5] + 918 u[6] + 1000 u[7] + 558 u[8] + 583 u[9] + 844 u[10]
   + 976 u[11] + 197 u[12] + 801 u[13] + 341 u[14] + 585 u[15] + 606 u[16]
   + 189 u[17] + 354 u[18] + 155 u[19] + 742 u[20] + 500 u[21] + 877 u[22]
   + 355 u[23] + 213 u[24] + 277 u[25] + 555 u[26] + 140 u[27] + 686 u[28]
   + 412 u[29] + 306 u[30] + 432 u[31] + 836 u[32] + 514 u[33] + 429 u[34]
   + 678 u[35] + 37 u[36] + 633 u[37] + 773 u[38] + 547 u[39] + 712 u[40]
   + 206 u[41] + 327 u[42] + 578 u[43] + 800 u[44] + 191 u[45] + 578 u[46]
   + 686 u[47] + 136 u[48] + 565 u[49] + 415 u[50] + 493 u[51] + 302 u[52]
   + 641 u[53] + 673 u[54] + 140 u[55] + 138 u[56] + 103 u[57] + 381 u[58]
   + 623 u[59] <= 14644
 primal_lower548: 754 u[0] + 91 u[1] + 717 u[2] + 122 u[3] + 743 u[4]
   + 224 u[5] + 496 u[6] + 162 u[7] + 624 u[8] + 601 u[9] + 206 u[10]
   + 250 u[11] + 559 u[12] + 451 u[13] + 759 u[14] + 883 u[15] + 88 u[16]
   + 7 u[17] + 612 u[18] + 53 u[19] + 184 u[20] + 646 u[21] + 991 u[22]
   + 861 u[23] + 239 u[24] + 991 u[25] + 429 u[26] + 102 u[27] + 328 u[28]
   + 806 u[29] + 964 u[30] + 306 u[31] + 214 u[32] + 676 u[33] + 679 u[34]
   + 752 u[35] + 191 u[36] + 347 u[37] + 191 u[38] + 429 u[39] + 378 u[40]
   + 8 u[41] + 857 u[42] + 692 u[43] + 370 u[44] + 137 u[45] + 132 u[46]
   + 768 u[47] + 554 u[48] + 87 u[49] + 201 u[50] + 791 u[51] + 800 u[52]
   + 75 u[53] + 923 u[54] + 862 u[55] + 100 u[56] + 353 u[57] + 439 u[58]
   + 33 u[59] <= 13644
 primal_lower549: 796 u[0] + 829 u[1] + 151 u[2] + 4 u[3] + 49 u[4]
   + 266 u[5] + 858 u[6] + 668 u[7] + 282 u[8] + 307 u[9] + 768 u[10]
   + 788 u[11] + 737 u[12] + 517 u[13] + 161 u[14] + 429 u[15] + 706 u[16]
   + 649 u[17] + 462 u[18] + 575 u[19] + 586 u[20] + 712 u[21] + 673 u[22]
   + 383 u[23] + 785 u[24] + 537 u[25] + 7 u[26] + 128 u[27] + 810 u[28]
   + 296 u[29] + 630 u[30] + 268 u[31] + 312 u[32] + 6 u[33] + 161 u[34]
   + 938 u[35] + 57 u[36] + 309 u[37] + 281 u[38] + 167 u[39] + 76 u[40]
   + 490 u[41] + 251 u[42] + 166 u[43] + 452 u[44] + 163 u[45] + 662 u[46]
   + 418 u[47] + 76 u[48] + 609 u[49] + 379 u[50] + 721 u[51] + 290 u[52]
   + 133 u[53] + 173 u[54] + 88 u[55] + 270 u[56] + 579 u[57] + 633 u[58]
   + 635 u[59] <= 16874
 primal_lower550: 870 u[0] + 655 u[1] + 233 u[2] + 214 u[3] + 483 u[4]
   + 420 u[5] + 772 u[6] + 726 u[7] + 140 u[8] + 269 u[9] + 306 u[10]
   + 470 u[11] + 995 u[12] + 919 u[13] + 715 u[14] + 839 u[15] + 420 u[16]
   + 787 u[17] + 872 u[18] + 681 u[19] + 948 u[20] + 730 u[21] + 267 u[22]
   + 17 u[23] + 35 u[24] + 747 u[25] + 225 u[26] + 474 u[27] + 836 u[28]
   + 578 u[29] + 480 u[30] + 478 u[31] + 754 u[32] + 352 u[33] + 91 u[34]
   + 484 u[35] + 787 u[36] + 543 u[37] + 723 u[38] + 713 u[39] + 254 u[40]
   + 916 u[41] + 933 u[42] + 376 u[43] + 742 u[44] + 925 u[45] + 528 u[46]
   + 388 u[47] + 862 u[48] + 419 u[49] + 197 u[50] + 811 u[51] + 748 u[52]
   + 895 u[53] + 367 u[54] + 322 u[55] + 888 u[56] + 173 u[57] + 259 u[58]
   + 213 u[59] <= 11088
 primal_lower551: 20 u[0] + 152 u[1] + 934 u[2] + 591 u[3] + 672 u[4]
   + 614 u[5] + 353 u[6] + 824 u[7] + 193 u[8] + 750 u[9] + 592 u[10]
   + 703 u[11] + 208 u[12] + 624 u[13] + 249 u[14] + 721 u[15] + 345 u[16]
   + 804 u[17] + 69 u[18] + 810 u[19] + 385 u[20] + 900 u[21] + 872 u[22]
   + 963 u[23] + 681 u[24] + 372 u[25] + 254 u[26] + 332 u[27] + 138 u[28]
   + 939 u[29] + 454 u[30] + 792 u[31] + 856 u[32] + 889 u[33] + 984 u[34]
   + 13 u[35] + 696 u[36] + 785 u[37] + 424 u[38] + 611 u[39] + 971 u[40]
   + 206 u[41] + 594 u[42] + 986 u[43] + 635 u[44] + 423 u[45] + 542 u[46]
   + 518 u[47] + 99 u[48] + 188 u[49] + 243 u[50] + 788 u[51] + 81 u[52]
   + 680 u[53] + 221 u[54] + 492 u[55] + 285 u[56] + 63 u[57] + 616 u[58]
   + 446 u[59] <= 5274
 primal_lower552: 203 u[0] + 943 u[1] + 669 u[2] + 942 u[3] + 775 u[4]
   + 461 u[5] + 672 u[6] + 55 u[7] + 928 u[8] + 853 u[9] + 95 u[10]
   + 614 u[11] + 311 u[12] + 847 u[13] + 160 u[14] + 680 u[15] + 296 u[16]
   + 667 u[17] + 892 u[18] + 377 u[19] + 456 u[20] + 923 u[21] + 783 u[22]
   + 386 u[23] + 40 u[24] + 83 u[25] + 165 u[26] + 259 u[27] + 257 u[28]
   + 490 u[29] + 117 u[30] + 23 u[31] + 295 u[32] + 392 u[33] + 943 u[34]
   + 404 u[35] + 679 u[36] + 296 u[37] + 39 u[38] + 18 u[39] + 642 u[40]
   + 629 u[41] + 593 u[42] + 305 u[43] + 186 u[44] + 286 u[45] + 741 u[46]
   + 405 u[47] + 234 u[48] + 883 u[49] + 658 u[50] + 883 u[51] + 472 u[52]
   + 503 u[53] + 564 u[54] + 283 u[55] + 428 u[56] + 910 u[57] + 311 u[58]
   + 925 u[59] <= 9776
 primal_lower553: 820 u[0] + 21 u[1] + 127 u[2] + 260 u[3] + 169 u[4]
   + 250 u[5] + 842 u[6] + 44 u[7] + 314 u[8] + 883 u[9] + 744 u[10]
   + 732 u[11] + 681 u[12] + 629 u[13] + 425 u[14] + 381 u[15] + 186 u[16]
   + 201 u[17] + 406 u[18] + 855 u[19] + 562 u[20] + 136 u[21] + 809 u[22]
   + 151 u[23] + 449 u[24] + 321 u[25] + 943 u[26] + 704 u[27] + 866 u[28]
   + 936 u[29] + 54 u[30] + 156 u[31] + 48 u[32] + 966 u[33] + 137 u[34]
   + 570 u[35] + 241 u[36] + 797 u[37] + 769 u[38] + 47 u[39] + 732 u[40]
   + 226 u[41] + 443 u[42] + 926 u[43] + 380 u[44] + 83 u[45] + 406 u[46]
   + 266 u[47] + 812 u[48] + 201 u[49] + 115 u[50] + 561 u[51] + 762 u[52]
   + 901 u[53] + 909 u[54] + 312 u[55] + 582 u[56] + 339 u[57] + 569 u[58]
   + 499 u[59] <= 966
 primal_lower554: 988 u[0] + 912 u[1] + 102 u[2] + 207 u[3] + 776 u[4]
   + 174 u[5] + 449 u[6] + 960 u[7] + 113 u[8] + 622 u[9] + 288 u[10]
   + 439 u[11] + 984 u[12] + 56 u[13] + 329 u[14] + 785 u[15] + 673 u[16]
   + 12 u[17] + 581 u[18] + 658 u[19] + 9 u[20] + 412 u[21] + 832 u[22]
   + 619 u[23] + 129 u[24] + 44 u[25] + 118 u[26] + 964 u[27] + 242 u[28]
   + 163 u[29] + 710 u[30] + 824 u[31] + 248 u[32] + 753 u[33] + 888 u[34]
   + 557 u[35] + 832 u[36] + 417 u[37] + 376 u[38] + 979 u[39] + 731 u[40]
   + 710 u[41] + 730 u[42] + 290 u[43] + 667 u[44] + 319 u[45] + 110 u[46]
   + 102 u[47] + 659 u[48] + 972 u[49] + 139 u[50] + 364 u[51] + 241 u[52]
   + 88 u[53] + 957 u[54] + 964 u[55] + 997 u[56] + 279 u[57] + 752 u[58]
   + 990 u[59] <= 15642
 primal_lower555: 296 u[0] + 201 u[1] + 171 u[2] + 656 u[3] + 973 u[4]
   + 94 u[5] + 766 u[6] + 968 u[7] + 662 u[8] + 423 u[9] + 380 u[10]
   + 120 u[11] + 293 u[12] + 561 u[13] + 61 u[14] + 697 u[15] + 518 u[16]
   + 741 u[17] + 402 u[18] + 43 u[19] + 374 u[20] + 500 u[21] + 565 u[22]
   + 227 u[23] + 909 u[24] + 549 u[25] + 235 u[26] + 228 u[27] + 822 u[28]
   + 788 u[29] + 842 u[30] + 944 u[31] + 604 u[32] + 962 u[33] + 69 u[34]
   + 566 u[35] + 341 u[36] + 825 u[37] + 845 u[38] + 115 u[39] + 728 u[40]
   + 270 u[41] + 223 u[42] + 58 u[43] + 712 u[44] + 895 u[45] + 754 u[46]
   + 542 u[47] + 560 u[48] + 141 u[49] + 847 u[50] + 13 u[51] + 126 u[52]
   + 265 u[53] + 809 u[54] + 852 u[55] + 50 u[56] + 215 u[57] + 437 u[58]
   + 327 u[59] <= 4860
 primal_lower556: 112 u[0] + 49 u[1] + 83 u[2] + 656 u[3] + 229 u[4]
   + 142 u[5] + 774 u[6] + 608 u[7] + 950 u[8] + 575 u[9] + 708 u[10]
   + 144 u[11] + 885 u[12] + 729 u[13] + 445 u[14] + 793 u[15] + 542 u[16]
   + 381 u[17] + 50 u[18] + 435 u[19] + 782 u[20] + 500 u[21] + 397 u[22]
   + 523 u[23] + 925 u[24] + 957 u[25] + 291 u[26] + 796 u[27] + 254 u[28]
   + 540 u[29] + 466 u[30] + 936 u[31] + 852 u[32] + 346 u[33] + 525 u[34]
   + 118 u[35] + 621 u[36] + 817 u[37] + 533 u[38] + 427 u[39] + 608 u[40]
   + 694 u[41] + 663 u[42] + 338 u[43] + 656 u[44] + 503 u[45] + 2 u[46]
   + 790 u[47] + 472 u[48] + 365 u[49] + 615 u[50] + 997 u[51] + 366 u[52]
   + 57 u[53] + 25 u[54] + 52 u[55] + 994 u[56] + 175 u[57] + 597 u[58]
   + 311 u[59] <= 20117
 primal_lower557: 413 u[0] + 353 u[1] + 647 u[2] + 504 u[3] + 969 u[4]
   + 87 u[5] + 146 u[6] + 473 u[7] + 898 u[8] + 607 u[9] + 969 u[10]
   + 360 u[11] + 865 u[12] + u[13] + 554 u[14] + 162 u[15] + 506 u[16]
   + 477 u[17] + 894 u[18] + 851 u[19] + 338 u[20] + 437 u[21] + 281 u[22]
   + 860 u[23] + 514 u[24] + 557 u[25] + 639 u[26] + 821 u[27] + 563 u[28]
   + 884 u[29] + 743 u[30] + 545 u[31] + 393 u[32] + 146 u[33] + 465 u[34]
   + 326 u[35] + 273 u[36] + 170 u[37] + 57 u[38] + 204 u[39] + 836 u[40]
   + 159 u[41] + 707 u[42] + 979 u[43] + 804 u[44] + 296 u[45] + 599 u[46]
   + 951 u[47] + 52 u[48] + 741 u[49] + 652 u[50] + 869 u[51] + 578 u[52]
   + 809 u[53] + 878 u[54] + 957 u[55] + 494 u[56] + 48 u[57] + 369 u[58]
   + 375 u[59] <= 16052
 primal_lower558: 395 u[0] + 487 u[1] + 125 u[2] + 622 u[3] + 271 u[4]
   + 645 u[5] + 152 u[6] + 631 u[7] + 120 u[8] + 469 u[9] + 599 u[10]
   + 526 u[11] + 263 u[12] + 199 u[13] + 896 u[14] + 984 u[15] + 424 u[16]
   + 211 u[17] + 4 u[18] + 737 u[19] + 864 u[20] + 387 u[21] + 15 u[22]
   + 402 u[23] + 80 u[24] + 291 u[25] + 509 u[26] + 867 u[27] + 489 u[28]
   + 538 u[29] + 45 u[30] + 383 u[31] + 727 u[32] + 416 u[33] + 343 u[34]
   + 76 u[35] + 999 u[36] + 376 u[37] + 815 u[38] + 218 u[39] + 346 u[40]
   + 685 u[41] + 705 u[42] + 665 u[43] + 458 u[44] + 262 u[45] + 469 u[46]
   + 165 u[47] + 386 u[48] + 347 u[49] + 922 u[50] + 363 u[51] + 624 u[52]
   + 391 u[53] + 116 u[54] + 123 u[55] + 236 u[56] + 774 u[57] + 135 u[58]
   + 661 u[59] <= 999
 primal_lower559: 482 u[0] + 238 u[1] + 916 u[2] + 181 u[3] + 366 u[4]
   + 172 u[5] + 335 u[6] + 750 u[7] + 271 u[8] + 988 u[9] + 598 u[10]
   + 213 u[11] + 518 u[12] + 870 u[13] + 911 u[14] + 743 u[15] + 799 u[16]
   + 98 u[17] + 379 u[18] + 400 u[19] + 951 u[20] + 154 u[21] + 86 u[22]
   + 897 u[23] + 423 u[24] + 706 u[25] + 524 u[26] + 186 u[27] + 80 u[28]
   + 457 u[29] + 212 u[30] + 198 u[31] + 38 u[32] + 767 u[33] + 206 u[34]
   + 595 u[35] + 798 u[36] + 463 u[37] + 30 u[38] + 985 u[39] + 425 u[40]
   + 700 u[41] + 696 u[42] + 296 u[43] + 105 u[44] + 461 u[45] + 836 u[46]
   + 436 u[47] + 129 u[48] + 506 u[49] + 353 u[50] + 386 u[51] + 175 u[52]
   + 502 u[53] + 995 u[54] + 690 u[55] + 347 u[56] + 653 u[57] + 454 u[58]
   + 988 u[59] <= 9705
 primal_lower560: 963 u[0] + 92 u[1] + 798 u[2] + 931 u[3] + 88 u[4]
   + 985 u[5] + 753 u[6] + 811 u[7] + 353 u[8] + 98 u[9] + 855 u[10]
   + 531 u[11] + 904 u[12] + 228 u[13] + 416 u[14] + 588 u[15] + 305 u[16]
   + 896 u[17] + 253 u[18] + 102 u[19] + 945 u[20] + 479 u[21] + 352 u[22]
   + 398 u[23] + 400 u[24] + 632 u[25] + 718 u[26] + 335 u[27] + 985 u[28]
   + 63 u[29] + 853 u[30] + 899 u[31] + 343 u[32] + 861 u[33] + 32 u[34]
   + 57 u[35] + 944 u[36] + 212 u[37] + 168 u[38] + 46 u[39] + 59 u[40]
   + 553 u[41] + 202 u[42] + 517 u[43] + 411 u[44] + 194 u[45] + 869 u[46]
   + 665 u[47] + 107 u[48] + 808 u[49] + 930 u[50] + 744 u[51] + 161 u[52]
   + 796 u[53] + 772 u[54] + 359 u[55] + 885 u[56] + 2 u[57] + 448 u[58]
   + 338 u[59] <= 10164
 primal_lower561: 232 u[0] + 612 u[1] + 250 u[2] + 955 u[3] + 532 u[4]
   + 514 u[5] + 325 u[6] + 580 u[7] + 925 u[8] + 482 u[9] + 780 u[10]
   + 179 u[11] + 940 u[12] + 604 u[13] + 749 u[14] + 557 u[15] + 29 u[16]
   + 432 u[17] + 433 u[18] + 942 u[19] + 237 u[20] + 888 u[21] + 996 u[22]
   + 991 u[23] + 949 u[24] + 736 u[25] + 658 u[26] + 920 u[27] + 390 u[28]
   + 983 u[29] + 210 u[30] + 460 u[31] + 452 u[32] + 517 u[33] + 60 u[34]
   + 129 u[35] + 484 u[36] + 965 u[37] + 948 u[38] + 815 u[39] + 527 u[40]
   + 578 u[41] + 886 u[42] + 518 u[43] + 199 u[44] + 115 u[45] + 194 u[46]
   + 298 u[47] + 311 u[48] + 744 u[49] + 151 u[50] + 168 u[51] + 309 u[52]
   + 564 u[53] + 897 u[54] + 488 u[55] + 553 u[56] + 227 u[57] + 404 u[58]
   + 338 u[59] <= 10769
 primal_lower562: 797 u[0] + 526 u[1] + 176 u[2] + 501 u[3] + 954 u[4]
   + 955 u[5] + 787 u[6] + 269 u[7] + 579 u[8] + 316 u[9] + 633 u[10]
   + 221 u[11] + 586 u[12] + 118 u[13] + 362 u[14] + 398 u[15] + 891 u[16]
   + 522 u[17] + 879 u[18] + 168 u[19] + 363 u[20] + 201 u[21] + 986 u[22]
   + 24 u[23] + 642 u[24] + 946 u[25] + 112 u[26] + 305 u[27] + 491 u[28]
   + 873 u[29] + 351 u[30] + 437 u[31] + 689 u[32] + 495 u[33] + 154 u[34]
   + 875 u[35] + 714 u[36] + 582 u[37] + 954 u[38] + 392 u[39] + 413 u[40]
   + 979 u[41] + 460 u[42] + 743 u[43] + 749 u[44] + 732 u[45] + 615 u[46]
   + 427 u[47] + 629 u[48] + 34 u[49] + 484 u[50] + 554 u[51] + 547 u[52]
   + 182 u[53] + 374 u[54] + 41 u[55] + 655 u[56] + 12 u[57] + 434 u[58]
   + 772 u[59] <= 5176
 primal_lower563: 170 u[0] + 195 u[1] + 557 u[2] + 250 u[3] + 455 u[4]
   + 64 u[5] + 904 u[6] + 906 u[7] + 504 u[8] + 993 u[9] + 606 u[10]
   + 522 u[11] + 71 u[12] + 435 u[13] + 47 u[14] + 819 u[15] + 816 u[16]
   + 167 u[17] + 572 u[18] + 973 u[19] + 848 u[20] + 374 u[21] + 759 u[22]
   + 21 u[23] + 319 u[24] + 623 u[25] + 221 u[26] + 94 u[27] + 728 u[28]
   + 534 u[29] + 756 u[30] + 354 u[31] + 438 u[32] + 132 u[33] + 935 u[34]
   + 328 u[35] + 751 u[36] + 203 u[37] + 407 u[38] + 13 u[39] + 786 u[40]
   + 624 u[41] + 249 u[42] + 284 u[43] + 514 u[44] + 169 u[45] + 572 u[46]
   + 336 u[47] + 442 u[48] + 527 u[49] + 273 u[50] + 743 u[51] + 104 u[52]
   + 331 u[53] + 435 u[54] + 990 u[55] + 516 u[56] + 313 u[57] + 279 u[58]
   + 281 u[59] <= 4605
 primal_lower564: 62 u[0] + 335 u[1] + 185 u[2] + 902 u[3] + 347 u[4]
   + 836 u[5] + 380 u[6] + 158 u[7] + 396 u[8] + 453 u[9] + 226 u[10]
   + 294 u[11] + 971 u[12] + 431 u[13] + 835 u[14] + 263 u[15] + 780 u[16]
   + 83 u[17] + 1000 u[18] + 305 u[19] + 92 u[20] + 658 u[21] + 195 u[22]
   + 905 u[23] + 683 u[24] + 99 u[25] + 345 u[26] + 378 u[27] + 68 u[28]
   + 394 u[29] + 440 u[30] + 70 u[31] + 322 u[32] + 528 u[33] + 211 u[34]
   + 932 u[35] + 99 u[36] + 455 u[37] + 979 u[38] + 625 u[39] + 374 u[40]
   + 724 u[41] + 605 u[42] + 48 u[43] + 534 u[44] + 301 u[45] + 136 u[46]
   + 500 u[47] + 934 u[48] + 475 u[49] + 157 u[50] + 843 u[51] + 516 u[52]
   + 431 u[53] + 671 u[54] + 866 u[55] + 752 u[56] + 485 u[57] + 899 u[58]
   + 669 u[59] <= 19093
 primal_lower565: 135 u[0] + 664 u[1] + 2 u[2] + 479 u[3] + 132 u[4]
   + 981 u[5] + 93 u[6] + 367 u[7] + 421 u[8] + 310 u[9] + 899 u[10]
   + 711 u[11] + 772 u[12] + 184 u[13] + 940 u[14] + 776 u[15] + 789 u[16]
   + 764 u[17] + 313 u[18] + 138 u[19] + 173 u[20] + 531 u[21] + 676 u[22]
   + 378 u[23] + 452 u[24] + 140 u[25] + 642 u[26] + 483 u[27] + 621 u[28]
   + 243 u[29] + 625 u[30] + 191 u[31] + 763 u[32] + 481 u[33] + 340 u[34]
   + 733 u[35] + 300 u[36] + 408 u[37] + 988 u[38] + 466 u[39] + 615 u[40]
   + 661 u[41] + 526 u[42] + 137 u[43] + 463 u[44] + 998 u[45] + 393 u[46]
   + 789 u[47] + 583 u[48] + 508 u[49] + 286 u[50] + 852 u[51] + 549 u[52]
   + 16 u[53] + 280 u[54] + 235 u[55] + 385 u[56] + 670 u[57] + 996 u[58]
   + 694 u[59] <= 15070
 primal_lower566: 437 u[0] + 633 u[1] + 263 u[2] + 288 u[3] + 345 u[4]
   + 919 u[5] + 698 u[6] + 817 u[7] + 362 u[8] + 79 u[9] + 777 u[10]
   + 376 u[11] + 193 u[12] + 313 u[13] + 554 u[14] + 554 u[15] + 442 u[16]
   + 909 u[17] + 390 u[18] + 795 u[19] + 946 u[20] + 677 u[21] + 297 u[22]
   + 556 u[23] + 138 u[24] + 365 u[25] + 447 u[26] + 893 u[27] + 403 u[28]
   + 460 u[29] + 71 u[30] + 585 u[31] + 337 u[32] + 458 u[33] + 401 u[34]
   + 222 u[35] + 441 u[36] + 930 u[37] + 433 u[38] + 324 u[39] + 628 u[40]
   + 783 u[41] + 59 u[42] + 891 u[43] + 964 u[44] + 992 u[45] + 799 u[46]
   + 607 u[47] + 388 u[48] + 621 u[49] + 156 u[50] + 357 u[51] + 34 u[52]
   + 873 u[53] + 406 u[54] + 381 u[55] + 606 u[56] + 264 u[57] + 529 u[58]
   + 207 u[59] <= 15036
 primal_lower567: 880 u[0] + 865 u[1] + 627 u[2] + 128 u[3] + 573 u[4]
   + 686 u[5] + 126 u[6] + 32 u[7] + 822 u[8] + 855 u[9] + 116 u[10]
   + 504 u[11] + 981 u[12] + 73 u[13] + 517 u[14] + 129 u[15] + 430 u[16]
   + 725 u[17] + 362 u[18] + 875 u[19] + 654 u[20] + 148 u[21] + 829 u[22]
   + 595 u[23] + 501 u[24] + 893 u[25] + 611 u[26] + 508 u[27] + 622 u[28]
   + 212 u[29] + 442 u[30] + 432 u[31] + 468 u[32] + 290 u[33] + 133 u[34]
   + 950 u[35] + 485 u[36] + 65 u[37] + 637 u[38] + 59 u[39] + 368 u[40]
   + 14 u[41] + 239 u[42] + 354 u[43] + 880 u[44] + 375 u[45] + 442 u[46]
   + 486 u[47] + 120 u[48] + 365 u[49] + 87 u[50] + 109 u[51] + 390 u[52]
   + 193 u[53] + 753 u[54] + 540 u[55] + 570 u[56] + 327 u[57] + 901 u[58]
   + 615 u[59] <= 13984
 primal_lower568: 999 u[0] + 928 u[1] + 474 u[2] + 7 u[3] + 684 u[4]
   + 917 u[5] + 949 u[6] + 31 u[7] + 317 u[8] + 142 u[9] + 339 u[10]
   + 591 u[11] + 668 u[12] + 368 u[13] + 20 u[14] + 824 u[15] + 333 u[16]
   + 700 u[17] + 489 u[18] + 674 u[19] + 733 u[20] + 499 u[21] + 484 u[22]
   + 706 u[23] + 484 u[24] + 636 u[25] + 242 u[26] + 715 u[27] + 117 u[28]
   + 267 u[29] + 705 u[30] + 679 u[31] + 835 u[32] + 305 u[33] + 452 u[34]
   + 813 u[35] + 804 u[36] + 144 u[37] + 260 u[38] + 74 u[39] + 999 u[40]
   + 997 u[41] + 22 u[42] + 65 u[43] + 127 u[44] + 342 u[45] + 449 u[46]
   + 397 u[47] + 375 u[48] + 764 u[49] + 774 u[50] + 708 u[51] + 5 u[52]
   + 464 u[53] + 984 u[54] + 339 u[55] + 889 u[56] + 630 u[57] + 820 u[58]
   + 742 u[59] <= 5216
 primal_lower569: 23 u[0] + 80 u[1] + 554 u[2] + 863 u[3] + 924 u[4]
   + 333 u[5] + 701 u[6] + 23 u[7] + 389 u[8] + 350 u[9] + 259 u[10]
   + 383 u[11] + 620 u[12] + 784 u[13] + 836 u[14] + 336 u[15] + 453 u[16]
   + 396 u[17] + 737 u[18] + 898 u[19] + 461 u[20] + 299 u[21] + 652 u[22]
   + 194 u[23] + 628 u[24] + 396 u[25] + 538 u[26] + 563 u[27] + 757 u[28]
   + 59 u[29] + 329 u[30] + 295 u[31] + 467 u[32] + 49 u[33] + 748 u[34]
   + 213 u[35] + 500 u[36] + 920 u[37] + 948 u[38] + 290 u[39] + 511 u[40]
   + 93 u[41] + 430 u[42] + 905 u[43] + 175 u[44] + 390 u[45] + 321 u[46]
   + 565 u[47] + 559 u[48] + 20 u[49] + 14 u[50] + 788 u[51] + 45 u[52]
   + 608 u[53] + 176 u[54] + 571 u[55] + 329 u[56] + 462 u[57] + 60 u[58]
   + 950 u[59] <= 13610
 primal_lower570: 590 u[0] + 930 u[1] + 856 u[2] + 9 u[3] + 650 u[4]
   + 416 u[5] + 635 u[6] + 762 u[7] + 411 u[8] + 896 u[9] + 34 u[10]
   + 257 u[11] + 442 u[12] + 474 u[13] + 683 u[14] + 979 u[15] + 659 u[16]
   + 590 u[17] + 7 u[18] + 292 u[19] + 771 u[20] + 806 u[21] + 26 u[22]
   + 333 u[23] + 443 u[24] + 774 u[25] + 56 u[26] + 758 u[27] + 124 u[28]
   + 157 u[29] + 216 u[30] + 786 u[31] + 122 u[32] + 779 u[33] + 418 u[34]
   + 647 u[35] + 682 u[36] + 323 u[37] + 970 u[38] + 189 u[39] + 989 u[40]
   + 432 u[41] + 420 u[42] + 348 u[43] + 93 u[44] + 809 u[45] + 264 u[46]
   + 296 u[47] + 741 u[48] + 790 u[49] + 517 u[50] + 926 u[51] + 915 u[52]
   + 474 u[53] + 879 u[54] + 438 u[55] + 375 u[56] + 169 u[57] + 794 u[58]
   + 512 u[59] <= 5188
 primal_lower571: 960 u[0] + 401 u[1] + 51 u[2] + 168 u[3] + 693 u[4]
   + 86 u[5] + 614 u[6] + 320 u[7] + 582 u[8] + 495 u[9] + 452 u[10]
   + 568 u[11] + 909 u[12] + 713 u[13] + 509 u[14] + 825 u[15] + 286 u[16]
   + 301 u[17] + 642 u[18] + 963 u[19] + 990 u[20] + 892 u[21] + 5 u[22]
   + 435 u[23] + 773 u[24] + 501 u[25] + 771 u[26] + 252 u[27] + 590 u[28]
   + 620 u[29] + 186 u[30] + 552 u[31] + 156 u[32] + 394 u[33] + 437 u[34]
   + 14 u[35] + 421 u[36] + 993 u[37] + 629 u[38] + 603 u[39] + 232 u[40]
   + 894 u[41] + 279 u[42] + 890 u[43] + 200 u[44] + 879 u[45] + 890 u[46]
   + 294 u[47] + 704 u[48] + 637 u[49] + 255 u[50] + 749 u[51] + 862 u[52]
   + 201 u[53] + 785 u[54] + 868 u[55] + 338 u[56] + 751 u[57] + 165 u[58]
   + 95 u[59] <= 21146
 primal_lower572: 44 u[0] + 637 u[1] + 903 u[2] + 348 u[3] + 473 u[4]
   + 378 u[5] + 418 u[6] + 52 u[7] + 778 u[8] + 947 u[9] + 608 u[10]
   + 452 u[11] + 545 u[12] + 221 u[13] + 617 u[14] + 597 u[15] + 682 u[16]
   + 601 u[17] + 54 u[18] + 967 u[19] + 554 u[20] + 672 u[21] + 361 u[22]
   + 127 u[23] + 865 u[24] + 97 u[25] + 751 u[26] + 568 u[27] + 802 u[28]
   + 680 u[29] + 54 u[30] + 796 u[31] + 688 u[32] + 582 u[33] + 793 u[34]
   + 26 u[35] + 785 u[36] + 741 u[37] + 225 u[38] + 15 u[39] + 924 u[40]
   + 418 u[41] + 523 u[42] + 726 u[43] + 180 u[44] + 595 u[45] + 206 u[46]
   + 690 u[47] + 164 u[48] + 849 u[49] + 379 u[50] + 697 u[51] + 602 u[52]
   + 133 u[53] + 981 u[54] + 600 u[55] + 38 u[56] + 331 u[57] + 705 u[58]
   + 851 u[59] <= 20730
 primal_lower573: 981 u[0] + 278 u[1] + 128 u[2] + 581 u[3] + 186 u[4]
   + 355 u[5] + 323 u[6] + 701 u[7] + 171 u[8] + 356 u[9] + 497 u[10]
   + 861 u[11] + 18 u[12] + 46 u[13] + 282 u[14] + 158 u[15] + 331 u[16]
   + 242 u[17] + 207 u[18] + 752 u[19] + 963 u[20] + 513 u[21] + 562 u[22]
   + 576 u[23] + 490 u[24] + 250 u[25] + 688 u[26] + 673 u[27] + 835 u[28]
   + 833 u[29] + 615 u[30] + 285 u[31] + 497 u[32] + 303 u[33] + 314 u[34]
   + 939 u[35] + 178 u[36] + 798 u[37] + 786 u[38] + 232 u[39] + 541 u[40]
   + 939 u[41] + 316 u[42] + 167 u[43] + 317 u[44] + 924 u[45] + 295 u[46]
   + 715 u[47] + 461 u[48] + 898 u[49] + 76 u[50] + 66 u[51] + 835 u[52]
   + 838 u[53] + 926 u[54] + 281 u[55] + 719 u[56] + 4 u[57] + 538 u[58]
   + 428 u[59] <= 9689
 primal_lower574: 808 u[0] + 889 u[1] + 123 u[2] + 664 u[3] + 549 u[4]
   + 934 u[5] + 982 u[6] + 752 u[7] + 70 u[8] + 775 u[9] + 700 u[10]
   + 192 u[11] + 701 u[12] + 545 u[13] + 509 u[14] + 809 u[15] + 518 u[16]
   + 181 u[17] + 802 u[18] + 723 u[19] + 766 u[20] + 68 u[21] + 469 u[22]
   + 227 u[23] + 477 u[24] + 333 u[25] + 139 u[26] + 60 u[27] + 334 u[28]
   + 436 u[29] + 666 u[30] + 480 u[31] + 956 u[32] + 722 u[33] + 565 u[34]
   + 406 u[35] + 821 u[36] + 145 u[37] + 845 u[38] + 203 u[39] + 152 u[40]
   + 622 u[41] + 287 u[42] + 354 u[43] + 600 u[44] + 599 u[45] + 834 u[46]
   + 422 u[47] + 312 u[48] + 989 u[49] + 767 u[50] + 469 u[51] + 414 u[52]
   + 137 u[53] + 497 u[54] + 156 u[55] + 562 u[56] + 543 u[57] + 733 u[58]
   + 895 u[59] <= 21125
 primal_lower575: 923 u[0] + 668 u[1] + 894 u[2] + 891 u[3] + 672 u[4]
   + 81 u[5] + 177 u[6] + 243 u[7] + 209 u[8] + 106 u[9] + 103 u[10]
   + 827 u[11] + 768 u[12] + 92 u[13] + 120 u[14] + 228 u[15] + 81 u[16]
   + 248 u[17] + 469 u[18] + 470 u[19] + 457 u[20] + 303 u[21] + 648 u[22]
   + 110 u[23] + 88 u[24] + 160 u[25] + 822 u[26] + 791 u[27] + 801 u[28]
   + 863 u[29] + 389 u[30] + 531 u[31] + 543 u[32] + 413 u[33] + 312 u[34]
   + 609 u[35] + 904 u[36] + 988 u[37] + 128 u[38] + 726 u[39] + 843 u[40]
   + 961 u[41] + 634 u[42] + 237 u[43] + 803 u[44] + 802 u[45] + 661 u[46]
   + 449 u[47] + 123 u[48] + 536 u[49] + 930 u[50] + 984 u[51] + 625 u[52]
   + 100 u[53] + 892 u[54] + 759 u[55] + 261 u[56] + 322 u[57] + 592 u[58]
   + 26 u[59] <= 5066
 primal_lower576: 57 u[0] + 658 u[1] + 12 u[2] + 89 u[3] + 454 u[4]
   + 895 u[5] + 983 u[6] + 449 u[7] + 775 u[8] + 496 u[9] + 709 u[10]
   + 697 u[11] + 510 u[12] + 834 u[13] + 758 u[14] + 458 u[15] + 663 u[16]
   + 454 u[17] + 83 u[18] + 508 u[19] + 599 u[20] + 773 u[21] + 918 u[22]
   + 588 u[23] + 870 u[24] + 182 u[25] + 604 u[26] + 165 u[27] + 975 u[28]
   + 397 u[29] + 331 u[30] + 441 u[31] + 525 u[32] + 459 u[33] + 878 u[34]
   + 647 u[35] + 350 u[36] + 474 u[37] + 318 u[38] + 188 u[39] + 553 u[40]
   + 703 u[41] + 56 u[42] + 947 u[43] + 705 u[44] + 504 u[45] + 891 u[46]
   + 127 u[47] + 561 u[48] + 942 u[49] + 176 u[50] + 838 u[51] + 511 u[52]
   + 458 u[53] + 266 u[54] + 413 u[55] + 539 u[56] + 96 u[57] + 278 u[58]
   + 344 u[59] <= 5188
 primal_lower577: 606 u[0] + 514 u[1] + 256 u[2] + 233 u[3] + 538 u[4]
   + 312 u[5] + 123 u[6] + 186 u[7] + 819 u[8] + 640 u[9] + 34 u[10]
   + 513 u[11] + 546 u[12] + 634 u[13] + 955 u[14] + 851 u[15] + 971 u[16]
   + 646 u[17] + 23 u[18] + 68 u[19] + 555 u[20] + 598 u[21] + 178 u[22]
   + 61 u[23] + 579 u[24] + 438 u[25] + 288 u[26] + 990 u[27] + 68 u[28]
   + 365 u[29] + 816 u[30] + 538 u[31] + 202 u[32] + 83 u[33] + 786 u[34]
   + 335 u[35] + 786 u[36] + 99 u[37] + 218 u[38] + 197 u[39] + 261 u[40]
   + 40 u[41] + 292 u[42] + 4 u[43] + 357 u[44] + 433 u[45] + 376 u[46]
   + 584 u[47] + 925 u[48] + 694 u[49] + 685 u[50] + 62 u[51] + 819 u[52]
   + 794 u[53] + 871 u[54] + 62 u[55] + 655 u[56] + 145 u[57] + 858 u[58]
   + 760 u[59] <= 990
 primal_lower578: 684 u[0] + 280 u[1] + 702 u[2] + 519 u[3] + 816 u[4]
   + 446 u[5] + 497 u[6] + 272 u[7] + 201 u[8] + 134 u[9] + 168 u[10]
   + 127 u[11] + 288 u[12] + 600 u[13] + 913 u[14] + 337 u[15] + 937 u[16]
   + 532 u[17] + 229 u[18] + 314 u[19] + 721 u[20] + 844 u[21] + 864 u[22]
   + 387 u[23] + 281 u[24] + 636 u[25] + 174 u[26] + 676 u[27] + 322 u[28]
   + 771 u[29] + 894 u[30] + 752 u[31] + 784 u[32] + 649 u[33] + 472 u[34]
   + 861 u[35] + 440 u[36] + 329 u[37] + 352 u[38] + 995 u[39] + 67 u[40]
   + 166 u[41] + 170 u[42] + 554 u[43] + 43 u[44] + 503 u[45] + 502 u[46]
   + 654 u[47] + 635 u[48] + 396 u[49] + 539 u[50] + 964 u[51] + 481 u[52]
   + 344 u[53] + 861 u[54] + 908 u[55] + 941 u[56] + 423 u[57] + 672 u[58]
   + 118 u[59] <= 995
 primal_lower579: 553 u[0] + 434 u[1] + 460 u[2] + 889 u[3] + 942 u[4]
   + 935 u[5] + 183 u[6] + 89 u[7] + 111 u[8] + 744 u[9] + 333 u[10]
   + 505 u[11] + 46 u[12] + 618 u[13] + 190 u[14] + 554 u[15] + 863 u[16]
   + 686 u[17] + 707 u[18] + 372 u[19] + 639 u[20] + 573 u[21] + 814 u[22]
   + 980 u[23] + 254 u[24] + 14 u[25] + 388 u[26] + 221 u[27] + 327 u[28]
   + 101 u[29] + 603 u[30] + 913 u[31] + 109 u[32] + 635 u[33] + 982 u[34]
   + 111 u[35] + 934 u[36] + 234 u[37] + 142 u[38] + 36 u[39] + 217 u[40]
   + 111 u[41] + 48 u[42] + 59 u[43] + 665 u[44] + 432 u[45] + 803 u[46]
   + 903 u[47] + 753 u[48] + 806 u[49] + 56 u[50] + 998 u[51] + 647 u[52]
   + 26 u[53] + 818 u[54] + 237 u[55] + 699 u[56] + 232 u[57] + 510 u[58]
   + 840 u[59] <= 9694
 primal_lower580: 844 u[0] + 709 u[1] + 999 u[2] + 148 u[3] + 9 u[4]
   + 666 u[5] + 538 u[6] + 404 u[7] + 866 u[8] + 563 u[9] + 464 u[10]
   + 124 u[11] + 97 u[12] + 349 u[13] + 561 u[14] + 797 u[15] + 330 u[16]
   + 593 u[17] + 134 u[18] + 615 u[19] + 346 u[20] + 176 u[21] + 73 u[22]
   + 879 u[23] + 689 u[24] + 697 u[25] + 463 u[26] + 656 u[27] + 882 u[28]
   + 64 u[29] + 966 u[30] + 764 u[31] + 496 u[32] + 342 u[33] + 385 u[34]
   + 978 u[35] + 353 u[36] + 813 u[37] + 409 u[38] + 607 u[39] + 460 u[40]
   + 650 u[41] + 259 u[42] + 134 u[43] + 524 u[44] + 635 u[45] + 358 u[46]
   + 186 u[47] + 244 u[48] + 873 u[49] + 803 u[50] + 129 u[51] + 306 u[52]
   + 77 u[53] + 813 u[54] + 24 u[55] + 878 u[56] + 547 u[57] + 617 u[58]
   + 483 u[59] <= 999
 primal_lower581: 595 u[0] + 63 u[1] + 749 u[2] + 382 u[3] + 335 u[4]
   + 381 u[5] + 136 u[6] + 239 u[7] + 544 u[8] + 525 u[9] + 327 u[10]
   + 550 u[11] + 183 u[12] + 935 u[13] + 96 u[14] + 320 u[15] + 208 u[16]
   + 259 u[17] + 556 u[18] + 665 u[19] + 992 u[20] + 459 u[21] + 911 u[22]
   + 634 u[23] + 768 u[24] + 715 u[25] + 333 u[26] + 515 u[27] + 401 u[28]
   + 506 u[29] + 765 u[30] + 143 u[31] + 903 u[32] + 840 u[33] + 935 u[34]
   + 252 u[35] + 183 u[36] + 72 u[37] + 935 u[38] + 58 u[39] + 290 u[40]
   + 893 u[41] + 473 u[42] + 313 u[43] + 530 u[44] + 454 u[45] + 861 u[46]
   + 557 u[47] + 178 u[48] + 99 u[49] + 786 u[50] + 715 u[51] + 80 u[52]
   + 55 u[53] + 628 u[54] + 451 u[55] + 44 u[56] + 694 u[57] + 271 u[58]
   + 421 u[59] <= 14080
 primal_lower582: 832 u[0] + 652 u[1] + 890 u[2] + 83 u[3] + 52 u[4]
   + 938 u[5] + 941 u[6] + 252 u[7] + 725 u[8] + 418 u[9] + 324 u[10]
   + 403 u[11] + 428 u[12] + 252 u[13] + 757 u[14] + 397 u[15] + 589 u[16]
   + 488 u[17] + 761 u[18] + 902 u[19] + 453 u[20] + 904 u[21] + 108 u[22]
   + 423 u[23] + 557 u[24] + 768 u[25] + 954 u[26] + 400 u[27] + 334 u[28]
   + 687 u[29] + 130 u[30] + 740 u[31] + 84 u[32] + 197 u[33] + 396 u[34]
   + 105 u[35] + 604 u[36] + 381 u[37] + 396 u[38] + 431 u[39] + 735 u[40]
   + 930 u[41] + 710 u[42] + 294 u[43] + 311 u[44] + 779 u[45] + 762 u[46]
   + 98 u[47] + 71 u[48] + 696 u[49] + 575 u[50] + 488 u[51] + 85 u[52]
   + 940 u[53] + 545 u[54] + 536 u[55] + 649 u[56] + 731 u[57] + 260 u[58]
   + 762 u[59] <= 15546
 primal_lower583: 14 u[0] + 146 u[1] + 816 u[2] + 313 u[3] + 218 u[4]
   + 160 u[5] + 563 u[6] + 698 u[7] + 931 u[8] + 368 u[9] + 154 u[10]
   + 297 u[11] + 178 u[12] + 898 u[13] + 187 u[14] + 851 u[15] + 19 u[16]
   + 654 u[17] + 815 u[18] + 332 u[19] + 595 u[20] + 670 u[21] + 10 u[22]
   + 869 u[23] + 179 u[24] + 854 u[25] + 264 u[26] + 182 u[27] + 572 u[28]
   + 589 u[29] + 544 u[30] + 762 u[31] + 266 u[32] + 163 u[33] + 74 u[34]
   + 655 u[35] + 58 u[36] + 219 u[37] + 314 u[38] + 141 u[39] + 965 u[40]
   + 56 u[41] + 372 u[42] + 212 u[43] + 693 u[44] + 321 u[45] + 240 u[46]
   + 408 u[47] + 637 u[48] + 526 u[49] + 677 u[50] + 470 u[51] + 803 u[52]
   + 586 u[53] + 975 u[54] + 446 u[55] + 919 u[56] + 729 u[57] + 18 u[58]
   + 216 u[59] <= 4476
 primal_lower584: 842 u[0] + 94 u[1] + 988 u[2] + 589 u[3] + 830 u[4]
   + 772 u[5] + 527 u[6] + 750 u[7] + 175 u[8] + 372 u[9] + 190 u[10]
   + 589 u[11] + 406 u[12] + 910 u[13] + 815 u[14] + 935 u[15] + 959 u[16]
   + 282 u[17] + 139 u[18] + 344 u[19] + 407 u[20] + 946 u[21] + 638 u[22]
   + 281 u[23] + 159 u[24] + 938 u[25] + 172 u[26] + 354 u[27] + 728 u[28]
   + 169 u[29] + 700 u[30] + 966 u[31] + 902 u[32] + 351 u[33] + 310 u[34]
   + 803 u[35] + 790 u[36] + 807 u[37] + 110 u[38] + 441 u[39] + 801 u[40]
   + 668 u[41] + 608 u[42] + 384 u[43] + 945 u[44] + 909 u[45] + 548 u[46]
   + 876 u[47] + 881 u[48] + 978 u[49] + 345 u[50] + 738 u[51] + 967 u[52]
   + 862 u[53] + 475 u[54] + 938 u[55] + 395 u[56] + 813 u[57] + 598 u[58]
   + 628 u[59] <= 12279
 primal_lower585: 723 u[0] + 399 u[1] + 949 u[2] + 902 u[3] + 607 u[4]
   + 205 u[5] + 464 u[6] + 663 u[7] + 304 u[8] + 621 u[9] + 527 u[10]
   + 854 u[11] + 287 u[12] + 967 u[13] + 312 u[14] + 824 u[15] + 904 u[16]
   + 123 u[17] + 660 u[18] + 833 u[19] + 952 u[20] + 195 u[21] + 807 u[22]
   + 522 u[23] + 360 u[24] + 699 u[25] + 261 u[26] + 227 u[27] + 249 u[28]
   + 698 u[29] + 997 u[30] + 495 u[31] + 135 u[32] + 832 u[33] + 887 u[34]
   + 476 u[35] + 367 u[36] + 224 u[37] + 215 u[38] + 322 u[39] + 802 u[40]
   + 661 u[41] + 809 u[42] + 313 u[43] + 434 u[44] + 158 u[45] + 277 u[46]
   + 269 u[47] + 746 u[48] + 803 u[49] + 26 u[50] + 251 u[51] + 32 u[52]
   + 391 u[53] + 740 u[54] + 795 u[55] + 212 u[56] + 654 u[57] + 375 u[58]
   + 365 u[59] <= 15580
 primal_lower586: 768 u[0] + 388 u[1] + 210 u[2] + 771 u[3] + 460 u[4]
   + 322 u[5] + 501 u[6] + 652 u[7] + 197 u[8] + 322 u[9] + 628 u[10]
   + 979 u[11] + 740 u[12] + 212 u[13] + 837 u[14] + 37 u[15] + 709 u[16]
   + 904 u[17] + 585 u[18] + 598 u[19] + 405 u[20] + 992 u[21] + 564 u[22]
   + 871 u[23] + 85 u[24] + 184 u[25] + 450 u[26] + 576 u[27] + 334 u[28]
   + 47 u[29] + 250 u[30] + 572 u[31] + 388 u[32] + 461 u[33] + 996 u[34]
   + 761 u[35] + 524 u[36] + 901 u[37] + 68 u[38] + 503 u[39] + 671 u[40]
   + 162 u[41] + 278 u[42] + 126 u[43] + 911 u[44] + 379 u[45] + 490 u[46]
   + 562 u[47] + 943 u[48] + 176 u[49] + 399 u[50] + 696 u[51] + 613 u[52]
   + 164 u[53] + 721 u[54] + 256 u[55] + 969 u[56] + 3 u[57] + 676 u[58]
   + 442 u[59] <= 996
 primal_lower587: 12 u[0] + 557 u[1] + 743 u[2] + 236 u[3] + 953 u[4]
   + 50 u[5] + 10 u[6] + 364 u[7] + 202 u[8] + 547 u[9] + 248 u[10]
   + 396 u[11] + 913 u[12] + 909 u[13] + 193 u[14] + 293 u[15] + 514 u[16]
   + 177 u[17] + 190 u[18] + 79 u[19] + 618 u[20] + 712 u[21] + 745 u[22]
   + 983 u[23] + 745 u[24] + 985 u[25] + 967 u[26] + 408 u[27] + 506 u[28]
   + 200 u[29] + 758 u[30] + 636 u[31] + 736 u[32] + 134 u[33] + 17 u[34]
   + 722 u[35] + 753 u[36] + 269 u[37] + 617 u[38] + 431 u[39] + 324 u[40]
   + 898 u[41] + 131 u[42] + 758 u[43] + 268 u[44] + 507 u[45] + 438 u[46]
   + 730 u[47] + 204 u[48] + 945 u[49] + 3 u[50] + 73 u[51] + 970 u[52]
   + 597 u[53] + 981 u[54] + 360 u[55] + 86 u[56] + 835 u[57] + 801 u[58]
   + 707 u[59] <= 10048
 primal_lower588: 101 u[0] + 81 u[1] + 647 u[2] + 792 u[3] + 889 u[4]
   + 679 u[5] + 610 u[6] + 121 u[7] + 218 u[8] + 583 u[9] + 625 u[10]
   + 104 u[11] + 785 u[12] + 305 u[13] + 618 u[14] + 754 u[15] + 978 u[16]
   + 717 u[17] + 614 u[18] + 643 u[19] + 634 u[20] + 605 u[21] + 41 u[22]
   + 892 u[23] + 394 u[24] + 173 u[25] + 207 u[26] + 621 u[27] + 363 u[28]
   + 716 u[29] + 575 u[30] + 961 u[31] + 561 u[32] + 930 u[33] + 241 u[34]
   + 702 u[35] + 145 u[36] + 458 u[37] + 737 u[38] + 100 u[39] + 716 u[40]
   + 655 u[41] + 939 u[42] + 795 u[43] + 932 u[44] + 960 u[45] + 55 u[46]
   + 815 u[47] + 612 u[48] + 333 u[49] + 868 u[50] + 157 u[51] + 346 u[52]
   + 353 u[53] + 630 u[54] + 693 u[55] + 646 u[56] + 352 u[57] + 249 u[58]
   + 255 u[59] <= 21520
 primal_lower589: 692 u[0] + 125 u[1] + 847 u[2] + 516 u[3] + 553 u[4]
   + 58 u[5] + 978 u[6] + 628 u[7] + 90 u[8] + 11 u[9] + 792 u[10]
   + 804 u[11] + 681 u[12] + 125 u[13] + 801 u[14] + 781 u[15] + 514 u[16]
   + 177 u[17] + 30 u[18] + 583 u[19] + 506 u[20] + 448 u[21] + 993 u[22]
   + 399 u[23] + 305 u[24] + 337 u[25] + 351 u[26] + 752 u[27] + 618 u[28]
   + 520 u[29] + 94 u[30] + 228 u[31] + 40 u[32] + 142 u[33] + 961 u[34]
   + 482 u[35] + 97 u[36] + 149 u[37] + 73 u[38] + 591 u[39] + 68 u[40]
   + 906 u[41] + 955 u[42] + 22 u[43] + 484 u[44] + 307 u[45] + 94 u[46]
   + 474 u[47] + 780 u[48] + 9 u[49] + 355 u[50] + 697 u[51] + 826 u[52]
   + 445 u[53] + 437 u[54] + 416 u[55] + 374 u[56] + 699 u[57] + 641 u[58]
   + 131 u[59] <= 8997
 primal_lower590: 908 u[0] + 597 u[1] + 559 u[2] + 892 u[3] + 569 u[4]
   + 394 u[5] + 338 u[6] + 620 u[7] + 610 u[8] + 915 u[9] + 496 u[10]
   + 156 u[11] + 105 u[12] + 533 u[13] + 657 u[14] + 501 u[15] + 690 u[16]
   + 41 u[17] + 454 u[18] + 647 u[19] + 778 u[20] + 568 u[21] + 753 u[22]
   + 391 u[23] + 305 u[24] + 689 u[25] + 903 u[26] + 392 u[27] + 106 u[28]
   + 856 u[29] + 622 u[30] + 556 u[31] + 224 u[32] + 518 u[33] + 345 u[34]
   + 658 u[35] + 657 u[36] + 949 u[37] + 841 u[38] + 47 u[39] + 948 u[40]
   + 450 u[41] + 755 u[42] + 278 u[43] + 884 u[44] + 355 u[45] + 22 u[46]
   + 2 u[47] + 796 u[48] + 481 u[49] + 259 u[50] + 233 u[51] + 290 u[52]
   + 685 u[53] + 189 u[54] + 920 u[55] + 846 u[56] + 187 u[57] + 353 u[58]
   + 339 u[59] <= 10370
 primal_lower591: 53 u[0] + 878 u[1] + 512 u[2] + 477 u[3] + 986 u[4]
   + 219 u[5] + 827 u[6] + 597 u[7] + 947 u[8] + 692 u[9] + 865 u[10]
   + 781 u[11] + 618 u[12] + 718 u[13] + 658 u[14] + 14 u[15] + 531 u[16]
   + 266 u[17] + 911 u[18] + 632 u[19] + 235 u[20] + 265 u[21] + 58 u[22]
   + 96 u[23] + 466 u[24] + 410 u[25] + 96 u[26] + 33 u[27] + 347 u[28]
   + 761 u[29] + 359 u[30] + 53 u[31] + 849 u[32] + 119 u[33] + 250 u[34]
   + 627 u[35] + 874 u[36] + 566 u[37] + 874 u[38] + 600 u[39] + 181 u[40]
   + 171 u[41] + 332 u[42] + 335 u[43] + 365 u[44] + 20 u[45] + 295 u[46]
   + 59 u[47] + 501 u[48] + 362 u[49] + 676 u[50] + 826 u[51] + 515 u[52]
   + 726 u[53] + 734 u[54] + 89 u[55] + 399 u[56] + 508 u[57] + 858 u[58]
   + 684 u[59] <= 9585
 primal_lower592: 696 u[0] + 572 u[1] + 650 u[2] + 227 u[3] + 460 u[4]
   + 578 u[5] + 629 u[6] + 436 u[7] + 789 u[8] + 18 u[9] + 348 u[10]
   + 955 u[11] + 188 u[12] + 252 u[13] + 541 u[14] + 861 u[15] + 237 u[16]
   + 72 u[17] + 273 u[18] + 526 u[19] + 621 u[20] + 176 u[21] + 532 u[22]
   + 215 u[23] + 477 u[24] + 144 u[25] + 466 u[26] + 304 u[27] + 222 u[28]
   + 207 u[29] + 898 u[30] + 228 u[31] + 708 u[32] + 917 u[33] + 76 u[34]
   + 697 u[35] + 180 u[36] + 69 u[37] + 212 u[38] + 991 u[39] + 999 u[40]
   + 322 u[41] + 158 u[42] + 734 u[43] + 327 u[44] + 667 u[45] + 706 u[46]
   + 922 u[47] + 151 u[48] + 184 u[49] + 767 u[50] + 72 u[51] + 341 u[52]
   + 676 u[53] + 401 u[54] + 864 u[55] + 201 u[56] + 851 u[57] + 212 u[58]
   + 786 u[59] <= 9329
 primal_lower593: 401 u[0] + 498 u[1] + 948 u[2] + 169 u[3] + 630 u[4]
   + 647 u[5] + 951 u[6] + 577 u[7] + 391 u[8] + 624 u[9] + 53 u[10]
   + 417 u[11] + 774 u[12] + 946 u[13] + 358 u[14] + 754 u[15] + 351 u[16]
   + 158 u[17] + 611 u[18] + 100 u[19] + 55 u[20] + 69 u[21] + 246 u[22]
   + 780 u[23] + 398 u[24] + 182 u[25] + 868 u[26] + 277 u[27] + 287 u[28]
   + 77 u[29] + 195 u[30] + 305 u[31] + 461 u[32] + 475 u[33] + 222 u[34]
   + 223 u[35] + 942 u[36] + 530 u[37] + 614 u[38] + 156 u[39] + 209 u[40]
   + 231 u[41] + 888 u[42] + 739 u[43] + 401 u[44] + 288 u[45] + 731 u[46]
   + 495 u[47] + 817 u[48] + 262 u[49] + 744 u[50] + 326 u[51] + 23 u[52]
   + 298 u[53] + 922 u[54] + 869 u[55] + 939 u[56] + 984 u[57] + 262 u[58]
   + 936 u[59] <= 19389
 primal_lower594: 604 u[0] + 48 u[1] + 286 u[2] + 463 u[3] + 960 u[4]
   + 774 u[5] + 945 u[6] + 272 u[7] + 313 u[8] + 550 u[9] + 192 u[10]
   + 431 u[11] + 696 u[12] + 640 u[13] + 769 u[14] + 593 u[15] + 617 u[16]
   + 452 u[17] + 917 u[18] + 890 u[19] + 721 u[20] + 172 u[21] + 104 u[22]
   + 803 u[23] + 601 u[24] + 740 u[25] + 462 u[26] + 340 u[27] + 738 u[28]
   + 211 u[29] + 662 u[30] + 744 u[31] + 632 u[32] + 433 u[33] + 920 u[34]
   + 245 u[35] + 136 u[36] + 929 u[37] + 16 u[38] + 27 u[39] + 371 u[40]
   + 590 u[41] + 394 u[42] + 394 u[43] + 491 u[44] + 583 u[45] + 102 u[46]
   + 142 u[47] + 211 u[48] + 748 u[49] + 171 u[50] + 836 u[51] + 969 u[52]
   + 424 u[53] + 517 u[54] + 364 u[55] + 61 u[56] + 103 u[57] + 776 u[58]
   + 198 u[59] <= 14746
 primal_lower595: 123 u[0] + 300 u[1] + 22 u[2] + 643 u[3] + 368 u[4]
   + 585 u[5] + 33 u[6] + 995 u[7] + 761 u[8] + 786 u[9] + 607 u[10]
   + 939 u[11] + 664 u[12] + 668 u[13] + 744 u[14] + 444 u[15] + 633 u[16]
   + 544 u[17] + 5 u[18] + 326 u[19] + 657 u[20] + 103 u[21] + 656 u[22]
   + 278 u[23] + 168 u[24] + 440 u[25] + 62 u[26] + 143 u[27] + 713 u[28]
   + 255 u[29] + 269 u[30] + 251 u[31] + 583 u[32] + 685 u[33] + 184 u[34]
   + 9 u[35] + 904 u[36] + 852 u[37] + 768 u[38] + 854 u[39] + 371 u[40]
   + 33 u[41] + 34 u[42] + 573 u[43] + 547 u[44] + 786 u[45] + 981 u[46]
   + 489 u[47] + 995 u[48] + 504 u[49] + 98 u[50] + 592 u[51] + 465 u[52]
   + 116 u[53] + 652 u[54] + 383 u[55] + 205 u[56] + 602 u[57] + 720 u[58]
   + 66 u[59] <= 4706
 primal_lower596: 404 u[0] + 432 u[1] + 766 u[2] + 303 u[3] + 400 u[4]
   + 470 u[5] + 537 u[6] + 280 u[7] + 929 u[8] + 126 u[9] + 408 u[10]
   + 447 u[11] + 976 u[12] + 400 u[13] + 505 u[14] + 817 u[15] + 473 u[16]
   + 548 u[17] + 477 u[18] + 906 u[19] + 537 u[20] + 284 u[21] + 432 u[22]
   + 291 u[23] + 393 u[24] + 292 u[25] + 806 u[26] + 772 u[27] + 218 u[28]
   + 587 u[29] + 334 u[30] + 520 u[31] + 544 u[32] + 985 u[33] + 648 u[34]
   + 29 u[35] + 656 u[36] + 329 u[37] + 96 u[38] + 523 u[39] + 667 u[40]
   + 934 u[41] + 842 u[42] + 826 u[43] + 731 u[44] + 519 u[45] + 30 u[46]
   + 70 u[47] + 867 u[48] + 660 u[49] + 811 u[50] + 340 u[51] + 81 u[52]
   + 136 u[53] + 461 u[54] + 852 u[55] + 997 u[56] + 255 u[57] + 136 u[58]
   + 166 u[59] <= 5043
 primal_lower597: 829 u[0] + 150 u[1] + 616 u[2] + 53 u[3] + 874 u[4]
   + 259 u[5] + 91 u[6] + 997 u[7] + 259 u[8] + 428 u[9] + 217 u[10]
   + 773 u[11] + 746 u[12] + 374 u[13] + 642 u[14] + 166 u[15] + 819 u[16]
   + 714 u[17] + 111 u[18] + 480 u[19] + 379 u[20] + 201 u[21] + 994 u[22]
   + 376 u[23] + 442 u[24] + 418 u[25] + 168 u[26] + 729 u[27] + 795 u[28]
   + u[29] + 15 u[30] + 677 u[31] + 657 u[32] + 951 u[33] + 554 u[34]
   + 51 u[35] + 186 u[36] + 94 u[37] + 258 u[38] + 352 u[39] + 725 u[40]
   + 59 u[41] + 156 u[42] + 847 u[43] + 53 u[44] + 780 u[45] + 223 u[46]
   + 307 u[47] + 525 u[48] + 354 u[49] + 764 u[50] + 394 u[51] + 211 u[52]
   + 110 u[53] + 30 u[54] + 721 u[55] + 959 u[56] + 756 u[57] + 290 u[58]
   + 524 u[59] <= 8894
 primal_lower598: 194 u[0] + 923 u[1] + 133 u[2] + 538 u[3] + 175 u[4]
   + 48 u[5] + 832 u[6] + 458 u[7] + 208 u[8] + 41 u[9] + 190 u[10]
   + 66 u[11] + 287 u[12] + 659 u[13] + 631 u[14] + 867 u[15] + 128 u[16]
   + 607 u[17] + 188 u[18] + 789 u[19] + 880 u[20] + 38 u[21] + 991 u[22]
   + 29 u[23] + 79 u[24] + 23 u[25] + 573 u[26] + 966 u[27] + 544 u[28]
   + 318 u[29] + 468 u[30] + 234 u[31] + 798 u[32] + 532 u[33] + 55 u[34]
   + 968 u[35] + 543 u[36] + 931 u[37] + 39 u[38] + 237 u[39] + 466 u[40]
   + 688 u[41] + 849 u[42] + 412 u[43] + 538 u[44] + 401 u[45] + 588 u[46]
   + 552 u[47] + 618 u[48] + 343 u[49] + 649 u[50] + 455 u[51] + 80 u[52]
   + 131 u[53] + 883 u[54] + 886 u[55] + 684 u[56] + 449 u[57] + 23 u[58]
   + 729 u[59] <= 9210
 primal_lower599: 844 u[0] + 328 u[1] + 254 u[2] + 767 u[3] + 528 u[4]
   + 934 u[5] + 473 u[6] + 280 u[7] + 913 u[8] + 94 u[9] + 976 u[10]
   + 519 u[11] + 456 u[12] + 592 u[13] + 553 u[14] + 753 u[15] + 953 u[16]
   + 620 u[17] + 357 u[18] + 82 u[19] + 993 u[20] + 748 u[21] + 744 u[22]
   + 67 u[23] + u[24] + 420 u[25] + 166 u[26] + 276 u[27] + 642 u[28]
   + 667 u[29] + 54 u[30] + 488 u[31] + 368 u[32] + 785 u[33] + 304 u[34]
   + 661 u[35] + 760 u[36] + 73 u[37] + 512 u[38] + 947 u[39] + 739 u[40]
   + 670 u[41] + 722 u[42] + 882 u[43] + 931 u[44] + 79 u[45] + 950 u[46]
   + 830 u[47] + 43 u[48] + 780 u[49] + 979 u[50] + 12 u[51] + 577 u[52]
   + 608 u[53] + 477 u[54] + 644 u[55] + 925 u[56] + 927 u[57] + 176 u[58]
   + 726 u[59] <= 5604
 primal_lower600: 997 u[0] + 902 u[1] + 232 u[2] + 397 u[3] + 762 u[4]
   + 819 u[5] + 43 u[6] + 317 u[7] + 347 u[8] + 468 u[9] + 553 u[10]
   + 77 u[11] + 922 u[12] + 710 u[13] + 618 u[14] + 470 u[15] + 3 u[16]
   + 346 u[17] + 111 u[18] + 584 u[19] + 803 u[20] + 121 u[21] + 682 u[22]
   + 584 u[23] + 954 u[24] + 130 u[25] + 752 u[26] + 825 u[27] + 195 u[28]
   + 697 u[29] + 15 u[30] + 309 u[31] + 489 u[32] + 823 u[33] + 362 u[34]
   + 667 u[35] + 770 u[36] + 286 u[37] + 834 u[38] + 712 u[39] + 765 u[40]
   + 995 u[41] + 972 u[42] + 743 u[43] + 77 u[44] + 228 u[45] + 279 u[46]
   + 683 u[47] + 197 u[48] + 138 u[49] + 932 u[50] + 154 u[51] + 171 u[52]
   + 974 u[53] + 270 u[54] + 89 u[55] + 255 u[56] + 908 u[57] + 106 u[58]
   + 948 u[59] <= 997
 primal_lower601: 840 u[0] + 713 u[1] + 131 u[2] + 888 u[3] + 533 u[4]
   + 918 u[5] + 14 u[6] + 40 u[7] + 406 u[8] + 599 u[9] + 284 u[10]
   + 104 u[11] + 445 u[12] + 945 u[13] + 541 u[14] + 841 u[15] + 118 u[16]
   + 597 u[17] + 354 u[18] + 547 u[19] + 278 u[20] + 412 u[21] + 677 u[22]
   + 59 u[23] + 845 u[24] + 45 u[25] + 379 u[26] + 612 u[27] + 654 u[28]
   + 516 u[29] + 386 u[30] + 800 u[31] + 492 u[32] + 274 u[33] + 157 u[34]
   + 774 u[35] + 421 u[36] + 457 u[37] + 389 u[38] + 875 u[39] + 864 u[40]
   + 702 u[41] + 239 u[42] + 106 u[43] + 648 u[44] + 343 u[45] + 978 u[46]
   + 630 u[47] + 432 u[48] + 765 u[49] + 463 u[50] + 61 u[51] + 718 u[52]
   + 937 u[53] + 577 u[54] + 116 u[55] + 266 u[56] + 311 u[57] + 245 u[58]
   + 423 u[59] <= 9728
 primal_lower602: 526 u[0] + 354 u[1] + 872 u[2] + 305 u[3] + 994 u[4]
   + 96 u[5] + 499 u[6] + 202 u[7] + 3 u[8] + 888 u[9] + 170 u[10]
   + 761 u[11] + 162 u[12] + 730 u[13] + 379 u[14] + 107 u[15] + 507 u[16]
   + 246 u[17] + 975 u[18] + 436 u[19] + 171 u[20] + 22 u[21] + 962 u[22]
   + 749 u[23] + 987 u[24] + 734 u[25] + 56 u[26] + 366 u[27] + 300 u[28]
   + 165 u[29] + 936 u[30] + 802 u[31] + 498 u[32] + 395 u[33] + 594 u[34]
   + 799 u[35] + 138 u[36] + 515 u[37] + 434 u[38] + 653 u[39] + 69 u[40]
   + 744 u[41] + 636 u[42] + 228 u[43] + 629 u[44] + 369 u[45] + 184 u[46]
   + 912 u[47] + 765 u[48] + 262 u[49] + 277 u[50] + 86 u[51] + 339 u[52]
   + 634 u[53] + 615 u[54] + 606 u[55] + 503 u[56] + 465 u[57] + 506 u[58]
   + 992 u[59] <= 9769
 primal_lower603: 567 u[0] + 859 u[1] + 489 u[2] + 466 u[3] + 603 u[4]
   + 257 u[5] + 988 u[6] + 931 u[7] + 884 u[8] + 729 u[9] + 451 u[10]
   + 266 u[11] + 411 u[12] + 275 u[13] + 452 u[14] + 972 u[15] + 108 u[16]
   + 511 u[17] + 736 u[18] + 637 u[19] + 932 u[20] + 359 u[21] + 43 u[22]
   + 198 u[23] + 388 u[24] + 255 u[25] + 113 u[26] + 111 u[27] + 341 u[28]
   + 934 u[29] + 401 u[30] + 795 u[31] + 403 u[32] + 796 u[33] + 939 u[34]
   + 232 u[35] + 739 u[36] + 964 u[37] + 899 u[38] + 822 u[39] + 598 u[40]
   + 601 u[41] + 413 u[42] + 757 u[43] + 126 u[44] + 322 u[45] + 489 u[46]
   + 185 u[47] + 102 u[48] + 327 u[49] + 710 u[50] + 503 u[51] + 68 u[52]
   + 419 u[53] + 144 u[54] + 15 u[55] + 240 u[56] + 74 u[57] + 283 u[58]
   + 681 u[59] <= 14656
 primal_lower604: 756 u[0] + 301 u[1] + 807 u[2] + 844 u[3] + 433 u[4]
   + 314 u[5] + 74 u[6] + 372 u[7] + 730 u[8] + 163 u[9] + 464 u[10]
   + 884 u[11] + 657 u[12] + 653 u[13] + 577 u[14] + 189 u[15] + 2 u[16]
   + 537 u[17] + 222 u[18] + 599 u[19] + 66 u[20] + 1000 u[21] + 561 u[22]
   + 319 u[23] + 449 u[24] + 593 u[25] + 847 u[26] + 112 u[27] + 450 u[28]
   + 584 u[29] + 710 u[30] + 252 u[31] + 352 u[32] + 574 u[33] + 73 u[34]
   + 426 u[35] + 705 u[36] + 357 u[37] + 825 u[38] + 983 u[39] + 92 u[40]
   + 402 u[41] + 675 u[42] + 966 u[43] + 820 u[44] + 691 u[45] + 750 u[46]
   + 426 u[47] + 964 u[48] + 361 u[49] + 803 u[50] + 9 u[51] + 626 u[52]
   + 221 u[53] + 413 u[54] + 792 u[55] + 350 u[56] + 819 u[57] + 65 u[58]
   + 539 u[59] <= 20400
 primal_lower605: 936 u[0] + 401 u[1] + 603 u[2] + 240 u[3] + 141 u[4]
   + 262 u[5] + 446 u[6] + 112 u[7] + 502 u[8] + 663 u[9] + 564 u[10]
   + 832 u[11] + 765 u[12] + 361 u[13] + 581 u[14] + 385 u[15] + 934 u[16]
   + 997 u[17] + 434 u[18] + 27 u[19] + 182 u[20] + 244 u[21] + 125 u[22]
   + 971 u[23] + 373 u[24] + 173 u[25] + 811 u[26] + 956 u[27] + 174 u[28]
   + 500 u[29] + 514 u[30] + 136 u[31] + 604 u[32] + 418 u[33] + 437 u[34]
   + 774 u[35] + 165 u[36] + 649 u[37] + 93 u[38] + 139 u[39] + 936 u[40]
   + 358 u[41] + 943 u[42] + 658 u[43] + 160 u[44] + 239 u[45] + 162 u[46]
   + 942 u[47] + 888 u[48] + 77 u[49] + 543 u[50] + 917 u[51] + 718 u[52]
   + 257 u[53] + 577 u[54] + 900 u[55] + 946 u[56] + 415 u[57] + 477 u[58]
   + 775 u[59] <= 5085
 primal_lower606: 636 u[0] + 16 u[1] + 438 u[2] + 399 u[3] + 24 u[4]
   + 182 u[5] + 417 u[6] + 672 u[7] + 825 u[8] + 894 u[9] + 192 u[10]
   + 311 u[11] + 184 u[12] + 272 u[13] + 153 u[14] + 945 u[15] + 249 u[16]
   + 188 u[17] + 813 u[18] + 114 u[19] + 321 u[20] + 868 u[21] + 496 u[22]
   + 883 u[23] + 129 u[24] + 140 u[25] + 798 u[26] + 92 u[27] + 650 u[28]
   + 843 u[29] + 638 u[30] + 984 u[31] + 48 u[32] + 185 u[33] + 944 u[34]
   + 101 u[35] + 728 u[36] + 681 u[37] + 968 u[38] + 35 u[39] + 803 u[40]
   + 614 u[41] + 330 u[42] + 986 u[43] + 635 u[44] + 87 u[45] + 822 u[46]
   + 614 u[47] + 11 u[48] + 836 u[49] + 939 u[50] + 140 u[51] + 833 u[52]
   + 64 u[53] + 21 u[54] + 820 u[55] + 317 u[56] + 687 u[57] + 504 u[58]
   + 974 u[59] <= 9831
 primal_lower607: 141 u[0] + 942 u[1] + 800 u[2] + 205 u[3] + 610 u[4]
   + 275 u[5] + 123 u[6] + 957 u[7] + 251 u[8] + 476 u[9] + 641 u[10]
   + 501 u[11] + 922 u[12] + 38 u[13] + 538 u[14] + 38 u[15] + 963 u[16]
   + 778 u[17] + 967 u[18] + 736 u[19] + 931 u[20] + 553 u[21] + 378 u[22]
   + 928 u[23] + 594 u[24] + 586 u[25] + 432 u[26] + 249 u[27] + 979 u[28]
   + 737 u[29] + 303 u[30] + 565 u[31] + 353 u[32] + 783 u[33] + 322 u[34]
   + 691 u[35] + 402 u[36] + 590 u[37] + 2 u[38] + 176 u[39] + 237 u[40]
   + 283 u[41] + 676 u[42] + 15 u[43] + 421 u[44] + 508 u[45] + 599 u[46]
   + 843 u[47] + 877 u[48] + 914 u[49] + 380 u[50] + 482 u[51] + 995 u[52]
   + 62 u[53] + 94 u[54] + 161 u[55] + 975 u[56] + 204 u[57] + 730 u[58]
   + 604 u[59] <= 995
 primal_lower608: 202 u[0] + 126 u[1] + 676 u[2] + 381 u[3] + 182 u[4]
   + 36 u[5] + 671 u[6] + 854 u[7] + 895 u[8] + 292 u[9] + 342 u[10]
   + 125 u[11] + 862 u[12] + 494 u[13] + 719 u[14] + 903 u[15] + 159 u[16]
   + 474 u[17] + 547 u[18] + 576 u[19] + 487 u[20] + 338 u[21] + 14 u[22]
   + 17 u[23] + 271 u[24] + 674 u[25] + 540 u[26] + 794 u[27] + 392 u[28]
   + 273 u[29] + 748 u[30] + 510 u[31] + 174 u[32] + 431 u[33] + 310 u[34]
   + 547 u[35] + 870 u[36] + 839 u[37] + 918 u[38] + 601 u[39] + 809 u[40]
   + 612 u[41] + 696 u[42] + 112 u[43] + 521 u[44] + 573 u[45] + 996 u[46]
   + 428 u[47] + 753 u[48] + 674 u[49] + 513 u[50] + 394 u[51] + 439 u[52]
   + 22 u[53] + 643 u[54] + 34 u[55] + 771 u[56] + 309 u[57] + 246 u[58]
   + 940 u[59] <= 9916
 primal_lower609: 613 u[0] + 222 u[1] + 376 u[2] + 117 u[3] + 258 u[4]
   + 899 u[5] + 627 u[6] + 237 u[7] + 35 u[8] + 44 u[9] + 545 u[10]
   + 917 u[11] + 850 u[12] + 102 u[13] + 642 u[14] + 910 u[15] + 211 u[16]
   + 618 u[17] + 863 u[18] + 840 u[19] + 995 u[20] + 505 u[21] + 818 u[22]
   + 592 u[23] + 930 u[24] + 234 u[25] + 888 u[26] + 353 u[27] + 315 u[28]
   + 313 u[29] + 663 u[30] + 429 u[31] + 489 u[32] + 775 u[33] + 986 u[34]
   + 747 u[35] + 874 u[36] + 334 u[37] + 186 u[38] + 464 u[39] + 365 u[40]
   + 267 u[41] + 852 u[42] + 727 u[43] + 45 u[44] + 884 u[45] + 751 u[46]
   + 891 u[47] + 637 u[48] + 298 u[49] + 572 u[50] + 74 u[51] + 587 u[52]
   + 454 u[53] + 742 u[54] + 465 u[55] + 839 u[56] + 132 u[57] + 722 u[58]
   + 116 u[59] <= 16118
 primal_lower610: 549 u[0] + 793 u[1] + 127 u[2] + 880 u[3] + 385 u[4]
   + 431 u[5] + 682 u[6] + 833 u[7] + 994 u[8] + 639 u[9] + 889 u[10]
   + 184 u[11] + 281 u[12] + 401 u[13] + 18 u[14] + 210 u[15] + 34 u[16]
   + 677 u[17] + 518 u[18] + 195 u[19] + 298 u[20] + 421 u[21] + 481 u[22]
   + 748 u[23] + 210 u[24] + 253 u[25] + 663 u[26] + 253 u[27] + 483 u[28]
   + 804 u[29] + 479 u[30] + 753 u[31] + 993 u[32] + 18 u[33] + 297 u[34]
   + 270 u[35] + 657 u[36] + 562 u[37] + 729 u[38] + 20 u[39] + 612 u[40]
   + 935 u[41] + 987 u[42] + 723 u[43] + 588 u[44] + 736 u[45] + 855 u[46]
   + 295 u[47] + 868 u[48] + 213 u[49] + 604 u[50] + 837 u[51] + 170 u[52]
   + 809 u[53] + 902 u[54] + 389 u[55] + 678 u[56] + 240 u[57] + 649 u[58]
   + 439 u[59] <= 5273
 primal_lower611: 190 u[0] + 122 u[1] + 208 u[2] + 713 u[3] + 506 u[4]
   + 136 u[5] + 611 u[6] + 914 u[7] + 43 u[8] + 448 u[9] + 186 u[10]
   + 809 u[11] + 66 u[12] + 306 u[13] + 795 u[14] + 403 u[15] + 115 u[16]
   + 190 u[17] + 191 u[18] + 972 u[19] + 571 u[20] + 710 u[21] + 330 u[22]
   + 301 u[23] + 779 u[24] + 734 u[25] + 440 u[26] + 566 u[27] + 868 u[28]
   + 557 u[29] + 64 u[30] + 258 u[31] + 202 u[32] + 563 u[33] + 378 u[34]
   + 495 u[35] + 922 u[36] + 171 u[37] + 874 u[38] + 661 u[39] + 317 u[40]
   + 728 u[41] + 484 u[42] + 612 u[43] + 45 u[44] + 929 u[45] + 944 u[46]
   + 880 u[47] + 405 u[48] + 702 u[49] + 429 u[50] + 710 u[51] + 699 u[52]
   + 370 u[53] + 567 u[54] + 262 u[55] + 231 u[56] + 705 u[57] + 330 u[58]
   + 768 u[59] <= 972
 primal_lower612: 52 u[0] + 741 u[1] + 375 u[2] + 12 u[3] + 425 u[4]
   + 706 u[5] + 626 u[6] + 988 u[7] + 922 u[8] + 75 u[9] + 136 u[10]
   + 780 u[11] + 857 u[12] + 589 u[13] + 673 u[14] + 949 u[15] + 322 u[16]
   + 745 u[17] + 574 u[18] + 951 u[19] + 554 u[20] + 728 u[21] + 473 u[22]
   + 319 u[23] + 969 u[24] + 809 u[25] + 847 u[26] + 96 u[27] + 874 u[28]
   + 408 u[29] + 366 u[30] + 652 u[31] + 56 u[32] + 462 u[33] + 673 u[34]
   + 746 u[35] + 985 u[36] + 789 u[37] + 617 u[38] + 567 u[39] + 188 u[40]
   + 42 u[41] + 467 u[42] + 470 u[43] + 252 u[44] + 715 u[45] + 46 u[46]
   + 130 u[47] + 412 u[48] + 425 u[49] + 91 u[50] + 321 u[51] + 242 u[52]
   + 797 u[53] + 893 u[54] + 496 u[55] + 54 u[56] + 563 u[57] + 881 u[58]
   + 779 u[59] <= 10584
 primal_lower613: 343 u[0] + 275 u[1] + 849 u[2] + 914 u[3] + 923 u[4]
   + 209 u[5] + 108 u[6] + 747 u[7] + 916 u[8] + 937 u[9] + 835 u[10]
   + 530 u[11] + 955 u[12] + 235 u[13] + 572 u[14] + 124 u[15] + 300 u[16]
   + 743 u[17] + 656 u[18] + 261 u[19] + 308 u[20] + 295 u[21] + 67 u[22]
   + 22 u[23] + 732 u[24] + 455 u[25] + 953 u[26] + 39 u[27] + 997 u[28]
   + 894 u[29] + 145 u[30] + 539 u[31] + 107 u[32] + 684 u[33] + 963 u[34]
   + 624 u[35] + 363 u[36] + 124 u[37] + 3 u[38] + 998 u[39] + 958 u[40]
   + 241 u[41] + 53 u[42] + 229 u[43] + 270 u[44] + 986 u[45] + 833 u[46]
   + 113 u[47] + 270 u[48] + 559 u[49] + 718 u[50] + 567 u[51] + 828 u[52]
   + 131 u[53] + 808 u[54] + 631 u[55] + 448 u[56] + 794 u[57] + 187 u[58]
   + 17 u[59] <= 10128
 primal_lower614: 558 u[0] + 50 u[1] + 344 u[2] + 601 u[3] + 34 u[4]
   + 664 u[5] + 731 u[6] + 330 u[7] + 139 u[8] + 448 u[9] + 866 u[10]
   + 449 u[11] + 722 u[12] + 234 u[13] + 227 u[14] + 67 u[15] + 483 u[16]
   + 926 u[17] + 471 u[18] + 540 u[19] + 995 u[20] + 926 u[21] + 514 u[22]
   + 373 u[23] + 875 u[24] + 398 u[25] + 592 u[26] + 502 u[27] + 612 u[28]
   + 653 u[29] + 144 u[30] + 698 u[31] + 722 u[32] + 379 u[33] + 354 u[34]
   + 55 u[35] + 266 u[36] + 651 u[37] + 98 u[38] + 421 u[39] + 693 u[40]
   + 296 u[41] + 644 u[42] + 908 u[43] + 565 u[44] + 273 u[45] + 1000 u[46]
   + 632 u[47] + 541 u[48] + 606 u[49] + 517 u[50] + 78 u[51] + 35 u[52]
   + 130 u[53] + 359 u[54] + 990 u[55] + 535 u[56] + 41 u[57] + 290 u[58]
   + 896 u[59] <= 9713
 primal_lower615: 808 u[0] + 572 u[1] + 842 u[2] + 355 u[3] + 932 u[4]
   + 978 u[5] + 117 u[6] + 468 u[7] + 917 u[8] + 42 u[9] + 516 u[10]
   + 363 u[11] + 684 u[12] + 892 u[13] + 317 u[14] + 885 u[15] + 517 u[16]
   + 472 u[17] + 969 u[18] + 470 u[19] + 341 u[20] + 8 u[21] + 484 u[22]
   + 207 u[23] + 309 u[24] + 8 u[25] + 330 u[26] + 264 u[27] + 894 u[28]
   + 255 u[29] + 858 u[30] + 588 u[31] + 708 u[32] + 789 u[33] + 652 u[34]
   + 785 u[35] + 756 u[36] + 421 u[37] + 68 u[38] + 831 u[39] + 535 u[40]
   + 306 u[41] + 614 u[42] + 838 u[43] + 895 u[44] + 587 u[45] + 98 u[46]
   + 770 u[47] + 959 u[48] + 464 u[49] + 487 u[50] + 752 u[51] + 77 u[52]
   + 556 u[53] + 633 u[54] + 392 u[55] + 937 u[56] + 731 u[57] + 564 u[58]
   + 514 u[59] <= 5563
 primal_lower616: 74 u[0] + 518 u[1] + 988 u[2] + 221 u[3] + 886 u[4]
   + 372 u[5] + 103 u[6] + 966 u[7] + 567 u[8] + 412 u[9] + 30 u[10]
   + 437 u[11] + 830 u[12] + 334 u[13] + 775 u[14] + 623 u[15] + 423 u[16]
   + 554 u[17] + 43 u[18] + 288 u[19] + 751 u[20] + 810 u[21] + 278 u[22]
   + 673 u[23] + 847 u[24] + 762 u[25] + 4 u[26] + 466 u[27] + 752 u[28]
   + 937 u[29] + 940 u[30] + 622 u[31] + 942 u[32] + 671 u[33] + 286 u[34]
   + 723 u[35] + 30 u[36] + 71 u[37] + 542 u[38] + 97 u[39] + 489 u[40]
   + 180 u[41] + 624 u[42] + 8 u[43] + 793 u[44] + 461 u[45] + 676 u[46]
   + 772 u[47] + 545 u[48] + 34 u[49] + 745 u[50] + 738 u[51] + 319 u[52]
   + 734 u[53] + 771 u[54] + 810 u[55] + 379 u[56] + 957 u[57] + 6 u[58]
   + 316 u[59] <= 15502
 primal_lower617: 438 u[0] + 439 u[1] + 241 u[2] + 366 u[3] + 163 u[4]
   + 204 u[5] + 844 u[6] + 582 u[7] + 692 u[8] + 13 u[9] + 18 u[10]
   + 494 u[11] + 891 u[12] + 663 u[13] + 443 u[14] + 495 u[15] + 92 u[16]
   + 851 u[17] + 808 u[18] + 809 u[19] + 772 u[20] + 346 u[21] + 195 u[22]
   + 257 u[23] + 27 u[24] + 811 u[25] + 993 u[26] + 802 u[27] + 492 u[28]
   + 930 u[29] + 104 u[30] + 486 u[31] + 18 u[32] + 72 u[33] + 923 u[34]
   + 12 u[35] + 715 u[36] + 135 u[37] + 403 u[38] + 73 u[39] + 590 u[40]
   + 972 u[41] + 45 u[42] + 688 u[43] + 286 u[44] + 565 u[45] + 224 u[46]
   + 804 u[47] + 846 u[48] + 275 u[49] + 901 u[50] + 403 u[51] + 348 u[52]
   + 951 u[53] + 47 u[54] + 538 u[55] + 624 u[56] + 461 u[57] + 571 u[58]
   + 365 u[59] <= 4769
 primal_lower618: 672 u[0] + 681 u[1] + 347 u[2] + 688 u[3] + 821 u[4]
   + 350 u[5] + 870 u[6] + 776 u[7] + 934 u[8] + 919 u[9] + 28 u[10]
   + 520 u[11] + 85 u[12] + 649 u[13] + 301 u[14] + 393 u[15] + 350 u[16]
   + 29 u[17] + 66 u[18] + 627 u[19] + 862 u[20] + 900 u[21] + 237 u[22]
   + 619 u[23] + 109 u[24] + 661 u[25] + 947 u[26] + 548 u[27] + 22 u[28]
   + 172 u[29] + 730 u[30] + 544 u[31] + 268 u[32] + 66 u[33] + 413 u[34]
   + 502 u[35] + 733 u[36] + 657 u[37] + 973 u[38] + 51 u[39] + 328 u[40]
   + 486 u[41] + 791 u[42] + 530 u[43] + 504 u[44] + 839 u[45] + 450 u[46]
   + 758 u[47] + 240 u[48] + 853 u[49] + 503 u[50] + 453 u[51] + 254 u[52]
   + 761 u[53] + 825 u[54] + 100 u[55] + 634 u[56] + 279 u[57] + 149 u[58]
   + 487 u[59] <= 15172
 primal_lower619: 239 u[0] + 459 u[1] + 617 u[2] + 90 u[3] + 427 u[4]
   + 977 u[5] + 68 u[6] + 115 u[7] + 500 u[8] + 633 u[9] + 691 u[10]
   + 450 u[11] + 699 u[12] + 91 u[13] + 580 u[14] + 36 u[15] + 700 u[16]
   + 735 u[17] + 72 u[18] + 229 u[19] + 364 u[20] + 503 u[21] + 67 u[22]
   + 486 u[23] + 644 u[24] + 39 u[25] + 985 u[26] + 223 u[27] + 189 u[28]
   + 910 u[29] + 265 u[30] + 379 u[31] + 475 u[32] + 268 u[33] + 723 u[34]
   + 856 u[35] + 259 u[36] + 244 u[37] + 443 u[38] + 334 u[39] + 302 u[40]
   + 737 u[41] + 469 u[42] + 589 u[43] + 790 u[44] + 402 u[45] + 185 u[46]
   + 649 u[47] + 542 u[48] + 407 u[49] + 46 u[50] + 439 u[51] + 900 u[52]
   + 59 u[53] + 248 u[54] + 879 u[55] + 760 u[56] + 154 u[57] + 955 u[58]
   + 705 u[59] <= 4546
 primal_lower620: 239 u[0] + 496 u[1] + 650 u[2] + 703 u[3] + 764 u[4]
   + 413 u[5] + 773 u[6] + 759 u[7] + 813 u[8] + 678 u[9] + 763 u[10]
   + 727 u[11] + 204 u[12] + 664 u[13] + 292 u[14] + 496 u[15] + 989 u[16]
   + 164 u[17] + 993 u[18] + 850 u[19] + 325 u[20] + 235 u[21] + 12 u[22]
   + 570 u[23] + 412 u[24] + 388 u[25] + 2 u[26] + 275 u[27] + 821 u[28]
   + 803 u[29] + 57 u[30] + 655 u[31] + 155 u[32] + 721 u[33] + 180 u[34]
   + 685 u[35] + 732 u[36] + 552 u[37] + 884 u[38] + 754 u[39] + 711 u[40]
   + 773 u[41] + 958 u[42] + 353 u[43] + 735 u[44] + 502 u[45] + 481 u[46]
   + 221 u[47] + 839 u[48] + 540 u[49] + 574 u[50] + 284 u[51] + 429 u[52]
   + 816 u[53] + 736 u[54] + 291 u[55] + 761 u[56] + 934 u[57] + 716 u[58]
   + 822 u[59] <= 11374
 primal_lower621: 151 u[0] + 115 u[1] + 81 u[2] + 666 u[3] + 715 u[4]
   + 401 u[5] + 804 u[6] + 923 u[7] + 164 u[8] + 969 u[9] + 803 u[10]
   + 178 u[11] + 75 u[12] + 499 u[13] + 412 u[14] + 356 u[15] + 556 u[16]
   + 943 u[17] + 912 u[18] + 493 u[19] + 204 u[20] + 887 u[21] + 899 u[22]
   + 718 u[23] + 116 u[24] + 887 u[25] + 857 u[26] + 455 u[27] + 557 u[28]
   + 646 u[29] + 305 u[30] + 443 u[31] + 211 u[32] + 932 u[33] + 387 u[34]
   + 1000 u[35] + 139 u[36] + 804 u[37] + 171 u[38] + 614 u[39] + 38 u[40]
   + 153 u[41] + 941 u[42] + 349 u[43] + 974 u[44] + 2 u[45] + 249 u[46]
   + 593 u[47] + 110 u[48] + 463 u[49] + 782 u[50] + 719 u[51] + 612 u[52]
   + 899 u[53] + 320 u[54] + 455 u[55] + 752 u[56] + 234 u[57] + 675 u[58]
   + 329 u[59] <= 10365
 primal_lower622: 887 u[0] + 880 u[1] + 154 u[2] + 943 u[3] + 644 u[4]
   + 237 u[5] + 125 u[6] + 415 u[7] + 909 u[8] + 590 u[9] + 395 u[10]
   + 879 u[11] + 588 u[12] + 840 u[13] + 380 u[14] + 800 u[15] + 957 u[16]
   + 468 u[17] + 513 u[18] + 314 u[19] + 245 u[20] + 475 u[21] + 620 u[22]
   + 258 u[23] + 828 u[24] + 964 u[25] + 338 u[26] + 179 u[27] + 461 u[28]
   + 939 u[29] + 641 u[30] + 439 u[31] + 539 u[32] + 297 u[33] + 980 u[34]
   + 693 u[35] + 540 u[36] + 232 u[37] + 124 u[38] + 466 u[39] + 279 u[40]
   + 765 u[41] + 190 u[42] + 729 u[43] + 823 u[44] + 134 u[45] + 473 u[46]
   + 229 u[47] + 711 u[48] + 532 u[49] + 166 u[50] + 524 u[51] + 525 u[52]
   + 104 u[53] + 312 u[54] + 603 u[55] + 801 u[56] + 222 u[57] + 748 u[58]
   + 318 u[59] <= 10454
 primal_lower623: 390 u[0] + 479 u[1] + 985 u[2] + 230 u[3] + 827 u[4]
   + 668 u[5] + 700 u[6] + 462 u[7] + 188 u[8] + 829 u[9] + 402 u[10]
   + 854 u[11] + 931 u[12] + 823 u[13] + 531 u[14] + 55 u[15] + 748 u[16]
   + 195 u[17] + 168 u[18] + 273 u[19] + 708 u[20] + 634 u[21] + 859 u[22]
   + 817 u[23] + 659 u[24] + 219 u[25] + 65 u[26] + 434 u[27] + 12 u[28]
   + 850 u[29] + 360 u[30] + 254 u[31] + 818 u[32] + 304 u[33] + 955 u[34]
   + 700 u[35] + 635 u[36] + 15 u[37] + 675 u[38] + 497 u[39] + 494 u[40]
   + 724 u[41] + 661 u[42] + 688 u[43] + 838 u[44] + 733 u[45] + 784 u[46]
   + 60 u[47] + 382 u[48] + 531 u[49] + 909 u[50] + 899 u[51] + 660 u[52]
   + 567 u[53] + 703 u[54] + 426 u[55] + 888 u[56] + 637 u[57] + 579 u[58]
   + 589 u[59] <= 16980
 primal_lower624: 898 u[0] + 859 u[1] + 685 u[2] + 130 u[3] + 215 u[4]
   + 352 u[5] + 920 u[6] + 34 u[7] + 800 u[8] + 65 u[9] + 374 u[10]
   + 562 u[11] + 767 u[12] + 579 u[13] + 167 u[14] + 187 u[15] + 328 u[16]
   + 727 u[17] + 692 u[18] + 709 u[19] + 8 u[20] + 830 u[21] + 943 u[22]
   + 261 u[23] + 415 u[24] + 207 u[25] + 445 u[26] + 878 u[27] + 896 u[28]
   + 342 u[29] + 844 u[30] + 18 u[31] + 254 u[32] + 396 u[33] + 895 u[34]
   + 504 u[35] + 231 u[36] + 843 u[37] + 759 u[38] + 949 u[39] + 946 u[40]
   + 16 u[41] + 993 u[42] + 932 u[43] + 146 u[44] + 57 u[45] + 708 u[46]
   + 760 u[47] + 938 u[48] + 191 u[49] + 273 u[50] + 23 u[51] + 760 u[52]
   + 723 u[53] + 851 u[54] + 566 u[55] + 692 u[56] + 793 u[57] + 55 u[58]
   + 953 u[59] <= 16172
 primal_lower625: 843 u[0] + 63 u[1] + 501 u[2] + 726 u[3] + 567 u[4]
   + 493 u[5] + 696 u[6] + 623 u[7] + 40 u[8] + 357 u[9] + 167 u[10]
   + 214 u[11] + 991 u[12] + 639 u[13] + 360 u[14] + 488 u[15] + 992 u[16]
   + 19 u[17] + 340 u[18] + 57 u[19] + 960 u[20] + 227 u[21] + 599 u[22]
   + 378 u[23] + 848 u[24] + 275 u[25] + 77 u[26] + 955 u[27] + 393 u[28]
   + 890 u[29] + 189 u[30] + 671 u[31] + 471 u[32] + 416 u[33] + 375 u[34]
   + 340 u[35] + 719 u[36] + 504 u[37] + 879 u[38] + 906 u[39] + 946 u[40]
   + 629 u[41] + 553 u[42] + 873 u[43] + 258 u[44] + 886 u[45] + 405 u[46]
   + 637 u[47] + 266 u[48] + 147 u[49] + 786 u[50] + 883 u[51] + 392 u[52]
   + 55 u[53] + 436 u[54] + 963 u[55] + 4 u[56] + 446 u[57] + 343 u[58]
   + 637 u[59] <= 15396
 primal_lower626: 194 u[0] + 867 u[1] + 629 u[2] + 546 u[3] + 351 u[4]
   + 280 u[5] + 768 u[6] + 314 u[7] + 272 u[8] + 417 u[9] + 414 u[10]
   + 978 u[11] + 119 u[12] + 819 u[13] + 15 u[14] + 795 u[15] + 360 u[16]
   + 167 u[17] + 204 u[18] + 53 u[19] + 616 u[20] + 502 u[21] + 879 u[22]
   + 901 u[23] + 687 u[24] + 167 u[25] + 349 u[26] + 262 u[27] + 352 u[28]
   + 894 u[29] + 308 u[30] + 466 u[31] + 126 u[32] + 684 u[33] + 583 u[34]
   + 744 u[35] + 727 u[36] + 763 u[37] + 519 u[38] + 949 u[39] + 882 u[40]
   + 440 u[41] + 25 u[42] + 724 u[43] + 58 u[44] + 609 u[45] + 468 u[46]
   + 96 u[47] + 346 u[48] + 935 u[49] + 345 u[50] + 199 u[51] + 696 u[52]
   + 779 u[53] + 635 u[54] + 398 u[55] + 740 u[56] + 897 u[57] + 839 u[58]
   + 449 u[59] <= 10200
 primal_lower627: 436 u[0] + 296 u[1] + 478 u[2] + 119 u[3] + 72 u[4]
   + 22 u[5] + 993 u[6] + 952 u[7] + 225 u[8] + 510 u[9] + 856 u[10]
   + 319 u[11] + 520 u[12] + 304 u[13] + 793 u[14] + 289 u[15] + 433 u[16]
   + 820 u[17] + 917 u[18] + 978 u[19] + 297 u[20] + 444 u[21] + 608 u[22]
   + 595 u[23] + 89 u[24] + 28 u[25] + 878 u[26] + 52 u[27] + 146 u[28]
   + 323 u[29] + 854 u[30] + 112 u[31] + 992 u[32] + 561 u[33] + 112 u[34]
   + 629 u[35] + 744 u[36] + 545 u[37] + 440 u[38] + 667 u[39] + 331 u[40]
   + 462 u[41] + 578 u[42] + 498 u[43] + 467 u[44] + 943 u[45] + 46 u[46]
   + 766 u[47] + 539 u[48] + 772 u[49] + 195 u[50] + 884 u[51] + 817 u[52]
   + 560 u[53] + 85 u[54] + 804 u[55] + 765 u[56] + 951 u[57] + 152 u[58]
   + 966 u[59] <= 5171
 primal_lower628: 660 u[0] + 133 u[1] + 519 u[2] + 124 u[3] + 289 u[4]
   + 578 u[5] + 138 u[6] + 908 u[7] + 946 u[8] + 507 u[9] + 264 u[10]
   + 628 u[11] + 433 u[12] + 205 u[13] + 497 u[14] + 917 u[15] + 610 u[16]
   + 633 u[17] + 526 u[18] + 167 u[19] + 202 u[20] + 496 u[21] + 257 u[22]
   + 183 u[23] + 145 u[24] + 57 u[25] + 439 u[26] + 88 u[27] + 914 u[28]
   + 168 u[29] + 510 u[30] + 220 u[31] + 296 u[32] + 854 u[33] + 337 u[34]
   + 250 u[35] + 49 u[36] + 949 u[37] + 545 u[38] + 439 u[39] + 412 u[40]
   + 466 u[41] + 723 u[42] + 14 u[43] + 804 u[44] + 187 u[45] + 590 u[46]
   + 514 u[47] + 420 u[48] + 201 u[49] + 555 u[50] + 529 u[51] + 370 u[52]
   + 205 u[53] + 421 u[54] + 376 u[55] + 838 u[56] + 467 u[57] + 961 u[58]
   + 955 u[59] <= 4514
 primal_lower629: 92 u[0] + 773 u[1] + 823 u[2] + 348 u[3] + 321 u[4]
   + 226 u[5] + 698 u[6] + 300 u[7] + 954 u[8] + 923 u[9] + 888 u[10]
   + 236 u[11] + 465 u[12] + 653 u[13] + 193 u[14] + 917 u[15] + 554 u[16]
   + 17 u[17] + 222 u[18] + 447 u[19] + 74 u[20] + 16 u[21] + 265 u[22]
   + 423 u[23] + 537 u[24] + 353 u[25] + 423 u[26] + 928 u[27] + 274 u[28]
   + 824 u[29] + 798 u[30] + 140 u[31] + 304 u[32] + 670 u[33] + 681 u[34]
   + 482 u[35] + 25 u[36] + 213 u[37] + 921 u[38] + 71 u[39] + 100 u[40]
   + 442 u[41] + 419 u[42] + 222 u[43] + 476 u[44] + 363 u[45] + 750 u[46]
   + 50 u[47] + 636 u[48] + 785 u[49] + 715 u[50] + 305 u[51] + 834 u[52]
   + 301 u[53] + 485 u[54] + 304 u[55] + 990 u[56] + 875 u[57] + 145 u[58]
   + 563 u[59] <= 18821
 primal_lower630: 42 u[0] + 334 u[1] + 468 u[2] + 637 u[3] + 814 u[4]
   + 892 u[5] + 71 u[6] + 246 u[7] + 423 u[8] + 908 u[9] + 502 u[10]
   + 261 u[11] + 582 u[12] + 414 u[13] + 471 u[14] + 759 u[15] + 711 u[16]
   + 202 u[17] + 539 u[18] + 872 u[19] + 639 u[20] + 858 u[21] + 542 u[22]
   + 457 u[23] + 687 u[24] + 482 u[25] + 92 u[26] + 802 u[27] + 48 u[28]
   + 585 u[29] + 356 u[30] + 614 u[31] + 6 u[32] + 383 u[33] + 470 u[34]
   + 491 u[35] + 982 u[36] + 63 u[37] + 822 u[38] + 753 u[39] + 25 u[40]
   + 740 u[41] + 392 u[42] + 1000 u[43] + 305 u[44] + 341 u[45] + 364 u[46]
   + 812 u[47] + 185 u[48] + 226 u[49] + 945 u[50] + 570 u[51] + 863 u[52]
   + 686 u[53] + 755 u[54] + 578 u[55] + 843 u[56] + 725 u[57] + 326 u[58]
   + 140 u[59] <= 1000
 primal_lower631: 297 u[0] + 754 u[1] + 940 u[2] + 281 u[3] + 254 u[4]
   + 63 u[5] + 839 u[6] + 153 u[7] + 239 u[8] + 152 u[9] + 829 u[10]
   + 473 u[11] + 726 u[12] + 50 u[13] + 934 u[14] + 474 u[15] + 607 u[16]
   + 638 u[17] + 291 u[18] + 52 u[19] + 727 u[20] + 181 u[21] + 790 u[22]
   + 516 u[23] + 398 u[24] + 766 u[25] + 380 u[26] + 981 u[27] + 679 u[28]
   + 645 u[29] + 667 u[30] + 993 u[31] + 277 u[32] + 395 u[33] + 342 u[34]
   + 535 u[35] + 686 u[36] + 466 u[37] + 606 u[38] + 108 u[39] + 57 u[40]
   + 7 u[41] + 616 u[42] + 675 u[43] + 553 u[44] + 752 u[45] + 291 u[46]
   + 871 u[47] + 161 u[48] + 326 u[49] + 32 u[50] + 542 u[51] + 127 u[52]
   + 986 u[53] + 642 u[54] + 13 u[55] + 979 u[56] + 984 u[57] + 766 u[58]
   + 968 u[59] <= 5088
 primal_lower632: 46 u[0] + 247 u[1] + 209 u[2] + 638 u[3] + 939 u[4]
   + 532 u[5] + 228 u[6] + 78 u[7] + 460 u[8] + 557 u[9] + 866 u[10]
   + 694 u[11] + 947 u[12] + 447 u[13] + 963 u[14] + 367 u[15] + 260 u[16]
   + 923 u[17] + 504 u[18] + 353 u[19] + 284 u[20] + 258 u[21] + 427 u[22]
   + 441 u[23] + 387 u[24] + 483 u[25] + 481 u[26] + 610 u[27] + 916 u[28]
   + 194 u[29] + 272 u[30] + 510 u[31] + 138 u[32] + 432 u[33] + 899 u[34]
   + 412 u[35] + 235 u[36] + 351 u[37] + 835 u[38] + 713 u[39] + 342 u[40]
   + 4 u[41] + 213 u[42] + 368 u[43] + 758 u[44] + 397 u[45] + 56 u[46]
   + 588 u[47] + 366 u[48] + 491 u[49] + 965 u[50] + 635 u[51] + 12 u[52]
   + 343 u[53] + 567 u[54] + 986 u[55] + 184 u[56] + 381 u[57] + 195 u[58]
   + 469 u[59] <= 18570
 primal_lower633: 234 u[0] + 459 u[1] + 45 u[2] + 562 u[3] + 47 u[4]
   + 680 u[5] + 344 u[6] + 314 u[7] + 224 u[8] + 89 u[9] + 302 u[10]
   + 946 u[11] + 759 u[12] + 667 u[13] + 967 u[14] + 179 u[15] + 696 u[16]
   + 943 u[17] + 748 u[18] + 277 u[19] + 896 u[20] + 94 u[21] + 303 u[22]
   + 573 u[23] + 791 u[24] + 207 u[25] + 725 u[26] + 918 u[27] + 920 u[28]
   + 366 u[29] + 444 u[30] + 522 u[31] + 134 u[32] + 60 u[33] + 335 u[34]
   + 864 u[35] + 23 u[36] + 683 u[37] + 735 u[38] + 941 u[39] + 850 u[40]
   + 584 u[41] + 681 u[42] + 260 u[43] + 914 u[44] + 377 u[45] + 844 u[46]
   + 872 u[47] + 762 u[48] + 47 u[49] + 449 u[50] + 727 u[51] + 384 u[52]
   + 915 u[53] + 451 u[54] + 270 u[55] + 4 u[56] + 233 u[57] + 55 u[58]
   + 409 u[59] <= 15052
 primal_lower634: 335 u[0] + 320 u[1] + 226 u[2] + 39 u[3] + 572 u[4]
   + 853 u[5] + 733 u[6] + 551 u[7] + 765 u[8] + 910 u[9] + 739 u[10]
   + 847 u[11] + 484 u[12] + 928 u[13] + 268 u[14] + 184 u[15] + 485 u[16]
   + 524 u[17] + 833 u[18] + 562 u[19] + 605 u[20] + 43 u[21] + 316 u[22]
   + 362 u[23] + 988 u[24] + 804 u[25] + 130 u[26] + 971 u[27] + 557 u[28]
   + 715 u[29] + 945 u[30] + 495 u[31] + 955 u[32] + 145 u[33] + 484 u[34]
   + 181 u[35] + 268 u[36] + 720 u[37] + 708 u[38] + 442 u[39] + 271 u[40]
   + 765 u[41] + 670 u[42] + 817 u[43] + 103 u[44] + 550 u[45] + 529 u[46]
   + 349 u[47] + 671 u[48] + 740 u[49] + 334 u[50] + 300 u[51] + 677 u[52]
   + 120 u[53] + 688 u[54] + 931 u[55] + 513 u[56] + 254 u[57] + 140 u[58]
   + 382 u[59] <= 21197
 primal_lower635: 607 u[0] + 467 u[1] + 433 u[2] + 426 u[3] + 787 u[4]
   + 345 u[5] + 428 u[6] + 995 u[7] + 164 u[8] + 417 u[9] + 675 u[10]
   + 282 u[11] + 283 u[12] + 147 u[13] + 356 u[14] + 284 u[15] + 724 u[16]
   + 335 u[17] + 752 u[18] + 725 u[19] + 564 u[20] + 511 u[21] + 899 u[22]
   + 14 u[23] + 380 u[24] + 439 u[25] + 745 u[26] + 775 u[27] + 725 u[28]
   + 150 u[29] + 921 u[30] + 547 u[31] + 995 u[32] + 660 u[33] + 771 u[34]
   + 208 u[35] + 875 u[36] + 340 u[37] + 955 u[38] + 334 u[39] + 486 u[40]
   + 969 u[41] + 557 u[42] + 989 u[43] + 326 u[44] + 346 u[45] + 145 u[46]
   + 345 u[47] + 318 u[48] + 247 u[49] + 662 u[50] + 927 u[51] + 404 u[52]
   + 771 u[53] + 800 u[54] + 487 u[55] + 288 u[56] + 498 u[57] + 51 u[58]
   + 513 u[59] <= 15784
 primal_lower636: 363 u[0] + 23 u[1] + 357 u[2] + 726 u[3] + 919 u[4]
   + 645 u[5] + 152 u[6] + 79 u[7] + 944 u[8] + 277 u[9] + 959 u[10]
   + 990 u[11] + 695 u[12] + 391 u[13] + 304 u[14] + 656 u[15] + 1000 u[16]
   + 579 u[17] + 396 u[18] + 689 u[19] + 288 u[20] + 107 u[21] + 239 u[22]
   + 58 u[23] + 520 u[24] + 35 u[25] + 805 u[26] + 651 u[27] + 785 u[28]
   + 898 u[29] + 829 u[30] + 951 u[31] + 223 u[32] + 648 u[33] + 263 u[34]
   + 52 u[35] + 359 u[36] + 952 u[37] + 951 u[38] + 114 u[39] + 674 u[40]
   + 773 u[41] + 481 u[42] + 97 u[43] + 210 u[44] + 38 u[45] + 717 u[46]
   + 933 u[47] + 970 u[48] + 339 u[49] + 370 u[50] + 131 u[51] + 360 u[52]
   + 519 u[53] + 916 u[54] + 731 u[55] + 76 u[56] + 318 u[57] + 47 u[58]
   + 221 u[59] <= 4965
 primal_lower637: 17 u[0] + 869 u[1] + 891 u[2] + 612 u[3] + 45 u[4]
   + 947 u[5] + 206 u[6] + 13 u[7] + 6 u[8] + 243 u[9] + 805 u[10]
   + 244 u[11] + 581 u[12] + 965 u[13] + 406 u[14] + 174 u[15] + 534 u[16]
   + 881 u[17] + 802 u[18] + 207 u[19] + 110 u[20] + 537 u[21] + 125 u[22]
   + 632 u[23] + 566 u[24] + 961 u[25] + 859 u[26] + 249 u[27] + 175 u[28]
   + 736 u[29] + 955 u[30] + 493 u[31] + 989 u[32] + 134 u[33] + 157 u[34]
   + 546 u[35] + 749 u[36] + 158 u[37] + 413 u[38] + 536 u[39] + 344 u[40]
   + 355 u[41] + 631 u[42] + 111 u[43] + 848 u[44] + 812 u[45] + 363 u[46]
   + 131 u[47] + 368 u[48] + 385 u[49] + 816 u[50] + 857 u[51] + 894 u[52]
   + 317 u[53] + 890 u[54] + 841 u[55] + 130 u[56] + 884 u[57] + 533 u[58]
   + 147 u[59] <= 10061
 primal_lower638: 776 u[0] + 676 u[1] + 722 u[2] + 355 u[3] + 372 u[4]
   + 26 u[5] + 381 u[6] + 84 u[7] + 477 u[8] + 338 u[9] + 628 u[10]
   + 427 u[11] + 404 u[12] + 316 u[13] + 501 u[14] + 533 u[15] + 933 u[16]
   + 224 u[17] + 337 u[18] + 230 u[19] + 549 u[20] + 216 u[21] + 636 u[22]
   + 399 u[23] + 869 u[24] + 800 u[25] + 474 u[26] + 224 u[27] + 798 u[28]
   + 983 u[29] + 426 u[30] + 4 u[31] + 548 u[32] + 757 u[33] + 988 u[34]
   + 9 u[35] + 12 u[36] + 485 u[37] + 668 u[38] + 247 u[39] + 607 u[40]
   + 562 u[41] + 990 u[42] + 630 u[43] + 575 u[44] + 939 u[45] + 778 u[46]
   + 946 u[47] + 423 u[48] + 400 u[49] + 871 u[50] + 792 u[51] + 245 u[52]
   + 676 u[53] + 409 u[54] + 24 u[55] + 409 u[56] + 979 u[57] + 380 u[58]
   + 82 u[59] <= 10183
 primal_lower639: 647 u[0] + 635 u[1] + 457 u[2] + 610 u[3] + 315 u[4]
   + 801 u[5] + 404 u[6] + 859 u[7] + 908 u[8] + 689 u[9] + 35 u[10]
   + 730 u[11] + 859 u[12] + 491 u[13] + 668 u[14] + 500 u[15] + 316 u[16]
   + 511 u[17] + 40 u[18] + 109 u[19] + 484 u[20] + 615 u[21] + 291 u[22]
   + 502 u[23] + 924 u[24] + 623 u[25] + 425 u[26] + 679 u[27] + 701 u[28]
   + 782 u[29] + 361 u[30] + 875 u[31] + 555 u[32] + 356 u[33] + 827 u[34]
   + 48 u[35] + 779 u[36] + 404 u[37] + 427 u[38] + 846 u[39] + 718 u[40]
   + 505 u[41] + 45 u[42] + 933 u[43] + 518 u[44] + 442 u[45] + 697 u[46]
   + 585 u[47] + 998 u[48] + 655 u[49] + 942 u[50] + 63 u[51] + 724 u[52]
   + 243 u[53] + 8 u[54] + 511 u[55] + 376 u[56] + 794 u[57] + 451 u[58]
   + 961 u[59] <= 998
 primal_lower640: 865 u[0] + 877 u[1] + 955 u[2] + 740 u[3] + 365 u[4]
   + 403 u[5] + 878 u[6] + 53 u[7] + 998 u[8] + 739 u[9] + 133 u[10]
   + 340 u[11] + 469 u[12] + 765 u[13] + 366 u[14] + 622 u[15] + 382 u[16]
   + 257 u[17] + 538 u[18] + 15 u[19] + 926 u[20] + 233 u[21] + 349 u[22]
   + 8 u[23] + 494 u[24] + 577 u[25] + 59 u[26] + 377 u[27] + 903 u[28]
   + 312 u[29] + 363 u[30] + 917 u[31] + 845 u[32] + 78 u[33] + 637 u[34]
   + 954 u[35] + 429 u[36] + 94 u[37] + 53 u[38] + 856 u[39] + 656 u[40]
   + 803 u[41] + 199 u[42] + 367 u[43] + 744 u[44] + 924 u[45] + 331 u[46]
   + 851 u[47] + 888 u[48] + 889 u[49] + 968 u[50] + 145 u[51] + 998 u[52]
   + 749 u[53] + 610 u[54] + 689 u[55] + 330 u[56] + 428 u[57] + 421 u[58]
   + 907 u[59] <= 998
 primal_lower641: 237 u[0] + 833 u[1] + 703 u[2] + 208 u[3] + 825 u[4]
   + 431 u[5] + 618 u[6] + 329 u[7] + 650 u[8] + 959 u[9] + 521 u[10]
   + 272 u[11] + 929 u[12] + 337 u[13] + 682 u[14] + 826 u[15] + 714 u[16]
   + 829 u[17] + 526 u[18] + 163 u[19] + 618 u[20] + 813 u[21] + 665 u[22]
   + 516 u[23] + 250 u[24] + 13 u[25] + 863 u[26] + 397 u[27] + 683 u[28]
   + 628 u[29] + 687 u[30] + 977 u[31] + 265 u[32] + 594 u[33] + 17 u[34]
   + 286 u[35] + 481 u[36] + 178 u[37] + 497 u[38] + 820 u[39] + 252 u[40]
   + 543 u[41] + 739 u[42] + 563 u[43] + 420 u[44] + 680 u[45] + 87 u[46]
   + 591 u[47] + 620 u[48] + 885 u[49] + 36 u[50] + 197 u[51] + 346 u[52]
   + 121 u[53] + 766 u[54] + 189 u[55] + 926 u[56] + 672 u[57] + 977 u[58]
   + 271 u[59] <= 15860
 primal_lower642: 947 u[0] + 719 u[1] + 869 u[2] + 894 u[3] + 687 u[4]
   + 421 u[5] + 432 u[6] + 79 u[7] + 760 u[8] + 933 u[9] + 367 u[10]
   + 278 u[11] + 463 u[12] + 143 u[13] + 48 u[14] + 136 u[15] + 472 u[16]
   + 659 u[17] + 300 u[18] + 633 u[19] + 464 u[20] + 491 u[21] + 367 u[22]
   + 714 u[23] + 696 u[24] + 667 u[25] + 693 u[26] + 755 u[27] + 601 u[28]
   + 386 u[29] + 813 u[30] + 831 u[31] + 447 u[32] + 144 u[33] + 487 u[34]
   + 956 u[35] + 183 u[36] + 296 u[37] + 807 u[38] + 714 u[39] + 962 u[40]
   + 965 u[41] + 665 u[42] + 977 u[43] + 682 u[44] + 454 u[45] + 581 u[46]
   + 453 u[47] + 514 u[48] + 987 u[49] + 922 u[50] + 211 u[51] + 112 u[52]
   + 71 u[53] + 732 u[54] + 619 u[55] + 356 u[56] + 990 u[57] + 615 u[58]
   + 445 u[59] <= 11355
 primal_lower643: 829 u[0] + 361 u[1] + 87 u[2] + 240 u[3] + 169 u[4]
   + 591 u[5] + 258 u[6] + 689 u[7] + 882 u[8] + 815 u[9] + 729 u[10]
   + 584 u[11] + 409 u[12] + 641 u[13] + 162 u[14] + 778 u[15] + 106 u[16]
   + 533 u[17] + 174 u[18] + 787 u[19] + 682 u[20] + 5 u[21] + 161 u[22]
   + 420 u[23] + 874 u[24] + 117 u[25] + 375 u[26] + 189 u[27] + 355 u[28]
   + 532 u[29] + 575 u[30] + 361 u[31] + 841 u[32] + 538 u[33] + 377 u[34]
   + 638 u[35] + 529 u[36] + 954 u[37] + 145 u[38] + 28 u[39] + 900 u[40]
   + 79 u[41] + 491 u[42] + 963 u[43] + 588 u[44] + 664 u[45] + 47 u[46]
   + 383 u[47] + 116 u[48] + 629 u[49] + 732 u[50] + 805 u[51] + 66 u[52]
   + 705 u[53] + 790 u[54] + 605 u[55] + 902 u[56] + 528 u[57] + 713 u[58]
   + 879 u[59] <= 10035
 primal_lower644: 714 u[0] + 715 u[1] + 557 u[2] + 18 u[3] + 895 u[4]
   + 408 u[5] + 256 u[6] + 178 u[7] + 952 u[8] + 329 u[9] + 230 u[10]
   + 466 u[11] + 815 u[12] + 11 u[13] + 135 u[14] + 331 u[15] + 960 u[16]
   + 191 u[17] + 300 u[18] + 645 u[19] + 80 u[20] + 662 u[21] + 7 u[22]
   + 29 u[23] + 751 u[24] + 519 u[25] + 573 u[26] + 134 u[27] + 128 u[28]
   + 78 u[29] + 604 u[30] + 818 u[31] + 710 u[32] + 364 u[33] + 239 u[34]
   + 336 u[35] + 31 u[36] + 491 u[37] + 431 u[38] + 69 u[39] + 154 u[40]
   + 664 u[41] + 857 u[42] + 452 u[43] + 498 u[44] + 33 u[45] + 508 u[46]
   + 872 u[47] + 618 u[48] + 575 u[49] + 89 u[50] + 343 u[51] + 200 u[52]
   + 859 u[53] + 483 u[54] + 86 u[55] + 20 u[56] + 9 u[57] + 303 u[58]
   + 417 u[59] <= 960
 primal_lower645: 231 u[0] + 824 u[1] + 722 u[2] + 143 u[3] + 20 u[4]
   + 37 u[5] + 493 u[6] + 271 u[7] + 741 u[8] + 62 u[9] + 291 u[10]
   + 991 u[11] + 604 u[12] + 872 u[13] + 268 u[14] + 976 u[15] + 509 u[16]
   + 252 u[17] + 497 u[18] + 250 u[19] + 541 u[20] + 691 u[21] + 972 u[22]
   + 34 u[23] + 380 u[24] + 436 u[25] + 866 u[26] + 571 u[27] + 949 u[28]
   + 515 u[29] + 769 u[30] + 951 u[31] + 443 u[32] + 105 u[33] + 692 u[34]
   + 717 u[35] + 828 u[36] + 824 u[37] + 28 u[38] + 490 u[39] + 703 u[40]
   + 789 u[41] + 222 u[42] + 441 u[43] + 735 u[44] + 806 u[45] + 17 u[46]
   + 373 u[47] + 903 u[48] + 20 u[49] + 118 u[50] + 580 u[51] + 165 u[52]
   + 160 u[53] + 656 u[54] + 563 u[55] + 497 u[56] + 998 u[57] + 636 u[58]
   + 694 u[59] <= 10310
 primal_lower646: 404 u[0] + 221 u[1] + 295 u[2] + 116 u[3] + 913 u[4]
   + 138 u[5] + 370 u[6] + 588 u[7] + 114 u[8] + 739 u[9] + 896 u[10]
   + 636 u[11] + 505 u[12] + 133 u[13] + 985 u[14] + 205 u[15] + 994 u[16]
   + 729 u[17] + 222 u[18] + 599 u[19] + 234 u[20] + 480 u[21] + 265 u[22]
   + 247 u[23] + 961 u[24] + 593 u[25] + 599 u[26] + 120 u[27] + 658 u[28]
   + 56 u[29] + 774 u[30] + 836 u[31] + 360 u[32] + 398 u[33] + 825 u[34]
   + 442 u[35] + 313 u[36] + 469 u[37] + 209 u[38] + 847 u[39] + 492 u[40]
   + 722 u[41] + 507 u[42] + 710 u[43] + 196 u[44] + 827 u[45] + 14 u[46]
   + 994 u[47] + 84 u[48] + 385 u[49] + 843 u[50] + 929 u[51] + 226 u[52]
   + 541 u[53] + 701 u[54] + 776 u[55] + 54 u[56] + 483 u[57] + 713 u[58]
   + 811 u[59] <= 994
 primal_lower647: 534 u[0] + 271 u[1] + 49 u[2] + 238 u[3] + 851 u[4]
   + 164 u[5] + 716 u[6] + 766 u[7] + 156 u[8] + 405 u[9] + 906 u[10]
   + 382 u[11] + 763 u[12] + 311 u[13] + 27 u[14] + 551 u[15] + 940 u[16]
   + 379 u[17] + 232 u[18] + 497 u[19] + 572 u[20] + 722 u[21] + 443 u[22]
   + 33 u[23] + 99 u[24] + 819 u[25] + 521 u[26] + 154 u[27] + 604 u[28]
   + 466 u[29] + 488 u[30] + 742 u[31] + 10 u[32] + 416 u[33] + 443 u[34]
   + 500 u[35] + 451 u[36] + 959 u[37] + 515 u[38] + 865 u[39] + 190 u[40]
   + 764 u[41] + 541 u[42] + 272 u[43] + 702 u[44] + 221 u[45] + 984 u[46]
   + 764 u[47] + 982 u[48] + 91 u[49] + 53 u[50] + 971 u[51] + 908 u[52]
   + 111 u[53] + 279 u[54] + 10 u[55] + 664 u[56] + 573 u[57] + 211 u[58]
   + 157 u[59] <= 4734
 primal_lower648: 176 u[0] + 740 u[1] + 330 u[2] + 347 u[3] + 52 u[4]
   + 458 u[5] + 973 u[6] + 332 u[7] + 85 u[8] + 362 u[9] + 444 u[10]
   + 403 u[11] + 860 u[12] + 396 u[13] + 781 u[14] + 573 u[15] + 45 u[16]
   + 440 u[17] + 273 u[18] + 422 u[19] + 173 u[20] + 928 u[21] + 548 u[22]
   + 743 u[23] + 285 u[24] + 624 u[25] + 442 u[26] + 216 u[27] + 838 u[28]
   + 983 u[29] + 154 u[30] + 372 u[31] + 884 u[32] + 61 u[33] + 20 u[34]
   + 97 u[35] + 204 u[36] + 605 u[37] + 20 u[38] + 687 u[39] + 167 u[40]
   + 706 u[41] + 366 u[42] + 774 u[43] + 487 u[44] + 355 u[45] + 914 u[46]
   + 114 u[47] + 407 u[48] + 424 u[49] + 639 u[50] + 232 u[51] + 981 u[52]
   + 324 u[53] + 449 u[54] + 288 u[55] + 801 u[56] + 171 u[57] + 428 u[58]
   + 634 u[59] <= 4506
 primal_lower649: 354 u[0] + 182 u[1] + 76 u[2] + 325 u[3] + 726 u[4]
   + 164 u[5] + 199 u[6] + 462 u[7] + 895 u[8] + 532 u[9] + 318 u[10]
   + 997 u[11] + 598 u[12] + 798 u[13] + 575 u[14] + 383 u[15] + 495 u[16]
   + 362 u[17] + 755 u[18] + 48 u[19] + 791 u[20] + 202 u[21] + 942 u[22]
   + 433 u[23] + 55 u[24] + 10 u[25] + 444 u[26] + 250 u[27] + 656 u[28]
   + 105 u[29] + 636 u[30] + 662 u[31] + 390 u[32] + 919 u[33] + 190 u[34]
   + 27 u[35] + 526 u[36] + 919 u[37] + 590 u[38] + 377 u[39] + 409 u[40]
   + 828 u[41] + 184 u[42] + 784 u[43] + 513 u[44] + 813 u[45] + 892 u[46]
   + 220 u[47] + 81 u[48] + 738 u[49] + 905 u[50] + 698 u[51] + 727 u[52]
   + 478 u[53] + 395 u[54] + 994 u[55] + 707 u[56] + 381 u[57] + 630 u[58]
   + 748 u[59] <= 5082
 primal_lower650: 679 u[0] + 731 u[1] + 145 u[2] + 474 u[3] + 323 u[4]
   + 433 u[5] + 676 u[6] + 611 u[7] + 812 u[8] + 489 u[9] + 731 u[10]
   + 834 u[11] + 531 u[12] + 19 u[13] + 44 u[14] + 924 u[15] + 764 u[16]
   + 983 u[17] + 184 u[18] + 861 u[19] + 772 u[20] + 943 u[21] + 339 u[22]
   + 982 u[23] + 932 u[24] + 71 u[25] + 273 u[26] + 655 u[27] + 813 u[28]
   + 198 u[29] + 849 u[30] + 731 u[31] + 283 u[32] + 292 u[33] + 491 u[34]
   + 16 u[35] + 843 u[36] + 332 u[37] + 67 u[38] + 758 u[39] + 46 u[40]
   + 57 u[41] + 925 u[42] + 789 u[43] + 774 u[44] + 594 u[45] + 745 u[46]
   + 545 u[47] + 950 u[48] + 367 u[49] + 974 u[50] + 775 u[51] + 196 u[52]
   + 995 u[53] + 848 u[54] + 351 u[55] + 304 u[56] + 762 u[57] + 907 u[58]
   + 977 u[59] <= 23179
 primal_lower651: 919 u[0] + 592 u[1] + 426 u[2] + 23 u[3] + 628 u[4]
   + 197 u[5] + 997 u[6] + 303 u[7] + 21 u[8] + 406 u[9] + 811 u[10]
   + 695 u[11] + 324 u[12] + 680 u[13] + 588 u[14] + 200 u[15] + 149 u[16]
   + 348 u[17] + 913 u[18] + 98 u[19] + 85 u[20] + 291 u[21] + 508 u[22]
   + 538 u[23] + 588 u[24] + 268 u[25] + 266 u[26] + 99 u[27] + 357 u[28]
   + 3 u[29] + 209 u[30] + 831 u[31] + 715 u[32] + 105 u[33] + 340 u[34]
   + 133 u[35] + 188 u[36] + 16 u[37] + 508 u[38] + 858 u[39] + 535 u[40]
   + 733 u[41] + 46 u[42] + 177 u[43] + 551 u[44] + 150 u[45] + 537 u[46]
   + 917 u[47] + 15 u[48] + 948 u[49] + 22 u[50] + 820 u[51] + 365 u[52]
   + 328 u[53] + 760 u[54] + 483 u[55] + 713 u[56] + 230 u[57] + 20 u[58]
   + 38 u[59] <= 8204
 primal_lower652: 25 u[0] + 869 u[1] + 3 u[2] + 804 u[3] + 253 u[4]
   + 123 u[5] + 982 u[6] + 917 u[7] + 582 u[8] + 267 u[9] + 165 u[10]
   + 452 u[11] + 469 u[12] + 917 u[13] + 582 u[14] + 966 u[15] + 630 u[16]
   + 97 u[17] + 874 u[18] + 855 u[19] + 934 u[20] + 601 u[21] + 117 u[22]
   + 752 u[23] + 822 u[24] + 505 u[25] + 827 u[26] + 273 u[27] + 31 u[28]
   + 784 u[29] + 171 u[30] + 501 u[31] + 565 u[32] + 174 u[33] + 189 u[34]
   + 530 u[35] + 933 u[36] + 670 u[37] + 885 u[38] + 520 u[39] + 744 u[40]
   + 59 u[41] + 927 u[42] + 7 u[43] + 344 u[44] + 708 u[45] + 659 u[46]
   + 379 u[47] + 216 u[48] + 57 u[49] + 104 u[50] + 745 u[51] + 710 u[52]
   + 469 u[53] + 978 u[54] + 129 u[55] + 562 u[56] + 380 u[57] + 741 u[58]
   + 235 u[59] <= 10256
 primal_lower653: 869 u[0] + 953 u[1] + 423 u[2] + 608 u[3] + 409 u[4]
   + 287 u[5] + 58 u[6] + 993 u[7] + 186 u[8] + 439 u[9] + 233 u[10]
   + 472 u[11] + 721 u[12] + 177 u[13] + 898 u[14] + 650 u[15] + 314 u[16]
   + 965 u[17] + 94 u[18] + 387 u[19] + 298 u[20] + 245 u[21] + 489 u[22]
   + 388 u[23] + 994 u[24] + 469 u[25] + 615 u[26] + 69 u[27] + 155 u[28]
   + 172 u[29] + 543 u[30] + 425 u[31] + 673 u[32] + 578 u[33] + 609 u[34]
   + 430 u[35] + 337 u[36] + 66 u[37] + 673 u[38] + 724 u[39] + 156 u[40]
   + 839 u[41] + 595 u[42] + 427 u[43] + 996 u[44] + 576 u[45] + 455 u[46]
   + 383 u[47] + 804 u[48] + 477 u[49] + 876 u[50] + 117 u[51] + 450 u[52]
   + 521 u[53] + 742 u[54] + 965 u[55] + 70 u[56] + 520 u[57] + 801 u[58]
   + 87 u[59] <= 4990
 primal_lower654: 902 u[0] + 914 u[1] + 648 u[2] + 329 u[3] + 410 u[4]
   + 488 u[5] + 67 u[6] + 586 u[7] + 195 u[8] + 928 u[9] + 930 u[10]
   + 465 u[11] + 554 u[12] + 634 u[13] + 939 u[14] + 875 u[15] + 251 u[16]
   + 246 u[17] + 607 u[18] + 516 u[19] + 963 u[20] + 670 u[21] + 378 u[22]
   + 893 u[23] + 843 u[24] + 278 u[25] + 432 u[26] + 526 u[27] + 716 u[28]
   + 245 u[29] + 424 u[30] + 138 u[31] + 178 u[32] + 931 u[33] + 490 u[34]
   + 7 u[35] + 314 u[36] + 963 u[37] + 162 u[38] + 533 u[39] + 573 u[40]
   + 240 u[41] + 772 u[42] + 924 u[43] + 797 u[44] + 673 u[45] + 816 u[46]
   + 296 u[47] + 549 u[48] + 454 u[49] + 309 u[50] + 430 u[51] + 331 u[52]
   + 570 u[53] + 527 u[54] + 30 u[55] + 215 u[56] + 577 u[57] + 226 u[58]
   + 80 u[59] <= 10319
 primal_lower655: 864 u[0] + 748 u[1] + 578 u[2] + 139 u[3] + 60 u[4]
   + 762 u[5] + 405 u[6] + 4 u[7] + 437 u[8] + 218 u[9] + 212 u[10]
   + 507 u[11] + 100 u[12] + 780 u[13] + 133 u[14] + 629 u[15] + 37 u[16]
   + 960 u[17] + 905 u[18] + 846 u[19] + 933 u[20] + 40 u[21] + 156 u[22]
   + 711 u[23] + 565 u[24] + 216 u[25] + 994 u[26] + 568 u[27] + 638 u[28]
   + 103 u[29] + 618 u[30] + 404 u[31] + 620 u[32] + 325 u[33] + 252 u[34]
   + 265 u[35] + 668 u[36] + 309 u[37] + 36 u[38] + 535 u[39] + 255 u[40]
   + 482 u[41] + 590 u[42] + 150 u[43] + 375 u[44] + 931 u[45] + 810 u[46]
   + 250 u[47] + 23 u[48] + 408 u[49] + 799 u[50] + 200 u[51] + 365 u[52]
   + 692 u[53] + 577 u[54] + 376 u[55] + 577 u[56] + 699 u[57] + 716 u[58]
   + 778 u[59] <= 9444
 primal_lower656: 392 u[0] + 636 u[1] + 434 u[2] + 747 u[3] + 44 u[4]
   + 930 u[5] + 933 u[6] + 268 u[7] + 5 u[8] + 282 u[9] + 868 u[10]
   + 275 u[11] + 348 u[12] + 116 u[13] + 277 u[14] + 461 u[15] + 965 u[16]
   + 904 u[17] + 953 u[18] + 518 u[19] + 805 u[20] + 536 u[21] + 148 u[22]
   + 727 u[23] + 37 u[24] + 640 u[25] + 74 u[26] + 608 u[27] + 110 u[28]
   + 967 u[29] + 762 u[30] + 428 u[31] + 516 u[32] + 925 u[33] + 100 u[34]
   + 553 u[35] + 156 u[36] + 453 u[37] + 340 u[38] + 623 u[39] + 167 u[40]
   + 666 u[41] + 142 u[42] + 622 u[43] + 551 u[44] + 75 u[45] + 858 u[46]
   + 178 u[47] + 967 u[48] + 792 u[49] + 559 u[50] + 160 u[51] + 813 u[52]
   + 228 u[53] + 809 u[54] + 832 u[55] + 257 u[56] + 891 u[57] + 956 u[58]
   + 354 u[59] <= 10247
 primal_lower657: 158 u[0] + 79 u[1] + 81 u[2] + 598 u[3] + 323 u[4]
   + 436 u[5] + 908 u[6] + 678 u[7] + 780 u[8] + 901 u[9] + 898 u[10]
   + 30 u[11] + 939 u[12] + 567 u[13] + 467 u[14] + 367 u[15] + 236 u[16]
   + 387 u[17] + 248 u[18] + 897 u[19] + 596 u[20] + 674 u[21] + 851 u[22]
   + 49 u[23] + 427 u[24] + 779 u[25] + 673 u[26] + 458 u[27] + 12 u[28]
   + 970 u[29] + 560 u[30] + 374 u[31] + 930 u[32] + 376 u[33] + 251 u[34]
   + 828 u[35] + 363 u[36] + 7 u[37] + 515 u[38] + 689 u[39] + 126 u[40]
   + 244 u[41] + 581 u[42] + 408 u[43] + 78 u[44] + 749 u[45] + 280 u[46]
   + 684 u[47] + 934 u[48] + 931 u[49] + 389 u[50] + 739 u[51] + 596 u[52]
   + 783 u[53] + 55 u[54] + 434 u[55] + 280 u[56] + 797 u[57] + 187 u[58]
   + 741 u[59] <= 15188
 primal_lower658: 328 u[0] + 265 u[1] + 531 u[2] + 984 u[3] + 357 u[4]
   + 30 u[5] + 534 u[6] + 896 u[7] + 70 u[8] + 759 u[9] + 20 u[10]
   + 240 u[11] + 749 u[12] + 537 u[13] + 125 u[14] + 561 u[15] + 278 u[16]
   + 773 u[17] + 978 u[18] + 251 u[19] + 294 u[20] + 548 u[21] + 845 u[22]
   + 715 u[23] + 157 u[24] + 213 u[25] + 627 u[26] + 604 u[27] + 534 u[28]
   + 500 u[29] + 778 u[30] + 416 u[31] + 796 u[32] + 586 u[33] + 245 u[34]
   + 686 u[35] + 45 u[36] + 649 u[37] + 733 u[38] + 75 u[39] + 696 u[40]
   + 182 u[41] + 575 u[42] + 258 u[43] + 832 u[44] + 63 u[45] + 466 u[46]
   + 342 u[47] + 992 u[48] + 973 u[49] + 607 u[50] + 525 u[51] + 806 u[52]
   + 73 u[53] + 913 u[54] + 980 u[55] + 314 u[56] + 87 u[57] + 661 u[58]
   + 655 u[59] <= 5052
 primal_lower659: 279 u[0] + 67 u[1] + 753 u[2] + 50 u[3] + 611 u[4]
   + 65 u[5] + 316 u[6] + 179 u[7] + 972 u[8] + 321 u[9] + 915 u[10]
   + 466 u[11] + 571 u[12] + 963 u[13] + 484 u[14] + 348 u[15] + 124 u[16]
   + 559 u[17] + 88 u[18] + 509 u[19] + 996 u[20] + 655 u[21] + 731 u[22]
   + 302 u[23] + 636 u[24] + 415 u[25] + 809 u[26] + 887 u[27] + 765 u[28]
   + 318 u[29] + 785 u[30] + 131 u[31] + 259 u[32] + 132 u[33] + 363 u[34]
   + 832 u[35] + 395 u[36] + 812 u[37] + 691 u[38] + 654 u[39] + 190 u[40]
   + 913 u[41] + 613 u[42] + 821 u[43] + 798 u[44] + 426 u[45] + 841 u[46]
   + 809 u[47] + 758 u[48] + 327 u[49] + 998 u[50] + 55 u[51] + 236 u[52]
   + 411 u[53] + 904 u[54] + 351 u[55] + 808 u[56] + 770 u[57] + 723 u[58]
   + 729 u[59] <= 16344
 primal_lower660: 602 u[0] + 99 u[1] + 973 u[2] + 58 u[3] + 63 u[4]
   + 872 u[5] + 168 u[6] + 202 u[7] + 424 u[8] + 97 u[9] + 534 u[10]
   + 346 u[11] + 447 u[12] + 59 u[13] + 719 u[14] + 331 u[15] + 936 u[16]
   + 383 u[17] + 156 u[18] + 669 u[19] + 1000 u[20] + 150 u[21] + 215 u[22]
   + 45 u[23] + 167 u[24] + 607 u[25] + 821 u[26] + 422 u[27] + 864 u[28]
   + 190 u[29] + 564 u[30] + 730 u[31] + 70 u[32] + 620 u[33] + 159 u[34]
   + 968 u[35] + 63 u[36] + 283 u[37] + 831 u[38] + 749 u[39] + 690 u[40]
   + 456 u[41] + 425 u[42] + 756 u[43] + 266 u[44] + 249 u[45] + 100 u[46]
   + 488 u[47] + 74 u[48] + 399 u[49] + 545 u[50] + 887 u[51] + 96 u[52]
   + 507 u[53] + 643 u[54] + 518 u[55] + 300 u[56] + 897 u[57] + 327 u[58]
   + 793 u[59] <= 9024
 primal_lower661: 252 u[0] + 725 u[1] + 975 u[2] + 204 u[3] + 521 u[4]
   + 186 u[5] + 570 u[6] + 972 u[7] + 770 u[8] + 83 u[9] + 864 u[10]
   + 388 u[11] + 473 u[12] + 301 u[13] + 153 u[14] + 821 u[15] + 634 u[16]
   + u[17] + 670 u[18] + 39 u[19] + 26 u[20] + 760 u[21] + 65 u[22]
   + 695 u[23] + 537 u[24] + 257 u[25] + 359 u[26] + 904 u[27] + 794 u[28]
   + 448 u[29] + 806 u[30] + 452 u[31] + 112 u[32] + 742 u[33] + 169 u[34]
   + 18 u[35] + 233 u[36] + 885 u[37] + 953 u[38] + 263 u[39] + 236 u[40]
   + 58 u[41] + 363 u[42] + 750 u[43] + 388 u[44] + 659 u[45] + 206 u[46]
   + 282 u[47] + 220 u[48] + 809 u[49] + 971 u[50] + 953 u[51] + 922 u[52]
   + 205 u[53] + 309 u[54] + 560 u[55] + 158 u[56] + 899 u[57] + 153 u[58]
   + 427 u[59] <= 9536
 primal_lower662: 698 u[0] + 878 u[1] + 948 u[2] + 533 u[3] + 470 u[4]
   + 4 u[5] + 503 u[6] + 174 u[7] + 599 u[8] + 380 u[9] + 438 u[10]
   + 829 u[11] + 446 u[12] + 798 u[13] + 39 u[14] + 487 u[15] + 279 u[16]
   + 898 u[17] + 755 u[18] + 248 u[19] + 823 u[20] + 882 u[21] + 182 u[22]
   + 273 u[23] + 215 u[24] + 626 u[25] + 940 u[26] + 938 u[27] + 952 u[28]
   + 65 u[29] + 604 u[30] + 214 u[31] + 622 u[32] + 879 u[33] + 622 u[34]
   + 635 u[35] + 806 u[36] + 151 u[37] + 974 u[38] + 305 u[39] + 249 u[40]
   + 604 u[41] + 584 u[42] + 808 u[43] + 945 u[44] + 693 u[45] + 316 u[46]
   + 716 u[47] + 193 u[48] + 10 u[49] + 553 u[50] + 498 u[51] + 983 u[52]
   + 990 u[53] + 491 u[54] + 466 u[55] + 459 u[56] + 797 u[57] + 526 u[58]
   + 844 u[59] <= 5639
 primal_lower663: 972 u[0] + 349 u[1] + 15 u[2] + 844 u[3] + 737 u[4]
   + 218 u[5] + 802 u[6] + 116 u[7] + 690 u[8] + 907 u[9] + 24 u[10]
   + 796 u[11] + 345 u[12] + 61 u[13] + 817 u[14] + 253 u[15] + 562 u[16]
   + 145 u[17] + 14 u[18] + 639 u[19] + 642 u[20] + 984 u[21] + 385 u[22]
   + 23 u[23] + 873 u[24] + 585 u[25] + 647 u[26] + 776 u[27] + 922 u[28]
   + 912 u[29] + 710 u[30] + 844 u[31] + 264 u[32] + 222 u[33] + 89 u[34]
   + 650 u[35] + 361 u[36] + 493 u[37] + 537 u[38] + 255 u[39] + 140 u[40]
   + 914 u[41] + 859 u[42] + 702 u[43] + 196 u[44] + 731 u[45] + 14 u[46]
   + 2 u[47] + 972 u[48] + 201 u[49] + 35 u[50] + 985 u[51] + 218 u[52]
   + 309 u[53] + 421 u[54] + 152 u[55] + 742 u[56] + 611 u[57] + 897 u[58]
   + 987 u[59] <= 10189
 primal_lower664: 750 u[0] + 431 u[1] + 993 u[2] + 574 u[3] + 155 u[4]
   + 92 u[5] + 604 u[6] + 102 u[7] + 340 u[8] + 157 u[9] + 442 u[10]
   + 198 u[11] + 459 u[12] + 87 u[13] + 91 u[14] + 439 u[15] + 908 u[16]
   + 331 u[17] + 176 u[18] + 385 u[19] + 12 u[20] + 234 u[21] + 587 u[22]
   + 97 u[23] + 939 u[24] + 27 u[25] + 633 u[26] + 450 u[27] + 692 u[28]
   + 810 u[29] + 640 u[30] + 262 u[31] + 90 u[32] + 808 u[33] + 691 u[34]
   + 844 u[35] + 251 u[36] + 431 u[37] + 387 u[38] + 225 u[39] + 694 u[40]
   + 196 u[41] + 821 u[42] + 504 u[43] + 398 u[44] + 797 u[45] + 328 u[46]
   + 668 u[47] + 422 u[48] + 291 u[49] + 741 u[50] + 243 u[51] + 964 u[52]
   + 775 u[53] + 919 u[54] + 450 u[55] + 40 u[56] + 933 u[57] + 283 u[58]
   + 221 u[59] <= 13756
 primal_lower665: 948 u[0] + 88 u[1] + 790 u[2] + 599 u[3] + 392 u[4]
   + 206 u[5] + 641 u[6] + 768 u[7] + 201 u[8] + 774 u[9] + 536 u[10]
   + 319 u[11] + 352 u[12] + 704 u[13] + 313 u[14] + 961 u[15] + 977 u[16]
   + 380 u[17] + 957 u[18] + 186 u[19] + 673 u[20] + 4 u[21] + 632 u[22]
   + 667 u[23] + 697 u[24] + 980 u[25] + 910 u[26] + 388 u[27] + 258 u[28]
   + 35 u[29] + 582 u[30] + 496 u[31] + 136 u[32] + 161 u[33] + 456 u[34]
   + 205 u[35] + 48 u[36] + 785 u[37] + 552 u[38] + 515 u[39] + 811 u[40]
   + 926 u[41] + 482 u[42] + 834 u[43] + 123 u[44] + 679 u[45] + 670 u[46]
   + 646 u[47] + 691 u[48] + 524 u[49] + 155 u[50] + 884 u[51] + 121 u[52]
   + 136 u[53] + 789 u[54] + 908 u[55] + 669 u[56] + 15 u[57] + 224 u[58]
   + 566 u[59] <= 20750
 primal_lower666: 939 u[0] + 980 u[1] + 614 u[2] + 667 u[3] + 536 u[4]
   + 137 u[5] + 233 u[6] + 203 u[7] + 241 u[8] + 66 u[9] + 799 u[10]
   + 699 u[11] + 752 u[12] + 316 u[13] + 664 u[14] + 516 u[15] + 545 u[16]
   + 248 u[17] + 893 u[18] + 126 u[19] + 273 u[20] + 303 u[21] + 152 u[22]
   + 190 u[23] + 584 u[24] + 896 u[25] + 446 u[26] + 599 u[27] + 953 u[28]
   + 927 u[29] + 221 u[30] + 555 u[31] + 623 u[32] + 333 u[33] + 608 u[34]
   + 697 u[35] + 736 u[36] + 148 u[37] + 280 u[38] + 302 u[39] + 499 u[40]
   + 905 u[41] + 578 u[42] + 789 u[43] + 51 u[44] + 826 u[45] + 869 u[46]
   + 985 u[47] + 475 u[48] + 696 u[49] + 570 u[50] + 808 u[51] + 553 u[52]
   + 468 u[53] + 124 u[54] + 503 u[55] + 509 u[56] + 98 u[57] + 520 u[58]
   + 402 u[59] <= 985
 primal_lower667: 612 u[0] + 200 u[1] + 30 u[2] + 583 u[3] + 48 u[4]
   + 542 u[5] + 921 u[6] + 960 u[7] + 881 u[8] + 950 u[9] + 776 u[10]
   + 887 u[11] + 392 u[12] + 464 u[13] + 833 u[14] + 649 u[15] + 481 u[16]
   + 868 u[17] + 29 u[18] + 826 u[19] + 465 u[20] + 388 u[21] + 384 u[22]
   + 755 u[23] + 409 u[24] + 908 u[25] + 574 u[26] + 724 u[27] + 434 u[28]
   + 931 u[29] + 22 u[30] + 952 u[31] + 480 u[32] + 433 u[33] + 864 u[34]
   + 389 u[35] + 952 u[36] + 681 u[37] + 448 u[38] + 571 u[39] + 179 u[40]
   + 854 u[41] + 570 u[42] + 706 u[43] + 187 u[44] + 695 u[45] + 350 u[46]
   + 398 u[47] + 427 u[48] + 924 u[49] + 987 u[50] + 972 u[51] + 681 u[52]
   + 776 u[53] + 589 u[54] + 724 u[55] + 349 u[56] + 287 u[57] + 728 u[58]
   + 366 u[59] <= 17722
 primal_lower668: 584 u[0] + 17 u[1] + 83 u[2] + 528 u[3] + 165 u[4]
   + 358 u[5] + 806 u[6] + 40 u[7] + 206 u[8] + 991 u[9] + 444 u[10]
   + 216 u[11] + 85 u[12] + 161 u[13] + 949 u[14] + 641 u[15] + 582 u[16]
   + 309 u[17] + 658 u[18] + 363 u[19] + 822 u[20] + 844 u[21] + 413 u[22]
   + 451 u[23] + 101 u[24] + 461 u[25] + 115 u[26] + 364 u[27] + 190 u[28]
   + 124 u[29] + 258 u[30] + 992 u[31] + 76 u[32] + 354 u[33] + 437 u[34]
   + 342 u[35] + 141 u[36] + 233 u[37] + 821 u[38] + 619 u[39] + 168 u[40]
   + 374 u[41] + 319 u[42] + 26 u[43] + 576 u[44] + 599 u[45] + 186 u[46]
   + 214 u[47] + 848 u[48] + 477 u[49] + 783 u[50] + 325 u[51] + 550 u[52]
   + 681 u[53] + 369 u[54] + 100 u[55] + 762 u[56] + 975 u[57] + 949 u[58]
   + 679 u[59] <= 992
 primal_lower669: 118 u[0] + 967 u[1] + 561 u[2] + 406 u[3] + 427 u[4]
   + 940 u[5] + 996 u[6] + 958 u[7] + 972 u[8] + 61 u[9] + 314 u[10]
   + 670 u[11] + 531 u[12] + 63 u[13] + 771 u[14] + 31 u[15] + 412 u[16]
   + 651 u[17] + 944 u[18] + 441 u[19] + 940 u[20] + 914 u[21] + 571 u[22]
   + 689 u[23] + 275 u[24] + 451 u[25] + 409 u[26] + 258 u[27] + 228 u[28]
   + 762 u[29] + 472 u[30] + 814 u[31] + 234 u[32] + 720 u[33] + 475 u[34]
   + 212 u[35] + 275 u[36] + 303 u[37] + 563 u[38] + 465 u[39] + 478 u[40]
   + 956 u[41] + 725 u[42] + 960 u[43] + 174 u[44] + 637 u[45] + 848 u[46]
   + 92 u[47] + 334 u[48] + 739 u[49] + 413 u[50] + 51 u[51] + 660 u[52]
   + 663 u[53] + 95 u[54] + 898 u[55] + 944 u[56] + 53 u[57] + 779 u[58]
   + 573 u[59] <= 5389
 primal_lower670: 855 u[0] + 307 u[1] + 513 u[2] + 306 u[3] + 643 u[4]
   + 345 u[5] + 492 u[6] + 203 u[7] + 156 u[8] + 521 u[9] + 571 u[10]
   + 930 u[11] + 307 u[12] + 211 u[13] + 316 u[14] + 820 u[15] + 196 u[16]
   + 727 u[17] + 912 u[18] + 853 u[19] + 92 u[20] + 559 u[21] + 163 u[22]
   + 750 u[23] + 412 u[24] + 167 u[25] + 137 u[26] + 7 u[27] + 309 u[28]
   + 46 u[29] + 89 u[30] + 75 u[31] + 907 u[32] + 548 u[33] + 891 u[34]
   + 952 u[35] + 771 u[36] + 684 u[37] + 459 u[38] + 134 u[39] + 694 u[40]
   + 537 u[41] + 165 u[42] + 13 u[43] + 998 u[44] + 954 u[45] + 217 u[46]
   + 777 u[47] + 926 u[48] + 175 u[49] + 126 u[50] + 295 u[51] + 508 u[52]
   + 715 u[53] + 344 u[54] + 903 u[55] + 912 u[56] + 346 u[57] + 355 u[58]
   + 609 u[59] <= 9635
 primal_lower671: 487 u[0] + 971 u[1] + 513 u[2] + 338 u[3] + 627 u[4]
   + 177 u[5] + 828 u[6] + 715 u[7] + 988 u[8] + 521 u[9] + 507 u[10]
   + 818 u[11] + 627 u[12] + 187 u[13] + 388 u[14] + 300 u[15] + 556 u[16]
   + 823 u[17] + 656 u[18] + 501 u[19] + 852 u[20] + 223 u[21] + 571 u[22]
   + 830 u[23] + 452 u[24] + 983 u[25] + 353 u[26] + 135 u[27] + 789 u[28]
   + 238 u[29] + 313 u[30] + 795 u[31] + 523 u[32] + 540 u[33] + 299 u[34]
   + 968 u[35] + 875 u[36] + 804 u[37] + 523 u[38] + 414 u[39] + 118 u[40]
   + 585 u[41] + 517 u[42] + 13 u[43] + 966 u[44] + 810 u[45] + 233 u[46]
   + 681 u[47] + 46 u[48] + 375 u[49] + 678 u[50] + 431 u[51] + 452 u[52]
   + 507 u[53] + 784 u[54] + 927 u[55] + 408 u[56] + 250 u[57] + 131 u[58]
   + 841 u[59] <= 21840
 primal_lower672: 405 u[0] + 681 u[1] + 719 u[2] + 944 u[3] + 225 u[4]
   + 711 u[5] + 674 u[6] + 177 u[7] + 634 u[8] + 799 u[9] + 689 u[10]
   + 624 u[11] + 73 u[12] + 17 u[13] + 530 u[14] + 642 u[15] + 26 u[16]
   + 565 u[17] + 398 u[18] + 251 u[19] + 554 u[20] + 893 u[21] + 241 u[22]
   + 324 u[23] + 482 u[24] + 797 u[25] + 503 u[26] + 117 u[27] + 883 u[28]
   + 596 u[29] + 647 u[30] + 841 u[31] + 681 u[32] + 722 u[33] + 977 u[34]
   + 358 u[35] + 177 u[36] + 634 u[37] + 201 u[38] + 940 u[39] + 828 u[40]
   + 367 u[41] + 971 u[42] + 67 u[43] + 612 u[44] + 600 u[45] + 327 u[46]
   + 103 u[47] + 116 u[48] + 221 u[49] + 196 u[50] + 357 u[51] + 314 u[52]
   + 961 u[53] + 798 u[54] + 229 u[55] + 38 u[56] + 304 u[57] + 289 u[58]
   + 439 u[59] <= 9829
 primal_lower673: 462 u[0] + 383 u[1] + 185 u[2] + 110 u[3] + 83 u[4]
   + 260 u[5] + 140 u[6] + 646 u[7] + 836 u[8] + 221 u[9] + 322 u[10]
   + 142 u[11] + 867 u[12] + 175 u[13] + 947 u[14] + 863 u[15] + 484 u[16]
   + 907 u[17] + 840 u[18] + 817 u[19] + 508 u[20] + 266 u[21] + 963 u[22]
   + 401 u[23] + 227 u[24] + 91 u[25] + 921 u[26] + 394 u[27] + 716 u[28]
   + 626 u[29] + 424 u[30] + 942 u[31] + 706 u[32] + 200 u[33] + 643 u[34]
   + 28 u[35] + 963 u[36] + 311 u[37] + 611 u[38] + 249 u[39] + 302 u[40]
   + 452 u[41] + 941 u[42] + 232 u[43] + 846 u[44] + 413 u[45] + 24 u[46]
   + 508 u[47] + 582 u[48] + 619 u[49] + 309 u[50] + 979 u[51] + 108 u[52]
   + 543 u[53] + 7 u[54] + 18 u[55] + 264 u[56] + 245 u[57] + 267 u[58]
   + 405 u[59] <= 979
 primal_lower674: 402 u[0] + 555 u[1] + 485 u[2] + 834 u[3] + 623 u[4]
   + 24 u[5] + 688 u[6] + 418 u[7] + 496 u[8] + 505 u[9] + 862 u[10]
   + 306 u[11] + 743 u[12] + 67 u[13] + 23 u[14] + 555 u[15] + 648 u[16]
   + 775 u[17] + 980 u[18] + 477 u[19] + 432 u[20] + 358 u[21] + 87 u[22]
   + 805 u[23] + 239 u[24] + 351 u[25] + 453 u[26] + 374 u[27] + 544 u[28]
   + 926 u[29] + 396 u[30] + 162 u[31] + 238 u[32] + 700 u[33] + 247 u[34]
   + 832 u[35] + 47 u[36] + 499 u[37] + 271 u[38] + 53 u[39] + 298 u[40]
   + 80 u[41] + 185 u[42] + 572 u[43] + 138 u[44] + 233 u[45] + 44 u[46]
   + 256 u[47] + 802 u[48] + 527 u[49] + 953 u[50] + 735 u[51] + 432 u[52]
   + 787 u[53] + 867 u[54] + 94 u[55] + 156 u[56] + 881 u[57] + 231 u[58]
   + 913 u[59] <= 9221
 primal_lower675: 945 u[0] + 410 u[1] + 316 u[2] + 969 u[3] + 158 u[4]
   + 727 u[5] + 431 u[6] + 465 u[7] + 903 u[8] + 848 u[9] + 957 u[10]
   + 817 u[11] + 38 u[12] + 354 u[13] + 558 u[14] + 362 u[15] + 615 u[16]
   + 806 u[17] + 403 u[18] + 636 u[19] + 615 u[20] + 213 u[21] + 854 u[22]
   + 468 u[23] + 646 u[24] + 270 u[25] + 516 u[26] + 501 u[27] + 111 u[28]
   + 925 u[29] + 19 u[30] + 121 u[31] + 661 u[32] + 739 u[33] + 214 u[34]
   + 143 u[35] + 958 u[36] + 762 u[37] + 942 u[38] + 60 u[39] + 241 u[40]
   + 663 u[41] + 968 u[42] + 155 u[43] + 657 u[44] + 792 u[45] + 187 u[46]
   + 823 u[47] + 673 u[48] + 62 u[49] + 960 u[50] + 902 u[51] + 199 u[52]
   + 226 u[53] + 978 u[54] + 397 u[55] + 51 u[56] + 472 u[57] + 934 u[58]
   + 144 u[59] <= 10646
 primal_lower676: 630 u[0] + 247 u[1] + 729 u[2] + 982 u[3] + 971 u[4]
   + 36 u[5] + 252 u[6] + 366 u[7] + 148 u[8] + 461 u[9] + 826 u[10]
   + 350 u[11] + 51 u[12] + 71 u[13] + 747 u[14] + 799 u[15] + 76 u[16]
   + 883 u[17] + 184 u[18] + 961 u[19] + 796 u[20] + 714 u[21] + 779 u[22]
   + 353 u[23] + 155 u[24] + 19 u[25] + 817 u[26] + 122 u[27] + 732 u[28]
   + 530 u[29] + 576 u[30] + 310 u[31] + 898 u[32] + 624 u[33] + 683 u[34]
   + 764 u[35] + 691 u[36] + 223 u[37] + 539 u[38] + 697 u[39] + 798 u[40]
   + 308 u[41] + 661 u[42] + 624 u[43] + 190 u[44] + 589 u[45] + 160 u[46]
   + 212 u[47] + 70 u[48] + 763 u[49] + 125 u[50] + 35 u[51] + 724 u[52]
   + 791 u[53] + 879 u[54] + 466 u[55] + 160 u[56] + 965 u[57] + 131 u[58]
   + 445 u[59] <= 4981
 primal_lower677: 903 u[0] + 859 u[1] + 257 u[2] + 466 u[3] + 403 u[4]
   + 649 u[5] + 644 u[6] + 27 u[7] + 76 u[8] + 609 u[9] + 571 u[10]
   + 66 u[11] + 707 u[12] + 195 u[13] + 780 u[14] + 236 u[15] + 140 u[16]
   + 519 u[17] + 824 u[18] + 853 u[19] + 476 u[20] + 47 u[21] + 707 u[22]
   + 366 u[23] + 268 u[24] + 39 u[25] + 705 u[26] + 183 u[27] + 357 u[28]
   + 886 u[29] + 665 u[30] + 67 u[31] + 595 u[32] + 604 u[33] + 283 u[34]
   + 496 u[35] + 467 u[36] + 404 u[37] + 659 u[38] + 150 u[39] + 398 u[40]
   + 169 u[41] + 973 u[42] + 261 u[43] + 22 u[44] + 82 u[45] + 49 u[46]
   + 537 u[47] + 718 u[48] + 551 u[49] + 870 u[50] + 735 u[51] + 276 u[52]
   + 675 u[53] + 840 u[54] + 175 u[55] + 448 u[56] + 906 u[57] + 147 u[58]
   + 249 u[59] <= 4548
 primal_lower678: 585 u[0] + 157 u[1] + 555 u[2] + 452 u[3] + 701 u[4]
   + 843 u[5] + 718 u[6] + 413 u[7] + 734 u[8] + 995 u[9] + 69 u[10]
   + 692 u[11] + 533 u[12] + 461 u[13] + 142 u[14] + 982 u[15] + 542 u[16]
   + 201 u[17] + 34 u[18] + 135 u[19] + 622 u[20] + 113 u[21] + 573 u[22]
   + 120 u[23] + 86 u[24] + 281 u[25] + 395 u[26] + 889 u[27] + 807 u[28]
   + 720 u[29] + 315 u[30] + 109 u[31] + 725 u[32] + 790 u[33] + 453 u[34]
   + 234 u[35] + 117 u[36] + 78 u[37] + 677 u[38] + 288 u[39] + 344 u[40]
   + 907 u[41] + 815 u[42] + 711 u[43] + 544 u[44] + 780 u[45] + 187 u[46]
   + 755 u[47] + 272 u[48] + 777 u[49] + 504 u[50] + 929 u[51] + 206 u[52]
   + 653 u[53] + 738 u[54] + 17 u[55] + 58 u[56] + 644 u[57] + 613 u[58]
   + 387 u[59] <= 9725
 primal_lower679: 531 u[0] + 908 u[1] + 214 u[2] + 267 u[3] + 656 u[4]
   + 361 u[5] + 105 u[6] + 187 u[7] + 241 u[8] + 162 u[9] + 7 u[10]
   + 619 u[11] + 536 u[12] + 644 u[13] + 864 u[14] + 932 u[15] + 601 u[16]
   + 744 u[17] + 189 u[18] + 590 u[19] + 993 u[20] + 919 u[21] + 952 u[22]
   + 950 u[23] + 328 u[24] + 976 u[25] + 462 u[26] + 423 u[27] + 617 u[28]
   + 759 u[29] + 389 u[30] + 899 u[31] + 319 u[32] + 229 u[33] + 872 u[34]
   + 761 u[35] + 720 u[36] + 716 u[37] + 96 u[38] + 846 u[39] + 851 u[40]
   + 633 u[41] + 10 u[42] + 365 u[43] + 347 u[44] + 58 u[45] + 61 u[46]
   + 17 u[47] + 955 u[48] + 808 u[49] + 58 u[50] + 136 u[51] + 857 u[52]
   + 308 u[53] + 244 u[54] + 183 u[55] + 189 u[56] + 538 u[57] + 928 u[58]
   + 122 u[59] <= 5042
 primal_lower680: 522 u[0] + 814 u[1] + 724 u[2] + 605 u[3] + 926 u[4]
   + 372 u[5] + 79 u[6] + 990 u[7] + 247 u[8] + 404 u[9] + 766 u[10]
   + 245 u[11] + 982 u[12] + 190 u[13] + 311 u[14] + 687 u[15] + 727 u[16]
   + 482 u[17] + 19 u[18] + 944 u[19] + 23 u[20] + 26 u[21] + 174 u[22]
   + 721 u[23] + 655 u[24] + 914 u[25] + 700 u[26] + 58 u[27] + 64 u[28]
   + 161 u[29] + 988 u[30] + 758 u[31] + 478 u[32] + 319 u[33] + 358 u[34]
   + 723 u[35] + 766 u[36] + 927 u[37] + 526 u[38] + 353 u[39] + 953 u[40]
   + 236 u[41] + 312 u[42] + 64 u[43] + 169 u[44] + 117 u[45] + 156 u[46]
   + 436 u[47] + 825 u[48] + 738 u[49] + 33 u[50] + 802 u[51] + 911 u[52]
   + 910 u[53] + 915 u[54] + 450 u[55] + 731 u[56] + 365 u[57] + 990 u[58]
   + 132 u[59] <= 10324
 primal_lower681: 470 u[0] + 551 u[1] + 729 u[2] + 822 u[3] + 115 u[4]
   + 228 u[5] + 948 u[6] + 286 u[7] + 572 u[8] + 877 u[9] + 434 u[10]
   + 534 u[11] + 931 u[12] + 335 u[13] + 179 u[14] + 359 u[15] + 756 u[16]
   + 715 u[17] + 856 u[18] + 241 u[19] + 268 u[20] + 394 u[21] + 387 u[22]
   + 201 u[23] + 99 u[24] + 899 u[25] + 425 u[26] + 754 u[27] + 188 u[28]
   + 922 u[29] + 144 u[30] + 838 u[31] + 506 u[32] + 832 u[33] + 187 u[34]
   + 164 u[35] + 107 u[36] + 519 u[37] + 571 u[38] + 609 u[39] + 742 u[40]
   + 132 u[41] + 965 u[42] + 312 u[43] + 142 u[44] + 829 u[45] + 520 u[46]
   + 924 u[47] + 134 u[48] + 59 u[49] + 741 u[50] + 419 u[51] + 772 u[52]
   + 431 u[53] + 783 u[54] + 682 u[55] + 432 u[56] + 53 u[57] + 707 u[58]
   + 389 u[59] <= 10040
 primal_lower682: 847 u[0] + 779 u[1] + 729 u[2] + 266 u[3] + 979 u[4]
   + 393 u[5] + 652 u[6] + 827 u[7] + 260 u[8] + 425 u[9] + 515 u[10]
   + 354 u[11] + 259 u[12] + 651 u[13] + 644 u[14] + 812 u[15] + 748 u[16]
   + 135 u[17] + 760 u[18] + 653 u[19] + 204 u[20] + 367 u[21] + 115 u[22]
   + 270 u[23] + 540 u[24] + 95 u[25] + 97 u[26] + 503 u[27] + 221 u[28]
   + 310 u[29] + 865 u[30] + 483 u[31] + 267 u[32] + 324 u[33] + 835 u[34]
   + 472 u[35] + 667 u[36] + 588 u[37] + 11 u[38] + 398 u[39] + 214 u[40]
   + 689 u[41] + 413 u[42] + 941 u[43] + 710 u[44] + 210 u[45] + 329 u[46]
   + 385 u[47] + 478 u[48] + 159 u[49] + 550 u[50] + 495 u[51] + 804 u[52]
   + 707 u[53] + 496 u[54] + 671 u[55] + 8 u[56] + 226 u[57] + 491 u[58]
   + 729 u[59] <= 19350
 primal_lower683: 794 u[0] + 947 u[1] + 165 u[2] + 74 u[3] + 751 u[4]
   + 80 u[5] + 808 u[6] + 370 u[7] + 840 u[8] + 913 u[9] + 206 u[10]
   + 162 u[11] + 407 u[12] + 163 u[13] + 279 u[14] + 267 u[15] + 472 u[16]
   + 271 u[17] + 420 u[18] + 69 u[19] + 80 u[20] + 334 u[21] + 959 u[22]
   + 613 u[23] + 623 u[24] + 223 u[25] + 477 u[26] + 470 u[27] + 904 u[28]
   + 446 u[29] + 836 u[30] + 18 u[31] + 670 u[32] + 580 u[33] + 983 u[34]
   + 952 u[35] + 335 u[36] + 83 u[37] + 575 u[38] + 37 u[39] + 850 u[40]
   + 432 u[41] + 633 u[42] + 612 u[43] + 50 u[44] + 953 u[45] + 908 u[46]
   + 384 u[47] + 850 u[48] + 223 u[49] + 457 u[50] + 663 u[51] + 712 u[52]
   + 779 u[53] + 827 u[54] + 630 u[55] + 900 u[56] + 521 u[57] + 199 u[58]
   + 337 u[59] <= 983
 primal_lower684: 168 u[0] + 729 u[1] + 395 u[2] + 480 u[3] + 877 u[4]
   + 334 u[5] + 534 u[6] + 992 u[7] + 998 u[8] + 903 u[9] + 572 u[10]
   + 632 u[11] + 221 u[12] + 249 u[13] + 53 u[14] + 561 u[15] + 270 u[16]
   + 973 u[17] + 466 u[18] + 987 u[19] + 206 u[20] + 948 u[21] + 685 u[22]
   + 763 u[23] + 341 u[24] + 925 u[25] + 395 u[26] + 444 u[27] + 398 u[28]
   + 380 u[29] + 602 u[30] + 560 u[31] + 868 u[32] + 482 u[33] + 69 u[34]
   + 238 u[35] + 293 u[36] + 33 u[37] + 205 u[38] + 843 u[39] + 88 u[40]
   + 174 u[41] + 351 u[42] + 674 u[43] + 840 u[44] + 127 u[45] + 298 u[46]
   + 702 u[47] + 728 u[48] + 389 u[49] + 951 u[50] + 709 u[51] + 254 u[52]
   + 961 u[53] + 81 u[54] + 292 u[55] + 730 u[56] + 271 u[57] + 197 u[58]
   + 719 u[59] <= 5101
 primal_lower685: 374 u[0] + 751 u[1] + 249 u[2] + 486 u[3] + 51 u[4]
   + 156 u[5] + 772 u[6] + 926 u[7] + 604 u[8] + 757 u[9] + 986 u[10]
   + 630 u[11] + 275 u[12] + 239 u[13] + 99 u[14] + 671 u[15] + 404 u[16]
   + 819 u[17] + 1000 u[18] + 97 u[19] + 28 u[20] + 490 u[21] + 715 u[22]
   + 225 u[23] + 979 u[24] + 867 u[25] + 737 u[26] + 2 u[27] + 476 u[28]
   + 282 u[29] + 504 u[30] + 582 u[31] + 858 u[32] + 800 u[33] + 155 u[34]
   + 716 u[35] + 539 u[36] + 799 u[37] + 19 u[38] + 961 u[39] + 502 u[40]
   + 980 u[41] + 997 u[42] + 192 u[43] + 862 u[44] + 349 u[45] + 96 u[46]
   + 316 u[47] + 518 u[48] + 123 u[49] + 861 u[50] + 51 u[51] + 4 u[52]
   + 215 u[53] + 479 u[54] + 922 u[55] + 56 u[56] + 845 u[57] + 299 u[58]
   + 285 u[59] <= 1000
 primal_lower686: 883 u[0] + 455 u[1] + 269 u[2] + 230 u[3] + 551 u[4]
   + 509 u[5] + 768 u[6] + 367 u[7] + 880 u[8] + 885 u[9] + 863 u[10]
   + 934 u[11] + 911 u[12] + 223 u[13] + 344 u[14] + 288 u[15] + 528 u[16]
   + 227 u[17] + 748 u[18] + 145 u[19] + 80 u[20] + 123 u[21] + 727 u[22]
   + 866 u[23] + 400 u[24] + 579 u[25] + 325 u[26] + 899 u[27] + 177 u[28]
   + 386 u[29] + 101 u[30] + 655 u[31] + 735 u[32] + 552 u[33] + 415 u[34]
   + 748 u[35] + 399 u[36] + 816 u[37] + 167 u[38] + 82 u[39] + 610 u[40]
   + 389 u[41] + 593 u[42] + 881 u[43] + 922 u[44] + 294 u[45] + 277 u[46]
   + 501 u[47] + 730 u[48] + 731 u[49] + 706 u[50] + 443 u[51] + 136 u[52]
   + 807 u[53] + 580 u[54] + 851 u[55] + 772 u[56] + 414 u[57] + 967 u[58]
   + 69 u[59] <= 21275
 primal_lower687: 90 u[0] + 902 u[1] + 740 u[2] + 741 u[3] + 62 u[4]
   + 884 u[5] + 87 u[6] + 134 u[7] + 863 u[8] + 204 u[9] + 838 u[10]
   + 253 u[11] + 22 u[12] + 614 u[13] + 79 u[14] + 103 u[15] + 935 u[16]
   + 42 u[17] + 923 u[18] + 736 u[19] + 375 u[20] + 714 u[21] + 326 u[22]
   + 217 u[23] + 239 u[24] + 690 u[25] + 916 u[26] + 794 u[27] + 912 u[28]
   + 361 u[29] + 124 u[30] + 302 u[31] + 278 u[32] + 927 u[33] + 942 u[34]
   + 699 u[35] + 518 u[36] + 239 u[37] + 54 u[38] + 97 u[39] + 457 u[40]
   + 596 u[41] + 688 u[42] + 944 u[43] + 673 u[44] + 533 u[45] + 284 u[46]
   + 956 u[47] + 969 u[48] + 218 u[49] + 345 u[50] + 906 u[51] + 279 u[52]
   + 862 u[53] + 283 u[54] + 450 u[55] + 355 u[56] + 565 u[57] + 670 u[58]
   + 844 u[59] <= 10284
 primal_lower688: 568 u[0] + 65 u[1] + 875 u[2] + 920 u[3] + 581 u[4]
   + 798 u[5] + 558 u[6] + 704 u[7] + 174 u[8] + 711 u[9] + 692 u[10]
   + 800 u[11] + 413 u[12] + 457 u[13] + 869 u[14] + 185 u[15] + 422 u[16]
   + 245 u[17] + 994 u[18] + 299 u[19] + 414 u[20] + 452 u[21] + 245 u[22]
   + 563 u[23] + 589 u[24] + 485 u[25] + 163 u[26] + 860 u[27] + 422 u[28]
   + 332 u[29] + 98 u[30] + 656 u[31] + 204 u[32] + 554 u[33] + 173 u[34]
   + 118 u[35] + 949 u[36] + 769 u[37] + 653 u[38] + 715 u[39] + 264 u[40]
   + 790 u[41] + 463 u[42] + 730 u[43] + 768 u[44] + 143 u[45] + 338 u[46]
   + 622 u[47] + 544 u[48] + 349 u[49] + 247 u[50] + 77 u[51] + 966 u[52]
   + 561 u[53] + 881 u[54] + 628 u[55] + 346 u[56] + 663 u[57] + 381 u[58]
   + 951 u[59] <= 20970
 primal_lower689: 317 u[0] + 686 u[1] + 488 u[2] + 205 u[3] + 18 u[4]
   + 683 u[5] + 747 u[6] + 789 u[7] + 595 u[8] + 380 u[9] + 425 u[10]
   + 53 u[11] + 10 u[12] + 942 u[13] + 82 u[14] + 958 u[15] + 699 u[16]
   + 458 u[17] + 455 u[18] + 128 u[19] + 851 u[20] + 969 u[21] + 730 u[22]
   + 888 u[23] + 866 u[24] + 250 u[25] + 968 u[26] + 713 u[27] + 667 u[28]
   + 857 u[29] + 215 u[30] + 789 u[31] + 377 u[32] + 967 u[33] + 754 u[34]
   + 299 u[35] + 970 u[36] + 638 u[37] + 762 u[38] + 224 u[39] + 637 u[40]
   + 315 u[41] + 4 u[42] + 495 u[43] + 85 u[44] + 436 u[45] + 431 u[46]
   + 827 u[47] + 93 u[48] + 754 u[49] + 444 u[50] + 770 u[51] + 459 u[52]
   + 30 u[53] + 334 u[54] + 985 u[55] + 31 u[56] + 252 u[57] + 346 u[58]
   + 884 u[59] <= 985
 primal_lower690: 279 u[0] + 451 u[1] + 169 u[2] + 26 u[3] + 443 u[4]
   + 929 u[5] + 908 u[6] + 235 u[7] + 572 u[8] + 113 u[9] + 195 u[10]
   + 754 u[11] + 507 u[12] + 651 u[13] + 844 u[14] + 372 u[15] + 380 u[16]
   + 959 u[17] + 640 u[18] + 477 u[19] + 636 u[20] + 975 u[21] + 891 u[22]
   + 310 u[23] + 884 u[24] + 559 u[25] + 729 u[26] + 943 u[27] + 981 u[28]
   + 478 u[29] + 705 u[30] + 595 u[31] + 619 u[32] + 260 u[33] + 859 u[34]
   + 552 u[35] + 3 u[36] + 956 u[37] + 947 u[38] + 174 u[39] + 454 u[40]
   + 497 u[41] + 445 u[42] + 421 u[43] + 326 u[44] + 562 u[45] + 825 u[46]
   + 273 u[47] + 22 u[48] + 623 u[49] + 174 u[50] + 471 u[51] + 868 u[52]
   + 747 u[53] + 296 u[54] + 503 u[55] + 824 u[56] + 730 u[57] + 907 u[58]
   + 217 u[59] <= 16572
 primal_lower691: 58 u[0] + 462 u[1] + 148 u[2] + 493 u[3] + 910 u[4]
   + 764 u[5] + 455 u[6] + 710 u[7] + 127 u[8] + 980 u[9] + 726 u[10]
   + 821 u[11] + 214 u[12] + 902 u[13] + 407 u[14] + 287 u[15] + 591 u[16]
   + 26 u[17] + 923 u[18] + 880 u[19] + 503 u[20] + 882 u[21] + 86 u[22]
   + 201 u[23] + 311 u[24] + 314 u[25] + 788 u[26] + 490 u[27] + 808 u[28]
   + 441 u[29] + 324 u[30] + 446 u[31] + 102 u[32] + 695 u[33] + 654 u[34]
   + 51 u[35] + 334 u[36] + 879 u[37] + 958 u[38] + 137 u[39] + 9 u[40]
   + 100 u[41] + 760 u[42] + 792 u[43] + 961 u[44] + 925 u[45] + 124 u[46]
   + 212 u[47] + 305 u[48] + 546 u[49] + 825 u[50] + 730 u[51] + 607 u[52]
   + 590 u[53] + 403 u[54] + 642 u[55] + 475 u[56] + 757 u[57] + 534 u[58]
   + 804 u[59] <= 15694
 primal_lower692: 45 u[0] + 494 u[1] + 872 u[2] + 957 u[3] + 210 u[4]
   + 883 u[5] + 427 u[6] + 525 u[7] + 227 u[8] + 924 u[9] + 417 u[10]
   + 173 u[11] + 122 u[12] + 198 u[13] + 338 u[14] + 326 u[15] + 307 u[16]
   + 994 u[17] + 911 u[18] + 640 u[19] + 243 u[20] + 233 u[21] + 2 u[22]
   + 672 u[23] + 138 u[24] + 218 u[25] + 152 u[26] + 729 u[27] + 851 u[28]
   + 193 u[29] + 199 u[30] + 573 u[31] + 897 u[32] + 903 u[33] + 626 u[34]
   + 443 u[35] + 762 u[36] + 910 u[37] + 834 u[38] + 392 u[39] + 421 u[40]
   + 459 u[41] + 372 u[42] + 911 u[43] + 981 u[44] + 36 u[45] + 983 u[46]
   + 123 u[47] + 733 u[48] + 658 u[49] + 364 u[50] + 546 u[51] + 371 u[52]
   + 750 u[53] + 118 u[54] + 545 u[55] + 855 u[56] + 396 u[57] + 402 u[58]
   + 52 u[59] <= 10012
 primal_lower693: 586 u[0] + 59 u[1] + 933 u[2] + 922 u[3] + 223 u[4]
   + 656 u[5] + 352 u[6] + 706 u[7] + 152 u[8] + 921 u[9] + 950 u[10]
   + 666 u[11] + 199 u[12] + 155 u[13] + 519 u[14] + 435 u[15] + 320 u[16]
   + 247 u[17] + 132 u[18] + 133 u[19] + 768 u[20] + 134 u[21] + 359 u[22]
   + 229 u[23] + 503 u[24] + 799 u[25] + 997 u[26] + 230 u[27] + 504 u[28]
   + 462 u[29] + 500 u[30] + 50 u[31] + 182 u[32] + 660 u[33] + 127 u[34]
   + 672 u[35] + 695 u[36] + 547 u[37] + 775 u[38] + 605 u[39] + 842 u[40]
   + 792 u[41] + 409 u[42] + 116 u[43] + 34 u[44] + 633 u[45] + 604 u[46]
   + 896 u[47] + 362 u[48] + 175 u[49] + 241 u[50] + 183 u[51] + 336 u[52]
   + 899 u[53] + 979 u[54] + 654 u[55] + 276 u[56] + 321 u[57] + 343 u[58]
   + 97 u[59] <= 14128
 primal_lower694: 644 u[0] + 229 u[1] + 583 u[2] + 780 u[3] + 457 u[4]
   + 458 u[5] + 658 u[6] + 324 u[7] + 338 u[8] + 499 u[9] + 376 u[10]
   + 340 u[11] + 145 u[12] + 957 u[13] + 233 u[14] + 973 u[15] + 674 u[16]
   + 841 u[17] + 262 u[18] + 863 u[19] + 538 u[20] + 264 u[21] + 257 u[22]
   + 247 u[23] + 529 u[24] + 345 u[25] + 503 u[26] + 440 u[27] + 770 u[28]
   + 176 u[29] + 206 u[30] + 236 u[31] + 904 u[32] + 174 u[33] + 137 u[34]
   + 258 u[35] + 473 u[36] + 189 u[37] + 417 u[38] + 527 u[39] + 52 u[40]
   + 330 u[41] + 907 u[42] + 286 u[43] + 620 u[44] + 915 u[45] + 150 u[46]
   + 738 u[47] + 84 u[48] + 865 u[49] + 123 u[50] + 985 u[51] + 858 u[52]
   + 773 u[53] + 901 u[54] + 176 u[55] + 886 u[56] + 107 u[57] + 169 u[58]
   + 467 u[59] <= 4769
 primal_lower695: 507 u[0] + 308 u[1] + 982 u[2] + 907 u[3] + 72 u[4]
   + 601 u[5] + 169 u[6] + 795 u[7] + 929 u[8] + 378 u[9] + 119 u[10]
   + 299 u[11] + 504 u[12] + 316 u[13] + 464 u[14] + 956 u[15] + 913 u[16]
   + 232 u[17] + 13 u[18] + 302 u[19] + 33 u[20] + 695 u[21] + 376 u[22]
   + 150 u[23] + 240 u[24] + 624 u[25] + 814 u[26] + 159 u[27] + u[28]
   + 759 u[29] + 381 u[30] + 443 u[31] + 79 u[32] + 205 u[33] + 584 u[34]
   + 617 u[35] + 400 u[36] + 972 u[37] + 344 u[38] + 526 u[39] + 259 u[40]
   + 289 u[41] + 546 u[42] + 309 u[43] + 435 u[44] + 474 u[45] + 565 u[46]
   + 97 u[47] + 931 u[48] + 424 u[49] + 946 u[50] + 832 u[51] + 297 u[52]
   + 620 u[53] + 324 u[54] + 671 u[55] + 693 u[56] + 786 u[57] + 104 u[58]
   + 106 u[59] <= 9292
 primal_lower696: 511 u[0] + 283 u[1] + 537 u[2] + 114 u[3] + 891 u[4]
   + 409 u[5] + 660 u[6] + 771 u[7] + 404 u[8] + 505 u[9] + 755 u[10]
   + 898 u[11] + 691 u[12] + 363 u[13] + 916 u[14] + 572 u[15] + 116 u[16]
   + 39 u[17] + 152 u[18] + 613 u[19] + 684 u[20] + 95 u[21] + 67 u[22]
   + 30 u[23] + 12 u[24] + 263 u[25] + 945 u[26] + 967 u[27] + 605 u[28]
   + 158 u[29] + 361 u[30] + 19 u[31] + 987 u[32] + 308 u[33] + 435 u[34]
   + 848 u[35] + 891 u[36] + 476 u[37] + 147 u[38] + 974 u[39] + 174 u[40]
   + 233 u[41] + 757 u[42] + 461 u[43] + 518 u[44] + 730 u[45] + 737 u[46]
   + 465 u[47] + 246 u[48] + 207 u[49] + 606 u[50] + 335 u[51] + 4 u[52]
   + 27 u[53] + 104 u[54] + 767 u[55] + 88 u[56] + 522 u[57] + 267 u[58]
   + 305 u[59] <= 9008
 primal_lower697: 104 u[0] + 188 u[1] + 410 u[2] + 715 u[3] + 4 u[4]
   + 34 u[5] + 429 u[6] + 188 u[7] + 733 u[8] + 490 u[9] + 748 u[10]
   + 611 u[11] + 452 u[12] + 180 u[13] + 413 u[14] + 421 u[15] + 877 u[16]
   + 688 u[17] + 969 u[18] + 302 u[19] + 453 u[20] + 336 u[21] + 28 u[22]
   + 175 u[23] + 205 u[24] + 728 u[25] + 50 u[26] + 520 u[27] + 142 u[28]
   + 855 u[29] + 266 u[30] + 956 u[31] + 12 u[32] + 173 u[33] + 148 u[34]
   + 833 u[35] + 932 u[36] + 541 u[37] + 780 u[38] + 503 u[39] + 71 u[40]
   + 730 u[41] + 390 u[42] + 174 u[43] + 871 u[44] + 443 u[45] + 322 u[46]
   + 586 u[47] + 335 u[48] + 752 u[49] + 143 u[50] + 176 u[51] + 373 u[52]
   + 932 u[53] + 801 u[54] + 944 u[55] + 777 u[56] + 619 u[57] + 884 u[58]
   + 426 u[59] <= 969
 primal_lower698: 25 u[0] + 157 u[1] + 211 u[2] + 388 u[3] + 765 u[4]
   + 459 u[5] + 278 u[6] + 445 u[7] + 478 u[8] + 67 u[9] + 805 u[10]
   + 692 u[11] + 437 u[12] + 261 u[13] + 262 u[14] + 478 u[15] + 950 u[16]
   + 393 u[17] + 746 u[18] + 839 u[19] + 254 u[20] + 761 u[21] + 197 u[22]
   + 160 u[23] + 542 u[24] + 577 u[25] + 883 u[26] + 897 u[27] + 639 u[28]
   + 864 u[29] + 131 u[30] + 733 u[31] + 341 u[32] + 238 u[33] + 341 u[34]
   + 794 u[35] + 237 u[36] + 742 u[37] + 13 u[38] + 280 u[39] + 280 u[40]
   + 755 u[41] + 343 u[42] + 615 u[43] + 512 u[44] + 372 u[45] + 651 u[46]
   + 515 u[47] + 848 u[48] + 609 u[49] + 96 u[50] + 953 u[51] + 526 u[52]
   + 637 u[53] + 578 u[54] + 609 u[55] + 570 u[56] + 860 u[57] + 429 u[58]
   + 979 u[59] <= 10165
 primal_lower699: 881 u[0] + 29 u[1] + 3 u[2] + 860 u[3] + 661 u[4]
   + 347 u[5] + 630 u[6] + 837 u[7] + 142 u[8] + 971 u[9] + 885 u[10]
   + 4 u[11] + 861 u[12] + 541 u[13] + 414 u[14] + 470 u[15] + 534 u[16]
   + 889 u[17] + 530 u[18] + 215 u[19] + 494 u[20] + 321 u[21] + 621 u[22]
   + 80 u[23] + 558 u[24] + 97 u[25] + 331 u[26] + 977 u[27] + 455 u[28]
   + 888 u[29] + 939 u[30] + 325 u[31] + 269 u[32] + 118 u[33] + 421 u[34]
   + 890 u[35] + 429 u[36] + 358 u[37] + 765 u[38] + 576 u[39] + 864 u[40]
   + 579 u[41] + 479 u[42] + 191 u[43] + 936 u[44] + 124 u[45] + 875 u[46]
   + 547 u[47] + 760 u[48] + 929 u[49] + 72 u[50] + 169 u[51] + 526 u[52]
   + 253 u[53] + 770 u[54] + 337 u[55] + 242 u[56] + 108 u[57] + 581 u[58]
   + 163 u[59] <= 15060
 primal_lower700: 134 u[0] + 495 u[1] + 649 u[2] + 638 u[3] + 683 u[4]
   + 68 u[5] + 420 u[6] + 46 u[7] + 444 u[8] + 373 u[9] + 730 u[10]
   + 646 u[11] + 467 u[12] + 575 u[13] + 427 u[14] + 23 u[15] + 956 u[16]
   + 267 u[17] + 976 u[18] + 289 u[19] + 460 u[20] + 362 u[21] + 611 u[22]
   + 97 u[23] + 211 u[24] + 67 u[25] + 609 u[26] + 978 u[27] + 172 u[28]
   + 546 u[29] + 912 u[30] + 606 u[31] + 450 u[32] + 176 u[33] + 563 u[34]
   + 676 u[35] + 563 u[36] + 719 u[37] + 483 u[38] + 185 u[39] + 166 u[40]
   + 316 u[41] + 773 u[42] + 928 u[43] + 958 u[44] + 277 u[45] + 840 u[46]
   + 732 u[47] + 438 u[48] + 427 u[49] + 85 u[50] + 931 u[51] + 180 u[52]
   + 631 u[53] + 839 u[54] + 226 u[55] + 472 u[56] + 669 u[57] + 851 u[58]
   + 349 u[59] <= 19893
 primal_lower701: 326 u[0] + 778 u[1] + 56 u[2] + 545 u[3] + 930 u[4]
   + 360 u[5] + 323 u[6] + 594 u[7] + 579 u[8] + 832 u[9] + 442 u[10]
   + 737 u[11] + 242 u[12] + 994 u[13] + 371 u[14] + 963 u[15] + 723 u[16]
   + 198 u[17] + 423 u[18] + 508 u[19] + 43 u[20] + 758 u[21] + 66 u[22]
   + 517 u[23] + 107 u[24] + 502 u[25] + 40 u[26] + 718 u[27] + 388 u[28]
   + 197 u[29] + 216 u[30] + 42 u[31] + 130 u[32] + 163 u[33] + 2 u[34]
   + 815 u[35] + 954 u[36] + 627 u[37] + 314 u[38] + 813 u[39] + 125 u[40]
   + 728 u[41] + 868 u[42] + 772 u[43] + 365 u[44] + 177 u[45] + 984 u[46]
   + 520 u[47] + 781 u[48] + 510 u[49] + 413 u[50] + 542 u[51] + 75 u[52]
   + 970 u[53] + 103 u[54] + 278 u[55] + 503 u[56] + 737 u[57] + 370 u[58]
   + 232 u[59] <= 14194
 primal_lower702: 829 u[0] + 113 u[1] + 583 u[2] + 248 u[3] + 537 u[4]
   + 631 u[5] + 386 u[6] + 545 u[7] + 946 u[8] + 383 u[9] + 953 u[10]
   + 496 u[11] + 241 u[12] + 801 u[13] + 738 u[14] + 706 u[15] + 338 u[16]
   + 285 u[17] + 190 u[18] + 859 u[19] + 418 u[20] + 469 u[21] + 857 u[22]
   + 292 u[23] + 674 u[24] + 69 u[25] + 151 u[26] + 485 u[27] + 355 u[28]
   + 108 u[29] + 223 u[30] + 401 u[31] + 977 u[32] + 498 u[33] + 97 u[34]
   + 414 u[35] + 713 u[36] + 786 u[37] + 817 u[38] + 740 u[39] + 124 u[40]
   + 23 u[41] + 859 u[42] + 83 u[43] + 300 u[44] + 872 u[45] + 927 u[46]
   + 735 u[47] + 36 u[48] + 221 u[49] + 236 u[50] + 549 u[51] + 490 u[52]
   + 353 u[53] + 542 u[54] + 309 u[55] + 958 u[56] + 168 u[57] + 529 u[58]
   + 599 u[59] <= 19510
 primal_lower703: 463 u[0] + 992 u[1] + 650 u[2] + 919 u[3] + 188 u[4]
   + 997 u[5] + 277 u[6] + 975 u[7] + 541 u[8] + 574 u[9] + 547 u[10]
   + 583 u[11] + 468 u[12] + 312 u[13] + 244 u[14] + 712 u[15] + 341 u[16]
   + 860 u[17] + 905 u[18] + 754 u[19] + 933 u[20] + 483 u[21] + 300 u[22]
   + 818 u[23] + 108 u[24] + 164 u[25] + 290 u[26] + 851 u[27] + 765 u[28]
   + 907 u[29] + 409 u[30] + 759 u[31] + 243 u[32] + 673 u[33] + 196 u[34]
   + 29 u[35] + 124 u[36] + 120 u[37] + 892 u[38] + 530 u[39] + 407 u[40]
   + 245 u[41] + 158 u[42] + 729 u[43] + 167 u[44] + 62 u[45] + 489 u[46]
   + 293 u[47] + 263 u[48] + 212 u[49] + 798 u[50] + 572 u[51] + 493 u[52]
   + 808 u[53] + 896 u[54] + 475 u[55] + 137 u[56] + 758 u[57] + 780 u[58]
   + 326 u[59] <= 10321
 primal_lower704: 766 u[0] + 471 u[1] + 305 u[2] + 358 u[3] + 643 u[4]
   + 12 u[5] + 196 u[6] + 294 u[7] + 452 u[8] + 381 u[9] + 218 u[10]
   + 958 u[11] + 843 u[12] + 303 u[13] + 315 u[14] + 655 u[15] + 652 u[16]
   + 619 u[17] + 824 u[18] + 737 u[19] + 716 u[20] + 794 u[21] + 347 u[22]
   + 617 u[23] + 587 u[24] + 523 u[25] + 593 u[26] + 418 u[27] + 628 u[28]
   + 370 u[29] + 872 u[30] + 934 u[31] + 346 u[32] + 104 u[33] + 243 u[34]
   + 660 u[35] + 107 u[36] + 167 u[37] + 939 u[38] + 857 u[39] + 254 u[40]
   + 52 u[41] + 197 u[42] + 24 u[43] + 78 u[44] + 461 u[45] + 792 u[46]
   + 36 u[47] + 670 u[48] + 971 u[49] + 5 u[50] + 355 u[51] + 836 u[52]
   + 703 u[53] + 447 u[54] + 18 u[55] + 968 u[56] + 45 u[57] + 395 u[58]
   + 669 u[59] <= 4800
 primal_lower705: 625 u[0] + 493 u[1] + 819 u[2] + 964 u[3] + 53 u[4]
   + 91 u[5] + 918 u[6] + 13 u[7] + 638 u[8] + 91 u[9] + 989 u[10]
   + 324 u[11] + 285 u[12] + 205 u[13] + 510 u[14] + 902 u[15] + 310 u[16]
   + 969 u[17] + 458 u[18] + 295 u[19] + 478 u[20] + 473 u[21] + 589 u[22]
   + 480 u[23] + 246 u[24] + 729 u[25] + 227 u[26] + 937 u[27] + 399 u[28]
   + 792 u[29] + 67 u[30] + 325 u[31] + 317 u[32] + 78 u[33] + 213 u[34]
   + 610 u[35] + 981 u[36] + 30 u[37] + 637 u[38] + 176 u[39] + 424 u[40]
   + 611 u[41] + 31 u[42] + 839 u[43] + 728 u[44] + 204 u[45] + 939 u[46]
   + 971 u[47] + 656 u[48] + 761 u[49] + 928 u[50] + 425 u[51] + 566 u[52]
   + 53 u[53] + 634 u[54] + 609 u[55] + 74 u[56] + 60 u[57] + 245 u[58]
   + 539 u[59] <= 14516
 primal_lower706: 740 u[0] + 661 u[1] + 983 u[2] + 84 u[3] + 369 u[4]
   + 162 u[5] + 490 u[6] + 692 u[7] + 34 u[8] + 35 u[9] + 72 u[10]
   + 812 u[11] + 713 u[12] + 581 u[13] + 97 u[14] + 565 u[15] + 50 u[16]
   + 385 u[17] + 846 u[18] + 711 u[19] + 682 u[20] + 216 u[21] + 201 u[22]
   + 359 u[23] + 97 u[24] + 569 u[25] + 527 u[26] + 952 u[27] + 82 u[28]
   + 592 u[29] + 118 u[30] + 532 u[31] + 776 u[32] + 374 u[33] + 753 u[34]
   + 842 u[35] + 465 u[36] + 221 u[37] + 745 u[38] + 983 u[39] + 948 u[40]
   + 122 u[41] + 723 u[42] + 502 u[43] + 716 u[44] + 323 u[45] + 678 u[46]
   + 266 u[47] + 236 u[48] + 313 u[49] + 483 u[50] + 833 u[51] + 642 u[52]
   + 677 u[53] + 37 u[54] + 384 u[55] + 30 u[56] + 635 u[57] + 945 u[58]
   + 147 u[59] <= 9602
 primal_lower707: 681 u[0] + 730 u[1] + 764 u[2] + 9 u[3] + 526 u[4]
   + 191 u[5] + 279 u[6] + 321 u[7] + 103 u[8] + 472 u[9] + 477 u[10]
   + 849 u[11] + 158 u[12] + 954 u[13] + 342 u[14] + 618 u[15] + 199 u[16]
   + 694 u[17] + 731 u[18] + 484 u[19] + 543 u[20] + 493 u[21] + 934 u[22]
   + 396 u[23] + 710 u[24] + 974 u[25] + 484 u[26] + 205 u[27] + 375 u[28]
   + 253 u[29] + 35 u[30] + 993 u[31] + 429 u[32] + 603 u[33] + 62 u[34]
   + 103 u[35] + 822 u[36] + 482 u[37] + 622 u[38] + 636 u[39] + 777 u[40]
   + 431 u[41] + 600 u[42] + 139 u[43] + 689 u[44] + 264 u[45] + 347 u[46]
   + 127 u[47] + 577 u[48] + 366 u[49] + 800 u[50] + 582 u[51] + 167 u[52]
   + 546 u[53] + 578 u[54] + 589 u[55] + 803 u[56] + 264 u[57] + 110 u[58]
   + 320 u[59] <= 4802
 primal_lower708: 182 u[0] + 282 u[1] + 960 u[2] + 985 u[3] + 482 u[4]
   + 72 u[5] + 331 u[6] + 186 u[7] + 971 u[8] + 152 u[9] + 578 u[10]
   + 617 u[11] + 962 u[12] + 994 u[13] + 499 u[14] + 859 u[15] + 331 u[16]
   + 534 u[17] + 935 u[18] + 780 u[19] + 187 u[20] + 366 u[21] + 762 u[22]
   + 381 u[23] + 955 u[24] + 214 u[25] + 824 u[26] + 558 u[27] + 804 u[28]
   + 997 u[29] + 104 u[30] + 866 u[31] + 282 u[32] + 211 u[33] + 858 u[34]
   + 663 u[35] + 570 u[36] + 747 u[37] + 842 u[38] + 725 u[39] + 365 u[40]
   + 192 u[41] + 660 u[42] + 444 u[43] + 605 u[44] + 857 u[45] + 312 u[46]
   + 280 u[47] + 229 u[48] + 342 u[49] + 869 u[50] + 430 u[51] + 91 u[52]
   + 274 u[53] + 743 u[54] + 454 u[55] + 135 u[56] + 305 u[57] + 890 u[58]
   + 184 u[59] <= 5378
 primal_lower709: 307 u[0] + 239 u[1] + 605 u[2] + 782 u[3] + 71 u[4]
   + 597 u[5] + 184 u[6] + 967 u[7] + 488 u[8] + 797 u[9] + 543 u[10]
   + 494 u[11] + 607 u[12] + 143 u[13] + 408 u[14] + 816 u[15] + 408 u[16]
   + 715 u[17] + 716 u[18] + 177 u[19] + 24 u[20] + 931 u[21] + 927 u[22]
   + 42 u[23] + 80 u[24] + 211 u[25] + 245 u[26] + 723 u[27] + 657 u[28]
   + 546 u[29] + 237 u[30] + 487 u[31] + 239 u[32] + 528 u[33] + 351 u[34]
   + 676 u[35] + 183 u[36] + 200 u[37] + 479 u[38] + 450 u[39] + 618 u[40]
   + 989 u[41] + 785 u[42] + 33 u[43] + 810 u[44] + 334 u[45] + 717 u[46]
   + 245 u[47] + 778 u[48] + 147 u[49] + 650 u[50] + 851 u[51] + 344 u[52]
   + 591 u[53] + 980 u[54] + 179 u[55] + 44 u[56] + 142 u[57] + 351 u[58]
   + 29 u[59] <= 989
 primal_lower710: 943 u[0] + 11 u[1] + 481 u[2] + 58 u[3] + 987 u[4]
   + 905 u[5] + 788 u[6] + 131 u[7] + 844 u[8] + 817 u[9] + 19 u[10]
   + 578 u[11] + 107 u[12] + 203 u[13] + 732 u[14] + 12 u[15] + 516 u[16]
   + 303 u[17] + 16 u[18] + 365 u[19] + 188 u[20] + 431 u[21] + 955 u[22]
   + 198 u[23] + 556 u[24] + 583 u[25] + 801 u[26] + 111 u[27] + 557 u[28]
   + 942 u[29] + 361 u[30] + 899 u[31] + 203 u[32] + 476 u[33] + 739 u[34]
   + 344 u[35] + 851 u[36] + 12 u[37] + 411 u[38] + 38 u[39] + 806 u[40]
   + 97 u[41] + 421 u[42] + 629 u[43] + 614 u[44] + 874 u[45] + 353 u[46]
   + 809 u[47] + 62 u[48] + 887 u[49] + 534 u[50] + 375 u[51] + 644 u[52]
   + 611 u[53] + 152 u[54] + 895 u[55] + 848 u[56] + 386 u[57] + 867 u[58]
   + 881 u[59] <= 10072
 primal_lower711: 12 u[0] + 224 u[1] + 934 u[2] + 983 u[3] + 40 u[4]
   + 598 u[5] + 281 u[6] + 824 u[7] + 721 u[8] + 606 u[9] + 536 u[10]
   + 711 u[11] + 856 u[12] + 40 u[13] + 857 u[14] + 249 u[15] + 233 u[16]
   + 228 u[17] + 77 u[18] + 770 u[19] + 841 u[20] + 476 u[21] + 328 u[22]
   + 819 u[23] + 689 u[24] + 324 u[25] + 902 u[26] + 796 u[27] + 58 u[28]
   + 83 u[29] + 758 u[30] + 48 u[31] + 904 u[32] + 521 u[33] + 24 u[34]
   + 437 u[35] + 656 u[36] + 89 u[37] + 1000 u[38] + 539 u[39] + 787 u[40]
   + 358 u[41] + 970 u[42] + 546 u[43] + 411 u[44] + 431 u[45] + 614 u[46]
   + 886 u[47] + 859 u[48] + 804 u[49] + 67 u[50] + 268 u[51] + 793 u[52]
   + 800 u[53] + 277 u[54] + 996 u[55] + 677 u[56] + 551 u[57] + 80 u[58]
   + 454 u[59] <= 5283
 primal_lower712: 892 u[0] + 192 u[1] + 302 u[2] + 319 u[3] + 544 u[4]
   + 942 u[5] + 513 u[6] + 64 u[7] + 521 u[8] + 286 u[9] + 952 u[10]
   + 727 u[11] + 256 u[12] + 896 u[13] + 785 u[14] + 681 u[15] + 169 u[16]
   + 172 u[17] + 125 u[18] + 634 u[19] + 737 u[20] + 300 u[21] + 1000 u[22]
   + 907 u[23] + 841 u[24] + 940 u[25] + 230 u[26] + 828 u[27] + 322 u[28]
   + 475 u[29] + 838 u[30] + 296 u[31] + 792 u[32] + 297 u[33] + 120 u[34]
   + 709 u[35] + 728 u[36] + 313 u[37] + 920 u[38] + 763 u[39] + 299 u[40]
   + 30 u[41] + 690 u[42] + 274 u[43] + 403 u[44] + 439 u[45] + 590 u[46]
   + 438 u[47] + 875 u[48] + 972 u[49] + 787 u[50] + 308 u[51] + 449 u[52]
   + 824 u[53] + 221 u[54] + 276 u[55] + 845 u[56] + 271 u[57] + 480 u[58]
   + 758 u[59] <= 10852
 primal_lower713: 73 u[0] + 149 u[1] + 67 u[2] + 516 u[3] + 181 u[4]
   + 587 u[5] + 702 u[6] + 277 u[7] + 126 u[8] + 571 u[9] + 861 u[10]
   + 204 u[11] + 941 u[12] + 581 u[13] + 510 u[14] + 798 u[15] + 726 u[16]
   + 833 u[17] + 194 u[18] + 735 u[19] + 350 u[20] + 297 u[21] + 821 u[22]
   + 912 u[23] + 846 u[24] + 641 u[25] + 595 u[26] + 641 u[27] + 95 u[28]
   + 288 u[29] + 979 u[30] + 957 u[31] + 61 u[32] + 462 u[33] + 317 u[34]
   + 282 u[35] + 165 u[36] + 774 u[37] + 797 u[38] + 296 u[39] + 640 u[40]
   + 27 u[41] + 807 u[42] + 151 u[43] + 544 u[44] + 236 u[45] + 587 u[46]
   + 387 u[47] + 368 u[48] + 497 u[49] + 320 u[50] + 65 u[51] + 310 u[52]
   + 669 u[53] + 714 u[54] + 329 u[55] + 66 u[56] + 932 u[57] + 397 u[58]
   + 195 u[59] <= 4741
 primal_lower714: 338 u[0] + 142 u[1] + 36 u[2] + 189 u[3] + 886 u[4]
   + 948 u[5] + 383 u[6] + 966 u[7] + 431 u[8] + 356 u[9] + 734 u[10]
   + 509 u[11] + 350 u[12] + 702 u[13] + 567 u[14] + 295 u[15] + 71 u[16]
   + 226 u[17] + 731 u[18] + 512 u[19] + 559 u[20] + 186 u[21] + 86 u[22]
   + 617 u[23] + 391 u[24] + 202 u[25] + 812 u[26] + 58 u[27] + 296 u[28]
   + 185 u[29] + 572 u[30] + 982 u[31] + 310 u[32] + 767 u[33] + 966 u[34]
   + 539 u[35] + 350 u[36] + 183 u[37] + 534 u[38] + 233 u[39] + 369 u[40]
   + 164 u[41] + 168 u[42] + 336 u[43] + 281 u[44] + 197 u[45] + 396 u[46]
   + 628 u[47] + 369 u[48] + 514 u[49] + 601 u[50] + 802 u[51] + 967 u[52]
   + 870 u[53] + 923 u[54] + 130 u[55] + 683 u[56] + 805 u[57] + 838 u[58]
   + 52 u[59] <= 4715
 primal_lower715: 653 u[0] + 14 u[1] + 360 u[2] + 189 u[3] + 18 u[4]
   + 979 u[5] + 739 u[6] + 605 u[7] + 451 u[8] + 620 u[9] + 241 u[10]
   + 245 u[11] + 74 u[12] + 710 u[13] + 346 u[14] + 366 u[15] + 219 u[16]
   + 618 u[17] + 111 u[18] + 576 u[19] + 771 u[20] + 441 u[21] + 250 u[22]
   + 744 u[23] + 602 u[24] + 322 u[25] + 448 u[26] + 137 u[27] + 899 u[28]
   + 737 u[29] + 47 u[30] + 565 u[31] + 257 u[32] + 863 u[33] + 930 u[34]
   + 59 u[35] + 490 u[36] + 54 u[37] + 450 u[38] + 976 u[39] + 925 u[40]
   + 219 u[41] + 572 u[42] + 719 u[43] + 837 u[44] + 348 u[45] + 855 u[46]
   + 995 u[47] + 85 u[48] + 866 u[49] + 284 u[50] + 354 u[51] + 915 u[52]
   + 270 u[53] + 174 u[54] + 617 u[55] + 311 u[56] + 492 u[57] + 210 u[58]
   + 660 u[59] <= 14442
 primal_lower716: 267 u[0] + 612 u[1] + 270 u[2] + 91 u[3] + 48 u[4]
   + 689 u[5] + 353 u[6] + 99 u[7] + 41 u[8] + 578 u[9] + 999 u[10]
   + 939 u[11] + 592 u[12] + 124 u[13] + 8 u[14] + 404 u[15] + 633 u[16]
   + 32 u[17] + 453 u[18] + 406 u[19] + 561 u[20] + 519 u[21] + 1000 u[22]
   + 886 u[23] + 832 u[24] + 824 u[25] + 350 u[26] + 183 u[27] + 289 u[28]
   + 439 u[29] + 517 u[30] + 43 u[31] + 639 u[32] + 413 u[33] + 216 u[34]
   + 441 u[35] + 1000 u[36] + 580 u[37] + 32 u[38] + 750 u[39] + 459 u[40]
   + 985 u[41] + 666 u[42] + 757 u[43] + 715 u[44] + 666 u[45] + 205 u[46]
   + 785 u[47] + 315 u[48] + 216 u[49] + 882 u[50] + 40 u[51] + 457 u[52]
   + 156 u[53] + 236 u[54] + 527 u[55] + 957 u[56] + 98 u[57] + 480 u[58]
   + 402 u[59] <= 14078
 primal_lower717: 247 u[0] + 859 u[1] + 57 u[2] + 10 u[3] + 147 u[4]
   + 705 u[5] + 108 u[6] + 139 u[7] + 196 u[8] + 657 u[9] + 859 u[10]
   + 994 u[11] + 563 u[12] + 755 u[13] + 68 u[14] + 972 u[15] + 332 u[16]
   + 591 u[17] + 976 u[18] + 901 u[19] + 372 u[20] + 255 u[21] + 459 u[22]
   + 758 u[23] + 36 u[24] + 63 u[25] + 321 u[26] + 311 u[27] + 269 u[28]
   + 54 u[29] + 785 u[30] + 547 u[31] + 187 u[32] + 116 u[33] + 947 u[34]
   + 224 u[35] + 891 u[36] + 356 u[37] + 203 u[38] + 166 u[39] + 694 u[40]
   + 57 u[41] + 277 u[42] + 589 u[43] + 774 u[44] + 498 u[45] + 553 u[46]
   + 553 u[47] + 646 u[48] + 183 u[49] + 166 u[50] + 831 u[51] + 996 u[52]
   + 763 u[53] + 568 u[54] + 727 u[55] + 184 u[56] + 890 u[57] + 91 u[58]
   + 153 u[59] <= 13824
 primal_lower718: 776 u[0] + 337 u[1] + 715 u[2] + 48 u[3] + 941 u[4]
   + 278 u[5] + 414 u[6] + 40 u[7] + 654 u[8] + 495 u[9] + 228 u[10]
   + 584 u[11] + 557 u[12] + 153 u[13] + 797 u[14] + 41 u[15] + 638 u[16]
   + 669 u[17] + 26 u[18] + 395 u[19] + 366 u[20] + 972 u[21] + 813 u[22]
   + 955 u[23] + 957 u[24] + 53 u[25] + 563 u[26] + 348 u[27] + 38 u[28]
   + 668 u[29] + 354 u[30] + 896 u[31] + 436 u[32] + 794 u[33] + 525 u[34]
   + 118 u[35] + 5 u[36] + 449 u[37] + 901 u[38] + 859 u[39] + 536 u[40]
   + 822 u[41] + 711 u[42] + 634 u[43] + 928 u[44] + 407 u[45] + 626 u[46]
   + 382 u[47] + 488 u[48] + 693 u[49] + 447 u[50] + 973 u[51] + 974 u[52]
   + 777 u[53] + 121 u[54] + 564 u[55] + 986 u[56] + 823 u[57] + 421 u[58]
   + 487 u[59] <= 5442
 primal_lower719: 515 u[0] + 412 u[1] + 454 u[2] + 571 u[3] + 216 u[4]
   + 121 u[5] + 185 u[6] + 923 u[7] + 73 u[8] + 314 u[9] + 839 u[10]
   + 435 u[11] + 816 u[12] + 684 u[13] + 712 u[14] + 500 u[15] + 745 u[16]
   + 568 u[17] + 533 u[18] + 286 u[19] + 33 u[20] + 943 u[21] + 488 u[22]
   + 342 u[23] + 344 u[24] + 336 u[25] + 910 u[26] + 687 u[27] + 265 u[28]
   + 679 u[29] + 693 u[30] + 491 u[31] + 447 u[32] + 85 u[33] + 464 u[34]
   + 337 u[35] + 600 u[36] + 212 u[37] + 736 u[38] + 78 u[39] + 523 u[40]
   + 913 u[41] + 490 u[42] + 861 u[43] + 507 u[44] + 594 u[45] + 405 u[46]
   + 537 u[47] + 179 u[48] + 808 u[49] + 658 u[50] + 456 u[51] + 937 u[52]
   + 284 u[53] + 236 u[54] + 759 u[55] + 517 u[56] + 826 u[57] + 88 u[58]
   + 34 u[59] <= 9894
 primal_lower720: 54 u[0] + 391 u[1] + 577 u[2] + 702 u[3] + 771 u[4]
   + 620 u[5] + 668 u[6] + 398 u[7] + 756 u[8] + 53 u[9] + 450 u[10]
   + 982 u[11] + 251 u[12] + 511 u[13] + 275 u[14] + 159 u[15] + 260 u[16]
   + 115 u[17] + 912 u[18] + 585 u[19] + 340 u[20] + 130 u[21] + 507 u[22]
   + 913 u[23] + 819 u[24] + 411 u[25] + 409 u[26] + 58 u[27] + 596 u[28]
   + 962 u[29] + 384 u[30] + 830 u[31] + 418 u[32] + 528 u[33] + 651 u[34]
   + 364 u[35] + 731 u[36] + 303 u[37] + 27 u[38] + 929 u[39] + 558 u[40]
   + 268 u[41] + 941 u[42] + 32 u[43] + 518 u[44] + 5 u[45] + 960 u[46]
   + 708 u[47] + 358 u[48] + 211 u[49] + 173 u[50] + 211 u[51] + 84 u[52]
   + 823 u[53] + 23 u[54] + 66 u[55] + 72 u[56] + 541 u[57] + 683 u[58]
   + 861 u[59] <= 4649
 primal_lower721: 102 u[0] + 943 u[1] + 129 u[2] + 862 u[3] + 531 u[4]
   + 924 u[5] + 820 u[6] + 222 u[7] + 676 u[8] + 141 u[9] + 450 u[10]
   + 118 u[11] + 651 u[12] + 303 u[13] + 931 u[14] + 575 u[15] + 204 u[16]
   + 907 u[17] + 824 u[18] + 393 u[19] + 724 u[20] + 618 u[21] + 51 u[22]
   + 529 u[23] + 675 u[24] + 475 u[25] + 169 u[26] + 42 u[27] + 452 u[28]
   + 610 u[29] + 768 u[30] + 822 u[31] + 106 u[32] + 392 u[33] + 851 u[34]
   + 908 u[35] + 427 u[36] + 23 u[37] + 35 u[38] + 945 u[39] + 262 u[40]
   + 900 u[41] + 749 u[42] + 280 u[43] + 734 u[44] + 133 u[45] + 600 u[46]
   + 660 u[47] + 150 u[48] + 587 u[49] + 917 u[50] + 459 u[51] + 44 u[52]
   + 783 u[53] + 519 u[54] + 338 u[55] + 800 u[56] + 101 u[57] + 475 u[58]
   + 693 u[59] <= 945
 primal_lower722: 204 u[0] + 856 u[1] + 950 u[2] + 735 u[3] + 336 u[4]
   + 926 u[5] + 553 u[6] + 672 u[7] + 505 u[8] + 262 u[9] + 680 u[10]
   + 423 u[11] + 56 u[12] + 664 u[13] + 497 u[14] + 481 u[15] + 689 u[16]
   + 500 u[17] + 733 u[18] + 978 u[19] + 409 u[20] + 212 u[21] + 536 u[22]
   + 59 u[23] + 513 u[24] + 60 u[25] + 790 u[26] + 124 u[27] + 306 u[28]
   + 619 u[29] + 422 u[30] + 760 u[31] + 176 u[32] + 753 u[33] + 56 u[34]
   + 45 u[35] + 472 u[36] + 633 u[37] + 976 u[38] + 683 u[39] + 915 u[40]
   + 918 u[41] + 74 u[42] + 178 u[43] + 467 u[44] + 519 u[45] + 638 u[46]
   + 486 u[47] + 75 u[48] + 100 u[49] + 947 u[50] + 988 u[51] + 817 u[52]
   + 664 u[53] + 949 u[54] + 524 u[55] + 997 u[56] + 527 u[57] + 1000 u[58]
   + 406 u[59] <= 16246
 primal_lower723: 90 u[0] + 211 u[1] + 453 u[2] + 186 u[3] + 231 u[4]
   + 160 u[5] + 224 u[6] + 50 u[7] + 552 u[8] + 841 u[9] + 214 u[10]
   + 914 u[11] + 647 u[12] + 315 u[13] + 519 u[14] + 147 u[15] + 72 u[16]
   + 527 u[17] + 244 u[18] + 477 u[19] + 112 u[20] + 430 u[21] + 111 u[22]
   + 565 u[23] + 839 u[24] + 775 u[25] + 733 u[26] + 462 u[27] + 144 u[28]
   + 398 u[29] + 684 u[30] + 114 u[31] + 958 u[32] + 956 u[33] + 663 u[34]
   + 128 u[35] + 263 u[36] + 971 u[37] + 591 u[38] + 141 u[39] + 674 u[40]
   + 104 u[41] + 105 u[42] + 812 u[43] + 634 u[44] + 41 u[45] + 292 u[46]
   + 280 u[47] + 98 u[48] + 95 u[49] + 209 u[50] + 871 u[51] + 976 u[52]
   + 763 u[53] + 339 u[54] + 934 u[55] + 388 u[56] + 353 u[57] + 567 u[58]
   + 449 u[59] <= 13048
 primal_lower724: 264 u[0] + 68 u[1] + 450 u[2] + 987 u[3] + 628 u[4]
   + 834 u[5] + 597 u[6] + 764 u[7] + 637 u[8] + 770 u[9] + 612 u[10]
   + 547 u[11] + 116 u[12] + 652 u[13] + 589 u[14] + 813 u[15] + 781 u[16]
   + 840 u[17] + 337 u[18] + 478 u[19] + 125 u[20] + 632 u[21] + 380 u[22]
   + 855 u[23] + 941 u[24] + 944 u[25] + 370 u[26] + 8 u[27] + 78 u[28]
   + 479 u[29] + 562 u[30] + 812 u[31] + 196 u[32] + 381 u[33] + 756 u[34]
   + 961 u[35] + 804 u[36] + 589 u[37] + 764 u[38] + 591 u[39] + 799 u[40]
   + 682 u[41] + 854 u[42] + 438 u[43] + 511 u[44] + 835 u[45] + 602 u[46]
   + 202 u[47] + 311 u[48] + 488 u[49] + 479 u[50] + 648 u[51] + 125 u[52]
   + 564 u[53] + 481 u[54] + 600 u[55] + 121 u[56] + 659 u[57] + 220 u[58]
   + 194 u[59] <= 16402
 primal_lower725: 986 u[0] + 579 u[1] + 181 u[2] + 634 u[3] + 47 u[4]
   + 408 u[5] + 80 u[6] + 26 u[7] + 624 u[8] + 569 u[9] + 350 u[10]
   + 66 u[11] + 607 u[12] + 787 u[13] + 727 u[14] + 499 u[15] + 736 u[16]
   + 351 u[17] + 268 u[18] + 277 u[19] + 648 u[20] + 70 u[21] + 975 u[22]
   + 853 u[23] + 447 u[24] + 767 u[25] + 365 u[26] + 798 u[27] + 152 u[28]
   + 982 u[29] + 500 u[30] + 538 u[31] + 134 u[32] + 620 u[33] + 823 u[34]
   + 560 u[35] + 151 u[36] + 627 u[37] + 743 u[38] + 181 u[39] + 978 u[40]
   + 992 u[41] + 929 u[42] + 244 u[43] + 106 u[44] + 41 u[45] + 932 u[46]
   + 176 u[47] + 66 u[48] + 519 u[49] + 337 u[50] + 191 u[51] + 736 u[52]
   + 835 u[53] + 691 u[54] + 158 u[55] + 412 u[56] + 305 u[57] + 119 u[58]
   + 289 u[59] <= 9597
 primal_lower726: 200 u[0] + 604 u[1] + 202 u[2] + 619 u[3] + 780 u[4]
   + 538 u[5] + 429 u[6] + 796 u[7] + 453 u[8] + 770 u[9] + 724 u[10]
   + 147 u[11] + 844 u[12] + 468 u[13] + 109 u[14] + 573 u[15] + 37 u[16]
   + 840 u[17] + 649 u[18] + 662 u[19] + 581 u[20] + 376 u[21] + 828 u[22]
   + 631 u[23] + 901 u[24] + 312 u[25] + 490 u[26] + 248 u[27] + 870 u[28]
   + 695 u[29] + 626 u[30] + 756 u[31] + 932 u[32] + 741 u[33] + 164 u[34]
   + 233 u[35] + 404 u[36] + 309 u[37] + 388 u[38] + 143 u[39] + 335 u[40]
   + 914 u[41] + 166 u[42] + 814 u[43] + 367 u[44] + 931 u[45] + 602 u[46]
   + 146 u[47] + 959 u[48] + 320 u[49] + 695 u[50] + 912 u[51] + 205 u[52]
   + 108 u[53] + 849 u[54] + 848 u[55] + 233 u[56] + 715 u[57] + 172 u[58]
   + 290 u[59] <= 959
 primal_lower727: 858 u[0] + 763 u[1] + 693 u[2] + 882 u[3] + 807 u[4]
   + 544 u[5] + 872 u[6] + 378 u[7] + 320 u[8] + 433 u[9] + 126 u[10]
   + 250 u[11] + 207 u[12] + 291 u[13] + 615 u[14] + 971 u[15] + 784 u[16]
   + 39 u[17] + 476 u[18] + 309 u[19] + 704 u[20] + 630 u[21] + 903 u[22]
   + 853 u[23] + 151 u[24] + 215 u[25] + 437 u[26] + 686 u[27] + 928 u[28]
   + 70 u[29] + 140 u[30] + 154 u[31] + 142 u[32] + 228 u[33] + 391 u[34]
   + 552 u[35] + 983 u[36] + 595 u[37] + 839 u[38] + 53 u[39] + 26 u[40]
   + 760 u[41] + 817 u[42] + 372 u[43] + 586 u[44] + 817 u[45] + 364 u[46]
   + 552 u[47] + 330 u[48] + 807 u[49] + 953 u[50] + 423 u[51] + 664 u[52]
   + 819 u[53] + 923 u[54] + 630 u[55] + 332 u[56] + 329 u[57] + 391 u[58]
   + 849 u[59] <= 10672
 primal_lower728: 190 u[0] + 543 u[1] + 849 u[2] + 494 u[3] + 675 u[4]
   + 436 u[5] + 908 u[6] + 422 u[7] + 956 u[8] + 285 u[9] + 538 u[10]
   + 566 u[11] + 699 u[12] + 567 u[13] + 59 u[14] + 887 u[15] + 660 u[16]
   + 211 u[17] + 664 u[18] + 753 u[19] + 980 u[20] + 762 u[21] + 627 u[22]
   + 393 u[23] + 987 u[24] + 227 u[25] + 569 u[26] + 674 u[27] + 716 u[28]
   + 610 u[29] + 968 u[30] + 806 u[31] + 434 u[32] + 336 u[33] + 331 u[34]
   + 852 u[35] + 3 u[36] + 623 u[37] + 571 u[38] + 985 u[39] + 798 u[40]
   + 156 u[41] + 805 u[42] + 976 u[43] + 326 u[44] + 973 u[45] + 224 u[46]
   + 724 u[47] + 350 u[48] + 939 u[49] + 133 u[50] + 779 u[51] + 860 u[52]
   + 655 u[53] + 447 u[54] + 826 u[55] + 248 u[56] + 253 u[57] + 275 u[58]
   + 181 u[59] <= 5790
 primal_lower729: 341 u[0] + 937 u[1] + 223 u[2] + 72 u[3] + 289 u[4]
   + 703 u[5] + 538 u[6] + 185 u[7] + 610 u[8] + 111 u[9] + 689 u[10]
   + 672 u[11] + 289 u[12] + 945 u[13] + 762 u[14] + 938 u[15] + 762 u[16]
   + 285 u[17] + 798 u[18] + 803 u[19] + 546 u[20] + 501 u[21] + 649 u[22]
   + 164 u[23] + 42 u[24] + 997 u[25] + 831 u[26] + 613 u[27] + 675 u[28]
   + 332 u[29] + 695 u[30] + 169 u[31] + 657 u[32] + 410 u[33] + 929 u[34]
   + 838 u[35] + 377 u[36] + 938 u[37] + 489 u[38] + 732 u[39] + 156 u[40]
   + 127 u[41] + 99 u[42] + 691 u[43] + 708 u[44] + 592 u[45] + 887 u[46]
   + 967 u[47] + 708 u[48] + 853 u[49] + 852 u[50] + 749 u[51] + 586 u[52]
   + 873 u[53] + 790 u[54] + 125 u[55] + 526 u[56] + 944 u[57] + 833 u[58]
   + 79 u[59] <= 11560
 primal_lower730: 92 u[0] + 949 u[1] + 103 u[2] + 404 u[3] + 833 u[4]
   + 730 u[5] + 834 u[6] + 236 u[7] + 626 u[8] + 715 u[9] + 360 u[10]
   + 188 u[11] + 425 u[12] + 437 u[13] + 49 u[14] + 797 u[15] + 274 u[16]
   + 777 u[17] + 942 u[18] + 391 u[19] + 722 u[20] + 648 u[21] + 833 u[22]
   + 279 u[23] + 841 u[24] + 209 u[25] + 167 u[26] + 920 u[27] + 458 u[28]
   + 888 u[29] + 414 u[30] + 444 u[31] + 720 u[32] + 182 u[33] + 601 u[34]
   + 818 u[35] + 185 u[36] + 757 u[37] + 889 u[38] + 743 u[39] + 372 u[40]
   + 218 u[41] + 739 u[42] + 526 u[43] + 324 u[44] + 299 u[45] + 470 u[46]
   + 858 u[47] + 644 u[48] + 169 u[49] + 59 u[50] + 217 u[51] + 994 u[52]
   + 85 u[53] + 453 u[54] + 704 u[55] + 206 u[56] + 595 u[57] + 593 u[58]
   + 691 u[59] <= 5182
 primal_lower731: 232 u[0] + 268 u[1] + 346 u[2] + 379 u[3] + 388 u[4]
   + 218 u[5] + 157 u[6] + 908 u[7] + 93 u[8] + 58 u[9] + 364 u[10]
   + 851 u[11] + 804 u[12] + 420 u[13] + 645 u[14] + 973 u[15] + 133 u[16]
   + 888 u[17] + 577 u[18] + 30 u[19] + 653 u[20] + 1000 u[21] + 612 u[22]
   + 455 u[23] + 29 u[24] + 808 u[25] + 378 u[26] + 592 u[27] + 590 u[28]
   + 479 u[29] + 90 u[30] + 268 u[31] + 812 u[32] + 413 u[33] + 436 u[34]
   + 449 u[35] + 364 u[36] + 725 u[37] + 492 u[38] + 959 u[39] + 407 u[40]
   + 826 u[41] + 646 u[42] + 30 u[43] + 551 u[44] + 659 u[45] + 82 u[46]
   + 514 u[47] + 407 u[48] + 784 u[49] + 663 u[50] + 704 u[51] + 109 u[52]
   + 852 u[53] + 857 u[54] + 520 u[55] + 601 u[56] + 195 u[57] + 724 u[58]
   + 506 u[59] <= 19982
 primal_lower732: 483 u[0] + 951 u[1] + 549 u[2] + 270 u[3] + 215 u[4]
   + 253 u[5] + 712 u[6] + 111 u[7] + 544 u[8] + 445 u[9] + 991 u[10]
   + 582 u[11] + 543 u[12] + 615 u[13] + 280 u[14] + 152 u[15] + 392 u[16]
   + 363 u[17] + 84 u[18] + 865 u[19] + 744 u[20] + 555 u[21] + 543 u[22]
   + 386 u[23] + 344 u[24] + 947 u[25] + 21 u[26] + 147 u[27] + 537 u[28]
   + 802 u[29] + 293 u[30] + 55 u[31] + 367 u[32] + 80 u[33] + 799 u[34]
   + 716 u[35] + 975 u[36] + 192 u[37] + 231 u[38] + 834 u[39] + 394 u[40]
   + 605 u[41] + 753 u[42] + 641 u[43] + 2 u[44] + 950 u[45] + 37 u[46]
   + 605 u[47] + 210 u[48] + 3 u[49] + 266 u[50] + 523 u[51] + 384 u[52]
   + 279 u[53] + 900 u[54] + 947 u[55] + 612 u[56] + 710 u[57] + 743 u[58]
   + 941 u[59] <= 19648
 primal_lower733: 992 u[0] + 953 u[1] + 379 u[2] + 944 u[3] + 845 u[4]
   + 230 u[5] + 406 u[6] + 144 u[7] + 542 u[8] + 727 u[9] + 540 u[10]
   + 96 u[11] + 725 u[12] + 985 u[13] + 5 u[14] + 273 u[15] + 38 u[16]
   + 661 u[17] + 602 u[18] + 859 u[19] + 726 u[20] + 444 u[21] + 565 u[22]
   + 3 u[23] + 309 u[24] + 285 u[25] + 211 u[26] + 188 u[27] + 310 u[28]
   + 556 u[29] + 138 u[30] + 144 u[31] + 500 u[32] + 178 u[33] + 149 u[34]
   + 782 u[35] + 557 u[36] + 881 u[37] + 77 u[38] + 843 u[39] + 136 u[40]
   + 310 u[41] + 495 u[42] + 730 u[43] + 232 u[44] + 215 u[45] + 130 u[46]
   + 366 u[47] + 992 u[48] + 669 u[49] + 423 u[50] + 29 u[51] + 998 u[52]
   + 857 u[53] + 105 u[54] + 756 u[55] + 10 u[56] + 127 u[57] + 349 u[58]
   + 751 u[59] <= 4578
 primal_lower734: 387 u[0] + 719 u[1] + 797 u[2] + 478 u[3] + 207 u[4]
   + 741 u[5] + 576 u[6] + 807 u[7] + 152 u[8] + 861 u[9] + 487 u[10]
   + 358 u[11] + 695 u[12] + 63 u[13] + 192 u[14] + 952 u[15] + 816 u[16]
   + 195 u[17] + 636 u[18] + 961 u[19] + 760 u[20] + 491 u[21] + 895 u[22]
   + 458 u[23] + 328 u[24] + 459 u[25] + 317 u[26] + 539 u[27] + 9 u[28]
   + 170 u[29] + 797 u[30] + 447 u[31] + 239 u[32] + 928 u[33] + 703 u[34]
   + 844 u[35] + 791 u[36] + 768 u[37] + 831 u[38] + 194 u[39] + 802 u[40]
   + 5 u[41] + 553 u[42] + 953 u[43] + 290 u[44] + 94 u[45] + 205 u[46]
   + 181 u[47] + 818 u[48] + 275 u[49] + 474 u[50] + 451 u[51] + 544 u[52]
   + 567 u[53] + 436 u[54] + 915 u[55] + 772 u[56] + 550 u[57] + 367 u[58]
   + 789 u[59] <= 16044
 primal_lower735: 172 u[0] + 760 u[1] + 262 u[2] + 679 u[3] + 328 u[4]
   + 102 u[5] + 89 u[6] + 920 u[7] + 601 u[8] + 462 u[9] + 792 u[10]
   + 319 u[11] + 384 u[12] + 328 u[13] + 929 u[14] + 57 u[15] + 241 u[16]
   + 28 u[17] + 589 u[18] + 34 u[19] + 121 u[20] + 884 u[21] + 488 u[22]
   + 771 u[23] + 505 u[24] + 612 u[25] + 942 u[26] + 956 u[27] + 194 u[28]
   + 203 u[29] + 934 u[30] + 904 u[31] + 640 u[32] + 625 u[33] + 200 u[34]
   + 885 u[35] + 600 u[36] + 705 u[37] + 336 u[38] + 771 u[39] + 395 u[40]
   + 366 u[41] + 194 u[42] + 322 u[43] + 403 u[44] + 175 u[45] + 782 u[46]
   + 526 u[47] + 123 u[48] + 388 u[49] + 915 u[50] + 276 u[51] + 345 u[52]
   + 912 u[53] + 109 u[54] + 684 u[55] + 69 u[56] + 559 u[57] + 544 u[58]
   + 198 u[59] <= 4772
 primal_lower736: 429 u[0] + 886 u[1] + 440 u[2] + 5 u[3] + 938 u[4]
   + 763 u[5] + 963 u[6] + 381 u[7] + 187 u[8] + 308 u[9] + 401 u[10]
   + 821 u[11] + 898 u[12] + 534 u[13] + 610 u[14] + 54 u[15] + 843 u[16]
   + 82 u[17] + 471 u[18] + 776 u[19] + 259 u[20] + 337 u[21] + 882 u[22]
   + 552 u[23] + 458 u[24] + 354 u[25] + 16 u[26] + 801 u[27] + 547 u[28]
   + 857 u[29] + 423 u[30] + 229 u[31] + 945 u[32] + 743 u[33] + 330 u[34]
   + 771 u[35] + 674 u[36] + 982 u[37] + 858 u[38] + 584 u[39] + 573 u[40]
   + 107 u[41] + 716 u[42] + 247 u[43] + 397 u[44] + 860 u[45] + 551 u[46]
   + 3 u[47] + 125 u[48] + 682 u[49] + 580 u[50] + 394 u[51] + 835 u[52]
   + 590 u[53] + 182 u[54] + 985 u[55] + 167 u[56] + 348 u[57] + 970 u[58]
   + 388 u[59] <= 5348
 primal_lower737: 527 u[0] + 544 u[1] + 458 u[2] + 167 u[3] + 836 u[4]
   + 245 u[5] + 45 u[6] + 23 u[7] + 317 u[8] + 614 u[9] + 883 u[10]
   + 975 u[11] + 796 u[12] + 768 u[13] + 436 u[14] + 72 u[15] + 413 u[16]
   + 588 u[17] + 137 u[18] + 418 u[19] + 829 u[20] + 11 u[21] + 828 u[22]
   + 266 u[23] + 124 u[24] + 324 u[25] + 714 u[26] + 331 u[27] + 797 u[28]
   + 987 u[29] + 81 u[30] + 167 u[31] + 539 u[32] + 329 u[33] + 228 u[34]
   + 501 u[35] + 20 u[36] + 864 u[37] + 660 u[38] + 730 u[39] + 103 u[40]
   + 517 u[41] + 646 u[42] + 625 u[43] + 287 u[44] + 886 u[45] + 785 u[46]
   + 381 u[47] + 679 u[48] + 212 u[49] + 6 u[50] + 548 u[51] + 285 u[52]
   + 48 u[53] + 648 u[54] + 723 u[55] + 729 u[56] + 622 u[57] + 924 u[58]
   + 446 u[59] <= 9564
 primal_lower738: 776 u[0] + 481 u[1] + 859 u[2] + 760 u[3] + 829 u[4]
   + 894 u[5] + 46 u[6] + 344 u[7] + 830 u[8] + 15 u[9] + 836 u[10]
   + 744 u[11] + 109 u[12] + 385 u[13] + 341 u[14] + 553 u[15] + 862 u[16]
   + 797 u[17] + 178 u[18] + 603 u[19] + 454 u[20] + 324 u[21] + 805 u[22]
   + 11 u[23] + 309 u[24] + 933 u[25] + 659 u[26] + 548 u[27] + 822 u[28]
   + 220 u[29] + 418 u[30] + 816 u[31] + 316 u[32] + 994 u[33] + 765 u[34]
   + 606 u[35] + 997 u[36] + 889 u[37] + 309 u[38] + 387 u[39] + 64 u[40]
   + 958 u[41] + 695 u[42] + 474 u[43] + 832 u[44] + 167 u[45] + 10 u[46]
   + 30 u[47] + 168 u[48] + 197 u[49] + 519 u[50] + 685 u[51] + 534 u[52]
   + 617 u[53] + 353 u[54] + 252 u[55] + 346 u[56] + 639 u[57] + 637 u[58]
   + 735 u[59] <= 15868
 primal_lower739: 207 u[0] + 968 u[1] + 418 u[2] + 927 u[3] + 356 u[4]
   + 637 u[5] + 765 u[6] + 367 u[7] + 837 u[8] + 558 u[9] + 819 u[10]
   + 223 u[11] + 12 u[12] + 560 u[13] + 692 u[14] + 48 u[15] + 189 u[16]
   + 268 u[17] + 633 u[18] + 522 u[19] + 629 u[20] + 395 u[21] + 84 u[22]
   + 626 u[23] + 332 u[24] + 988 u[25] + 2 u[26] + 283 u[27] + 317 u[28]
   + 947 u[29] + 353 u[30] + 647 u[31] + 963 u[32] + 329 u[33] + 932 u[34]
   + 773 u[35] + 564 u[36] + 112 u[37] + 708 u[38] + 554 u[39] + 127 u[40]
   + 389 u[41] + 678 u[42] + 49 u[43] + 599 u[44] + 926 u[45] + 865 u[46]
   + 477 u[47] + 767 u[48] + 772 u[49] + 286 u[50] + 460 u[51] + 581 u[52]
   + 56 u[53] + 872 u[54] + 283 u[55] + 465 u[56] + 670 u[57] + 356 u[58]
   + 622 u[59] <= 15422
 primal_lower740: 759 u[0] + 744 u[1] + 714 u[2] + 287 u[3] + 436 u[4]
   + 93 u[5] + 525 u[6] + 551 u[7] + 421 u[8] + 398 u[9] + 195 u[10]
   + 551 u[11] + 68 u[12] + 760 u[13] + 916 u[14] + 176 u[15] + 933 u[16]
   + 828 u[17] + 921 u[18] + 658 u[19] + 973 u[20] + 275 u[21] + 732 u[22]
   + 850 u[23] + 612 u[24] + 28 u[25] + 594 u[26] + 403 u[27] + 821 u[28]
   + 83 u[29] + 465 u[30] + 167 u[31] + 683 u[32] + 17 u[33] + 220 u[34]
   + 853 u[35] + 484 u[36] + 72 u[37] + 84 u[38] + 722 u[39] + 167 u[40]
   + 613 u[41] + 302 u[42] + 377 u[43] + 855 u[44] + 126 u[45] + 593 u[46]
   + 653 u[47] + 367 u[48] + 92 u[49] + 150 u[50] + 740 u[51] + 213 u[52]
   + 640 u[53] + 816 u[54] + 731 u[55] + 33 u[56] + 94 u[57] + 108 u[58]
   + 958 u[59] <= 4783
 primal_lower741: 939 u[0] + 940 u[1] + 718 u[2] + 267 u[3] + 848 u[4]
   + 569 u[5] + u[6] + 819 u[7] + 281 u[8] + 698 u[9] + 935 u[10]
   + 739 u[11] + 952 u[12] + 812 u[13] + 600 u[14] + 76 u[15] + 185 u[16]
   + 392 u[17] + 5 u[18] + 70 u[19] + 217 u[20] + 679 u[21] + 184 u[22]
   + 910 u[23] + 256 u[24] + 872 u[25] + 614 u[26] + 679 u[27] + 345 u[28]
   + 271 u[29] + 421 u[30] + 283 u[31] + 519 u[32] + 117 u[33] + 736 u[34]
   + 657 u[35] + 248 u[36] + 436 u[37] + 480 u[38] + 830 u[39] + 547 u[40]
   + 457 u[41] + 794 u[42] + 869 u[43] + 363 u[44] + 146 u[45] + 997 u[46]
   + 305 u[47] + 923 u[48] + 552 u[49] + 882 u[50] + 856 u[51] + 121 u[52]
   + 844 u[53] + 772 u[54] + 319 u[55] + 445 u[56] + 170 u[57] + 16 u[58]
   + 938 u[59] <= 21277
 primal_lower742: 132 u[0] + 613 u[1] + 743 u[2] + 548 u[3] + 649 u[4]
   + 586 u[5] + 146 u[6] + 444 u[7] + 842 u[8] + 27 u[9] + 360 u[10]
   + 292 u[11] + 273 u[12] + 341 u[13] + 569 u[14] + 181 u[15] + 658 u[16]
   + 41 u[17] + 750 u[18] + 407 u[19] + 618 u[20] + 144 u[21] + 801 u[22]
   + 31 u[23] + 33 u[24] + 441 u[25] + 215 u[26] + 288 u[27] + 842 u[28]
   + 528 u[29] + 286 u[30] + 156 u[31] + 176 u[32] + 86 u[33] + 713 u[34]
   + 18 u[35] + 329 u[36] + 493 u[37] + 273 u[38] + 351 u[39] + 844 u[40]
   + 642 u[41] + 515 u[42] + 446 u[43] + 812 u[44] + 115 u[45] + 246 u[46]
   + 666 u[47] + 940 u[48] + 305 u[49] + 315 u[50] + 89 u[51] + 906 u[52]
   + 981 u[53] + 357 u[54] + 472 u[55] + 198 u[56] + 763 u[57] + 353 u[58]
   + 803 u[59] <= 17461
 primal_lower743: 967 u[0] + 907 u[1] + 489 u[2] + 674 u[3] + 339 u[4]
   + 681 u[5] + 940 u[6] + 419 u[7] + 516 u[8] + 497 u[9] + 547 u[10]
   + 114 u[11] + 499 u[12] + 827 u[13] + 372 u[14] + 572 u[15] + 4 u[16]
   + 143 u[17] + 768 u[18] + 149 u[19] + 348 u[20] + 159 u[21] + 811 u[22]
   + 886 u[23] + 932 u[24] + 247 u[25] + 689 u[26] + 127 u[27] + 989 u[28]
   + 166 u[29] + 577 u[30] + 667 u[31] + 787 u[32] + 468 u[33] + 371 u[34]
   + 328 u[35] + 411 u[36] + 628 u[37] + 531 u[38] + 638 u[39] + 526 u[40]
   + 329 u[41] + 749 u[42] + 941 u[43] + 438 u[44] + 626 u[45] + 377 u[46]
   + 193 u[47] + 750 u[48] + 471 u[49] + 862 u[50] + 447 u[51] + 468 u[52]
   + 339 u[53] + 288 u[54] + 359 u[55] + 752 u[56] + 642 u[57] + 651 u[58]
   + 225 u[59] <= 5269
 primal_lower744: 115 u[0] + 351 u[1] + 709 u[2] + 366 u[3] + 887 u[4]
   + 629 u[5] + 120 u[6] + 415 u[7] + 112 u[8] + 613 u[9] + 815 u[10]
   + 334 u[11] + 847 u[12] + 535 u[13] + 784 u[14] + 440 u[15] + 512 u[16]
   + 779 u[17] + 564 u[18] + 529 u[19] + 696 u[20] + 123 u[21] + 407 u[22]
   + 194 u[23] + 296 u[24] + 571 u[25] + 757 u[26] + 563 u[27] + 9 u[28]
   + 634 u[29] + 165 u[30] + 927 u[31] + 535 u[32] + 544 u[33] + 655 u[34]
   + 652 u[35] + 423 u[36] + 496 u[37] + 935 u[38] + 690 u[39] + 506 u[40]
   + 373 u[41] + 601 u[42] + 257 u[43] + 338 u[44] + 950 u[45] + 845 u[46]
   + 669 u[47] + 258 u[48] + 987 u[49] + 50 u[50] + 315 u[51] + 296 u[52]
   + 503 u[53] + 252 u[54] + 75 u[55] + 380 u[56] + 782 u[57] + 975 u[58]
   + 21 u[59] <= 5026
 primal_lower745: 245 u[0] + 505 u[1] + 631 u[2] + 768 u[3] + 569 u[4]
   + 999 u[5] + 898 u[6] + 817 u[7] + 914 u[8] + 575 u[9] + 993 u[10]
   + 8 u[11] + 721 u[12] + 321 u[13] + 706 u[14] + 346 u[15] + 194 u[16]
   + 549 u[17] + 22 u[18] + 763 u[19] + 402 u[20] + 549 u[21] + 705 u[22]
   + 52 u[23] + 282 u[24] + 773 u[25] + 807 u[26] + 101 u[27] + 363 u[28]
   + 916 u[29] + 975 u[30] + 681 u[31] + 977 u[32] + 210 u[33] + 313 u[34]
   + 446 u[35] + 385 u[36] + 714 u[37] + 353 u[38] + 84 u[39] + 260 u[40]
   + 527 u[41] + 475 u[42] + 475 u[43] + 612 u[44] + 184 u[45] + 359 u[46]
   + 439 u[47] + 556 u[48] + 405 u[49] + 492 u[50] + 901 u[51] + 610 u[52]
   + 777 u[53] + 846 u[54] + 109 u[55] + 382 u[56] + 416 u[57] + 57 u[58]
   + 399 u[59] <= 15456
 primal_lower746: 426 u[0] + 435 u[1] + 965 u[2] + 698 u[3] + 487 u[4]
   + 304 u[5] + 784 u[6] + 834 u[7] + 840 u[8] + 169 u[9] + 862 u[10]
   + 986 u[11] + 95 u[12] + 475 u[13] + 519 u[14] + 995 u[15] + 48 u[16]
   + 567 u[17] + 260 u[18] + 205 u[19] + 856 u[20] + 718 u[21] + 511 u[22]
   + 541 u[23] + 727 u[24] + 679 u[25] + 85 u[26] + 382 u[27] + 968 u[28]
   + 214 u[29] + 420 u[30] + 234 u[31] + 46 u[32] + 204 u[33] + 799 u[34]
   + 960 u[35] + 767 u[36] + 467 u[37] + 359 u[38] + 133 u[39] + 98 u[40]
   + 896 u[41] + 833 u[42] + 380 u[43] + 810 u[44] + 921 u[45] + 172 u[46]
   + 448 u[47] + 690 u[48] + 303 u[49] + 817 u[50] + 911 u[51] + 608 u[52]
   + 491 u[53] + 163 u[54] + 766 u[55] + 276 u[56] + 49 u[57] + 655 u[58]
   + 385 u[59] <= 995
 primal_lower747: 948 u[0] + 205 u[1] + 503 u[2] + 852 u[3] + 561 u[4]
   + 482 u[5] + 778 u[6] + 684 u[7] + 82 u[8] + 603 u[9] + 912 u[10]
   + 980 u[11] + 977 u[12] + 597 u[13] + 561 u[14] + 813 u[15] + 306 u[16]
   + 865 u[17] + 470 u[18] + 927 u[19] + 410 u[20] + 720 u[21] + 417 u[22]
   + 15 u[23] + 297 u[24] + 65 u[25] + 727 u[26] + 56 u[27] + 490 u[28]
   + 72 u[29] + 142 u[30] + 308 u[31] + 8 u[32] + 190 u[33] + 177 u[34]
   + 634 u[35] + 985 u[36] + 517 u[37] + 89 u[38] + 559 u[39] + 836 u[40]
   + 626 u[41] + 707 u[42] + 510 u[43] + 84 u[44] + 187 u[45] + 678 u[46]
   + 970 u[47] + 12 u[48] + 401 u[49] + 211 u[50] + 849 u[51] + 818 u[52]
   + 37 u[53] + 845 u[54] + 392 u[55] + 894 u[56] + 803 u[57] + 121 u[58]
   + 171 u[59] <= 5022
 primal_lower748: 97 u[0] + 882 u[1] + 540 u[2] + 73 u[3] + 614 u[4]
   + 119 u[5] + 831 u[6] + 649 u[7] + 455 u[8] + 392 u[9] + 461 u[10]
   + 233 u[11] + 446 u[12] + 18 u[13] + 494 u[14] + 746 u[15] + 23 u[16]
   + 70 u[17] + 355 u[18] + 628 u[19] + 783 u[20] + 413 u[21] + 614 u[22]
   + 204 u[23] + 422 u[24] + 222 u[25] + 316 u[26] + 773 u[27] + 951 u[28]
   + 453 u[29] + 931 u[30] + 921 u[31] + 757 u[32] + 3 u[33] + 406 u[34]
   + 711 u[35] + 70 u[36] + 898 u[37] + 118 u[38] + 988 u[39] + 369 u[40]
   + 295 u[41] + 176 u[42] + 771 u[43] + 377 u[44] + 392 u[45] + 371 u[46]
   + 15 u[47] + 321 u[48] + 566 u[49] + 952 u[50] + 38 u[51] + 215 u[52]
   + 474 u[53] + 722 u[54] + 733 u[55] + 571 u[56] + 752 u[57] + 670 u[58]
   + 880 u[59] <= 988
 primal_lower749: 196 u[0] + 880 u[1] + 14 u[2] + 999 u[3] + 136 u[4]
   + 630 u[5] + 337 u[6] + 88 u[7] + 369 u[8] + 398 u[9] + 848 u[10]
   + 319 u[11] + 120 u[12] + 192 u[13] + 433 u[14] + 9 u[15] + 673 u[16]
   + 900 u[17] + 461 u[18] + 714 u[19] + 289 u[20] + 404 u[21] + 80 u[22]
   + 267 u[23] + 889 u[24] + 396 u[25] + 398 u[26] + 820 u[27] + 434 u[28]
   + 483 u[29] + 814 u[30] + 328 u[31] + 928 u[32] + 249 u[33] + 8 u[34]
   + 437 u[35] + 936 u[36] + 569 u[37] + 464 u[38] + 843 u[39] + 547 u[40]
   + 630 u[41] + 74 u[42] + 698 u[43] + 507 u[44] + 239 u[45] + 126 u[46]
   + 534 u[47] + 787 u[48] + 956 u[49] + 691 u[50] + 964 u[51] + 593 u[52]
   + 920 u[53] + 565 u[54] + 12 u[55] + 845 u[56] + 679 u[57] + 744 u[58]
   + 718 u[59] <= 15290
 primal_lower750: 623 u[0] + 984 u[1] + 426 u[2] + 335 u[3] + 812 u[4]
   + 821 u[5] + 605 u[6] + 951 u[7] + 477 u[8] + 54 u[9] + 387 u[10]
   + 615 u[11] + 948 u[12] + 344 u[13] + 244 u[14] + 736 u[15] + 653 u[16]
   + 548 u[17] + 425 u[18] + 970 u[19] + 469 u[20] + 499 u[21] + 972 u[22]
   + 50 u[23] + 452 u[24] + 596 u[25] + 730 u[26] + 779 u[27] + 125 u[28]
   + 547 u[29] + 49 u[30] + 543 u[31] + 787 u[32] + 433 u[33] + 36 u[34]
   + 277 u[35] + 948 u[36] + 696 u[37] + 36 u[38] + 706 u[39] + 591 u[40]
   + 117 u[41] + 718 u[42] + 489 u[43] + 319 u[44] + 798 u[45] + 849 u[46]
   + 237 u[47] + 55 u[48] + 116 u[49] + 782 u[50] + 148 u[51] + 709 u[52]
   + 824 u[53] + 400 u[54] + 211 u[55] + 273 u[56] + 174 u[57] + 972 u[58]
   + 902 u[59] <= 15686
 primal_lower751: 864 u[0] + 529 u[1] + 539 u[2] + 896 u[3] + 317 u[4]
   + 558 u[5] + 510 u[6] + 752 u[7] + 350 u[8] + 543 u[9] + 700 u[10]
   + 528 u[11] + 45 u[12] + 561 u[13] + 861 u[14] + 137 u[15] + 886 u[16]
   + 917 u[17] + 330 u[18] + 27 u[19] + 942 u[20] + 892 u[21] + 789 u[22]
   + 187 u[23] + 565 u[24] + 277 u[25] + 603 u[26] + 788 u[27] + 870 u[28]
   + 428 u[29] + 2 u[30] + 832 u[31] + 60 u[32] + 834 u[33] + 237 u[34]
   + 486 u[35] + 197 u[36] + 457 u[37] + 717 u[38] + 339 u[39] + 680 u[40]
   + 462 u[41] + 999 u[42] + 386 u[43] + 96 u[44] + 543 u[45] + 258 u[46]
   + 846 u[47] + 16 u[48] + 677 u[49] + 415 u[50] + 229 u[51] + 870 u[52]
   + 225 u[53] + 9 u[54] + 212 u[55] + 234 u[56] + 711 u[57] + 21 u[58]
   + 839 u[59] <= 10026
 primal_lower752: 58 u[0] + 339 u[1] + 509 u[2] + 642 u[3] + 871 u[4]
   + 88 u[5] + 856 u[6] + 986 u[7] + 744 u[8] + 489 u[9] + 46 u[10]
   + 82 u[11] + 127 u[12] + 27 u[13] + 815 u[14] + 307 u[15] + 568 u[16]
   + 87 u[17] + 220 u[18] + 237 u[19] + 832 u[20] + 894 u[21] + 799 u[22]
   + 85 u[23] + 839 u[24] + 447 u[25] + 453 u[26] + 334 u[27] + 840 u[28]
   + 38 u[29] + 860 u[30] + 914 u[31] + 318 u[32] + 460 u[33] + 791 u[34]
   + 728 u[35] + 167 u[36] + 291 u[37] + 959 u[38] + 893 u[39] + 970 u[40]
   + 776 u[41] + 585 u[42] + 828 u[43] + 850 u[44] + 9 u[45] + 756 u[46]
   + 944 u[47] + 122 u[48] + 559 u[49] + 625 u[50] + 775 u[51] + 928 u[52]
   + 291 u[53] + 627 u[54] + 958 u[55] + 140 u[56] + 249 u[57] + 335 u[58]
   + 609 u[59] <= 15988
 primal_lower753: 190 u[0] + 338 u[1] + 576 u[2] + 169 u[3] + 706 u[4]
   + 208 u[5] + 979 u[6] + 234 u[7] + 483 u[8] + 608 u[9] + 714 u[10]
   + 105 u[11] + 826 u[12] + 594 u[13] + 907 u[14] + 723 u[15] + 195 u[16]
   + 998 u[17] + 799 u[18] + 164 u[19] + 83 u[20] + 966 u[21] + 866 u[22]
   + 629 u[23] + 411 u[24] + 614 u[25] + 16 u[26] + 478 u[27] + 468 u[28]
   + 277 u[29] + 672 u[30] + 834 u[31] + 530 u[32] + 99 u[33] + 170 u[34]
   + 871 u[35] + 570 u[36] + 427 u[37] + 642 u[38] + 997 u[39] + 349 u[40]
   + 144 u[41] + 588 u[42] + 28 u[43] + 581 u[44] + 545 u[45] + 728 u[46]
   + 368 u[47] + 157 u[48] + 230 u[49] + 461 u[50] + 574 u[51] + 483 u[52]
   + 970 u[53] + 79 u[54] + 846 u[55] + 511 u[56] + 353 u[57] + 282 u[58]
   + 360 u[59] <= 4962
 primal_lower754: 163 u[0] + 508 u[1] + 750 u[2] + 227 u[3] + 584 u[4]
   + 417 u[5] + 241 u[6] + 243 u[7] + 273 u[8] + 426 u[9] + 831 u[10]
   + 539 u[11] + 232 u[12] + 516 u[13] + 120 u[14] + 292 u[15] + 585 u[16]
   + 576 u[17] + 181 u[18] + 766 u[19] + 633 u[20] + 23 u[21] + 16 u[22]
   + 238 u[23] + 40 u[24] + 840 u[25] + 382 u[26] + 967 u[27] + 297 u[28]
   + 735 u[29] + 317 u[30] + 43 u[31] + 55 u[32] + 597 u[33] + 112 u[34]
   + 81 u[35] + 296 u[36] + 820 u[37] + 848 u[38] + 30 u[39] + 363 u[40]
   + 209 u[41] + 306 u[42] + 629 u[43] + 427 u[44] + 562 u[45] + 405 u[46]
   + 409 u[47] + 227 u[48] + 248 u[49] + 66 u[50] + 488 u[51] + 217 u[52]
   + 404 u[53] + 212 u[54] + 591 u[55] + 357 u[56] + 826 u[57] + 624 u[58]
   + 786 u[59] <= 4032
 primal_lower755: 386 u[0] + 790 u[1] + 988 u[2] + 933 u[3] + 966 u[4]
   + 780 u[5] + 639 u[6] + 318 u[7] + 247 u[8] + 436 u[9] + 374 u[10]
   + 693 u[11] + 910 u[12] + 30 u[13] + 711 u[14] + 223 u[15] + 143 u[16]
   + 314 u[17] + 515 u[18] + 496 u[19] + 263 u[20] + 834 u[21] + 710 u[22]
   + 641 u[23] + 967 u[24] + 338 u[25] + 244 u[26] + 666 u[27] + 952 u[28]
   + 105 u[29] + 108 u[30] + 206 u[31] + 582 u[32] + 887 u[33] + 510 u[34]
   + 347 u[35] + 158 u[36] + 783 u[37] + 862 u[38] + 201 u[39] + 801 u[40]
   + 684 u[41] + 392 u[42] + 384 u[43] + 665 u[44] + 989 u[45] + 220 u[46]
   + 716 u[47] + 985 u[48] + 442 u[49] + 529 u[50] + 450 u[51] + 551 u[52]
   + 190 u[53] + 19 u[54] + 882 u[55] + 227 u[56] + 845 u[57] + 126 u[58]
   + 436 u[59] <= 21192
 primal_lower756: 486 u[0] + 207 u[1] + 161 u[2] + 982 u[3] + 123 u[4]
   + 580 u[5] + 364 u[6] + 726 u[7] + 244 u[8] + 261 u[9] + 738 u[10]
   + 734 u[11] + 51 u[12] + 743 u[13] + 19 u[14] + 231 u[15] + 116 u[16]
   + 259 u[17] + 328 u[18] + 809 u[19] + 860 u[20] + 282 u[21] + 83 u[22]
   + 9 u[23] + 515 u[24] + 563 u[25] + 137 u[26] + 698 u[27] + 140 u[28]
   + 490 u[29] + 288 u[30] + 54 u[31] + 842 u[32] + 664 u[33] + 915 u[34]
   + 932 u[35] + 867 u[36] + 111 u[37] + 371 u[38] + 233 u[39] + 518 u[40]
   + 20 u[41] + 957 u[42] + 352 u[43] + 38 u[44] + 309 u[45] + 840 u[46]
   + 52 u[47] + 390 u[48] + 179 u[49] + 677 u[50] + 707 u[51] + 900 u[52]
   + 703 u[53] + 55 u[54] + 394 u[55] + 440 u[56] + 669 u[57] + 507 u[58]
   + 597 u[59] <= 8840
 primal_lower757: 161 u[0] + 669 u[1] + 995 u[2] + 156 u[3] + 949 u[4]
   + 963 u[5] + 326 u[6] + 709 u[7] + 486 u[8] + 979 u[9] + 29 u[10]
   + 540 u[11] + 197 u[12] + 837 u[13] + 318 u[14] + 38 u[15] + 462 u[16]
   + 233 u[17] + 258 u[18] + 599 u[19] + 494 u[20] + u[21] + 653 u[22]
   + 24 u[23] + 502 u[24] + 961 u[25] + 523 u[26] + 625 u[27] + 335 u[28]
   + 784 u[29] + 387 u[30] + 397 u[31] + 565 u[32] + 974 u[33] + 53 u[34]
   + 146 u[35] + 957 u[36] + 758 u[37] + 733 u[38] + 200 u[39] + 272 u[40]
   + 195 u[41] + 295 u[42] + 815 u[43] + 568 u[44] + 716 u[45] + 275 u[46]
   + 475 u[47] + 80 u[48] + 369 u[49] + 160 u[50] + 481 u[51] + 454 u[52]
   + 909 u[53] + 746 u[54] + 641 u[55] + 386 u[56] + 228 u[57] + 189 u[58]
   + 755 u[59] <= 14492
 primal_lower758: 602 u[0] + 790 u[1] + 260 u[2] + 805 u[3] + 894 u[4]
   + 596 u[5] + 31 u[6] + 286 u[7] + 735 u[8] + 460 u[9] + 158 u[10]
   + 685 u[11] + 822 u[12] + 358 u[13] + 279 u[14] + 479 u[15] + 607 u[16]
   + 898 u[17] + 835 u[18] + 928 u[19] + 263 u[20] + 626 u[21] + 430 u[22]
   + 697 u[23] + 567 u[24] + 522 u[25] + 4 u[26] + 562 u[27] + 632 u[28]
   + 153 u[29] + 4 u[30] + 918 u[31] + 198 u[32] + 591 u[33] + 438 u[34]
   + 731 u[35] + 126 u[36] + 359 u[37] + 294 u[38] + 705 u[39] + 473 u[40]
   + 756 u[41] + 8 u[42] + 888 u[43] + 497 u[44] + 741 u[45] + 900 u[46]
   + 972 u[47] + 945 u[48] + 522 u[49] + 681 u[50] + 922 u[51] + 399 u[52]
   + 606 u[53] + 395 u[54] + 226 u[55] + 267 u[56] + 109 u[57] + 430 u[58]
   + 188 u[59] <= 5208
 primal_lower759: 660 u[0] + 933 u[1] + 951 u[2] + 68 u[3] + 33 u[4]
   + 898 u[5] + 410 u[6] + 348 u[7] + 482 u[8] + 603 u[9] + 264 u[10]
   + 460 u[11] + 41 u[12] + 253 u[13] + 745 u[14] + 845 u[15] + 938 u[16]
   + 409 u[17] + 14 u[18] + 655 u[19] + 706 u[20] + 152 u[21] + 865 u[22]
   + 511 u[23] + 577 u[24] + 817 u[25] + 255 u[26] + 152 u[27] + 706 u[28]
   + 24 u[29] + 454 u[30] + 140 u[31] + 728 u[32] + 950 u[33] + 953 u[34]
   + 58 u[35] + 921 u[36] + 149 u[37] + 305 u[38] + 919 u[39] + 12 u[40]
   + 658 u[41] + 467 u[42] + 558 u[43] + 60 u[44] + 683 u[45] + 54 u[46]
   + 378 u[47] + 196 u[48] + 745 u[49] + 139 u[50] + 777 u[51] + 538 u[52]
   + 525 u[53] + 805 u[54] + 904 u[55] + 438 u[56] + 443 u[57] + 497 u[58]
   + 371 u[59] <= 19733
 primal_lower760: 229 u[0] + 905 u[1] + 703 u[2] + 600 u[3] + 193 u[4]
   + 415 u[5] + 546 u[6] + 329 u[7] + 178 u[8] + 623 u[9] + 657 u[10]
   + 88 u[11] + 577 u[12] + 753 u[13] + 482 u[14] + 354 u[15] + 794 u[16]
   + 445 u[17] + 726 u[18] + 123 u[19] + 74 u[20] + 197 u[21] + 121 u[22]
   + 372 u[23] + 450 u[24] + 965 u[25] + 319 u[26] + 861 u[27] + 603 u[28]
   + 772 u[29] + 991 u[30] + 425 u[31] + 313 u[32] + 226 u[33] + 57 u[34]
   + 902 u[35] + 441 u[36] + 482 u[37] + 73 u[38] + 748 u[39] + 68 u[40]
   + 695 u[41] + 115 u[42] + 123 u[43] + 196 u[44] + 688 u[45] + 159 u[46]
   + 959 u[47] + 380 u[48] + 693 u[49] + 668 u[50] + 677 u[51] + 58 u[52]
   + 49 u[53] + 822 u[54] + 693 u[55] + 126 u[56] + 160 u[57] + 441 u[58]
   + 471 u[59] <= 4558
 primal_lower761: 123 u[0] + 188 u[1] + 206 u[2] + 659 u[3] + 912 u[4]
   + 857 u[5] + 289 u[6] + 707 u[7] + 889 u[8] + 538 u[9] + 247 u[10]
   + 763 u[11] + 520 u[12] + 988 u[13] + 704 u[14] + 492 u[15] + 289 u[16]
   + 856 u[17] + 37 u[18] + 662 u[19] + 321 u[20] + 31 u[21] + 240 u[22]
   + 214 u[23] + 576 u[24] + 728 u[25] + 614 u[26] + 735 u[27] + 521 u[28]
   + 407 u[29] + 757 u[30] + 331 u[31] + 47 u[32] + 797 u[33] + 432 u[34]
   + 561 u[35] + 272 u[36] + 516 u[37] + 920 u[38] + 278 u[39] + 11 u[40]
   + 729 u[41] + 770 u[42] + 5 u[43] + 587 u[44] + 202 u[45] + 741 u[46]
   + 385 u[47] + 835 u[48] + 880 u[49] + 298 u[50] + 80 u[51] + 697 u[52]
   + 220 u[53] + 156 u[54] + 599 u[55] + 317 u[56] + 498 u[57] + 544 u[58]
   + 506 u[59] <= 14642
 primal_lower762: 732 u[0] + 600 u[1] + 662 u[2] + 631 u[3] + 432 u[4]
   + 670 u[5] + 641 u[6] + 16 u[7] + 705 u[8] + 806 u[9] + 920 u[10]
   + 31 u[11] + 560 u[12] + 960 u[13] + 97 u[14] + 801 u[15] + 393 u[16]
   + 124 u[17] + 629 u[18] + 442 u[19] + 385 u[20] + 164 u[21] + 728 u[22]
   + 19 u[23] + 633 u[24] + 796 u[25] + 966 u[26] + 964 u[27] + 186 u[28]
   + 123 u[29] + 502 u[30] + 672 u[31] + 192 u[32] + 345 u[33] + 664 u[34]
   + 845 u[35] + 160 u[36] + 337 u[37] + 64 u[38] + 243 u[39] + 107 u[40]
   + 966 u[41] + 834 u[42] + 810 u[43] + 931 u[44] + 711 u[45] + 302 u[46]
   + 150 u[47] + 339 u[48] + 980 u[49] + 635 u[50] + 236 u[51] + 513 u[52]
   + 168 u[53] + 141 u[54] + 292 u[55] + 317 u[56] + 903 u[57] + 832 u[58]
   + 734 u[59] <= 15370
 primal_lower763: 538 u[0] + 982 u[1] + 300 u[2] + 861 u[3] + 902 u[4]
   + 812 u[5] + 695 u[6] + 646 u[7] + 911 u[8] + 844 u[9] + 46 u[10]
   + 765 u[11] + 414 u[12] + 182 u[13] + 503 u[14] + 655 u[15] + 159 u[16]
   + 354 u[17] + 291 u[18] + 392 u[19] + 135 u[20] + 674 u[21] + 686 u[22]
   + 937 u[23] + 607 u[24] + 770 u[25] + 36 u[26] + 666 u[27] + 624 u[28]
   + 865 u[29] + 756 u[30] + 670 u[31] + 486 u[32] + 847 u[33] + 414 u[34]
   + 515 u[35] + 606 u[36] + 839 u[37] + 270 u[38] + 401 u[39] + 889 u[40]
   + 236 u[41] + 272 u[42] + 776 u[43] + 513 u[44] + 381 u[45] + 980 u[46]
   + 324 u[47] + 689 u[48] + 394 u[49] + 601 u[50] + 914 u[51] + 87 u[52]
   + 630 u[53] + 915 u[54] + 506 u[55] + 427 u[56] + 133 u[57] + 702 u[58]
   + 260 u[59] <= 5614
 primal_lower764: 782 u[0] + 586 u[1] + 48 u[2] + 25 u[3] + 338 u[4]
   + 816 u[5] + 275 u[6] + 738 u[7] + 827 u[8] + 712 u[9] + 706 u[10]
   + 265 u[11] + 594 u[12] + 386 u[13] + 243 u[14] + 723 u[15] + 195 u[16]
   + 478 u[17] + 271 u[18] + 692 u[19] + 851 u[20] + 798 u[21] + 578 u[22]
   + 901 u[23] + 707 u[24] + 390 u[25] + 520 u[26] + 998 u[27] + 972 u[28]
   + 413 u[29] + 488 u[30] + 74 u[31] + 722 u[32] + 547 u[33] + 50 u[34]
   + 631 u[35] + 954 u[36] + 123 u[37] + 906 u[38] + 477 u[39] + 149 u[40]
   + 408 u[41] + 820 u[42] + 204 u[43] + 877 u[44] + 513 u[45] + 72 u[46]
   + 384 u[47] + 517 u[48] + 614 u[49] + 429 u[50] + 510 u[51] + 531 u[52]
   + 746 u[53] + 255 u[54] + 550 u[55] + 975 u[56] + 601 u[57] + 666 u[58]
   + 56 u[59] <= 10559
 primal_lower765: 226 u[0] + 907 u[1] + 85 u[2] + 66 u[3] + 991 u[4]
   + 848 u[5] + 136 u[6] + 810 u[7] + 696 u[8] + 641 u[9] + 910 u[10]
   + 74 u[11] + 951 u[12] + 627 u[13] + 183 u[14] + 659 u[15] + 168 u[16]
   + 543 u[17] + 180 u[18] + 693 u[19] + 496 u[20] + 646 u[21] + 527 u[22]
   + 765 u[23] + 671 u[24] + 63 u[25] + 109 u[26] + 502 u[27] + 40 u[28]
   + 718 u[29] + 804 u[30] + 162 u[31] + 166 u[32] + 916 u[33] + 487 u[34]
   + 816 u[35] + 271 u[36] + 331 u[37] + 327 u[38] + 61 u[39] + 338 u[40]
   + 320 u[41] + 633 u[42] + 772 u[43] + 282 u[44] + 17 u[45] + 364 u[46]
   + 184 u[47] + 754 u[48] + 503 u[49] + 33 u[50] + 871 u[51] + 88 u[52]
   + 499 u[53] + 283 u[54] + 646 u[55] + 820 u[56] + 657 u[57] + 239 u[58]
   + 129 u[59] <= 9234
 primal_lower766: 512 u[0] + 636 u[1] + 658 u[2] + 227 u[3] + 460 u[4]
   + 994 u[5] + 229 u[6] + 508 u[7] + 61 u[8] + 282 u[9] + 204 u[10]
   + 3 u[11] + 212 u[12] + 588 u[13] + 13 u[14] + 957 u[15] + 405 u[16]
   + 176 u[17] + 905 u[18] + 486 u[19] + 877 u[20] + 888 u[21] + 188 u[22]
   + 135 u[23] + 949 u[24] + 744 u[25] + 962 u[26] + 816 u[27] + 678 u[28]
   + 231 u[29] + 770 u[30] + 996 u[31] + 108 u[32] + 693 u[33] + 804 u[34]
   + 105 u[35] + 428 u[36] + 509 u[37] + 172 u[38] + 959 u[39] + 199 u[40]
   + 778 u[41] + 534 u[42] + 550 u[43] + 167 u[44] + 843 u[45] + 578 u[46]
   + 498 u[47] + 87 u[48] + 480 u[49] + 415 u[50] + 704 u[51] + 61 u[52]
   + 556 u[53] + 265 u[54] + 944 u[55] + 521 u[56] + 115 u[57] + 388 u[58]
   + 418 u[59] <= 14814
 primal_lower767: 435 u[0] + 39 u[1] + 565 u[2] + 590 u[3] + 823 u[4]
   + 965 u[5] + 528 u[6] + 551 u[7] + 464 u[8] + 725 u[9] + 239 u[10]
   + 262 u[11] + 967 u[12] + 423 u[13] + 376 u[14] + 416 u[15] + 272 u[16]
   + 787 u[17] + 36 u[18] + 89 u[19] + 424 u[20] + 811 u[21] + 567 u[22]
   + 90 u[23] + 680 u[24] + 619 u[25] + 917 u[26] + 827 u[27] + 873 u[28]
   + 522 u[29] + 405 u[30] + 175 u[31] + 647 u[32] + 432 u[33] + 895 u[34]
   + 828 u[35] + 319 u[36] + 776 u[37] + 543 u[38] + 442 u[39] + 650 u[40]
   + 805 u[41] + 217 u[42] + 209 u[43] + 178 u[44] + 494 u[45] + 5 u[46]
   + 677 u[47] + 522 u[48] + 51 u[49] + 378 u[50] + 723 u[51] + 768 u[52]
   + 391 u[53] + 716 u[54] + 299 u[55] + 340 u[56] + 838 u[57] + 719 u[58]
   + 405 u[59] <= 15364
 primal_lower768: 166 u[0] + 775 u[1] + 377 u[2] + 614 u[3] + 267 u[4]
   + 884 u[5] + 556 u[6] + 294 u[7] + 484 u[8] + 869 u[9] + 898 u[10]
   + 62 u[11] + 491 u[12] + 839 u[13] + 411 u[14] + 399 u[15] + 988 u[16]
   + 915 u[17] + 352 u[18] + 689 u[19] + 892 u[20] + 474 u[21] + 427 u[22]
   + 913 u[23] + 899 u[24] + 611 u[25] + 385 u[26] + 74 u[27] + 484 u[28]
   + 170 u[29] + 264 u[30] + 654 u[31] + 970 u[32] + 720 u[33] + 339 u[34]
   + 172 u[35] + 915 u[36] + 991 u[37] + 139 u[38] + 289 u[39] + 358 u[40]
   + 644 u[41] + 421 u[42] + 544 u[43] + 614 u[44] + 61 u[45] + 336 u[46]
   + 828 u[47] + 622 u[48] + 787 u[49] + 69 u[50] + 307 u[51] + 452 u[52]
   + 39 u[53] + 647 u[54] + 938 u[55] + 824 u[56] + 189 u[57] + 219 u[58]
   + 269 u[59] <= 15640
 primal_lower769: 12 u[0] + 157 u[1] + 607 u[2] + 316 u[3] + 633 u[4]
   + 690 u[5] + 554 u[6] + 436 u[7] + 274 u[8] + 547 u[9] + 440 u[10]
   + 60 u[11] + 937 u[12] + 5 u[13] + 689 u[14] + 149 u[15] + 978 u[16]
   + 537 u[17] + 166 u[18] + 55 u[19] + 626 u[20] + 24 u[21] + 345 u[22]
   + 831 u[23] + 609 u[24] + 505 u[25] + 599 u[26] + 344 u[27] + 282 u[28]
   + 912 u[29] + 454 u[30] + 476 u[31] + 792 u[32] + 326 u[33] + 633 u[34]
   + 146 u[35] + 305 u[36] + 669 u[37] + 329 u[38] + 391 u[39] + 332 u[40]
   + 282 u[41] + 619 u[42] + 462 u[43] + 780 u[44] + 307 u[45] + 174 u[46]
   + 266 u[47] + 756 u[48] + 33 u[49] + 171 u[50] + 569 u[51] + 498 u[52]
   + 45 u[53] + 749 u[54] + 608 u[55] + 286 u[56] + 595 u[57] + 65 u[58]
   + 347 u[59] <= 8594
 primal_lower770: 441 u[0] + 66 u[1] + 188 u[2] + 729 u[3] + 934 u[4]
   + 167 u[5] + 159 u[6] + 257 u[7] + 711 u[8] + 136 u[9] + 221 u[10]
   + 281 u[11] + 654 u[12] + 314 u[13] + 198 u[14] + 434 u[15] + 607 u[16]
   + 126 u[17] + 739 u[18] + 132 u[19] + 631 u[20] + 597 u[21] + 134 u[22]
   + 124 u[23] + 62 u[24] + 150 u[25] + 860 u[26] + 21 u[27] + 63 u[28]
   + 637 u[29] + 915 u[30] + 785 u[31] + 333 u[32] + 123 u[33] + 182 u[34]
   + 967 u[35] + 782 u[36] + 2 u[37] + 870 u[38] + 4 u[39] + 337 u[40]
   + 767 u[41] + 248 u[42] + 51 u[43] + 913 u[44] + 440 u[45] + 515 u[46]
   + 167 u[47] + 481 u[48] + 846 u[49] + 8 u[50] + 990 u[51] + 927 u[52]
   + 26 u[53] + 226 u[54] + 157 u[55] + 923 u[56] + 480 u[57] + 526 u[58]
   + 496 u[59] <= 8420
 primal_lower771: 329 u[0] + 197 u[1] + 395 u[2] + 316 u[3] + 757 u[4]
   + 123 u[5] + 806 u[6] + 317 u[7] + 622 u[8] + 699 u[9] + 925 u[10]
   + 588 u[11] + 829 u[12] + 501 u[13] + 958 u[14] + 462 u[15] + 22 u[16]
   + 81 u[17] + 258 u[18] + 343 u[19] + 886 u[20] + 97 u[21] + 669 u[22]
   + 728 u[23] + 78 u[24] + 201 u[25] + 323 u[26] + 153 u[27] + 567 u[28]
   + 328 u[29] + 475 u[30] + 845 u[31] + 685 u[32] + 390 u[33] + 853 u[34]
   + 586 u[35] + 693 u[36] + 230 u[37] + 61 u[38] + 928 u[39] + 240 u[40]
   + 107 u[41] + 223 u[42] + 175 u[43] + 200 u[44] + 940 u[45] + 27 u[46]
   + 723 u[47] + 888 u[48] + 201 u[49] + 904 u[50] + 825 u[51] + 510 u[52]
   + 317 u[53] + 386 u[54] + 593 u[55] + 922 u[56] + 132 u[57] + 645 u[58]
   + 547 u[59] <= 14404
 primal_lower772: 756 u[0] + 101 u[1] + 239 u[2] + 788 u[3] + 177 u[4]
   + 634 u[5] + 538 u[6] + 4 u[7] + 74 u[8] + 259 u[9] + 656 u[10]
   + 908 u[11] + 265 u[12] + 701 u[13] + 825 u[14] + 117 u[15] + 138 u[16]
   + 313 u[17] + 710 u[18] + 87 u[19] + 570 u[20] + 656 u[21] + 361 u[22]
   + 839 u[23] + 881 u[24] + 353 u[25] + 663 u[26] + 176 u[27] + 242 u[28]
   + 440 u[29] + 654 u[30] + 172 u[31] + 976 u[32] + 670 u[33] + 881 u[34]
   + 234 u[35] + 577 u[36] + 557 u[37] + 585 u[38] + 463 u[39] + 692 u[40]
   + 594 u[41] + 419 u[42] + 318 u[43] + 76 u[44] + 187 u[45] + 214 u[46]
   + 98 u[47] + 932 u[48] + 713 u[49] + 387 u[50] + 257 u[51] + 986 u[52]
   + 349 u[53] + 797 u[54] + 512 u[55] + 950 u[56] + 795 u[57] + 601 u[58]
   + 955 u[59] <= 10024
 primal_lower773: 737 u[0] + 626 u[1] + 252 u[2] + 289 u[3] + 374 u[4]
   + 455 u[5] + 407 u[6] + 833 u[7] + 783 u[8] + 960 u[9] + 869 u[10]
   + 441 u[11] + 254 u[12] + 762 u[13] + 870 u[14] + 90 u[15] + 199 u[16]
   + 902 u[17] + 755 u[18] + 36 u[19] + 479 u[20] + 389 u[21] + 566 u[22]
   + 156 u[23] + 566 u[24] + 14 u[25] + 164 u[26] + 573 u[27] + 311 u[28]
   + 813 u[29] + 779 u[30] + 193 u[31] + 773 u[32] + 467 u[33] + 398 u[34]
   + 791 u[35] + 142 u[36] + 954 u[37] + 62 u[38] + 388 u[39] + 97 u[40]
   + 327 u[41] + 392 u[42] + 507 u[43] + 409 u[44] + 696 u[45] + 619 u[46]
   + 335 u[47] + 585 u[48] + 918 u[49] + 168 u[50] + 158 u[51] + 839 u[52]
   + 858 u[53] + 954 u[54] + 221 u[55] + 819 u[56] + 8 u[57] + 854 u[58]
   + 128 u[59] <= 4960
 primal_lower774: 235 u[0] + 479 u[1] + 549 u[2] + 422 u[3] + 703 u[4]
   + 621 u[5] + 184 u[6] + 703 u[7] + 16 u[8] + 925 u[9] + 39 u[10]
   + 366 u[11] + 415 u[12] + 23 u[13] + 728 u[14] + 520 u[15] + 704 u[16]
   + 131 u[17] + 388 u[18] + 841 u[19] + 312 u[20] + 459 u[21] + 7 u[22]
   + 514 u[23] + 864 u[24] + 219 u[25] + 485 u[26] + 963 u[27] + 545 u[28]
   + 130 u[29] + 45 u[30] + 103 u[31] + 231 u[32] + 832 u[33] + 903 u[34]
   + 836 u[35] + 655 u[36] + 344 u[37] + 951 u[38] + 226 u[39] + 530 u[40]
   + 397 u[41] + 489 u[42] + 329 u[43] + 706 u[44] + 414 u[45] + 53 u[46]
   + 253 u[47] + 66 u[48] + 371 u[49] + 322 u[50] + 483 u[51] + 264 u[52]
   + 455 u[53] + 908 u[54] + 275 u[55] + 28 u[56] + 542 u[57] + 263 u[58]
   + 461 u[59] <= 4370
 primal_lower775: 545 u[0] + 122 u[1] + 772 u[2] + 657 u[3] + 22 u[4]
   + 351 u[5] + 935 u[6] + 337 u[7] + 199 u[8] + 568 u[9] + 613 u[10]
   + 761 u[11] + 430 u[12] + 34 u[13] + 414 u[14] + 738 u[15] + 559 u[16]
   + 558 u[17] + 347 u[18] + 548 u[19] + 983 u[20] + 93 u[21] + 206 u[22]
   + 124 u[23] + 30 u[24] + 518 u[25] + 788 u[26] + 661 u[27] + 71 u[28]
   + 253 u[29] + 819 u[30] + 97 u[31] + 429 u[32] + 803 u[33] + 198 u[34]
   + 487 u[35] + 990 u[36] + 394 u[37] + 774 u[38] + 956 u[39] + 57 u[40]
   + 295 u[41] + 232 u[42] + 139 u[43] + 465 u[44] + 256 u[45] + 731 u[46]
   + 223 u[47] + 713 u[48] + 54 u[49] + 744 u[50] + 846 u[51] + 231 u[52]
   + 106 u[53] + 618 u[54] + 77 u[55] + 979 u[56] + 416 u[57] + 662 u[58]
   + 608 u[59] <= 13818
 primal_lower776: 621 u[0] + 601 u[1] + 391 u[2] + 16 u[3] + 585 u[4]
   + 199 u[5] + 602 u[6] + 569 u[7] + 394 u[8] + 87 u[9] + 361 u[10]
   + 312 u[11] + 385 u[12] + 529 u[13] + 586 u[14] + 826 u[15] + 770 u[16]
   + 437 u[17] + 134 u[18] + 379 u[19] + 250 u[20] + 245 u[21] + 409 u[22]
   + 436 u[23] + 426 u[24] + 741 u[25] + 599 u[26] + 365 u[27] + 155 u[28]
   + 140 u[29] + 751 u[30] + 9 u[31] + 281 u[32] + 994 u[33] + 353 u[34]
   + 470 u[35] + 361 u[36] + 402 u[37] + 33 u[38] + 500 u[39] + 788 u[40]
   + 159 u[41] + 211 u[42] + 539 u[43] + 876 u[44] + 992 u[45] + 71 u[46]
   + 383 u[47] + 780 u[48] + 821 u[49] + 972 u[50] + 925 u[51] + 106 u[52]
   + 937 u[53] + 470 u[54] + 13 u[55] + 950 u[56] + 712 u[57] + 585 u[58]
   + 263 u[59] <= 4709
 primal_lower777: 16 u[0] + 156 u[1] + 258 u[2] + 523 u[3] + 4 u[4]
   + 866 u[5] + 829 u[6] + 652 u[7] + 733 u[8] + 786 u[9] + 220 u[10]
   + 683 u[11] + 556 u[12] + 220 u[13] + 37 u[14] + 765 u[15] + 133 u[16]
   + 808 u[17] + 289 u[18] + 934 u[19] + 317 u[20] + 136 u[21] + 476 u[22]
   + 335 u[23] + 837 u[24] + 720 u[25] + 362 u[26] + 288 u[27] + 910 u[28]
   + 583 u[29] + 874 u[30] + 636 u[31] + 852 u[32] + 821 u[33] + 756 u[34]
   + 617 u[35] + 764 u[36] + 621 u[37] + 212 u[38] + 879 u[39] + 375 u[40]
   + 450 u[41] + 574 u[42] + 958 u[43] + 759 u[44] + 131 u[45] + 162 u[46]
   + 962 u[47] + 287 u[48] + 80 u[49] + 903 u[50] + 720 u[51] + 685 u[52]
   + 540 u[53] + 985 u[54] + 584 u[55] + 865 u[56] + 827 u[57] + 244 u[58]
   + 194 u[59] <= 5458
 primal_lower778: 276 u[0] + 341 u[1] + 735 u[2] + 508 u[3] + 785 u[4]
   + 634 u[5] + 562 u[6] + 236 u[7] + 410 u[8] + 75 u[9] + 88 u[10]
   + 564 u[11] + 545 u[12] + 845 u[13] + 697 u[14] + 725 u[15] + 410 u[16]
   + 753 u[17] + 318 u[18] + 383 u[19] + 722 u[20] + 160 u[21] + 881 u[22]
   + 447 u[23] + 705 u[24] + 945 u[25] + 263 u[26] + 176 u[27] + 226 u[28]
   + 576 u[29] + 6 u[30] + 604 u[31] + 936 u[32] + 254 u[33] + 537 u[34]
   + 18 u[35] + 201 u[36] + 277 u[37] + 545 u[38] + 911 u[39] + 556 u[40]
   + 626 u[41] + 507 u[42] + 694 u[43] + 452 u[44] + 115 u[45] + 790 u[46]
   + 394 u[47] + 236 u[48] + u[49] + 739 u[50] + 153 u[51] + 130 u[52]
   + 301 u[53] + 261 u[54] + 480 u[55] + 630 u[56] + 931 u[57] + 529 u[58]
   + 507 u[59] <= 4718
 primal_lower779: 804 u[0] + 232 u[1] + 262 u[2] + 711 u[3] + 312 u[4]
   + 934 u[5] + 425 u[6] + 624 u[7] + 433 u[8] + 462 u[9] + 920 u[10]
   + 15 u[11] + 896 u[12] + 304 u[13] + u[14] + 537 u[15] + 409 u[16]
   + 932 u[17] + 333 u[18] + 682 u[19] + 689 u[20] + 548 u[21] + 896 u[22]
   + 851 u[23] + 545 u[24] + 428 u[25] + 158 u[26] + 84 u[27] + 674 u[28]
   + 395 u[29] + 158 u[30] + 624 u[31] + 256 u[32] + 617 u[33] + 800 u[34]
   + 901 u[35] + 704 u[36] + 825 u[37] + 400 u[38] + 51 u[39] + 11 u[40]
   + 414 u[41] + 546 u[42] + 322 u[43] + 371 u[44] + 31 u[45] + 798 u[46]
   + 430 u[47] + 435 u[48] + 588 u[49] + 659 u[50] + 220 u[51] + 289 u[52]
   + 704 u[53] + 549 u[54] + 516 u[55] + 565 u[56] + 463 u[57] + 320 u[58]
   + 430 u[59] <= 9831
 primal_lower780: 431 u[0] + 368 u[1] + 210 u[2] + 367 u[3] + 460 u[4]
   + 693 u[5] + 973 u[6] + 55 u[7] + 669 u[8] + 654 u[9] + 963 u[10]
   + 839 u[11] + 116 u[12] + 864 u[13] + 964 u[14] + 752 u[15] + 605 u[16]
   + 860 u[17] + 673 u[18] + 442 u[19] + 109 u[20] + 483 u[21] + 292 u[22]
   + 466 u[23] + 500 u[24] + 884 u[25] + 234 u[26] + 427 u[27] + 461 u[28]
   + 779 u[29] + 745 u[30] + 519 u[31] + 275 u[32] + 25 u[33] + 604 u[34]
   + 853 u[35] + 652 u[36] + 608 u[37] + 588 u[38] + 378 u[39] + 95 u[40]
   + 165 u[41] + 462 u[42] + 625 u[43] + 863 u[44] + 822 u[45] + 73 u[46]
   + 605 u[47] + 367 u[48] + 892 u[49] + 518 u[50] + 732 u[51] + 829 u[52]
   + 688 u[53] + 432 u[54] + 987 u[55] + 641 u[56] + 14 u[57] + 732 u[58]
   + 574 u[59] <= 16478
 primal_lower781: 304 u[0] + 785 u[1] + 459 u[2] + 688 u[3] + 269 u[4]
   + 814 u[5] + 670 u[6] + 488 u[7] + 494 u[8] + 143 u[9] + 20 u[10]
   + 784 u[11] + 701 u[12] + 153 u[13] + 157 u[14] + 585 u[15] + 542 u[16]
   + 773 u[17] + 346 u[18] + 171 u[19] + 526 u[20] + 420 u[21] + 725 u[22]
   + 835 u[23] + 789 u[24] + 669 u[25] + 499 u[26] + 628 u[27] + 910 u[28]
   + 948 u[29] + 226 u[30] + 496 u[31] + 108 u[32] + 226 u[33] + 597 u[34]
   + 462 u[35] + 261 u[36] + 89 u[37] + 621 u[38] + 139 u[39] + 600 u[40]
   + 366 u[41] + 607 u[42] + 818 u[43] + 288 u[44] + 623 u[45] + 570 u[46]
   + 582 u[47] + 88 u[48] + 565 u[49] + 727 u[50] + 261 u[51] + 214 u[52]
   + 433 u[53] + 905 u[54] + 380 u[55] + 898 u[56] + 503 u[57] + 293 u[58]
   + 295 u[59] <= 948
 primal_lower782: 482 u[0] + 299 u[1] + 125 u[2] + 442 u[3] + 903 u[4]
   + 680 u[5] + 408 u[6] + 522 u[7] + 24 u[8] + 193 u[9] + 198 u[10]
   + 594 u[11] + 975 u[12] + 731 u[13] + 735 u[14] + 715 u[15] + 168 u[16]
   + 335 u[17] + 908 u[18] + 213 u[19] + 424 u[20] + 142 u[21] + 567 u[22]
   + 309 u[23] + 823 u[24] + 743 u[25] + 117 u[26] + 150 u[27] + 312 u[28]
   + 262 u[29] + 612 u[30] + 50 u[31] + 46 u[32] + 948 u[33] + 455 u[34]
   + 800 u[35] + 919 u[36] + 27 u[37] + 239 u[38] + 741 u[39] + 58 u[40]
   + 152 u[41] + 289 u[42] + 284 u[43] + 586 u[44] + 985 u[45] + 916 u[46]
   + 304 u[47] + 178 u[48] + 167 u[49] + 913 u[50] + 95 u[51] + 488 u[52]
   + 859 u[53] + 803 u[54] + 686 u[55] + 628 u[56] + 889 u[57] + 167 u[58]
   + 505 u[59] <= 14144
 primal_lower783: 176 u[0] + 745 u[1] + 35 u[2] + 616 u[3] + 765 u[4]
   + 198 u[5] + 174 u[6] + 960 u[7] + 902 u[8] + 943 u[9] + 460 u[10]
   + 696 u[11] + 957 u[12] + 417 u[13] + 181 u[14] + 665 u[15] + 646 u[16]
   + 429 u[17] + 818 u[18] + 499 u[19] + 382 u[20] + 380 u[21] + 109 u[22]
   + 27 u[23] + 293 u[24] + 805 u[25] + 811 u[26] + 476 u[27] + 70 u[28]
   + 172 u[29] + 202 u[30] + 456 u[31] + 28 u[32] + 202 u[33] + 989 u[34]
   + 886 u[35] + 317 u[36] + u[37] + 709 u[38] + 347 u[39] + 216 u[40]
   + 910 u[41] + 135 u[42] + 74 u[43] + 488 u[44] + 87 u[45] + 682 u[46]
   + 334 u[47] + 376 u[48] + 677 u[49] + 895 u[50] + 685 u[51] + 718 u[52]
   + 137 u[53] + 9 u[54] + 988 u[55] + 138 u[56] + 47 u[57] + 957 u[58]
   + 871 u[59] <= 9456
 primal_lower784: 654 u[0] + 594 u[1] + 752 u[2] + 81 u[3] + 210 u[4]
   + 288 u[5] + 307 u[6] + 986 u[7] + 707 u[8] + 40 u[9] + 922 u[10]
   + 97 u[11] + 626 u[12] + 538 u[13] + 131 u[14] + 611 u[15] + 203 u[16]
   + 158 u[17] + 23 u[18] + 244 u[19] + 475 u[20] + 950 u[21] + 874 u[22]
   + 741 u[23] + 35 u[24] + 334 u[25] + 64 u[26] + 422 u[27] + 116 u[28]
   + 917 u[29] + 376 u[30] + 914 u[31] + 130 u[32] + 659 u[33] + 722 u[34]
   + 87 u[35] + 698 u[36] + 403 u[37] + 82 u[38] + 261 u[39] + 757 u[40]
   + 392 u[41] + 724 u[42] + 692 u[43] + 621 u[44] + 457 u[45] + 768 u[46]
   + 456 u[47] + 853 u[48] + 678 u[49] + 677 u[50] + 438 u[51] + 779 u[52]
   + 122 u[53] + 991 u[54] + 982 u[55] + 567 u[56] + 481 u[57] + 242 u[58]
   + 944 u[59] <= 991
 primal_lower785: 249 u[0] + 181 u[1] + 963 u[2] + 908 u[3] + 101 u[4]
   + 331 u[5] + 622 u[6] + 637 u[7] + 174 u[8] + 275 u[9] + 477 u[10]
   + 996 u[11] + 997 u[12] + 829 u[13] + 734 u[14] + 230 u[15] + 590 u[16]
   + 809 u[17] + 554 u[18] + 111 u[19] + 590 u[20] + 873 u[21] + 445 u[22]
   + 472 u[23] + 838 u[24] + 377 u[25] + 187 u[26] + 729 u[27] + 583 u[28]
   + 680 u[29] + 851 u[30] + 221 u[31] + 861 u[32] + 710 u[33] + 901 u[34]
   + 346 u[35] + 845 u[36] + 894 u[37] + 685 u[38] + 104 u[39] + 576 u[40]
   + 755 u[41] + 551 u[42] + 431 u[43] + 184 u[44] + 828 u[45] + 411 u[46]
   + 507 u[47] + 216 u[48] + 81 u[49] + 568 u[50] + 561 u[51] + 782 u[52]
   + 805 u[53] + 554 u[54] + 633 u[55] + 130 u[56] + 460 u[57] + 893 u[58]
   + 219 u[59] <= 11035
 primal_lower786: 668 u[0] + 352 u[1] + 590 u[2] + 911 u[3] + 784 u[4]
   + 254 u[5] + 841 u[6] + 176 u[7] + 153 u[8] + 966 u[9] + 752 u[10]
   + 735 u[11] + 48 u[12] + 64 u[13] + 729 u[14] + 881 u[15] + 921 u[16]
   + 740 u[17] + 357 u[18] + 818 u[19] + 353 u[20] + 164 u[21] + 520 u[22]
   + 123 u[23] + 225 u[24] + 44 u[25] + 662 u[26] + 116 u[27] + 578 u[28]
   + 867 u[29] + 174 u[30] + 192 u[31] + 256 u[32] + 241 u[33] + 672 u[34]
   + 493 u[35] + 216 u[36] + 313 u[37] + 456 u[38] + 131 u[39] + 675 u[40]
   + 614 u[41] + 250 u[42] + 410 u[43] + 131 u[44] + 423 u[45] + 278 u[46]
   + 582 u[47] + 547 u[48] + 340 u[49] + 75 u[50] + 556 u[51] + 185 u[52]
   + 312 u[53] + 21 u[54] + 124 u[55] + 709 u[56] + 607 u[57] + 928 u[58]
   + 230 u[59] <= 13266
 primal_lower787: 388 u[0] + 909 u[1] + 383 u[2] + 340 u[3] + 49 u[4]
   + 82 u[5] + 314 u[6] + 628 u[7] + 274 u[8] + 587 u[9] + 8 u[10]
   + 764 u[11] + 329 u[12] + 909 u[13] + 249 u[14] + 917 u[15] + 530 u[16]
   + 537 u[17] + 798 u[18] + 943 u[19] + 226 u[20] + 480 u[21] + 761 u[22]
   + 975 u[23] + 465 u[24] + 857 u[25] + 975 u[26] + 312 u[27] + 506 u[28]
   + 992 u[29] + 942 u[30] + 812 u[31] + 472 u[32] + 670 u[33] + 529 u[34]
   + 354 u[35] + 673 u[36] + 117 u[37] + 57 u[38] + 271 u[39] + 836 u[40]
   + 778 u[41] + 755 u[42] + 158 u[43] + 948 u[44] + 803 u[45] + 806 u[46]
   + 458 u[47] + 732 u[48] + 225 u[49] + 203 u[50] + 105 u[51] + 490 u[52]
   + 981 u[53] + 469 u[54] + 32 u[55] + 806 u[56] + 707 u[57] + 785 u[58]
   + 435 u[59] <= 21930
 primal_lower788: 885 u[0] + 382 u[1] + 856 u[2] + 637 u[3] + 442 u[4]
   + 811 u[5] + 251 u[6] + 677 u[7] + 907 u[8] + 36 u[9] + 497 u[10]
   + 5 u[11] + 330 u[12] + 102 u[13] + 882 u[14] + 982 u[15] + 915 u[16]
   + 450 u[17] + 31 u[18] + 592 u[19] + 43 u[20] + 769 u[21] + 778 u[22]
   + 200 u[23] + 898 u[24] + 290 u[25] + 864 u[26] + 545 u[27] + 731 u[28]
   + 81 u[29] + 935 u[30] + 453 u[31] + 625 u[32] + 335 u[33] + 434 u[34]
   + 755 u[35] + 914 u[36] + 150 u[37] + 362 u[38] + 344 u[39] + 837 u[40]
   + 483 u[41] + 764 u[42] + 847 u[43] + 205 u[44] + 108 u[45] + 863 u[46]
   + 243 u[47] + 477 u[48] + 514 u[49] + 380 u[50] + 98 u[51] + 883 u[52]
   + 790 u[53] + 30 u[54] + u[55] + 351 u[56] + 276 u[57] + 626 u[58]
   + 68 u[59] <= 15010
 primal_lower789: 400 u[0] + 617 u[1] + 75 u[2] + 560 u[3] + 957 u[4]
   + 774 u[5] + 350 u[6] + 672 u[7] + 958 u[8] + 727 u[9] + 716 u[10]
   + 864 u[11] + 573 u[12] + 801 u[13] + 741 u[14] + 833 u[15] + 582 u[16]
   + 301 u[17] + 770 u[18] + 859 u[19] + 326 u[20] + 604 u[21] + 165 u[22]
   + 611 u[23] + 669 u[24] + 677 u[25] + 835 u[26] + 980 u[27] + 214 u[28]
   + 484 u[29] + 610 u[30] + 752 u[31] + 100 u[32] + 570 u[33] + 117 u[34]
   + 758 u[35] + 997 u[36] + 913 u[37] + 733 u[38] + 931 u[39] + 392 u[40]
   + 158 u[41] + 103 u[42] + 402 u[43] + 512 u[44] + 279 u[45] + 330 u[46]
   + 542 u[47] + 32 u[48] + 189 u[49] + 879 u[50] + 829 u[51] + 774 u[52]
   + 593 u[53] + 137 u[54] + 852 u[55] + 938 u[56] + 615 u[57] + 741 u[58]
   + 87 u[59] <= 5760
 primal_lower790: 374 u[0] + 842 u[1] + 944 u[2] + 609 u[3] + 658 u[4]
   + 944 u[5] + 675 u[6] + 634 u[7] + 491 u[8] + 976 u[9] + 610 u[10]
   + 385 u[11] + 954 u[12] + 562 u[13] + 379 u[14] + 283 u[15] + 739 u[16]
   + 126 u[17] + 327 u[18] + 196 u[19] + 947 u[20] + 198 u[21] + 234 u[22]
   + 541 u[23] + 691 u[24] + 758 u[25] + 424 u[26] + 174 u[27] + 44 u[28]
   + 173 u[29] + 416 u[30] + 922 u[31] + 298 u[32] + 915 u[33] + 530 u[34]
   + 191 u[35] + 538 u[36] + 475 u[37] + 458 u[38] + 253 u[39] + 989 u[40]
   + 472 u[41] + 644 u[42] + 692 u[43] + 29 u[44] + 89 u[45] + 128 u[46]
   + 232 u[47] + 373 u[48] + 422 u[49] + 789 u[50] + 806 u[51] + 83 u[52]
   + 570 u[53] + 519 u[54] + 894 u[55] + 727 u[56] + 449 u[57] + 266 u[58]
   + 792 u[59] <= 15426
 primal_lower791: 465 u[0] + 301 u[1] + 203 u[2] + 844 u[3] + 717 u[4]
   + 691 u[5] + 86 u[6] + 589 u[7] + 398 u[8] + 659 u[9] + 149 u[10]
   + 852 u[11] + 893 u[12] + 293 u[13] + 734 u[14] + 486 u[15] + 198 u[16]
   + 713 u[17] + 610 u[18] + 943 u[19] + 782 u[20] + 569 u[21] + 621 u[22]
   + 256 u[23] + 350 u[24] + 561 u[25] + 467 u[26] + 105 u[27] + 63 u[28]
   + 368 u[29] + 203 u[30] + 469 u[31] + 29 u[32] + 78 u[33] + 469 u[34]
   + 650 u[35] + 157 u[36] + 654 u[37] + 757 u[38] + 992 u[39] + 936 u[40]
   + 547 u[41] + 855 u[42] + 551 u[43] + 384 u[44] + 724 u[45] + 883 u[46]
   + 923 u[47] + 104 u[48] + 137 u[49] + 568 u[50] + 881 u[51] + 214 u[52]
   + 653 u[53] + 842 u[54] + 889 u[55] + 442 u[56] + 84 u[57] + 461 u[58]
   + 627 u[59] <= 10376
 primal_lower792: 430 u[0] + 215 u[1] + 465 u[2] + 310 u[3] + 955 u[4]
   + 980 u[5] + 940 u[6] + 686 u[7] + 668 u[8] + 973 u[9] + 514 u[10]
   + 902 u[11] + 987 u[12] + 591 u[13] + 619 u[14] + 439 u[15] + 988 u[16]
   + 947 u[17] + 432 u[18] + 81 u[19] + 412 u[20] + 226 u[21] + 371 u[22]
   + 841 u[23] + 939 u[24] + 451 u[25] + 401 u[26] + 514 u[27] + 596 u[28]
   + 850 u[29] + 392 u[30] + 622 u[31] + 722 u[32] + 736 u[33] + 427 u[34]
   + 980 u[35] + 243 u[36] + 567 u[37] + 611 u[38] + 721 u[39] + 470 u[40]
   + 428 u[41] + 749 u[42] + 992 u[43] + 958 u[44] + 405 u[45] + 768 u[46]
   + 708 u[47] + 750 u[48] + 883 u[49] + 317 u[50] + 115 u[51] + 604 u[52]
   + 31 u[53] + 887 u[54] + 90 u[55] + 608 u[56] + 637 u[57] + 75 u[58]
   + 45 u[59] <= 992
 primal_lower793: 867 u[0] + 583 u[1] + 661 u[2] + 422 u[3] + 343 u[4]
   + 85 u[5] + 984 u[6] + 415 u[7] + 576 u[8] + 149 u[9] + 31 u[10]
   + 630 u[11] + 839 u[12] + 527 u[13] + 584 u[14] + 904 u[15] + 88 u[16]
   + 875 u[17] + 860 u[18] + 385 u[19] + 784 u[20] + 171 u[21] + 495 u[22]
   + 730 u[23] + 544 u[24] + 35 u[25] + 37 u[26] + 851 u[27] + 625 u[28]
   + 98 u[29] + 541 u[30] + 863 u[31] + 71 u[32] + 992 u[33] + 895 u[34]
   + 796 u[35] + 991 u[36] + 968 u[37] + 791 u[38] + 314 u[39] + 802 u[40]
   + 85 u[41] + 305 u[42] + 425 u[43] + 490 u[44] + 198 u[45] + 173 u[46]
   + 77 u[47] + 914 u[48] + 83 u[49] + 546 u[50] + 99 u[51] + 416 u[52]
   + 319 u[53] + 988 u[54] + 555 u[55] + 484 u[56] + 958 u[57] + 407 u[58]
   + 269 u[59] <= 20662
 primal_lower794: 371 u[0] + 47 u[1] + 565 u[2] + 726 u[3] + 63 u[4]
   + 189 u[5] + 520 u[6] + 415 u[7] + 312 u[8] + 221 u[9] + 655 u[10]
   + 222 u[11] + 15 u[12] + 319 u[13] + 184 u[14] + 640 u[15] + 48 u[16]
   + 259 u[17] + 260 u[18] + 905 u[19] + 152 u[20] + 883 u[21] + 671 u[22]
   + 802 u[23] + 40 u[24] + 963 u[25] + 213 u[26] + 619 u[27] + 665 u[28]
   + 834 u[29] + 293 u[30] + 735 u[31] + 951 u[32] + 272 u[33] + 567 u[34]
   + 892 u[35] + 511 u[36] + 720 u[37] + 503 u[38] + 946 u[39] + 394 u[40]
   + 509 u[41] + 713 u[42] + 145 u[43] + 602 u[44] + 694 u[45] + 637 u[46]
   + 893 u[47] + 34 u[48] + 275 u[49] + 730 u[50] + 859 u[51] + 464 u[52]
   + 759 u[53] + 460 u[54] + 899 u[55] + 884 u[56] + 118 u[57] + 79 u[58]
   + 765 u[59] <= 10027
 primal_lower795: 548 u[0] + 629 u[1] + 751 u[2] + 148 u[3] + 105 u[4]
   + 770 u[5] + 986 u[6] + 220 u[7] + 482 u[8] + 331 u[9] + 928 u[10]
   + 684 u[11] + 401 u[12] + 933 u[13] + 929 u[14] + 869 u[15] + 122 u[16]
   + 321 u[17] + 542 u[18] + 855 u[19] + 458 u[20] + 56 u[21] + 689 u[22]
   + 263 u[23] + 961 u[24] + 49 u[25] + 943 u[26] + 784 u[27] + 842 u[28]
   + 128 u[29] + 982 u[30] + 52 u[31] + 192 u[32] + 190 u[33] + 817 u[34]
   + 330 u[35] + 713 u[36] + 77 u[37] + 601 u[38] + 695 u[39] + 116 u[40]
   + 370 u[41] + 555 u[42] + 886 u[43] + 532 u[44] + 179 u[45] + 230 u[46]
   + 234 u[47] + 228 u[48] + 649 u[49] + 811 u[50] + 585 u[51] + 34 u[52]
   + 749 u[53] + 77 u[54] + 592 u[55] + 6 u[56] + 459 u[57] + 161 u[58]
   + 891 u[59] <= 986
 primal_lower796: 182 u[0] + 538 u[1] + 920 u[2] + 681 u[3] + 18 u[4]
   + 416 u[5] + 707 u[6] + 586 u[7] + 211 u[8] + 728 u[9] + 354 u[10]
   + 953 u[11] + 850 u[12] + 906 u[13] + 699 u[14] + 323 u[15] + 899 u[16]
   + 350 u[17] + 55 u[18] + 844 u[19] + 419 u[20] + 790 u[21] + 170 u[22]
   + 693 u[23] + 899 u[24] + 806 u[25] + 368 u[26] + 166 u[27] + 588 u[28]
   + 205 u[29] + 680 u[30] + 706 u[31] + 698 u[32] + 299 u[33] + 850 u[34]
   + 599 u[35] + 2 u[36] + 715 u[37] + 906 u[38] + 829 u[39] + 253 u[40]
   + 632 u[41] + 908 u[42] + 852 u[43] + 277 u[44] + 393 u[45] + 128 u[46]
   + 32 u[47] + 69 u[48] + 278 u[49] + 741 u[50] + 654 u[51] + 611 u[52]
   + 202 u[53] + 663 u[54] + 734 u[55] + 383 u[56] + 225 u[57] + 474 u[58]
   + 800 u[59] <= 5319
 primal_lower797: 754 u[0] + 686 u[1] + 796 u[2] + 285 u[3] + 62 u[4]
   + 420 u[5] + 63 u[6] + 718 u[7] + 39 u[8] + 972 u[9] + 190 u[10]
   + 349 u[11] + 966 u[12] + 214 u[13] + 639 u[14] + 327 u[15] + 823 u[16]
   + 226 u[17] + 419 u[18] + 328 u[19] + 127 u[20] + 770 u[21] + 126 u[22]
   + 913 u[23] + 111 u[24] + 834 u[25] + 748 u[26] + 810 u[27] + 296 u[28]
   + 689 u[29] + 444 u[30] + 262 u[31] + 758 u[32] + 583 u[33] + 998 u[34]
   + 59 u[35] + 142 u[36] + 351 u[37] + 526 u[38] + 625 u[39] + 625 u[40]
   + 612 u[41] + 216 u[42] + 216 u[43] + 241 u[44] + 157 u[45] + 132 u[46]
   + 116 u[47] + 793 u[48] + 466 u[49] + 153 u[50] + 618 u[51] + 287 u[52]
   + 6 u[53] + 75 u[54] + 898 u[55] + 867 u[56] + 85 u[57] + 46 u[58]
   + 684 u[59] <= 998
 primal_lower798: 92 u[0] + 477 u[1] + 855 u[2] + 900 u[3] + 553 u[4]
   + 18 u[5] + 866 u[6] + 404 u[7] + 594 u[8] + 27 u[9] + 248 u[10]
   + 828 u[11] + 913 u[12] + 357 u[13] + 761 u[14] + 333 u[15] + 754 u[16]
   + 497 u[17] + 838 u[18] + 951 u[19] + 258 u[20] + 320 u[21] + 985 u[22]
   + 343 u[23] + 441 u[24] + 233 u[25] + 183 u[26] + 176 u[27] + 458 u[28]
   + 600 u[29] + 590 u[30] + 828 u[31] + 960 u[32] + 702 u[33] + 145 u[34]
   + 834 u[35] + 593 u[36] + 341 u[37] + 553 u[38] + 791 u[39] + 164 u[40]
   + 746 u[41] + 555 u[42] + 774 u[43] + 564 u[44] + 387 u[45] + 30 u[46]
   + 586 u[47] + 780 u[48] + 777 u[49] + 307 u[50] + 345 u[51] + 186 u[52]
   + 261 u[53] + 77 u[54] + 352 u[55] + 582 u[56] + 371 u[57] + 185 u[58]
   + 235 u[59] <= 14932
 primal_lower799: 961 u[0] + 682 u[1] + 140 u[2] + 345 u[3] + 334 u[4]
   + 215 u[5] + 447 u[6] + 41 u[7] + 783 u[8] + 440 u[9] + 597 u[10]
   + 729 u[11] + 222 u[12] + 74 u[13] + 846 u[14] + 210 u[15] + 527 u[16]
   + 950 u[17] + 131 u[18] + 44 u[19] + 567 u[20] + 589 u[21] + 582 u[22]
   + 268 u[23] + 622 u[24] + 790 u[25] + 116 u[26] + 389 u[27] + 655 u[28]
   + 333 u[29] + 243 u[30] + 65 u[31] + 637 u[32] + 251 u[33] + 446 u[34]
   + 191 u[35] + 110 u[36] + 210 u[37] + 294 u[38] + 164 u[39] + 945 u[40]
   + 159 u[41] + 936 u[42] + 595 u[43] + 25 u[44] + 136 u[45] + 523 u[46]
   + 679 u[47] + 473 u[48] + 78 u[49] + 912 u[50] + 966 u[51] + 695 u[52]
   + 970 u[53] + 666 u[54] + 957 u[55] + 43 u[56] + 512 u[57] + 358 u[58]
   + 56 u[59] <= 4487
 primal_lower800: 167 u[0] + 83 u[1] + 89 u[2] + 58 u[3] + 435 u[4]
   + 161 u[5] + 692 u[6] + 211 u[7] + 172 u[8] + 505 u[9] + 275 u[10]
   + 722 u[11] + 115 u[12] + 539 u[13] + 852 u[14] + 252 u[15] + 124 u[16]
   + 399 u[17] + 672 u[18] + 429 u[19] + 628 u[20] + 999 u[21] + 211 u[22]
   + 454 u[23] + 500 u[24] + 695 u[25] + 201 u[26] + 743 u[27] + 909 u[28]
   + 206 u[29] + 825 u[30] + 467 u[31] + 843 u[32] + 748 u[33] + 59 u[34]
   + 600 u[35] + 659 u[36] + 724 u[37] + 675 u[38] + 142 u[39] + 574 u[40]
   + 153 u[41] + 645 u[42] + 413 u[43] + 574 u[44] + 570 u[45] + 537 u[46]
   + 345 u[47] + 750 u[48] + 855 u[49] + 934 u[50] + 271 u[51] + 340 u[52]
   + 747 u[53] + 704 u[54] + 231 u[55] + 48 u[56] + 170 u[57] + 923 u[58]
   + 873 u[59] <= 9632
 primal_lower801: 659 u[0] + 204 u[1] + 518 u[2] + 387 u[3] + 240 u[4]
   + 617 u[5] + 201 u[6] + 419 u[7] + 41 u[8] + 890 u[9] + 151 u[10]
   + 963 u[11] + 648 u[12] + 172 u[13] + 16 u[14] + 996 u[15] + 937 u[16]
   + 752 u[17] + 405 u[18] + 510 u[19] + 897 u[20] + 839 u[21] + 72 u[22]
   + 366 u[23] + 784 u[24] + 936 u[25] + 366 u[26] + 407 u[27] + 857 u[28]
   + 103 u[29] + 821 u[30] + 787 u[31] + 639 u[32] + 5 u[33] + 952 u[34]
   + 945 u[35] + 416 u[36] + 964 u[37] + 576 u[38] + 446 u[39] + 411 u[40]
   + 953 u[41] + 562 u[42] + 445 u[43] + 371 u[44] + 890 u[45] + 605 u[46]
   + 241 u[47] + 779 u[48] + 368 u[49] + 610 u[50] + 528 u[51] + 377 u[52]
   + 20 u[53] + 4 u[54] + 343 u[55] + 293 u[56] + 762 u[57] + 720 u[58]
   + 602 u[59] <= 10596
 primal_lower802: 943 u[0] + 835 u[1] + 9 u[2] + 810 u[3] + 475 u[4]
   + 401 u[5] + 844 u[6] + 195 u[7] + 172 u[8] + 25 u[9] + 547 u[10]
   + 434 u[11] + 147 u[12] + 419 u[13] + 876 u[14] + 132 u[15] + 796 u[16]
   + 351 u[17] + 488 u[18] + 421 u[19] + 732 u[20] + 799 u[21] + 195 u[22]
   + 342 u[23] + 444 u[24] + 727 u[25] + 57 u[26] + 119 u[27] + 565 u[28]
   + 878 u[29] + 553 u[30] + 595 u[31] + 979 u[32] + 964 u[33] + 819 u[34]
   + 8 u[35] + 691 u[36] + 468 u[37] + 443 u[38] + 366 u[39] + 726 u[40]
   + 321 u[41] + 101 u[42] + 325 u[43] + 766 u[44] + 938 u[45] + 441 u[46]
   + u[47] + 862 u[48] + 695 u[49] + 190 u[50] + 463 u[51] + 292 u[52]
   + 827 u[53] + 992 u[54] + 495 u[55] + 632 u[56] + 666 u[57] + 419 u[58]
   + 945 u[59] <= 10387
 primal_lower803: 816 u[0] + 233 u[1] + 867 u[2] + 592 u[3] + 445 u[4]
   + 702 u[5] + 150 u[6] + 632 u[7] + 830 u[8] + 983 u[9] + 284 u[10]
   + 648 u[11] + 205 u[12] + 561 u[13] + 573 u[14] + 865 u[15] + 382 u[16]
   + 789 u[17] + 722 u[18] + 467 u[19] + 510 u[20] + 284 u[21] + 557 u[22]
   + 179 u[23] + 477 u[24] + 501 u[25] + 251 u[26] + 636 u[27] + 222 u[28]
   + 156 u[29] + 834 u[30] + 688 u[31] + 804 u[32] + 722 u[33] + 509 u[34]
   + 358 u[35] + 445 u[36] + 897 u[37] + 277 u[38] + 939 u[39] + 960 u[40]
   + 886 u[41] + 271 u[42] + 474 u[43] + 296 u[44] + 903 u[45] + 82 u[46]
   + 678 u[47] + 528 u[48] + 165 u[49] + 391 u[50] + 605 u[51] + 126 u[52]
   + 489 u[53] + 569 u[54] + 708 u[55] + 850 u[56] + 727 u[57] + 685 u[58]
   + 63 u[59] <= 16224
 primal_lower804: 851 u[0] + 431 u[1] + 613 u[2] + 110 u[3] + 855 u[4]
   + 141 u[5] + 232 u[6] + 823 u[7] + 240 u[8] + 917 u[9] + 279 u[10]
   + 966 u[11] + 447 u[12] + 751 u[13] + 536 u[14] + 864 u[15] + 128 u[16]
   + 243 u[17] + 868 u[18] + 993 u[19] + 408 u[20] + 891 u[21] + 415 u[22]
   + 658 u[23] + 480 u[24] + 323 u[25] + 765 u[26] + 443 u[27] + 73 u[28]
   + 330 u[29] + 965 u[30] + 455 u[31] + 647 u[32] + 952 u[33] + 111 u[34]
   + 668 u[35] + 183 u[36] + 704 u[37] + 79 u[38] + 786 u[39] + 786 u[40]
   + 309 u[41] + 25 u[42] + 601 u[43] + 490 u[44] + 998 u[45] + 629 u[46]
   + 381 u[47] + 42 u[48] + 43 u[49] + 634 u[50] + 883 u[51] + 696 u[52]
   + 815 u[53] + 828 u[54] + 99 u[55] + 572 u[56] + 278 u[57] + 247 u[58]
   + 205 u[59] <= 10395
 primal_lower805: 425 u[0] + 482 u[1] + 788 u[2] + 505 u[3] + 238 u[4]
   + 271 u[5] + 671 u[6] + 833 u[7] + 303 u[8] + 392 u[9] + 221 u[10]
   + 217 u[11] + 550 u[12] + 154 u[13] + 118 u[14] + 562 u[15] + 295 u[16]
   + 70 u[17] + 531 u[18] + 548 u[19] + 847 u[20] + 805 u[21] + 790 u[22]
   + 396 u[23] + 734 u[24] + 678 u[25] + 436 u[26] + 789 u[27] + 119 u[28]
   + 429 u[29] + 315 u[30] + 225 u[31] + 253 u[32] + 627 u[33] + 814 u[34]
   + 279 u[35] + 678 u[36] + 226 u[37] + 622 u[38] + 996 u[39] + 873 u[40]
   + 159 u[41] + 568 u[42] + 395 u[43] + 649 u[44] + 8 u[45] + 403 u[46]
   + 687 u[47] + 297 u[48] + 942 u[49] + 840 u[50] + 854 u[51] + 23 u[52]
   + 514 u[53] + 234 u[54] + 341 u[55] + 451 u[56] + 504 u[57] + 462 u[58]
   + 440 u[59] <= 9625
 primal_lower806: 144 u[0] + 700 u[1] + 146 u[2] + 283 u[3] + 868 u[4]
   + 594 u[5] + 573 u[6] + 724 u[7] + 309 u[8] + 186 u[9] + 332 u[10]
   + 387 u[11] + 164 u[12] + 708 u[13] + 829 u[14] + 221 u[15] + 365 u[16]
   + 408 u[17] + 113 u[18] + 406 u[19] + 957 u[20] + 136 u[21] + 804 u[22]
   + 391 u[23] + 477 u[24] + 32 u[25] + 626 u[26] + 752 u[27] + 918 u[28]
   + 991 u[29] + 634 u[30] + 476 u[31] + 20 u[32] + 973 u[33] + 636 u[34]
   + 353 u[35] + 956 u[36] + 37 u[37] + 708 u[38] + 63 u[39] + 423 u[40]
   + 210 u[41] + 118 u[42] + 606 u[43] + 903 u[44] + 995 u[45] + 986 u[46]
   + 610 u[47] + 727 u[48] + 120 u[49] + 911 u[50] + 584 u[51] + 893 u[52]
   + 116 u[53] + 665 u[54] + 936 u[55] + 817 u[56] + 947 u[57] + 964 u[58]
   + 706 u[59] <= 10879
 primal_lower807: 841 u[0] + 954 u[1] + 516 u[2] + 665 u[3] + 294 u[4]
   + 287 u[5] + 615 u[6] + 569 u[7] + 647 u[8] + 176 u[9] + 565 u[10]
   + 113 u[11] + 958 u[12] + 610 u[13] + 622 u[14] + 594 u[15] + 999 u[16]
   + 582 u[17] + 955 u[18] + 380 u[19] + 607 u[20] + 485 u[21] + 478 u[22]
   + 612 u[23] + 366 u[24] + 118 u[25] + 84 u[26] + 829 u[27] + 111 u[28]
   + 573 u[29] + 643 u[30] + 849 u[31] + 61 u[32] + 915 u[33] + 294 u[34]
   + 911 u[35] + 814 u[36] + 770 u[37] + 254 u[38] + 772 u[39] + 625 u[40]
   + 135 u[41] + 112 u[42] + 699 u[43] + 977 u[44] + 920 u[45] + 739 u[46]
   + 335 u[47] + 457 u[48] + 870 u[49] + 432 u[50] + 326 u[51] + 311 u[52]
   + 890 u[53] + 298 u[54] + 21 u[55] + 99 u[56] + 144 u[57] + 934 u[58]
   + 920 u[59] <= 10910
 primal_lower808: 221 u[0] + 305 u[1] + 807 u[2] + 976 u[3] + 761 u[4]
   + 495 u[5] + 2 u[6] + 241 u[7] + 370 u[8] + 647 u[9] + 297 u[10]
   + 104 u[11] + 993 u[12] + 825 u[13] + 26 u[14] + 834 u[15] + 170 u[16]
   + 21 u[17] + 494 u[18] + 315 u[19] + 906 u[20] + 557 u[21] + 625 u[22]
   + 108 u[23] + 506 u[24] + 205 u[25] + 663 u[26] + 677 u[27] + 931 u[28]
   + 844 u[29] + 247 u[30] + 377 u[31] + 857 u[32] + 138 u[33] + 929 u[34]
   + 14 u[35] + 193 u[36] + 570 u[37] + 577 u[38] + 100 u[39] + 372 u[40]
   + 991 u[41] + 691 u[42] + 595 u[43] + 828 u[44] + 848 u[45] + 95 u[46]
   + 951 u[47] + 516 u[48] + 197 u[49] + 364 u[50] + 317 u[51] + 826 u[52]
   + 961 u[53] + 22 u[54] + 861 u[55] + 590 u[56] + 248 u[57] + 97 u[58]
   + 495 u[59] <= 9931
 primal_lower809: 327 u[0] + 336 u[1] + 722 u[2] + 439 u[3] + 116 u[4]
   + 877 u[5] + 597 u[6] + 407 u[7] + 165 u[8] + 142 u[9] + 907 u[10]
   + 575 u[11] + 964 u[12] + 504 u[13] + 644 u[14] + 640 u[15] + 605 u[16]
   + 700 u[17] + 857 u[18] + 594 u[19] + 797 u[20] + 891 u[21] + 660 u[22]
   + 90 u[23] + 796 u[24] + 900 u[25] + 554 u[26] + 731 u[27] + 477 u[28]
   + 435 u[29] + 89 u[30] + 983 u[31] + 139 u[32] + 737 u[33] + 52 u[34]
   + 381 u[35] + 412 u[36] + 664 u[37] + 764 u[38] + 82 u[39] + 503 u[40]
   + 669 u[41] + 414 u[42] + 689 u[43] + 399 u[44] + 766 u[45] + 481 u[46]
   + 69 u[47] + 351 u[48] + 140 u[49] + 854 u[50] + 524 u[51] + 813 u[52]
   + 696 u[53] + 496 u[54] + 947 u[55] + 769 u[56] + 382 u[57] + 420 u[58]
   + 110 u[59] <= 21496
 primal_lower810: 287 u[0] + 32 u[1] + 594 u[2] + 463 u[3] + 388 u[4]
   + 517 u[5] + 285 u[6] + 631 u[7] + 757 u[8] + 510 u[9] + 43 u[10]
   + 927 u[11] + 428 u[12] + 312 u[13] + 588 u[14] + 280 u[15] + 525 u[16]
   + 564 u[17] + 809 u[18] + 170 u[19] + 501 u[20] + 811 u[21] + 220 u[22]
   + 530 u[23] + 396 u[24] + 428 u[25] + 178 u[26] + 475 u[27] + 285 u[28]
   + 875 u[29] + 81 u[30] + 151 u[31] + 891 u[32] + 761 u[33] + 972 u[34]
   + 45 u[35] + 908 u[36] + 816 u[37] + 556 u[38] + 146 u[39] + 783 u[40]
   + 797 u[41] + 726 u[42] + 25 u[43] + 159 u[44] + 518 u[45] + 65 u[46]
   + 13 u[47] + 295 u[48] + 844 u[49] + 702 u[50] + 420 u[51] + 245 u[52]
   + 240 u[53] + 336 u[54] + 259 u[55] + 609 u[56] + 870 u[57] + 20 u[58]
   + 646 u[59] <= 4618
 primal_lower811: 693 u[0] + 126 u[1] + 880 u[2] + 189 u[3] + 914 u[4]
   + 475 u[5] + 843 u[6] + 517 u[7] + 259 u[8] + 460 u[9] + 825 u[10]
   + 413 u[11] + 674 u[12] + 214 u[13] + 42 u[14] + 702 u[15] + 43 u[16]
   + 546 u[17] + 415 u[18] + 32 u[19] + 619 u[20] + 9 u[21] + 530 u[22]
   + 296 u[23] + 754 u[24] + 650 u[25] + 712 u[26] + 337 u[27] + 683 u[28]
   + 945 u[29] + 135 u[30] + 125 u[31] + 953 u[32] + 519 u[33] + 706 u[34]
   + 867 u[35] + 386 u[36] + 758 u[37] + 402 u[38] + 200 u[39] + 381 u[40]
   + 699 u[41] + 428 u[42] + 167 u[43] + 549 u[44] + 460 u[45] + 287 u[46]
   + 587 u[47] + 685 u[48] + 58 u[49] + 260 u[50] + 42 u[51] + 851 u[52]
   + 390 u[53] + 942 u[54] + 345 u[55] + 647 u[56] + 236 u[57] + 618 u[58]
   + 828 u[59] <= 14654
 primal_lower812: 810 u[0] + 731 u[1] + 133 u[2] + 354 u[3] + 703 u[4]
   + 848 u[5] + 24 u[6] + 162 u[7] + 904 u[8] + 561 u[9] + 206 u[10]
   + 586 u[11] + 903 u[12] + 467 u[13] + 111 u[14] + 211 u[15] + 456 u[16]
   + 551 u[17] + 140 u[18] + 357 u[19] + 552 u[20] + 470 u[21] + 311 u[22]
   + 821 u[23] + 327 u[24] + 935 u[25] + 893 u[26] + 830 u[27] + 864 u[28]
   + 798 u[29] + 492 u[30] + 658 u[31] + 318 u[32] + 788 u[33] + 543 u[34]
   + 832 u[35] + 567 u[36] + 659 u[37] + 63 u[38] + 565 u[39] + 714 u[40]
   + 848 u[41] + 761 u[42] + 724 u[43] + 866 u[44] + 81 u[45] + 556 u[46]
   + 1000 u[47] + 258 u[48] + 775 u[49] + 849 u[50] + 359 u[51] + 256 u[52]
   + 163 u[53] + 435 u[54] + 726 u[55] + 772 u[56] + 521 u[57] + 727 u[58]
   + 977 u[59] <= 22581
 primal_lower813: 278 u[0] + 79 u[1] + 577 u[2] + 726 u[3] + 195 u[4]
   + 12 u[5] + 172 u[6] + 614 u[7] + 484 u[8] + 949 u[9] + 426 u[10]
   + 838 u[11] + 323 u[12] + 159 u[13] + 227 u[14] + 375 u[15] + 804 u[16]
   + 3 u[17] + 824 u[18] + 489 u[19] + 140 u[20] + 378 u[21] + 603 u[22]
   + 161 u[23] + 515 u[24] + 379 u[25] + 697 u[26] + 442 u[27] + 348 u[28]
   + 874 u[29] + 736 u[30] + 934 u[31] + 506 u[32] + 480 u[33] + 475 u[34]
   + 708 u[35] + 123 u[36] + 871 u[37] + 843 u[38] + 513 u[39] + 62 u[40]
   + 740 u[41] + 333 u[42] + 216 u[43] + 142 u[44] + 565 u[45] + 968 u[46]
   + 780 u[47] + 590 u[48] + 883 u[49] + 397 u[50] + 499 u[51] + 148 u[52]
   + 623 u[53] + 183 u[54] + 250 u[55] + 448 u[56] + 365 u[57] + 555 u[58]
   + 557 u[59] <= 14292
 primal_lower814: 112 u[0] + 148 u[1] + 546 u[2] + 859 u[3] + 260 u[4]
   + 938 u[5] + 5 u[6] + 12 u[7] + 701 u[8] + 906 u[9] + 860 u[10]
   + 779 u[11] + 212 u[12] + 316 u[13] + 117 u[14] + 261 u[15] + 485 u[16]
   + 704 u[17] + 337 u[18] + 886 u[19] + 557 u[20] + 232 u[21] + 148 u[22]
   + 311 u[23] + 957 u[24] + 752 u[25] + 50 u[26] + 40 u[27] + 622 u[28]
   + 223 u[29] + 514 u[30] + 892 u[31] + 308 u[32] + 853 u[33] + 596 u[34]
   + 65 u[35] + 332 u[36] + 341 u[37] + 764 u[38] + 527 u[39] + 615 u[40]
   + 410 u[41] + 542 u[42] + 886 u[43] + 231 u[44] + 611 u[45] + 586 u[46]
   + 762 u[47] + 903 u[48] + 16 u[49] + 783 u[50] + 88 u[51] + 453 u[52]
   + 756 u[53] + 481 u[54] + 344 u[55] + 241 u[56] + 35 u[57] + 652 u[58]
   + 298 u[59] <= 14110
 primal_lower815: 192 u[0] + 748 u[1] + 234 u[2] + 947 u[3] + 460 u[4]
   + 978 u[5] + 285 u[6] + 4 u[7] + 53 u[8] + 266 u[9] + 780 u[10]
   + 907 u[11] + 700 u[12] + 940 u[13] + 477 u[14] + 101 u[15] + 973 u[16]
   + 944 u[17] + 921 u[18] + 414 u[19] + 653 u[20] + 856 u[21] + 828 u[22]
   + 759 u[23] + 189 u[24] + 456 u[25] + 618 u[26] + 424 u[27] + 798 u[28]
   + 199 u[29] + 474 u[30] + 668 u[31] + 236 u[32] + 901 u[33] + 564 u[34]
   + 737 u[35] + 212 u[36] + 429 u[37] + 324 u[38] + 879 u[39] + 655 u[40]
   + 346 u[41] + 854 u[42] + 950 u[43] + 775 u[44] + 795 u[45] + 882 u[46]
   + 354 u[47] + 791 u[48] + 960 u[49] + 479 u[50] + 544 u[51] + 949 u[52]
   + 796 u[53] + 185 u[54] + 248 u[55] + 161 u[56] + 35 u[57] + 180 u[58]
   + 450 u[59] <= 5652
 primal_lower816: 836 u[0] + 144 u[1] + 102 u[2] + 655 u[3] + 552 u[4]
   + 574 u[5] + 25 u[6] + 880 u[7] + 201 u[8] + 374 u[9] + 144 u[10]
   + 999 u[11] + 24 u[12] + 904 u[13] + 961 u[14] + 817 u[15] + 465 u[16]
   + 420 u[17] + 245 u[18] + 978 u[19] + 25 u[20] + 708 u[21] + 984 u[22]
   + 611 u[23] + 65 u[24] + 780 u[25] + 270 u[26] + 132 u[27] + 586 u[28]
   + 411 u[29] + 782 u[30] + 904 u[31] + 808 u[32] + 329 u[33] + 352 u[34]
   + 341 u[35] + 288 u[36] + 409 u[37] + 24 u[38] + 963 u[39] + 667 u[40]
   + 382 u[41] + 658 u[42] + 226 u[43] + 843 u[44] + 743 u[45] + 206 u[46]
   + 446 u[47] + 963 u[48] + 460 u[49] + 931 u[50] + 268 u[51] + 769 u[52]
   + 800 u[53] + 805 u[54] + 676 u[55] + 877 u[56] + 687 u[57] + 56 u[58]
   + 926 u[59] <= 5410
 primal_lower817: 325 u[0] + 646 u[1] + 816 u[2] + 157 u[3] + 274 u[4]
   + 587 u[5] + 323 u[6] + 805 u[7] + 563 u[8] + 988 u[9] + 537 u[10]
   + 221 u[11] + 770 u[12] + 78 u[13] + 786 u[14] + 990 u[15] + 307 u[16]
   + 474 u[17] + 631 u[18] + 904 u[19] + 955 u[20] + 865 u[21] + 850 u[22]
   + 24 u[23] + 618 u[24] + 274 u[25] + 160 u[26] + 41 u[27] + 147 u[28]
   + 225 u[29] + 463 u[30] + 533 u[31] + 865 u[32] + 647 u[33] + 202 u[34]
   + 723 u[35] + 178 u[36] + 438 u[37] + 746 u[38] + 440 u[39] + 181 u[40]
   + 995 u[41] + 156 u[42] + 207 u[43] + 253 u[44] + 604 u[45] + 695 u[46]
   + 811 u[47] + 661 u[48] + 18 u[49] + 892 u[50] + 682 u[51] + 539 u[52]
   + 854 u[53] + 14 u[54] + 193 u[55] + 495 u[56] + 668 u[57] + 114 u[58]
   + 564 u[59] <= 10057
 primal_lower818: 383 u[0] + 648 u[1] + 226 u[2] + 687 u[3] + 876 u[4]
   + 597 u[5] + 597 u[6] + 495 u[7] + 589 u[8] + 934 u[9] + 211 u[10]
   + 519 u[11] + 540 u[12] + 672 u[13] + 60 u[14] + 16 u[15] + 485 u[16]
   + 284 u[17] + 625 u[18] + 666 u[19] + 597 u[20] + 931 u[21] + 124 u[22]
   + 170 u[23] + 836 u[24] + 556 u[25] + 130 u[26] + 107 u[27] + 797 u[28]
   + 499 u[29] + 857 u[30] + 831 u[31] + 555 u[32] + 569 u[33] + 700 u[34]
   + 965 u[35] + 188 u[36] + 192 u[37] + 900 u[38] + 794 u[39] + 351 u[40]
   + 365 u[41] + 926 u[42] + 193 u[43] + 847 u[44] + 366 u[45] + 41 u[46]
   + 677 u[47] + 679 u[48] + 940 u[49] + 822 u[50] + 932 u[51] + 21 u[52]
   + 800 u[53] + 56 u[54] + 147 u[55] + 369 u[56] + 142 u[57] + 516 u[58]
   + 38 u[59] <= 10212
 primal_lower819: 126 u[0] + 386 u[1] + 280 u[2] + 705 u[3] + 634 u[4]
   + 1000 u[5] + 203 u[6] + 482 u[7] + 291 u[8] + 664 u[9] + 186 u[10]
   + 25 u[11] + 866 u[12] + 186 u[13] + 779 u[14] + 579 u[15] + 523 u[16]
   + 326 u[17] + 911 u[18] + 228 u[19] + 59 u[20] + 662 u[21] + 938 u[22]
   + 813 u[23] + 99 u[24] + 174 u[25] + 952 u[26] + 190 u[27] + 868 u[28]
   + 437 u[29] + 360 u[30] + 666 u[31] + 938 u[32] + 155 u[33] + 714 u[34]
   + 167 u[35] + 58 u[36] + 275 u[37] + 210 u[38] + 973 u[39] + 45 u[40]
   + 296 u[41] + 868 u[42] + 76 u[43] + 885 u[44] + 617 u[45] + 232 u[46]
   + 72 u[47] + 221 u[48] + 598 u[49] + 501 u[50] + 854 u[51] + 611 u[52]
   + 962 u[53] + 367 u[54] + 630 u[55] + 119 u[56] + 561 u[57] + 146 u[58]
   + 184 u[59] <= 13966
 primal_lower820: 669 u[0] + 305 u[1] + 767 u[2] + 912 u[3] + 225 u[4]
   + 287 u[5] + 146 u[6] + 177 u[7] + 498 u[8] + 743 u[9] + 393 u[10]
   + 504 u[11] + 785 u[12] + 577 u[13] + 130 u[14] + 314 u[15] + 674 u[16]
   + 429 u[17] + 86 u[18] + 667 u[19] + 362 u[20] + 77 u[21] + 49 u[22]
   + 76 u[23] + 26 u[24] + 45 u[25] + 311 u[26] + 709 u[27] + 427 u[28]
   + 844 u[29] + 279 u[30] + 201 u[31] + 241 u[32] + 818 u[33] + 657 u[34]
   + 366 u[35] + 497 u[36] + 554 u[37] + 193 u[38] + 268 u[39] + 900 u[40]
   + 351 u[41] + 707 u[42] + 395 u[43] + 292 u[44] + 528 u[45] + 47 u[46]
   + 151 u[47] + 940 u[48] + 893 u[49] + 52 u[50] + 421 u[51] + 962 u[52]
   + 289 u[53] + 950 u[54] + 549 u[55] + 342 u[56] + 960 u[57] + 121 u[58]
   + 175 u[59] <= 4385
 primal_lower821: 802 u[0] + 603 u[1] + 565 u[2] + 882 u[3] + 815 u[4]
   + 960 u[5] + 416 u[6] + 602 u[7] + 584 u[8] + 513 u[9] + 150 u[10]
   + 234 u[11] + 159 u[12] + 739 u[13] + 159 u[14] + 667 u[15] + 672 u[16]
   + 943 u[17] + 636 u[18] + 805 u[19] + 320 u[20] + 510 u[21] + 567 u[22]
   + 5 u[23] + 767 u[24] + 839 u[25] + 165 u[26] + 358 u[27] + 768 u[28]
   + 798 u[29] + 740 u[30] + 26 u[31] + 798 u[32] + 516 u[33] + 199 u[34]
   + 256 u[35] + 399 u[36] + 163 u[37] + 591 u[38] + 973 u[39] + 130 u[40]
   + 1000 u[41] + 881 u[42] + 828 u[43] + 898 u[44] + 585 u[45] + 92 u[46]
   + 40 u[47] + 986 u[48] + 935 u[49] + 257 u[50] + 87 u[51] + 328 u[52]
   + 411 u[53] + 875 u[54] + 950 u[55] + 572 u[56] + 985 u[57] + 727 u[58]
   + 401 u[59] <= 16816
 primal_lower822: 758 u[0] + 655 u[1] + 41 u[2] + 86 u[3] + 11 u[4]
   + 20 u[5] + 284 u[6] + 694 u[7] + 12 u[8] + 245 u[9] + 330 u[10]
   + 870 u[11] + 499 u[12] + 279 u[13] + 747 u[14] + 815 u[15] + 948 u[16]
   + 579 u[17] + 176 u[18] + 737 u[19] + 36 u[20] + 898 u[21] + 315 u[22]
   + 25 u[23] + 203 u[24] + 883 u[25] + 361 u[26] + 322 u[27] + 164 u[28]
   + 722 u[29] + 520 u[30] + 118 u[31] + 562 u[32] + 480 u[33] + 515 u[34]
   + 396 u[35] + 211 u[36] + 999 u[37] + 675 u[38] + 873 u[39] + 526 u[40]
   + 124 u[41] + 477 u[42] + 80 u[43] + 174 u[44] + 5 u[45] + 944 u[46]
   + 732 u[47] + 54 u[48] + 947 u[49] + 477 u[50] + 939 u[51] + 12 u[52]
   + 207 u[53] + 135 u[54] + 602 u[55] + 152 u[56] + 293 u[57] + 907 u[58]
   + 293 u[59] <= 8714
 primal_lower823: 39 u[0] + 515 u[1] + 913 u[2] + 298 u[3] + 19 u[4]
   + 65 u[5] + 356 u[6] + 707 u[7] + 804 u[8] + 993 u[9] + 827 u[10]
   + 994 u[11] + 883 u[12] + 883 u[13] + 164 u[14] + 796 u[15] + 940 u[16]
   + 335 u[17] + 56 u[18] + 197 u[19] + 140 u[20] + 287 u[21] + 443 u[22]
   + 582 u[23] + 404 u[24] + 807 u[25] + 305 u[26] + 335 u[27] + 877 u[28]
   + 718 u[29] + 625 u[30] + 851 u[31] + 523 u[32] + 204 u[33] + 907 u[34]
   + 816 u[35] + 499 u[36] + 860 u[37] + 99 u[38] + 110 u[39] + 206 u[40]
   + 361 u[41] + 357 u[42] + 229 u[43] + 534 u[44] + 330 u[45] + 89 u[46]
   + 177 u[47] + 94 u[48] + 359 u[49] + 854 u[50] + 567 u[51] + 652 u[52]
   + 275 u[53] + 376 u[54] + 999 u[55] + 720 u[56] + 746 u[57] + 187 u[58]
   + 713 u[59] <= 10000
 primal_lower824: 639 u[0] + 51 u[1] + 89 u[2] + 738 u[3] + 371 u[4]
   + 377 u[5] + 724 u[6] + 643 u[7] + 428 u[8] + 921 u[9] + 11 u[10]
   + 794 u[11] + 315 u[12] + 971 u[13] + 356 u[14] + 100 u[15] + 164 u[16]
   + 327 u[17] + 280 u[18] + 165 u[19] + 860 u[20] + 343 u[21] + 35 u[22]
   + 382 u[23] + 676 u[24] + 199 u[25] + 25 u[26] + 503 u[27] + 845 u[28]
   + 790 u[29] + 617 u[30] + 523 u[31] + 875 u[32] + 756 u[33] + 971 u[34]
   + 824 u[35] + 371 u[36] + 140 u[37] + 963 u[38] + 526 u[39] + 942 u[40]
   + 25 u[41] + 301 u[42] + 101 u[43] + 494 u[44] + 666 u[45] + 721 u[46]
   + 769 u[47] + 126 u[48] + 967 u[49] + 102 u[50] + 599 u[51] + 332 u[52]
   + 371 u[53] + 48 u[54] + 279 u[55] + 624 u[56] + 970 u[57] + 467 u[58]
   + 49 u[59] <= 971
 primal_lower825: 271 u[0] + 504 u[1] + 698 u[2] + 231 u[3] + 324 u[4]
   + 581 u[5] + 669 u[6] + 543 u[7] + 285 u[8] + 390 u[9] + 627 u[10]
   + 759 u[11] + 492 u[12] + 800 u[13] + 932 u[14] + 480 u[15] + 981 u[16]
   + 756 u[17] + 777 u[18] + 322 u[19] + 789 u[20] + 555 u[21] + 180 u[22]
   + 122 u[23] + 460 u[24] + 812 u[25] + 170 u[26] + 947 u[27] + 533 u[28]
   + 91 u[29] + 641 u[30] + 359 u[31] + 483 u[32] + 497 u[33] + 76 u[34]
   + 581 u[35] + 620 u[36] + 208 u[37] + 636 u[38] + 426 u[39] + 95 u[40]
   + 437 u[41] + 486 u[42] + 57 u[43] + 375 u[44] + 686 u[45] + 881 u[46]
   + 373 u[47] + 191 u[48] + 156 u[49] + 30 u[50] + 348 u[51] + 725 u[52]
   + 272 u[53] + 592 u[54] + 931 u[55] + 273 u[56] + 446 u[57] + 948 u[58]
   + 870 u[59] <= 9926
 primal_lower826: 415 u[0] + 944 u[1] + 482 u[2] + 607 u[3] + 140 u[4]
   + 909 u[5] + 789 u[6] + 807 u[7] + 957 u[8] + 638 u[9] + 907 u[10]
   + 791 u[11] + 796 u[12] + 152 u[13] + 380 u[14] + 320 u[15] + 605 u[16]
   + 172 u[17] + 281 u[18] + 122 u[19] + 573 u[20] + 411 u[21] + 372 u[22]
   + 938 u[23] + 412 u[24] + 244 u[25] + 162 u[26] + 211 u[27] + 117 u[28]
   + 59 u[29] + 593 u[30] + 767 u[31] + 659 u[32] + 409 u[33] + 748 u[34]
   + 317 u[35] + 188 u[36] + 920 u[37] + 588 u[38] + 226 u[39] + 271 u[40]
   + 725 u[41] + 62 u[42] + 505 u[43] + 847 u[44] + 214 u[45] + 625 u[46]
   + 965 u[47] + 663 u[48] + 108 u[49] + 270 u[50] + 396 u[51] + 133 u[52]
   + 424 u[53] + 704 u[54] + 459 u[55] + 697 u[56] + 134 u[57] + 436 u[58]
   + 830 u[59] <= 14798
 primal_lower827: 110 u[0] + 439 u[1] + 777 u[2] + 366 u[3] + 763 u[4]
   + 988 u[5] + 964 u[6] + 582 u[7] + 76 u[8] + 965 u[9] + 450 u[10]
   + 902 u[11] + 483 u[12] + 503 u[13] + 99 u[14] + 23 u[15] + 156 u[16]
   + 59 u[17] + 792 u[18] + 49 u[19] + 52 u[20] + 722 u[21] + 331 u[22]
   + 209 u[23] + 595 u[24] + 379 u[25] + 369 u[26] + 754 u[27] + 140 u[28]
   + 834 u[29] + 248 u[30] + 222 u[31] + 402 u[32] + 496 u[33] + 419 u[34]
   + 540 u[35] + 171 u[36] + 207 u[37] + 115 u[38] + 729 u[39] + 190 u[40]
   + 108 u[41] + 973 u[42] + 888 u[43] + 78 u[44] + 893 u[45] + 152 u[46]
   + 700 u[47] + 78 u[48] + 723 u[49] + 29 u[50] + 59 u[51] + 956 u[52]
   + 847 u[53] + 439 u[54] + 666 u[55] + 40 u[56] + 125 u[57] + 107 u[58]
   + 693 u[59] <= 8741
 primal_lower828: 38 u[0] + 479 u[1] + 73 u[2] + 494 u[3] + 683 u[4]
   + 628 u[5] + 652 u[6] + 254 u[7] + 492 u[8] + 949 u[9] + 754 u[10]
   + 718 u[11] + 379 u[12] + 311 u[13] + 259 u[14] + 335 u[15] + 460 u[16]
   + 907 u[17] + 136 u[18] + 577 u[19] + 180 u[20] + 554 u[21] + 307 u[22]
   + 497 u[23] + 635 u[24] + 651 u[25] + 289 u[26] + 282 u[27] + 436 u[28]
   + 826 u[29] + 832 u[30] + 766 u[31] + 842 u[32] + 752 u[33] + 259 u[34]
   + 180 u[35] + 27 u[36] + 743 u[37] + 659 u[38] + 497 u[39] + 798 u[40]
   + 324 u[41] + 61 u[42] + 656 u[43] + 590 u[44] + 229 u[45] + 792 u[46]
   + 604 u[47] + 798 u[48] + 419 u[49] + 325 u[50] + 915 u[51] + 932 u[52]
   + 519 u[53] + 887 u[54] + 586 u[55] + 720 u[56] + 157 u[57] + 427 u[58]
   + 789 u[59] <= 5220
 primal_lower829: 866 u[0] + 491 u[1] + 125 u[2] + 626 u[3] + 183 u[4]
   + 880 u[5] + 216 u[6] + 818 u[7] + 328 u[8] + 673 u[9] + 374 u[10]
   + 266 u[11] + 167 u[12] + 115 u[13] + 255 u[14] + 371 u[15] + 32 u[16]
   + 199 u[17] + 956 u[18] + 837 u[19] + 752 u[20] + 710 u[21] + 247 u[22]
   + 517 u[23] + 383 u[24] + 831 u[25] + 797 u[26] + 94 u[27] + 800 u[28]
   + 782 u[29] + 588 u[30] + 818 u[31] + 526 u[32] + 692 u[33] + 159 u[34]
   + 744 u[35] + 703 u[36] + 299 u[37] + 23 u[38] + 605 u[39] + 810 u[40]
   + 800 u[41] + 185 u[42] + 972 u[43] + 66 u[44] + 305 u[45] + 756 u[46]
   + 856 u[47] + 346 u[48] + 735 u[49] + 713 u[50] + 191 u[51] + 312 u[52]
   + 19 u[53] + 251 u[54] + 846 u[55] + 540 u[56] + 817 u[57] + 463 u[58]
   + 65 u[59] <= 9965
 primal_lower830: 354 u[0] + 787 u[1] + 645 u[2] + 674 u[3] + 119 u[4]
   + 352 u[5] + 944 u[6] + 162 u[7] + 592 u[8] + 305 u[9] + 526 u[10]
   + 146 u[11] + 911 u[12] + 915 u[13] + 663 u[14] + 139 u[15] + 752 u[16]
   + 519 u[17] + 84 u[18] + 101 u[19] + 8 u[20] + 966 u[21] + 911 u[22]
   + 565 u[23] + 927 u[24] + 903 u[25] + 637 u[26] + 446 u[27] + 472 u[28]
   + 6 u[29] + 572 u[30] + 586 u[31] + 590 u[32] + 252 u[33] + 583 u[34]
   + 240 u[35] + 383 u[36] + 523 u[37] + 991 u[38] + 997 u[39] + 466 u[40]
   + 416 u[41] + 633 u[42] + 980 u[43] + 26 u[44] + 537 u[45] + 588 u[46]
   + 784 u[47] + 602 u[48] + 79 u[49] + 329 u[50] + 647 u[51] + 184 u[52]
   + 739 u[53] + 723 u[54] + 942 u[55] + 244 u[56] + 17 u[57] + 615 u[58]
   + 433 u[59] <= 5205
 primal_lower831: 739 u[0] + 575 u[1] + 565 u[2] + 694 u[3] + 271 u[4]
   + 357 u[5] + 184 u[6] + 903 u[7] + 480 u[8] + 413 u[9] + 719 u[10]
   + 526 u[11] + 695 u[12] + 343 u[13] + 112 u[14] + 352 u[15] + 880 u[16]
   + 163 u[17] + 516 u[18] + 257 u[19] + 392 u[20] + 219 u[21] + 455 u[22]
   + 722 u[23] + 808 u[24] + 147 u[25] + 997 u[26] + 683 u[27] + 993 u[28]
   + 834 u[29] + 69 u[30] + 207 u[31] + 527 u[32] + 280 u[33] + 967 u[34]
   + 68 u[35] + 407 u[36] + 600 u[37] + 439 u[38] + 474 u[39] + 778 u[40]
   + 461 u[41] + 361 u[42] + 145 u[43] + 634 u[44] + 838 u[45] + 621 u[46]
   + 989 u[47] + 722 u[48] + 75 u[49] + 986 u[50] + 915 u[51] + 520 u[52]
   + 775 u[53] + 20 u[54] + 875 u[55] + 388 u[56] + 214 u[57] + 303 u[58]
   + 533 u[59] <= 5197
 primal_lower832: 319 u[0] + 8 u[1] + 506 u[2] + 263 u[3] + 708 u[4]
   + 797 u[5] + 485 u[6] + 591 u[7] + 925 u[8] + 950 u[9] + 851 u[10]
   + 975 u[11] + 308 u[12] + 704 u[13] + 724 u[14] + 704 u[15] + 21 u[16]
   + 524 u[17] + 217 u[18] + 906 u[19] + 597 u[20] + 43 u[21] + 812 u[22]
   + 90 u[23] + 684 u[24] + 68 u[25] + 698 u[26] + 163 u[27] + 405 u[28]
   + 651 u[29] + 113 u[30] + 471 u[31] + 875 u[32] + 417 u[33] + 188 u[34]
   + 93 u[35] + 628 u[36] + 368 u[37] + 556 u[38] + 866 u[39] + 615 u[40]
   + 821 u[41] + 918 u[42] + 265 u[43] + 855 u[44] + 526 u[45] + 321 u[46]
   + 5 u[47] + 127 u[48] + 580 u[49] + 694 u[50] + 284 u[51] + 749 u[52]
   + 560 u[53] + 456 u[54] + 187 u[55] + 265 u[56] + 478 u[57] + 212 u[58]
   + 6 u[59] <= 14598
 primal_lower833: 389 u[0] + 201 u[1] + 487 u[2] + 192 u[3] + 273 u[4]
   + 967 u[5] + 618 u[6] + 785 u[7] + 986 u[8] + 159 u[9] + 665 u[10]
   + 296 u[11] + 585 u[12] + 465 u[13] + 522 u[14] + 330 u[15] + 450 u[16]
   + 629 u[17] + 22 u[18] + 3 u[19] + 946 u[20] + 285 u[21] + 209 u[22]
   + 668 u[23] + 194 u[24] + 301 u[25] + 399 u[26] + 197 u[27] + 347 u[28]
   + 260 u[29] + 143 u[30] + 937 u[31] + 393 u[32] + 66 u[33] + 649 u[34]
   + 598 u[35] + 89 u[36] + 586 u[37] + 873 u[38] + 692 u[39] + 420 u[40]
   + 871 u[41] + 131 u[42] + 259 u[43] + 116 u[44] + 200 u[45] + 759 u[46]
   + 7 u[47] + 332 u[48] + 221 u[49] + 452 u[50] + 765 u[51] + 234 u[52]
   + 153 u[53] + 822 u[54] + 213 u[55] + 150 u[56] + 872 u[57] + u[58]
   + 223 u[59] <= 4176
 primal_lower834: 432 u[0] + 337 u[1] + 915 u[2] + 504 u[3] + 197 u[4]
   + 414 u[5] + 950 u[6] + 928 u[7] + 534 u[8] + 447 u[9] + 940 u[10]
   + 656 u[11] + 701 u[12] + 593 u[13] + 701 u[14] + 113 u[15] + 638 u[16]
   + 597 u[17] + 874 u[18] + 155 u[19] + 662 u[20] + 764 u[21] + 253 u[22]
   + 563 u[23] + 189 u[24] + 221 u[25] + 947 u[26] + 28 u[27] + 126 u[28]
   + 500 u[29] + 234 u[30] + 224 u[31] + 844 u[32] + 282 u[33] + 669 u[34]
   + 390 u[35] + 581 u[36] + 497 u[37] + 357 u[38] + 843 u[39] + 48 u[40]
   + 126 u[41] + 407 u[42] + 306 u[43] + 176 u[44] + 991 u[45] + 930 u[46]
   + 366 u[47] + 752 u[48] + 61 u[49] + 151 u[50] + 877 u[51] + 254 u[52]
   + 881 u[53] + 393 u[54] + 12 u[55] + 250 u[56] + 647 u[57] + 477 u[58]
   + 583 u[59] <= 9829
 primal_lower835: 559 u[0] + 531 u[1] + 273 u[2] + 290 u[3] + 195 u[4]
   + 177 u[5] + 876 u[6] + 307 u[7] + 644 u[8] + 537 u[9] + 395 u[10]
   + 858 u[11] + 755 u[12] + 475 u[13] + 532 u[14] + 844 u[15] + 524 u[16]
   + 143 u[17] + 96 u[18] + 757 u[19] + 540 u[20] + 511 u[21] + 195 u[22]
   + 390 u[23] + 276 u[24] + 423 u[25] + 257 u[26] + 543 u[27] + 461 u[28]
   + 150 u[29] + 425 u[30] + 91 u[31] + 139 u[32] + 476 u[33] + 75 u[34]
   + 944 u[35] + 763 u[36] + 668 u[37] + 499 u[38] + 606 u[39] + 710 u[40]
   + 753 u[41] + 917 u[42] + 141 u[43] + 774 u[44] + 274 u[45] + 329 u[46]
   + 121 u[47] + 70 u[48] + 767 u[49] + 742 u[50] + 263 u[51] + 4 u[52]
   + 283 u[53] + 912 u[54] + 255 u[55] + 736 u[56] + 170 u[57] + 75 u[58]
   + 385 u[59] <= 13440
 primal_lower836: 205 u[0] + 702 u[1] + 824 u[2] + 21 u[3] + 34 u[4]
   + 779 u[5] + 123 u[6] + 821 u[7] + 795 u[8] + 564 u[9] + 785 u[10]
   + 501 u[11] + 746 u[12] + 518 u[13] + 450 u[14] + 862 u[15] + 699 u[16]
   + 298 u[17] + 39 u[18] + 48 u[19] + 483 u[20] + 505 u[21] + 210 u[22]
   + 40 u[23] + 922 u[24] + 530 u[25] + 360 u[26] + 761 u[27] + 3 u[28]
   + 745 u[29] + 447 u[30] + 933 u[31] + 961 u[32] + 583 u[33] + 258 u[34]
   + 67 u[35] + 234 u[36] + 742 u[37] + 746 u[38] + 904 u[39] + 829 u[40]
   + 555 u[41] + 36 u[42] + 895 u[43] + 669 u[44] + 580 u[45] + 127 u[46]
   + 171 u[47] + 85 u[48] + 282 u[49] + 380 u[50] + 986 u[51] + 371 u[52]
   + 558 u[53] + 134 u[54] + 865 u[55] + 271 u[56] + 652 u[57] + 738 u[58]
   + 28 u[59] <= 4910
 primal_lower837: 269 u[0] + 94 u[1] + 40 u[2] + 453 u[3] + 570 u[4]
   + 619 u[5] + 363 u[6] + 773 u[7] + 715 u[8] + 924 u[9] + 561 u[10]
   + 957 u[11] + 810 u[12] + 454 u[13] + 362 u[14] + 102 u[15] + 395 u[16]
   + 810 u[17] + 463 u[18] + 72 u[19] + 411 u[20] + 857 u[21] + 410 u[22]
   + 992 u[23] + 682 u[24] + 162 u[25] + 568 u[26] + 809 u[27] + 203 u[28]
   + 361 u[29] + 839 u[30] + 525 u[31] + 777 u[32] + 695 u[33] + 490 u[34]
   + 715 u[35] + 978 u[36] + 206 u[37] + 762 u[38] + 544 u[39] + 981 u[40]
   + 43 u[41] + 412 u[42] + 135 u[43] + 181 u[44] + 628 u[45] + 727 u[46]
   + 387 u[47] + 557 u[48] + 234 u[49] + 12 u[50] + 570 u[51] + 259 u[52]
   + 254 u[53] + 486 u[54] + 529 u[55] + 431 u[56] + 764 u[57] + 50 u[58]
   + 588 u[59] <= 15010
 primal_lower838: 423 u[0] + 496 u[1] + 442 u[2] + 295 u[3] + 4 u[4]
   + 933 u[5] + 997 u[6] + 311 u[7] + 293 u[8] + 894 u[9] + 299 u[10]
   + 663 u[11] + 604 u[12] + 1000 u[13] + 972 u[14] + 840 u[15] + 325 u[16]
   + 380 u[17] + 41 u[18] + 514 u[19] + 165 u[20] + 51 u[21] + 956 u[22]
   + 746 u[23] + 724 u[24] + 196 u[25] + 778 u[26] + 627 u[27] + 805 u[28]
   + 707 u[29] + 233 u[30] + 935 u[31] + 819 u[32] + 361 u[33] + 596 u[34]
   + 365 u[35] + 940 u[36] + 272 u[37] + 996 u[38] + 298 u[39] + 783 u[40]
   + 989 u[41] + 110 u[42] + 993 u[43] + 479 u[44] + 574 u[45] + 105 u[46]
   + 653 u[47] + 671 u[48] + 652 u[49] + 686 u[50] + 252 u[51] + 621 u[52]
   + 648 u[53] + 872 u[54] + 275 u[55] + 881 u[56] + 710 u[57] + 252 u[58]
   + 110 u[59] <= 16806
 primal_lower839: 576 u[0] + 809 u[1] + 835 u[2] + 416 u[3] + 445 u[4]
   + 822 u[5] + 766 u[6] + 208 u[7] + 510 u[8] + 967 u[9] + 276 u[10]
   + 672 u[11] + 413 u[12] + 497 u[13] + 461 u[14] + 705 u[15] + 950 u[16]
   + 645 u[17] + 754 u[18] + 691 u[19] + 6 u[20] + 900 u[21] + 21 u[22]
   + 371 u[23] + 901 u[24] + 437 u[25] + 779 u[26] + 276 u[27] + 110 u[28]
   + 172 u[29] + 738 u[30] + 824 u[31] + 364 u[32] + 506 u[33] + 21 u[34]
   + 974 u[35] + 509 u[36] + 121 u[37] + 61 u[38] + 787 u[39] + 776 u[40]
   + 54 u[41] + 511 u[42] + 26 u[43] + 400 u[44] + 503 u[45] + 818 u[46]
   + 310 u[47] + 552 u[48] + 893 u[49] + 663 u[50] + 933 u[51] + 262 u[52]
   + 977 u[53] + 241 u[54] + 252 u[55] + 530 u[56] + 431 u[57] + 5 u[58]
   + 231 u[59] <= 15332
 primal_lower840: 194 u[0] + 542 u[1] + 388 u[2] + 157 u[3] + 694 u[4]
   + 316 u[5] + 767 u[6] + 526 u[7] + 63 u[8] + 572 u[9] + 702 u[10]
   + 461 u[11] + 454 u[12] + 902 u[13] + 623 u[14] + 823 u[15] + 943 u[16]
   + 634 u[17] + 411 u[18] + 256 u[19] + 335 u[20] + 610 u[21] + 662 u[22]
   + 409 u[23] + 199 u[24] + 746 u[25] + 276 u[26] + 586 u[27] + 112 u[28]
   + 921 u[29] + 556 u[30] + 958 u[31] + 670 u[32] + 167 u[33] + 974 u[34]
   + 651 u[35] + 950 u[36] + 383 u[37] + 950 u[38] + 577 u[39] + 745 u[40]
   + 708 u[41] + 120 u[42] + 352 u[43] + 945 u[44] + 37 u[45] + 180 u[46]
   + 388 u[47] + 225 u[48] + 250 u[49] + 825 u[50] + 146 u[51] + 351 u[52]
   + 662 u[53] + 547 u[54] + 506 u[55] + 923 u[56] + 829 u[57] + 390 u[58]
   + 780 u[59] <= 16014
 primal_lower841: 152 u[0] + 857 u[1] + 595 u[2] + 672 u[3] + 669 u[4]
   + 102 u[5] + 942 u[6] + 40 u[7] + 886 u[8] + 167 u[9] + 932 u[10]
   + 136 u[11] + 149 u[12] + 745 u[13] + 293 u[14] + 177 u[15] + 22 u[16]
   + 621 u[17] + 578 u[18] + 227 u[19] + 910 u[20] + 996 u[21] + 453 u[22]
   + 819 u[23] + 485 u[24] + 381 u[25] + 107 u[26] + 396 u[27] + 846 u[28]
   + 900 u[29] + 42 u[30] + 768 u[31] + 204 u[32] + 114 u[33] + 549 u[34]
   + 286 u[35] + 885 u[36] + 185 u[37] + 829 u[38] + 267 u[39] + 88 u[40]
   + 678 u[41] + 63 u[42] + 218 u[43] + 408 u[44] + 31 u[45] + 194 u[46]
   + 278 u[47] + 720 u[48] + 741 u[49] + 791 u[50] + 365 u[51] + 534 u[52]
   + 281 u[53] + 489 u[54] + 996 u[55] + 442 u[56] + 815 u[57] + 637 u[58]
   + 111 u[59] <= 4710
 primal_lower842: 628 u[0] + 893 u[1] + 495 u[2] + 548 u[3] + 393 u[4]
   + 330 u[5] + 234 u[6] + 44 u[7] + 866 u[8] + 379 u[9] + 960 u[10]
   + 364 u[11] + 209 u[12] + 445 u[13] + 577 u[14] + 981 u[15] + 130 u[16]
   + 33 u[17] + 230 u[18] + 15 u[19] + 18 u[20] + 8 u[21] + 217 u[22]
   + 647 u[23] + 593 u[24] + 729 u[25] + 303 u[26] + 912 u[27] + 18 u[28]
   + 392 u[29] + 766 u[30] + 444 u[31] + 688 u[32] + 718 u[33] + 241 u[34]
   + 794 u[35] + 185 u[36] + 581 u[37] + 497 u[38] + 807 u[39] + 364 u[40]
   + 778 u[41] + 859 u[42] + 510 u[43] + 836 u[44] + 275 u[45] + 966 u[46]
   + 98 u[47] + 980 u[48] + 177 u[49] + 451 u[50] + 105 u[51] + 338 u[52]
   + 613 u[53] + 157 u[54] + 848 u[55] + 550 u[56] + 683 u[57] + 97 u[58]
   + 691 u[59] <= 19125
 primal_lower843: 340 u[0] + 189 u[1] + 399 u[2] + 852 u[3] + 465 u[4]
   + 794 u[5] + 130 u[6] + 260 u[7] + 194 u[8] + 867 u[9] + 256 u[10]
   + 444 u[11] + 753 u[12] + 717 u[13] + 537 u[14] + 989 u[15] + 410 u[16]
   + 153 u[17] + 750 u[18] + 167 u[19] + 906 u[20] + 928 u[21] + 593 u[22]
   + 679 u[23] + 801 u[24] + 721 u[25] + 871 u[26] + 184 u[27] + 842 u[28]
   + 712 u[29] + 54 u[30] + 124 u[31] + 752 u[32] + 214 u[33] + 625 u[34]
   + 466 u[35] + 17 u[36] + 701 u[37] + 369 u[38] + 879 u[39] + 284 u[40]
   + 978 u[41] + 219 u[42] + 726 u[43] + 932 u[44] + 155 u[45] + 774 u[46]
   + 722 u[47] + 44 u[48] + 273 u[49] + 315 u[50] + 305 u[51] + 682 u[52]
   + 93 u[53] + 93 u[54] + 384 u[55] + 534 u[56] + 835 u[57] + 761 u[58]
   + 707 u[59] <= 10306
 primal_lower844: 724 u[0] + 421 u[1] + 295 u[2] + 436 u[3] + 625 u[4]
   + 562 u[5] + 170 u[6] + 940 u[7] + 458 u[8] + 715 u[9] + 296 u[10]
   + 76 u[11] + 745 u[12] + 605 u[13] + 121 u[14] + 277 u[15] + 634 u[16]
   + 873 u[17] + 686 u[18] + 39 u[19] + 290 u[20] + 120 u[21] + 241 u[22]
   + 359 u[23] + 881 u[24] + 25 u[25] + 383 u[26] + 856 u[27] + 938 u[28]
   + 888 u[29] + 638 u[30] + 972 u[31] + 144 u[32] + 174 u[33] + 9 u[34]
   + 642 u[35] + 289 u[36] + 877 u[37] + 953 u[38] + 23 u[39] + 796 u[40]
   + 266 u[41] + 91 u[42] + 526 u[43] + 292 u[44] + 155 u[45] + 486 u[46]
   + 762 u[47] + 956 u[48] + 177 u[49] + 803 u[50] + 161 u[51] + 938 u[52]
   + 877 u[53] + 893 u[54] + 536 u[55] + 702 u[56] + 691 u[57] + 561 u[58]
   + 923 u[59] <= 15496
 primal_lower845: 547 u[0] + 767 u[1] + 77 u[2] + 78 u[3] + 463 u[4]
   + 525 u[5] + 776 u[6] + 119 u[7] + 24 u[8] + 965 u[9] + 911 u[10]
   + 670 u[11] + 343 u[12] + 935 u[13] + 616 u[14] + 48 u[15] + 704 u[16]
   + 131 u[17] + 140 u[18] + 105 u[19] + 368 u[20] + 851 u[21] + 679 u[22]
   + 626 u[23] + 872 u[24] + 747 u[25] + 173 u[26] + 171 u[27] + 753 u[28]
   + 234 u[29] + 597 u[30] + 191 u[31] + 647 u[32] + 728 u[33] + 207 u[34]
   + 316 u[35] + 623 u[36] + 704 u[37] + 303 u[38] + 658 u[39] + 570 u[40]
   + 125 u[41] + 745 u[42] + 401 u[43] + 730 u[44] + 814 u[45] + 685 u[46]
   + 581 u[47] + 498 u[48] + 587 u[49] + 762 u[50] + 283 u[51] + 336 u[52]
   + 127 u[53] + 188 u[54] + 947 u[55] + 852 u[56] + 518 u[57] + 935 u[58]
   + 645 u[59] <= 5120
 primal_lower846: 375 u[0] + 576 u[1] + 890 u[2] + 559 u[3] + 356 u[4]
   + 965 u[5] + 85 u[6] + 383 u[7] + 749 u[8] + 270 u[9] + 739 u[10]
   + 367 u[11] + 636 u[12] + 664 u[13] + 508 u[14] + 32 u[15] + 341 u[16]
   + 580 u[17] + 481 u[18] + 226 u[19] + 157 u[20] + 963 u[21] + 588 u[22]
   + 778 u[23] + 492 u[24] + 820 u[25] + 490 u[26] + 371 u[27] + 125 u[28]
   + 283 u[29] + 97 u[30] + 167 u[31] + 723 u[32] + u[33] + 500 u[34]
   + 93 u[35] + 156 u[36] + 56 u[37] + 68 u[38] + 194 u[39] + 639 u[40]
   + 381 u[41] + 318 u[42] + 913 u[43] + 719 u[44] + 614 u[45] + 537 u[46]
   + 397 u[47] + 759 u[48] + 244 u[49] + 382 u[50] + 700 u[51] + 173 u[52]
   + 80 u[53] + 880 u[54] + 155 u[55] + 209 u[56] + 6 u[57] + 764 u[58]
   + 798 u[59] <= 8857
 primal_lower847: 227 u[0] + 439 u[1] + 541 u[2] + 830 u[3] + 615 u[4]
   + 877 u[5] + 176 u[6] + 415 u[7] + 480 u[8] + 533 u[9] + 623 u[10]
   + 6 u[11] + 727 u[12] + 567 u[13] + 488 u[14] + 96 u[15] + 248 u[16]
   + 59 u[17] + 620 u[18] + 137 u[19] + 432 u[20] + 963 u[21] + 47 u[22]
   + 114 u[23] + 280 u[24] + 267 u[25] + 685 u[26] + 19 u[27] + 273 u[28]
   + 618 u[29] + 29 u[30] + 631 u[31] + 743 u[32] + 576 u[33] + 191 u[34]
   + 812 u[35] + 983 u[36] + 120 u[37] + 871 u[38] + 770 u[39] + 178 u[40]
   + 53 u[41] + 409 u[42] + 513 u[43] + 522 u[44] + 646 u[45] + 885 u[46]
   + 325 u[47] + 666 u[48] + 555 u[49] + 346 u[50] + 643 u[51] + 208 u[52]
   + 679 u[53] + 468 u[54] + 803 u[55] + 532 u[56] + 118 u[57] + 359 u[58]
   + 909 u[59] <= 13972
 primal_lower848: 867 u[0] + 732 u[1] + 510 u[2] + 211 u[3] + 944 u[4]
   + 249 u[5] + 625 u[6] + 155 u[7] + 761 u[8] + 250 u[9] + 655 u[10]
   + 275 u[11] + 680 u[12] + 780 u[13] + 336 u[14] + 316 u[15] + 913 u[16]
   + 992 u[17] + 557 u[18] + 670 u[19] + 81 u[20] + 975 u[21] + 856 u[22]
   + 70 u[23] + 904 u[24] + 96 u[25] + 310 u[26] + 503 u[27] + 449 u[28]
   + 647 u[29] + 845 u[30] + 867 u[31] + 287 u[32] + 333 u[33] + 296 u[34]
   + 881 u[35] + 288 u[36] + 612 u[37] + 888 u[38] + 502 u[39] + 571 u[40]
   + 425 u[41] + 58 u[42] + 757 u[43] + 395 u[44] + 882 u[45] + 517 u[46]
   + 753 u[47] + 563 u[48] + 648 u[49] + 682 u[50] + 456 u[51] + 713 u[52]
   + 972 u[53] + 972 u[54] + 751 u[55] + 373 u[56] + 650 u[57] + 344 u[58]
   + 754 u[59] <= 5734
 primal_lower849: 704 u[0] + 961 u[1] + 75 u[2] + 664 u[3] + 405 u[4]
   + 166 u[5] + 6 u[6] + 24 u[7] + 974 u[8] + 415 u[9] + 196 u[10]
   + 936 u[11] + 301 u[12] + 721 u[13] + 285 u[14] + 769 u[15] + 190 u[16]
   + 485 u[17] + 250 u[18] + 27 u[19] + 294 u[20] + 12 u[21] + 53 u[22]
   + 435 u[23] + 989 u[24] + 205 u[25] + 915 u[26] + 836 u[27] + 334 u[28]
   + 796 u[29] + 274 u[30] + 784 u[31] + 788 u[32] + 418 u[33] + 381 u[34]
   + 998 u[35] + 85 u[36] + 929 u[37] + 629 u[38] + 155 u[39] + 520 u[40]
   + 814 u[41] + 247 u[42] + 338 u[43] + 160 u[44] + 623 u[45] + 946 u[46]
   + 854 u[47] + 424 u[48] + 213 u[49] + 295 u[50] + 21 u[51] + 718 u[52]
   + 169 u[53] + 441 u[54] + 620 u[55] + 986 u[56] + 991 u[57] + 325 u[58]
   + 215 u[59] <= 9594
 primal_lower850: 583 u[0] + 627 u[1] + 849 u[2] + 962 u[3] + 803 u[4]
   + 825 u[5] + 564 u[6] + 963 u[7] + 780 u[8] + 121 u[9] + 731 u[10]
   + 562 u[11] + 731 u[12] + 243 u[13] + 924 u[14] + 476 u[15] + 876 u[16]
   + 399 u[17] + 360 u[18] + 245 u[19] + 196 u[20] + 775 u[21] + 251 u[22]
   + 750 u[23] + 220 u[24] + 327 u[25] + 137 u[26] + 687 u[27] + 909 u[28]
   + 518 u[29] + 697 u[30] + 747 u[31] + 99 u[32] + 372 u[33] + 899 u[34]
   + 120 u[35] + 643 u[36] + 84 u[37] + 667 u[38] + 534 u[39] + 638 u[40]
   + 601 u[41] + 693 u[42] + 293 u[43] + 534 u[44] + 530 u[45] + 81 u[46]
   + 641 u[47] + 174 u[48] + 807 u[49] + 486 u[50] + 895 u[51] + 660 u[52]
   + 883 u[53] + 856 u[54] + 999 u[55] + 232 u[56] + 450 u[57] + 131 u[58]
   + 505 u[59] <= 5557
 primal_lower851: 214 u[0] + 106 u[1] + 48 u[2] + 49 u[3] + 114 u[4]
   + 760 u[5] + 139 u[6] + 170 u[7] + 955 u[8] + 24 u[9] + 354 u[10]
   + 609 u[11] + 34 u[12] + 322 u[13] + 555 u[14] + 211 u[15] + 59 u[16]
   + 102 u[17] + 303 u[18] + 420 u[19] + 363 u[20] + 254 u[21] + 66 u[22]
   + 109 u[23] + 307 u[24] + 230 u[25] + 200 u[26] + 78 u[27] + 700 u[28]
   + 909 u[29] + 184 u[30] + 986 u[31] + 994 u[32] + 715 u[33] + 970 u[34]
   + 551 u[35] + 658 u[36] + 59 u[37] + 882 u[38] + 693 u[39] + 981 u[40]
   + 656 u[41] + 972 u[42] + 268 u[43] + 293 u[44] + 649 u[45] + 424 u[46]
   + 264 u[47] + 885 u[48] + 382 u[49] + 525 u[50] + 238 u[51] + 891 u[52]
   + 586 u[53] + 879 u[54] + 926 u[55] + 935 u[56] + 417 u[57] + 338 u[58]
   + 272 u[59] <= 13618
 primal_lower852: 173 u[0] + 646 u[1] + 32 u[2] + 557 u[3] + 714 u[4]
   + 523 u[5] + 83 u[6] + 453 u[7] + 43 u[8] + 132 u[9] + 145 u[10]
   + 357 u[11] + 874 u[12] + 494 u[13] + 138 u[14] + 70 u[15] + 611 u[16]
   + 682 u[17] + 783 u[18] + 352 u[19] + 251 u[20] + 993 u[21] + 130 u[22]
   + 32 u[23] + 50 u[24] + 298 u[25] + 152 u[26] + 513 u[27] + 307 u[28]
   + 177 u[29] + 567 u[30] + 349 u[31] + 337 u[32] + 671 u[33] + 274 u[34]
   + 139 u[35] + 658 u[36] + 718 u[37] + 906 u[38] + 464 u[39] + 261 u[40]
   + 643 u[41] + 940 u[42] + 151 u[43] + 293 u[44] + 108 u[45] + 951 u[46]
   + 699 u[47] + 877 u[48] + 906 u[49] + 36 u[50] + 226 u[51] + 331 u[52]
   + 430 u[53] + 646 u[54] + 209 u[55] + 407 u[56] + 612 u[57] + 786 u[58]
   + 284 u[59] <= 12822
 primal_lower853: 322 u[0] + 323 u[1] + 877 u[2] + 778 u[3] + 767 u[4]
   + 352 u[5] + 136 u[6] + 418 u[7] + 416 u[8] + 921 u[9] + 886 u[10]
   + 610 u[11] + 343 u[12] + 915 u[13] + 879 u[14] + 811 u[15] + 328 u[16]
   + 887 u[17] + 668 u[18] + 53 u[19] + 432 u[20] + 686 u[21] + 327 u[22]
   + 221 u[23] + 367 u[24] + 647 u[25] + 741 u[26] + 38 u[27] + 768 u[28]
   + 366 u[29] + 164 u[30] + 962 u[31] + 86 u[32] + 484 u[33] + 695 u[34]
   + 216 u[35] + 743 u[36] + 907 u[37] + 935 u[38] + 893 u[39] + 602 u[40]
   + 504 u[41] + 409 u[42] + 412 u[43] + 586 u[44] + 313 u[45] + 644 u[46]
   + 744 u[47] + 378 u[48] + 879 u[49] + 585 u[50] + 607 u[51] + 920 u[52]
   + 867 u[53] + 523 u[54] + 550 u[55] + 276 u[56] + 561 u[57] + 335 u[58]
   + 993 u[59] <= 5676
 primal_lower854: 869 u[0] + 430 u[1] + 648 u[2] + 29 u[3] + 666 u[4]
   + 251 u[5] + 3 u[6] + 341 u[7] + 875 u[8] + 756 u[9] + 745 u[10]
   + 589 u[11] + 658 u[12] + 590 u[13] + 802 u[14] + 526 u[15] + 755 u[16]
   + 386 u[17] + 367 u[18] + 528 u[19] + 635 u[20] + 569 u[21] + 802 u[22]
   + 312 u[23] + 386 u[24] + 314 u[25] + 104 u[26] + 849 u[27] + 963 u[28]
   + 289 u[29] + 775 u[30] + 925 u[31] + 753 u[32] + 535 u[33] + 362 u[34]
   + 531 u[35] + 722 u[36] + 686 u[37] + 386 u[38] + 440 u[39] + 125 u[40]
   + 899 u[41] + 100 u[42] + 359 u[43] + 397 u[44] + 460 u[45] + 823 u[46]
   + 651 u[47] + 365 u[48] + 386 u[49] + 844 u[50] + 850 u[51] + 299 u[52]
   + 670 u[53] + 542 u[54] + 529 u[55] + 935 u[56] + 964 u[57] + 866 u[58]
   + 340 u[59] <= 11185
 primal_lower855: 571 u[0] + 439 u[1] + 341 u[2] + 374 u[3] + 359 u[4]
   + 741 u[5] + 640 u[6] + 719 u[7] + 600 u[8] + 389 u[9] + 911 u[10]
   + 934 u[11] + 583 u[12] + 319 u[13] + 584 u[14] + 832 u[15] + 440 u[16]
   + 131 u[17] + 772 u[18] + 185 u[19] + 136 u[20] + 979 u[21] + 799 u[22]
   + 506 u[23] + 48 u[24] + 291 u[25] + 301 u[26] + 339 u[27] + 185 u[28]
   + 786 u[29] + 149 u[30] + 111 u[31] + 335 u[32] + 88 u[33] + 855 u[34]
   + 540 u[35] + 407 u[36] + 72 u[37] + 415 u[38] + 594 u[39] + 474 u[40]
   + 941 u[41] + 713 u[42] + 841 u[43] + 274 u[44] + 254 u[45] + 389 u[46]
   + 341 u[47] + 594 u[48] + 995 u[49] + 642 u[50] + 739 u[51] + 928 u[52]
   + 767 u[53] + 196 u[54] + 355 u[55] + 268 u[56] + 102 u[57] + 303 u[58]
   + 813 u[59] <= 14864
 primal_lower856: 746 u[0] + 590 u[1] + 364 u[2] + 157 u[3] + 798 u[4]
   + 612 u[5] + 959 u[6] + 174 u[7] + 215 u[8] + 196 u[9] + 382 u[10]
   + 981 u[11] + 438 u[12] + 230 u[13] + 191 u[14] + 343 u[15] + 535 u[16]
   + 58 u[17] + 291 u[18] + 320 u[19] + 647 u[20] + 90 u[21] + 150 u[22]
   + 897 u[23] + 311 u[24] + 714 u[25] + 860 u[26] + 130 u[27] + 600 u[28]
   + 393 u[29] + 436 u[30] + 14 u[31] + 582 u[32] + 623 u[33] + 334 u[34]
   + 331 u[35] + 142 u[36] + 767 u[37] + 422 u[38] + 369 u[39] + 593 u[40]
   + 596 u[41] + 672 u[42] + 592 u[43] + 217 u[44] + 645 u[45] + 812 u[46]
   + 508 u[47] + 849 u[48] + 506 u[49] + 25 u[50] + 546 u[51] + 959 u[52]
   + 198 u[53] + 251 u[54] + 834 u[55] + 523 u[56] + 453 u[57] + 86 u[58]
   + 796 u[59] <= 14026
 primal_lower857: 136 u[0] + 28 u[1] + 26 u[2] + 723 u[3] + 124 u[4]
   + 218 u[5] + 101 u[6] + 236 u[7] + 45 u[8] + 570 u[9] + 52 u[10]
   + 459 u[11] + 564 u[12] + 916 u[13] + 805 u[14] + 701 u[15] + 885 u[16]
   + 496 u[17] + 617 u[18] + 806 u[19] + 173 u[20] + 592 u[21] + 764 u[22]
   + 855 u[23] + 445 u[24] + 80 u[25] + 682 u[26] + 856 u[27] + 46 u[28]
   + 703 u[29] + 538 u[30] + 772 u[31] + 308 u[32] + 357 u[33] + 340 u[34]
   + 385 u[35] + 52 u[36] + 309 u[37] + 852 u[38] + 607 u[39] + 415 u[40]
   + 418 u[41] + 382 u[42] + 694 u[43] + 711 u[44] + 299 u[45] + 714 u[46]
   + 762 u[47] + 791 u[48] + 600 u[49] + 455 u[50] + 72 u[51] + 629 u[52]
   + 268 u[53] + 777 u[54] + 16 u[55] + 361 u[56] + 11 u[57] + 884 u[58]
   + 578 u[59] <= 4676
 primal_lower858: 303 u[0] + 200 u[1] + 170 u[2] + 527 u[3] + 364 u[4]
   + 149 u[5] + 901 u[6] + 479 u[7] + 421 u[8] + 142 u[9] + 323 u[10]
   + 447 u[11] + 860 u[12] + 304 u[13] + 780 u[14] + 248 u[15] + 957 u[16]
   + 436 u[17] + 81 u[18] + 426 u[19] + 613 u[20] + 459 u[21] + 924 u[22]
   + 746 u[23] + 348 u[24] + 476 u[25] + 706 u[26] + 83 u[27] + 653 u[28]
   + 579 u[29] + 849 u[30] + 63 u[31] + 899 u[32] + 481 u[33] + 836 u[34]
   + 645 u[35] + 748 u[36] + 536 u[37] + 300 u[38] + 194 u[39] + 719 u[40]
   + 797 u[41] + 686 u[42] + 737 u[43] + 503 u[44] + 782 u[45] + 697 u[46]
   + 93 u[47] + 159 u[48] + 500 u[49] + 270 u[50] + 532 u[51] + 613 u[52]
   + 768 u[53] + 336 u[54] + 507 u[55] + 305 u[56] + 830 u[57] + 732 u[58]
   + 774 u[59] <= 15498
 primal_lower859: 451 u[0] + 911 u[1] + 365 u[2] + 398 u[3] + 31 u[4]
   + 197 u[5] + 312 u[6] + 311 u[7] + 768 u[8] + 269 u[9] + 879 u[10]
   + 566 u[11] + 39 u[12] + 927 u[13] + 328 u[14] + 800 u[15] + 520 u[16]
   + 139 u[17] + 924 u[18] + 849 u[19] + 528 u[20] + 955 u[21] + 799 u[22]
   + 34 u[23] + 536 u[24] + 355 u[25] + 397 u[26] + 683 u[27] + 425 u[28]
   + 810 u[29] + 965 u[30] + 159 u[31] + 503 u[32] + 992 u[33] + 223 u[34]
   + 780 u[35] + 727 u[36] + 624 u[37] + 919 u[38] + 210 u[39] + 650 u[40]
   + 301 u[41] + 505 u[42] + 473 u[43] + 418 u[44] + 590 u[45] + 301 u[46]
   + 101 u[47] + 338 u[48] + 699 u[49] + 538 u[50] + 67 u[51] + 488 u[52]
   + 71 u[53] + 308 u[54] + 595 u[55] + 628 u[56] + 294 u[57] + 471 u[58]
   + 205 u[59] <= 4941
 primal_lower860: u[0] + 141 u[1] + 235 u[2] + 516 u[3] + 725 u[4]
   + 139 u[5] + 54 u[6] + 173 u[7] + 70 u[8] + 27 u[9] + 581 u[10]
   + 100 u[11] + 253 u[12] + 693 u[13] + 190 u[14] + 110 u[15] + 318 u[16]
   + 849 u[17] + 258 u[18] + 847 u[19] + 902 u[20] + 937 u[21] + 885 u[22]
   + 552 u[23] + 254 u[24] + 105 u[25] + 475 u[26] + 593 u[27] + 215 u[28]
   + 808 u[29] + 459 u[30] + 621 u[31] + 205 u[32] + 774 u[33] + 69 u[34]
   + 890 u[35] + 333 u[36] + 942 u[37] + 445 u[38] + 488 u[39] + 256 u[40]
   + 995 u[41] + 327 u[42] + 687 u[43] + 320 u[44] + 476 u[45] + 835 u[46]
   + 971 u[47] + 40 u[48] + 241 u[49] + 728 u[50] + 225 u[51] + 734 u[52]
   + 477 u[53] + 530 u[54] + 233 u[55] + 202 u[56] + 436 u[57] + 189 u[58]
   + 595 u[59] <= 13364
 primal_lower861: 959 u[0] + 267 u[1] + 697 u[2] + 650 u[3] + 219 u[4]
   + u[5] + 164 u[6] + 947 u[7] + 748 u[8] + 345 u[9] + 131 u[10]
   + 170 u[11] + 115 u[12] + 587 u[13] + 852 u[14] + 612 u[15] + 20 u[16]
   + 55 u[17] + 648 u[18] + 285 u[19] + 124 u[20] + 703 u[21] + 347 u[22]
   + 342 u[23] + 660 u[24] + 271 u[25] + 201 u[26] + 215 u[27] + 709 u[28]
   + 390 u[29] + 33 u[30] + 155 u[31] + 419 u[32] + 164 u[33] + 563 u[34]
   + 208 u[35] + 675 u[36] + 4 u[37] + 235 u[38] + 326 u[39] + 878 u[40]
   + 177 u[41] + 733 u[42] + 493 u[43] + 382 u[44] + 106 u[45] + 441 u[46]
   + 697 u[47] + 334 u[48] + 639 u[49] + 678 u[50] + 135 u[51] + 996 u[52]
   + 627 u[53] + 136 u[54] + 343 u[55] + 152 u[56] + 802 u[57] + 803 u[58]
   + 977 u[59] <= 4290
 primal_lower862: 427 u[0] + 532 u[1] + 14 u[2] + 763 u[3] + 360 u[4]
   + 249 u[5] + 753 u[6] + 867 u[7] + 905 u[8] + 226 u[9] + 727 u[10]
   + 835 u[11] + 56 u[12] + 908 u[13] + 440 u[14] + 428 u[15] + 705 u[16]
   + 232 u[17] + 709 u[18] + 830 u[19] + 289 u[20] + 439 u[21] + 128 u[22]
   + 846 u[23] + 896 u[24] + 64 u[25] + 502 u[26] + 591 u[27] + 641 u[28]
   + 719 u[29] + 613 u[30] + 363 u[31] + 735 u[32] + 645 u[33] + 696 u[34]
   + 801 u[35] + 360 u[36] + 340 u[37] + 816 u[38] + 502 u[39] + 139 u[40]
   + 385 u[41] + 914 u[42] + 133 u[43] + 43 u[44] + 546 u[45] + 357 u[46]
   + 697 u[47] + 35 u[48] + 96 u[49] + 714 u[50] + 272 u[51] + 641 u[52]
   + 604 u[53] + 460 u[54] + 175 u[55] + 557 u[56] + 874 u[57] + 128 u[58]
   + 634 u[59] <= 914
 primal_lower863: 995 u[0] + 28 u[1] + 814 u[2] + 523 u[3] + 528 u[4]
   + 505 u[5] + 721 u[6] + 387 u[7] + 561 u[8] + 170 u[9] + 799 u[10]
   + 619 u[11] + 984 u[12] + 308 u[13] + 488 u[14] + 380 u[15] + 249 u[16]
   + 1000 u[17] + 773 u[18] + 782 u[19] + 985 u[20] + 895 u[21] + 976 u[22]
   + 486 u[23] + 360 u[24] + 56 u[25] + 406 u[26] + 295 u[27] + 497 u[28]
   + 991 u[29] + 277 u[30] + 947 u[31] + 415 u[32] + 301 u[33] + 376 u[34]
   + 873 u[35] + 176 u[36] + 52 u[37] + 368 u[38] + 102 u[39] + 939 u[40]
   + 745 u[41] + 610 u[42] + 837 u[43] + 419 u[44] + 714 u[45] + 61 u[46]
   + 977 u[47] + 387 u[48] + 208 u[49] + 426 u[50] + 848 u[51] + 233 u[52]
   + 492 u[53] + 540 u[54] + 103 u[55] + 285 u[56] + 682 u[57] + 944 u[58]
   + 234 u[59] <= 1000
 primal_lower864: 393 u[0] + 477 u[1] + 603 u[2] + 764 u[3] + 29 u[4]
   + 427 u[5] + 302 u[6] + 981 u[7] + 478 u[8] + 3 u[9] + 149 u[10]
   + 868 u[11] + 557 u[12] + 949 u[13] + 830 u[14] + 750 u[15] + 182 u[16]
   + 905 u[17] + 906 u[18] + 703 u[19] + 478 u[20] + 377 u[21] + 453 u[22]
   + 424 u[23] + 246 u[24] + 929 u[25] + 275 u[26] + 985 u[27] + 575 u[28]
   + 96 u[29] + 547 u[30] + 517 u[31] + 965 u[32] + 614 u[33] + 333 u[34]
   + 786 u[35] + 613 u[36] + 166 u[37] + 421 u[38] + 376 u[39] + 32 u[40]
   + 99 u[41] + 143 u[42] + 39 u[43] + 752 u[44] + 404 u[45] + 579 u[46]
   + 643 u[47] + 200 u[48] + 529 u[49] + 736 u[50] + 705 u[51] + 630 u[52]
   + 117 u[53] + 242 u[54] + 473 u[55] + 194 u[56] + 332 u[57] + 973 u[58]
   + 739 u[59] <= 14996
 primal_lower865: 976 u[0] + 676 u[1] + 658 u[2] + 491 u[3] + 956 u[4]
   + 2 u[5] + 189 u[6] + 940 u[7] + 653 u[8] + 362 u[9] + 884 u[10]
   + 891 u[11] + 60 u[12] + 244 u[13] + 125 u[14] + 333 u[15] + 333 u[16]
   + 720 u[17] + 521 u[18] + 374 u[19] + 565 u[20] + 616 u[21] + 468 u[22]
   + 919 u[23] + 133 u[24] + 392 u[25] + 242 u[26] + 40 u[27] + 534 u[28]
   + 959 u[29] + 58 u[30] + 500 u[31] + 188 u[32] + 525 u[33] + 756 u[34]
   + 945 u[35] + 908 u[36] + 37 u[37] + 844 u[38] + 271 u[39] + 575 u[40]
   + 610 u[41] + 566 u[42] + 798 u[43] + 863 u[44] + 947 u[45] + 26 u[46]
   + 290 u[47] + 223 u[48] + 592 u[49] + 407 u[50] + 512 u[51] + 765 u[52]
   + 300 u[53] + 665 u[54] + 496 u[55] + 489 u[56] + 595 u[57] + 204 u[58]
   + 794 u[59] <= 5167
 primal_lower866: 573 u[0] + 233 u[1] + 687 u[2] + 776 u[3] + 593 u[4]
   + 79 u[5] + 314 u[6] + 49 u[7] + 610 u[8] + 887 u[9] + 833 u[10]
   + 488 u[11] + 529 u[12] + 281 u[13] + 730 u[14] + 554 u[15] + 410 u[16]
   + 629 u[17] + 262 u[18] + 27 u[19] + 10 u[20] + 733 u[21] + 633 u[22]
   + 348 u[23] + 250 u[24] + 773 u[25] + 959 u[26] + 309 u[27] + 499 u[28]
   + 508 u[29] + 231 u[30] + 401 u[31] + 577 u[32] + 354 u[33] + 73 u[34]
   + 454 u[35] + 145 u[36] + 218 u[37] + 41 u[38] + 484 u[39] + 756 u[40]
   + 111 u[41] + 171 u[42] + 243 u[43] + 444 u[44] + 496 u[45] + 687 u[46]
   + 375 u[47] + 220 u[48] + 285 u[49] + 796 u[50] + 341 u[51] + 330 u[52]
   + 441 u[53] + 558 u[54] + 613 u[55] + 838 u[56] + 896 u[57] + 513 u[58]
   + 143 u[59] <= 13400
 primal_lower867: 500 u[0] + 872 u[1] + 734 u[2] + 663 u[3] + 376 u[4]
   + 46 u[5] + 905 u[6] + 208 u[7] + 89 u[8] + 758 u[9] + 912 u[10]
   + 87 u[11] + 128 u[12] + 976 u[13] + 313 u[14] + 481 u[15] + 521 u[16]
   + 508 u[17] + 573 u[18] + 458 u[19] + 177 u[20] + 772 u[21] + 576 u[22]
   + 883 u[23] + 529 u[24] + 756 u[25] + 14 u[26] + 220 u[27] + 546 u[28]
   + 147 u[29] + 302 u[30] + 88 u[31] + 792 u[32] + 281 u[33] + 456 u[34]
   + 805 u[35] + 776 u[36] + 353 u[37] + 664 u[38] + 499 u[39] + 963 u[40]
   + 534 u[41] + 722 u[42] + 690 u[43] + 571 u[44] + 623 u[45] + 94 u[46]
   + 926 u[47] + 243 u[48] + 756 u[49] + 395 u[50] + 132 u[51] + 697 u[52]
   + 104 u[53] + 213 u[54] + 340 u[55] + 541 u[56] + 999 u[57] + 184 u[58]
   + 430 u[59] <= 9967
 primal_lower868: 164 u[0] + 160 u[1] + 174 u[2] + 55 u[3] + 896 u[4]
   + 990 u[5] + 737 u[6] + 640 u[7] + 793 u[8] + 678 u[9] + 624 u[10]
   + 335 u[11] + 800 u[12] + 400 u[13] + 665 u[14] + 729 u[15] + 617 u[16]
   + 604 u[17] + 357 u[18] + 226 u[19] + 953 u[20] + 244 u[21] + 992 u[22]
   + 315 u[23] + 561 u[24] + 852 u[25] + 286 u[26] + 772 u[27] + 330 u[28]
   + 275 u[29] + 190 u[30] + 856 u[31] + 376 u[32] + 729 u[33] + 264 u[34]
   + 997 u[35] + 160 u[36] + 985 u[37] + 32 u[38] + 931 u[39] + 891 u[40]
   + 854 u[41] + 770 u[42] + 794 u[43] + 35 u[44] + 527 u[45] + 526 u[46]
   + 518 u[47] + 259 u[48] + 84 u[49] + 419 u[50] + 916 u[51] + 113 u[52]
   + 824 u[53] + 309 u[54] + 852 u[55] + 341 u[56] + 455 u[57] + 200 u[58]
   + 414 u[59] <= 21230
 primal_lower869: 601 u[0] + 570 u[1] + 188 u[2] + 889 u[3] + 982 u[4]
   + 975 u[5] + 463 u[6] + 337 u[7] + 287 u[8] + 528 u[9] + 613 u[10]
   + 97 u[11] + 774 u[12] + 50 u[13] + 766 u[14] + 66 u[15] + 927 u[16]
   + 294 u[17] + 875 u[18] + 852 u[19] + 159 u[20] + 917 u[21] + 526 u[22]
   + 84 u[23] + 926 u[24] + 462 u[25] + 252 u[26] + 389 u[27] + 799 u[28]
   + 245 u[29] + 347 u[30] + 257 u[31] + 725 u[32] + 915 u[33] + 870 u[34]
   + 567 u[35] + 366 u[36] + 706 u[37] + 838 u[38] + 92 u[39] + 393 u[40]
   + 135 u[41] + 944 u[42] + 363 u[43] + 961 u[44] + 200 u[45] + 347 u[46]
   + 455 u[47] + 225 u[48] + 742 u[49] + 392 u[50] + 606 u[51] + 687 u[52]
   + 194 u[53] + 322 u[54] + 941 u[55] + 651 u[56] + 584 u[57] + 758 u[58]
   + 552 u[59] <= 21352
 primal_lower870: 264 u[0] + 612 u[1] + 730 u[2] + 427 u[3] + 28 u[4]
   + 810 u[5] + 493 u[6] + 996 u[7] + 933 u[8] + 290 u[9] + 836 u[10]
   + 43 u[11] + 644 u[12] + 788 u[13] + 637 u[14] + 277 u[15] + 349 u[16]
   + 800 u[17] + 705 u[18] + 902 u[19] + 205 u[20] + 864 u[21] + 772 u[22]
   + 871 u[23] + 429 u[24] + 112 u[25] + 642 u[26] + 464 u[27] + 894 u[28]
   + 127 u[29] + 930 u[30] + 892 u[31] + 212 u[32] + 389 u[33] + 572 u[34]
   + 833 u[35] + 52 u[36] + 821 u[37] + 460 u[38] + 159 u[39] + 511 u[40]
   + 434 u[41] + 350 u[42] + 574 u[43] + 95 u[44] + 795 u[45] + 250 u[46]
   + 122 u[47] + 439 u[48] + 904 u[49] + 191 u[50] + 672 u[51] + 965 u[52]
   + 148 u[53] + 137 u[54] + 848 u[55] + 473 u[56] + 523 u[57] + 172 u[58]
   + 802 u[59] <= 996
 primal_lower871: 575 u[0] + 603 u[1] + 449 u[2] + 962 u[3] + 659 u[4]
   + 281 u[5] + 388 u[6] + 627 u[7] + 412 u[8] + 177 u[9] + 35 u[10]
   + 138 u[11] + 411 u[12] + 123 u[13] + 44 u[14] + 300 u[15] + 636 u[16]
   + 719 u[17] + 496 u[18] + 29 u[19] + 332 u[20] + 999 u[21] + 627 u[22]
   + 6 u[23] + 700 u[24] + 207 u[25] + 729 u[26] + 527 u[27] + 221 u[28]
   + 582 u[29] + 233 u[30] + 963 u[31] + 371 u[32] + 940 u[33] + 787 u[34]
   + 280 u[35] + 299 u[36] + 316 u[37] + 115 u[38] + 894 u[39] + 918 u[40]
   + 865 u[41] + 461 u[42] + 53 u[43] + 950 u[44] + 874 u[45] + 161 u[46]
   + 873 u[47] + 110 u[48] + 871 u[49] + 126 u[50] + 167 u[51] + 364 u[52]
   + 643 u[53] + 312 u[54] + 831 u[55] + 424 u[56] + 650 u[57] + 99 u[58]
   + 961 u[59] <= 14452
 primal_lower872: 802 u[0] + 291 u[1] + 989 u[2] + 842 u[3] + 103 u[4]
   + 552 u[5] + 752 u[6] + 946 u[7] + 248 u[8] + 361 u[9] + 982 u[10]
   + 890 u[11] + 431 u[12] + 107 u[13] + 367 u[14] + 643 u[15] + 272 u[16]
   + 31 u[17] + 156 u[18] + 437 u[19] + 488 u[20] + 902 u[21] + 143 u[22]
   + 269 u[23] + 607 u[24] + 695 u[25] + 725 u[26] + 822 u[27] + 368 u[28]
   + 998 u[29] + 172 u[30] + 218 u[31] + 886 u[32] + 724 u[33] + 255 u[34]
   + 424 u[35] + 639 u[36] + 835 u[37] + 695 u[38] + 69 u[39] + 370 u[40]
   + 888 u[41] + 169 u[42] + 804 u[43] + 194 u[44] + 305 u[45] + 316 u[46]
   + 608 u[47] + 602 u[48] + 855 u[49] + 233 u[50] + 15 u[51] + 728 u[52]
   + 643 u[53] + 763 u[54] + 694 u[55] + 284 u[56] + 857 u[57] + 87 u[58]
   + 257 u[59] <= 5134
 primal_lower873: 671 u[0] + 784 u[1] + 674 u[2] + 679 u[3] + 204 u[4]
   + 85 u[5] + 629 u[6] + 919 u[7] + 333 u[8] + 574 u[9] + 163 u[10]
   + 839 u[11] + 708 u[12] + 976 u[13] + 132 u[14] + 32 u[15] + 365 u[16]
   + 588 u[17] + 321 u[18] + 706 u[19] + 925 u[20] + 523 u[21] + 628 u[22]
   + 794 u[23] + 508 u[24] + 516 u[25] + 714 u[26] + 659 u[27] + 365 u[28]
   + 811 u[29] + 785 u[30] + 495 u[31] + 147 u[32] + 337 u[33] + 708 u[34]
   + 45 u[35] + 460 u[36] + 584 u[37] + 564 u[38] + 202 u[39] + 879 u[40]
   + 997 u[41] + 966 u[42] + 425 u[43] + 823 u[44] + 718 u[45] + 801 u[46]
   + 645 u[47] + 927 u[48] + 708 u[49] + 830 u[50] + 652 u[51] + 53 u[52]
   + 520 u[53] + 144 u[54] + 971 u[55] + 753 u[56] + 286 u[57] + 948 u[58]
   + 822 u[59] <= 997
 primal_lower874: 867 u[0] + 367 u[1] + 485 u[2] + 966 u[3] + 143 u[4]
   + 205 u[5] + 616 u[6] + 287 u[7] + 944 u[8] + 989 u[9] + 503 u[10]
   + 526 u[11] + 79 u[12] + 239 u[13] + 472 u[14] + 392 u[15] + 8 u[16]
   + 259 u[17] + 252 u[18] + 193 u[19] + 272 u[20] + 723 u[21] + 959 u[22]
   + 402 u[23] + 104 u[24] + 155 u[25] + 461 u[26] + 131 u[27] + 833 u[28]
   + 186 u[29] + 933 u[30] + 287 u[31] + 743 u[32] + 456 u[33] + 295 u[34]
   + 420 u[35] + 535 u[36] + 712 u[37] + 23 u[38] + 170 u[39] + 770 u[40]
   + 669 u[41] + 201 u[42] + 201 u[43] + 954 u[44] + 390 u[45] + 389 u[46]
   + 781 u[47] + 162 u[48] + 555 u[49] + 514 u[50] + 235 u[51] + 632 u[52]
   + 719 u[53] + 476 u[54] + 971 u[55] + 204 u[56] + 310 u[57] + 455 u[58]
   + 869 u[59] <= 14024
 primal_lower875: 68 u[0] + 965 u[1] + 455 u[2] + 68 u[3] + 225 u[4]
   + 106 u[5] + 306 u[6] + 980 u[7] + 522 u[8] + 139 u[9] + 192 u[10]
   + 580 u[11] + 457 u[12] + 421 u[13] + 481 u[14] + 989 u[15] + 522 u[16]
   + 865 u[17] + 830 u[18] + 135 u[19] + 930 u[20] + 912 u[21] + 289 u[22]
   + 471 u[23] + 313 u[24] + 713 u[25] + 599 u[26] + 408 u[27] + 434 u[28]
   + 536 u[29] + 294 u[30] + 524 u[31] + 928 u[32] + 30 u[33] + 817 u[34]
   + 762 u[35] + 641 u[36] + 869 u[37] + 881 u[38] + 903 u[39] + 708 u[40]
   + 290 u[41] + 251 u[42] + 870 u[43] + 76 u[44] + 771 u[45] + 990 u[46]
   + 666 u[47] + 356 u[48] + 489 u[49] + 963 u[50] + 689 u[51] + 994 u[52]
   + 869 u[53] + 141 u[54] + 40 u[55] + 502 u[56] + 75 u[57] + 585 u[58]
   + 187 u[59] <= 10690
 primal_lower876: 575 u[0] + 243 u[1] + 209 u[2] + 634 u[3] + 27 u[4]
   + 297 u[5] + 164 u[6] + 891 u[7] + 252 u[8] + 545 u[9] + 283 u[10]
   + 954 u[11] + 235 u[12] + 723 u[13] + 796 u[14] + 788 u[15] + 460 u[16]
   + 127 u[17] + 360 u[18] + 253 u[19] + 396 u[20] + 935 u[21] + 195 u[22]
   + 326 u[23] + 892 u[24] + 943 u[25] + 193 u[26] + 383 u[27] + 413 u[28]
   + 142 u[29] + 729 u[30] + 267 u[31] + 339 u[32] + 156 u[33] + 83 u[34]
   + 936 u[35] + 339 u[36] + 428 u[37] + 627 u[38] + 326 u[39] + 70 u[40]
   + 889 u[41] + 733 u[42] + 869 u[43] + 150 u[44] + 546 u[45] + 769 u[46]
   + 897 u[47] + 406 u[48] + 103 u[49] + 174 u[50] + 807 u[51] + 516 u[52]
   + 907 u[53] + 432 u[54] + 263 u[55] + 688 u[56] + 338 u[57] + 867 u[58]
   + 65 u[59] <= 4725
 primal_lower877: 488 u[0] + 377 u[1] + 547 u[2] + 304 u[3] + 125 u[4]
   + 102 u[5] + 710 u[6] + 744 u[7] + 390 u[8] + 455 u[9] + 940 u[10]
   + 408 u[11] + 541 u[12] + 633 u[13] + 581 u[14] + 905 u[15] + 478 u[16]
   + 125 u[17] + 50 u[18] + 299 u[19] + 686 u[20] + 12 u[21] + 877 u[22]
   + 187 u[23] + 397 u[24] + 949 u[25] + 723 u[26] + 788 u[27] + 654 u[28]
   + 612 u[29] + 234 u[30] + 536 u[31] + 68 u[32] + 346 u[33] + 245 u[34]
   + 374 u[35] + 893 u[36] + 409 u[37] + 205 u[38] + 123 u[39] + 280 u[40]
   + 966 u[41] + 183 u[42] + 514 u[43] + 800 u[44] + 991 u[45] + 586 u[46]
   + 222 u[47] + 248 u[48] + 117 u[49] + 591 u[50] + 165 u[51] + 294 u[52]
   + 33 u[53] + 193 u[54] + 332 u[55] + 626 u[56] + 399 u[57] + 437 u[58]
   + 639 u[59] <= 9045
 primal_lower878: 948 u[0] + 704 u[1] + 182 u[2] + 623 u[3] + 560 u[4]
   + 342 u[5] + 241 u[6] + 712 u[7] + 601 u[8] + 982 u[9] + 64 u[10]
   + 31 u[11] + 416 u[12] + 16 u[13] + 953 u[14] + 937 u[15] + 721 u[16]
   + 980 u[17] + 405 u[18] + 218 u[19] + 33 u[20] + 684 u[21] + 664 u[22]
   + 659 u[23] + 449 u[24] + 836 u[25] + 990 u[26] + 332 u[27] + 850 u[28]
   + 875 u[29] + 662 u[30] + 224 u[31] + 776 u[32] + 33 u[33] + 152 u[34]
   + 485 u[35] + 440 u[36] + 641 u[37] + 104 u[38] + 995 u[39] + 547 u[40]
   + 534 u[41] + 650 u[42] + 234 u[43] + 787 u[44] + 543 u[45] + 686 u[46]
   + 374 u[47] + 427 u[48] + 420 u[49] + 171 u[50] + 468 u[51] + 489 u[52]
   + 800 u[53] + 397 u[54] + 948 u[55] + 845 u[56] + 247 u[57] + 40 u[58]
   + 270 u[59] <= 10465
 primal_lower879: 121 u[0] + 325 u[1] + 691 u[2] + 108 u[3] + 909 u[4]
   + 195 u[5] + 214 u[6] + 909 u[7] + 262 u[8] + 915 u[9] + 197 u[10]
   + 948 u[11] + 661 u[12] + 709 u[13] + 342 u[14] + 750 u[15] + 150 u[16]
   + 297 u[17] + 250 u[18] + 271 u[19] + 118 u[20] + 265 u[21] + 693 u[22]
   + 488 u[23] + 846 u[24] + 113 u[25] + 291 u[26] + 921 u[27] + 175 u[28]
   + 280 u[29] + 331 u[30] + 765 u[31] + 589 u[32] + 958 u[33] + 77 u[34]
   + 970 u[35] + 893 u[36] + 150 u[37] + 293 u[38] + 824 u[39] + 960 u[40]
   + 691 u[41] + 487 u[42] + 567 u[43] + 528 u[44] + 876 u[45] + 3 u[46]
   + 427 u[47] + 392 u[48] + 769 u[49] + 344 u[50] + 433 u[51] + 974 u[52]
   + 461 u[53] + 570 u[54] + 217 u[55] + 82 u[56] + 212 u[57] + 341 u[58]
   + 563 u[59] <= 9720
 primal_lower880: 32 u[0] + 521 u[1] + 619 u[2] + 696 u[3] + 341 u[4]
   + 558 u[5] + 422 u[6] + 824 u[7] + 862 u[8] + 47 u[9] + 900 u[10]
   + 960 u[11] + 605 u[12] + 353 u[13] + 845 u[14] + 145 u[15] + 102 u[16]
   + 629 u[17] + 730 u[18] + 891 u[19] + 302 u[20] + 780 u[21] + 453 u[22]
   + 347 u[23] + 973 u[24] + 253 u[25] + 203 u[26] + 932 u[27] + 86 u[28]
   + 116 u[29] + 858 u[30] + 624 u[31] + 372 u[32] + 826 u[33] + 109 u[34]
   + 526 u[35] + 205 u[36] + 545 u[37] + 333 u[38] + 691 u[39] + 72 u[40]
   + 38 u[41] + 855 u[42] + 850 u[43] + 744 u[44] + 367 u[45] + 914 u[46]
   + 38 u[47] + 656 u[48] + 253 u[49] + 687 u[50] + 693 u[51] + 94 u[52]
   + 585 u[53] + 409 u[54] + 44 u[55] + 802 u[56] + 815 u[57] + 613 u[58]
   + 311 u[59] <= 10152
 primal_lower881: 884 u[0] + 757 u[1] + 863 u[2] + 76 u[3] + 849 u[4]
   + 386 u[5] + 442 u[6] + 476 u[7] + 874 u[8] + 667 u[9] + 744 u[10]
   + 516 u[11] + 881 u[12] + 749 u[13] + 441 u[14] + 13 u[15] + 778 u[16]
   + 257 u[17] + 686 u[18] + 791 u[19] + 882 u[20] + 184 u[21] + 9 u[22]
   + 639 u[23] + 129 u[24] + 73 u[25] + 431 u[26] + 80 u[27] + 866 u[28]
   + 864 u[29] + 758 u[30] + 748 u[31] + 504 u[32] + 374 u[33] + 993 u[34]
   + 898 u[35] + 913 u[36] + 693 u[37] + 241 u[38] + 735 u[39] + 4 u[40]
   + 466 u[41] + 59 u[42] + 654 u[43] + 540 u[44] + 395 u[45] + 118 u[46]
   + 74 u[47] + 996 u[48] + 305 u[49] + 235 u[50] + 417 u[51] + 850 u[52]
   + 309 u[53] + 109 u[54] + 944 u[55] + 694 u[56] + 483 u[57] + 561 u[58]
   + 83 u[59] <= 10480
 primal_lower882: 679 u[0] + 552 u[1] + 2 u[2] + 631 u[3] + 460 u[4]
   + 989 u[5] + 205 u[6] + 743 u[7] + 493 u[8] + 182 u[9] + 275 u[10]
   + 7 u[11] + 276 u[12] + 304 u[13] + 836 u[14] + 872 u[15] + 973 u[16]
   + 796 u[17] + 497 u[18] + 482 u[19] + 29 u[20] + 419 u[21] + 748 u[22]
   + 738 u[23] + 260 u[24] + 540 u[25] + 714 u[26] + 987 u[27] + 845 u[28]
   + 179 u[29] + 33 u[30] + 239 u[31] + 635 u[32] + 17 u[33] + 348 u[34]
   + 469 u[35] + 668 u[36] + 384 u[37] + 548 u[38] + 226 u[39] + 423 u[40]
   + 677 u[41] + 118 u[42] + 137 u[43] + 183 u[44] + 886 u[45] + 65 u[46]
   + 821 u[47] + 687 u[48] + 780 u[49] + 470 u[50] + 564 u[51] + 133 u[52]
   + 344 u[53] + 824 u[54] + 179 u[55] + 217 u[56] + 702 u[57] + 716 u[58]
   + 502 u[59] <= 19138
 primal_lower883: 755 u[0] + 460 u[1] + 638 u[2] + 635 u[3] + 448 u[4]
   + 9 u[5] + 897 u[6] + 851 u[7] + 65 u[8] + 634 u[9] + 183 u[10]
   + 291 u[11] + 448 u[12] + 12 u[13] + 24 u[14] + 708 u[15] + 785 u[16]
   + 728 u[17] + 461 u[18] + 606 u[19] + 393 u[20] + 159 u[21] + 448 u[22]
   + 622 u[23] + 240 u[24] + 304 u[25] + 646 u[26] + 927 u[27] + 985 u[28]
   + 455 u[29] + 925 u[30] + 971 u[31] + 95 u[32] + 885 u[33] + 648 u[34]
   + 193 u[35] + 248 u[36] + 644 u[37] + 744 u[38] + 230 u[39] + 227 u[40]
   + 969 u[41] + 674 u[42] + 549 u[43] + 811 u[44] + 362 u[45] + 221 u[46]
   + 961 u[47] + 923 u[48] + 432 u[49] + 626 u[50] + 464 u[51] + 809 u[52]
   + 140 u[53] + 980 u[54] + 151 u[55] + 413 u[56] + 378 u[57] + 48 u[58]
   + 154 u[59] <= 10230
 primal_lower884: 283 u[0] + 964 u[1] + 886 u[2] + 267 u[3] + 600 u[4]
   + 505 u[5] + 833 u[6] + 251 u[7] + 841 u[8] + 906 u[9] + 751 u[10]
   + 771 u[11] + 568 u[12] + 660 u[13] + 808 u[14] + 324 u[15] + 457 u[16]
   + 80 u[17] + 765 u[18] + 310 u[19] + 625 u[20] + 143 u[21] + 472 u[22]
   + 630 u[23] + 464 u[24] + 584 u[25] + 806 u[26] + 719 u[27] + 49 u[28]
   + 159 u[29] + 149 u[30] + 531 u[31] + 439 u[32] + 357 u[33] + 192 u[34]
   + 761 u[35] + 128 u[36] + 644 u[37] + 984 u[38] + 798 u[39] + 67 u[40]
   + 569 u[41] + 394 u[42] + 421 u[43] + 651 u[44] + 370 u[45] + 477 u[46]
   + 617 u[47] + 411 u[48] + 520 u[49] + 210 u[50] + 8 u[51] + 625 u[52]
   + 340 u[53] + 12 u[54] + 455 u[55] + 269 u[56] + 802 u[57] + 912 u[58]
   + 242 u[59] <= 14918
 primal_lower885: 925 u[0] + 177 u[1] + 95 u[2] + 520 u[3] + 913 u[4]
   + 159 u[5] + 490 u[6] + 113 u[7] + 370 u[8] + 143 u[9] + 705 u[10]
   + 536 u[11] + 913 u[12] + 953 u[13] + 578 u[14] + 394 u[15] + 930 u[16]
   + 669 u[17] + 502 u[18] + 795 u[19] + 274 u[20] + 469 u[21] + 73 u[22]
   + 540 u[23] + 882 u[24] + 293 u[25] + 319 u[26] + 949 u[27] + 75 u[28]
   + 300 u[29] + 407 u[30] + 121 u[31] + 73 u[32] + 58 u[33] + 297 u[34]
   + 942 u[35] + 937 u[36] + 322 u[37] + 729 u[38] + 196 u[39] + 868 u[40]
   + 455 u[41] + 139 u[42] + 587 u[43] + 212 u[44] + 208 u[45] + 559 u[46]
   + 183 u[47] + 724 u[48] + 373 u[49] + 76 u[50] + 69 u[51] + 482 u[52]
   + 137 u[53] + 126 u[54] + 965 u[55] + 62 u[56] + 16 u[57] + 673 u[58]
   + 855 u[59] <= 8968
 primal_lower886: 519 u[0] + 144 u[1] + 210 u[2] + 55 u[3] + 924 u[4]
   + 709 u[5] + 5 u[6] + 191 u[7] + 621 u[8] + 590 u[9] + 715 u[10]
   + 431 u[11] + 124 u[12] + 912 u[13] + 948 u[14] + 944 u[15] + 781 u[16]
   + 732 u[17] + 233 u[18] + 746 u[19] + 821 u[20] + 259 u[21] + 436 u[22]
   + 186 u[23] + 924 u[24] + 300 u[25] + 378 u[26] + 51 u[27] + 717 u[28]
   + 843 u[29] + 561 u[30] + 999 u[31] + 19 u[32] + 481 u[33] + 4 u[34]
   + 133 u[35] + 388 u[36] + 752 u[37] + 900 u[38] + 898 u[39] + 903 u[40]
   + 197 u[41] + 838 u[42] + 625 u[43] + 303 u[44] + 790 u[45] + 417 u[46]
   + 477 u[47] + 575 u[48] + 628 u[49] + 78 u[50] + 156 u[51] + 189 u[52]
   + 344 u[53] + 328 u[54] + 875 u[55] + 305 u[56] + 78 u[57] + 980 u[58]
   + 190 u[59] <= 9953
 primal_lower887: 219 u[0] + 879 u[1] + 349 u[2] + 606 u[3] + 63 u[4]
   + 333 u[5] + 56 u[6] + 519 u[7] + 632 u[8] + 925 u[9] + 319 u[10]
   + 174 u[11] + 943 u[12] + 335 u[13] + 288 u[14] + 208 u[15] + 176 u[16]
   + 683 u[17] + 276 u[18] + 577 u[19] + 320 u[20] + 947 u[21] + 327 u[22]
   + 322 u[23] + 664 u[24] + 915 u[25] + 861 u[26] + 755 u[27] + 17 u[28]
   + 346 u[29] + 85 u[30] + 855 u[31] + 391 u[32] + 704 u[33] + 935 u[34]
   + 964 u[35] + 31 u[36] + 112 u[37] + 175 u[38] + 594 u[39] + 626 u[40]
   + 181 u[41] + 769 u[42] + 905 u[43] + 842 u[44] + 678 u[45] + 693 u[46]
   + 805 u[47] + 546 u[48] + 395 u[49] + 538 u[50] + 235 u[51] + 408 u[52]
   + 407 u[53] + 20 u[54] + 155 u[55] + 60 u[56] + 942 u[57] + 519 u[58]
   + 589 u[59] <= 14596
 primal_lower888: 851 u[0] + 780 u[1] + 222 u[2] + 955 u[3] + 904 u[4]
   + 985 u[5] + 601 u[6] + 931 u[7] + 889 u[8] + 922 u[9] + 519 u[10]
   + 587 u[11] + 872 u[12] + 956 u[13] + 40 u[14] + 348 u[15] + 625 u[16]
   + 584 u[17] + 77 u[18] + 982 u[19] + 201 u[20] + 39 u[21] + 976 u[22]
   + 478 u[23] + 408 u[24] + 624 u[25] + 222 u[26] + 31 u[27] + 913 u[28]
   + 215 u[29] + 325 u[30] + 539 u[31] + 239 u[32] + 197 u[33] + 704 u[34]
   + 137 u[35] + 416 u[36] + 340 u[37] + 224 u[38] + 302 u[39] + 955 u[40]
   + 457 u[41] + 34 u[42] + 389 u[43] + 947 u[44] + 186 u[45] + 509 u[46]
   + 385 u[47] + 723 u[48] + 256 u[49] + 186 u[50] + 992 u[51] + 825 u[52]
   + 340 u[53] + 428 u[54] + 575 u[55] + 861 u[56] + 994 u[57] + 648 u[58]
   + 274 u[59] <= 21416
 primal_lower889: 303 u[0] + 339 u[1] + 609 u[2] + 778 u[3] + 539 u[4]
   + 25 u[5] + 140 u[6] + 963 u[7] + 780 u[8] + 889 u[9] + 915 u[10]
   + 314 u[11] + 315 u[12] + 323 u[13] + 732 u[14] + 860 u[15] + 196 u[16]
   + 767 u[17] + 880 u[18] + 749 u[19] + 108 u[20] + 359 u[21] + 355 u[22]
   + 518 u[23] + 692 u[24] + 983 u[25] + 433 u[26] + 831 u[27] + 205 u[28]
   + 750 u[29] + 865 u[30] + 283 u[31] + 635 u[32] + 540 u[33] + 299 u[34]
   + 344 u[35] + 435 u[36] + 580 u[37] + 827 u[38] + 254 u[39] + 390 u[40]
   + 729 u[41] + 709 u[42] + 277 u[43] + 214 u[44] + 618 u[45] + 313 u[46]
   + 329 u[47] + 678 u[48] + 751 u[49] + 86 u[50] + 791 u[51] + 244 u[52]
   + 795 u[53] + 8 u[54] + 495 u[55] + 520 u[56] + 962 u[57] + 419 u[58]
   + 977 u[59] <= 5336
 primal_lower890: 951 u[0] + 779 u[1] + 809 u[2] + 10 u[3] + 243 u[4]
   + 809 u[5] + 556 u[6] + 955 u[7] + 812 u[8] + 425 u[9] + 323 u[10]
   + 554 u[11] + 675 u[12] + 339 u[13] + 436 u[14] + 44 u[15] + 124 u[16]
   + 319 u[17] + 384 u[18] + 141 u[19] + 292 u[20] + 135 u[21] + 75 u[22]
   + 142 u[23] + 308 u[24] + 415 u[25] + 993 u[26] + 439 u[27] + 37 u[28]
   + 310 u[29] + 609 u[30] + 835 u[31] + 691 u[32] + 964 u[33] + 379 u[34]
   + 768 u[35] + 59 u[36] + 620 u[37] + 587 u[38] + 62 u[39] + 542 u[40]
   + 777 u[41] + 573 u[42] + 341 u[43] + 782 u[44] + 42 u[45] + 617 u[46]
   + 793 u[47] + 630 u[48] + 959 u[49] + 982 u[50] + 287 u[51] + 724 u[52]
   + 435 u[53] + 832 u[54] + 295 u[55] + 120 u[56] + 802 u[57] + 635 u[58]
   + 561 u[59] <= 20091
 primal_lower891: 704 u[0] + 252 u[1] + 146 u[2] + 843 u[3] + 268 u[4]
   + 634 u[5] + 637 u[6] + 292 u[7] + 517 u[8] + 538 u[9] + 820 u[10]
   + 859 u[11] + 372 u[12] + 996 u[13] + 317 u[14] + 261 u[15] + 389 u[16]
   + 208 u[17] + 281 u[18] + 638 u[19] + 901 u[20] + 256 u[21] + 772 u[22]
   + 231 u[23] + 77 u[24] + 144 u[25] + 594 u[26] + 136 u[27] + 110 u[28]
   + 639 u[29] + 242 u[30] + 12 u[31] + 796 u[32] + 437 u[33] + 756 u[34]
   + 857 u[35] + 212 u[36] + 405 u[37] + 308 u[38] + 775 u[39] + 407 u[40]
   + 114 u[41] + 150 u[42] + 294 u[43] + 71 u[44] + 867 u[45] + 514 u[46]
   + 98 u[47] + 311 u[48] + 160 u[49] + 639 u[50] + 336 u[51] + 245 u[52]
   + 204 u[53] + 97 u[54] + 872 u[55] + 57 u[56] + 619 u[57] + 756 u[58]
   + 498 u[59] <= 996
 primal_lower892: 870 u[0] + 519 u[1] + 129 u[2] + 230 u[3] + 283 u[4]
   + 324 u[5] + 244 u[6] + 6 u[7] + 284 u[8] + 101 u[9] + 610 u[10]
   + 270 u[11] + 227 u[12] + 71 u[13] + 779 u[14] + 887 u[15] + 740 u[16]
   + 827 u[17] + 112 u[18] + 449 u[19] + 380 u[20] + 946 u[21] + 219 u[22]
   + 137 u[23] + 987 u[24] + 459 u[25] + 337 u[26] + 930 u[27] + 620 u[28]
   + 842 u[29] + 720 u[30] + 974 u[31] + 66 u[32] + 72 u[33] + 67 u[34]
   + 988 u[35] + 995 u[36] + 567 u[37] + 795 u[38] + 289 u[39] + 766 u[40]
   + 580 u[41] + 733 u[42] + 464 u[43] + 886 u[44] + 581 u[45] + 472 u[46]
   + 764 u[47] + 678 u[48] + 531 u[49] + 517 u[50] + 651 u[51] + 692 u[52]
   + 103 u[53] + 223 u[54] + 466 u[55] + 816 u[56] + 765 u[57] + 67 u[58]
   + 5 u[59] <= 995
 primal_lower893: 577 u[0] + 306 u[1] + 292 u[2] + 49 u[3] + 94 u[4]
   + 831 u[5] + 775 u[6] + 249 u[7] + 343 u[8] + 264 u[9] + 141 u[10]
   + 937 u[11] + 486 u[12] + 954 u[13] + 910 u[14] + 602 u[15] + 271 u[16]
   + 102 u[17] + 851 u[18] + 964 u[19] + 95 u[20] + 45 u[21] + 942 u[22]
   + 532 u[23] + 190 u[24] + 798 u[25] + 700 u[26] + 325 u[27] + 967 u[28]
   + 605 u[29] + 403 u[30] + 913 u[31] + 365 u[32] + 91 u[33] + 822 u[34]
   + 719 u[35] + 38 u[36] + 594 u[37] + 494 u[38] + 300 u[39] + 521 u[40]
   + 735 u[41] + 272 u[42] + 147 u[43] + 953 u[44] + 376 u[45] + 235 u[46]
   + 991 u[47] + 73 u[48] + 862 u[49] + 544 u[50] + 206 u[51] + 879 u[52]
   + 346 u[53] + 634 u[54] + 117 u[55] + 515 u[56] + 840 u[57] + 342 u[58]
   + 784 u[59] <= 991
 primal_lower894: 654 u[0] + 383 u[1] + 281 u[2] + 702 u[3] + 723 u[4]
   + 764 u[5] + 140 u[6] + 294 u[7] + 84 u[8] + 461 u[9] + 410 u[10]
   + 286 u[11] + 963 u[12] + 271 u[13] + 611 u[14] + 191 u[15] + 916 u[16]
   + 339 u[17] + 960 u[18] + 129 u[19] + 172 u[20] + 146 u[21] + 707 u[22]
   + 697 u[23] + 603 u[24] + 635 u[25] + 665 u[26] + 770 u[27] + 556 u[28]
   + 386 u[29] + 8 u[30] + 230 u[31] + 946 u[32] + 72 u[33] + 899 u[34]
   + 500 u[35] + 355 u[36] + 351 u[37] + 3 u[38] + 585 u[39] + 582 u[40]
   + 180 u[41] + 389 u[42] + 576 u[43] + 86 u[44] + 573 u[45] + 944 u[46]
   + 188 u[47] + 262 u[48] + 403 u[49] + 709 u[50] + 27 u[51] + 924 u[52]
   + 527 u[53] + 231 u[54] + 98 u[55] + 816 u[56] + 709 u[57] + 819 u[58]
   + 781 u[59] <= 9557
 primal_lower895: 848 u[0] + 241 u[1] + 995 u[2] + 576 u[3] + 653 u[4]
   + 574 u[5] + 630 u[6] + 112 u[7] + 950 u[8] + 935 u[9] + 532 u[10]
   + 952 u[11] + 821 u[12] + 625 u[13] + 237 u[14] + 169 u[15] + 502 u[16]
   + 533 u[17] + 322 u[18] + 563 u[19] + 638 u[20] + 148 u[21] + 821 u[22]
   + 243 u[23] + 701 u[24] + 421 u[25] + 555 u[26] + 84 u[27] + 510 u[28]
   + 276 u[29] + 778 u[30] + 384 u[31] + 500 u[32] + 834 u[33] + 733 u[34]
   + 774 u[35] + 13 u[36] + 553 u[37] + 333 u[38] + 907 u[39] + 56 u[40]
   + 934 u[41] + 351 u[42] + 250 u[43] + 384 u[44] + 327 u[45] + 834 u[46]
   + 798 u[47] + 224 u[48] + 45 u[49] + 807 u[50] + 77 u[51] + 726 u[52]
   + 265 u[53] + 289 u[54] + 860 u[55] + 266 u[56] + 583 u[57] + 45 u[58]
   + 55 u[59] <= 10050
 primal_lower896: 407 u[0] + 83 u[1] + 809 u[2] + 666 u[3] + 915 u[4]
   + 801 u[5] + 444 u[6] + 387 u[7] + 740 u[8] + 361 u[9] + 947 u[10]
   + 258 u[11] + 363 u[12] + 411 u[13] + 348 u[14] + 948 u[15] + 940 u[16]
   + 287 u[17] + 200 u[18] + 989 u[19] + 436 u[20] + 247 u[21] + 3 u[22]
   + 782 u[23] + 692 u[24] + 207 u[25] + 921 u[26] + 127 u[27] + 5 u[28]
   + 182 u[29] + 201 u[30] + 595 u[31] + 819 u[32] + 428 u[33] + 179 u[34]
   + 32 u[35] + 691 u[36] + 644 u[37] + 835 u[38] + 302 u[39] + 542 u[40]
   + 761 u[41] + 789 u[42] + 341 u[43] + 254 u[44] + 154 u[45] + 945 u[46]
   + 761 u[47] + 526 u[48] + 687 u[49] + 798 u[50] + 575 u[51] + 140 u[52]
   + 107 u[53] + 288 u[54] + 351 u[55] + 288 u[56] + 770 u[57] + 915 u[58]
   + 945 u[59] <= 10189
 primal_lower897: 426 u[0] + 646 u[1] + 436 u[2] + 885 u[3] + 974 u[4]
   + 636 u[5] + 951 u[6] + 334 u[7] + 463 u[8] + 556 u[9] + 374 u[10]
   + 797 u[11] + 758 u[12] + 742 u[13] + 231 u[14] + 415 u[15] + 335 u[16]
   + 578 u[17] + 323 u[18] + 512 u[19] + 159 u[20] + 522 u[21] + 678 u[22]
   + 585 u[23] + 159 u[24] + 378 u[25] + 292 u[26] + 34 u[27] + 528 u[28]
   + 745 u[29] + 980 u[30] + 726 u[31] + 230 u[32] + 791 u[33] + 622 u[34]
   + 547 u[35] + 110 u[36] + 519 u[37] + 246 u[38] + 809 u[39] + 273 u[40]
   + 108 u[41] + 168 u[42] + 304 u[43] + 153 u[44] + 613 u[45] + 996 u[46]
   + 524 u[47] + 281 u[48] + 578 u[49] + 785 u[50] + 322 u[51] + 463 u[52]
   + 86 u[53] + 923 u[54] + 842 u[55] + 219 u[56] + 821 u[57] + 886 u[58]
   + 548 u[59] <= 5154
 primal_lower898: 742 u[0] + 471 u[1] + 857 u[2] + 430 u[3] + 91 u[4]
   + 188 u[5] + 836 u[6] + 86 u[7] + 372 u[8] + 549 u[9] + 330 u[10]
   + 222 u[11] + 699 u[12] + 951 u[13] + 387 u[14] + 407 u[15] + 300 u[16]
   + 315 u[17] + 808 u[18] + 609 u[19] + 908 u[20] + 338 u[21] + 467 u[22]
   + 153 u[23] + 187 u[24] + 195 u[25] + 441 u[26] + 122 u[27] + 212 u[28]
   + 442 u[29] + 392 u[30] + 518 u[31] + 794 u[32] + 128 u[33] + 243 u[34]
   + 612 u[35] + 851 u[36] + 823 u[37] + 403 u[38] + 201 u[39] + 958 u[40]
   + 516 u[41] + 669 u[42] + 600 u[43] + 230 u[44] + 629 u[45] + 64 u[46]
   + 684 u[47] + 854 u[48] + 219 u[49] + 293 u[50] + 523 u[51] + 692 u[52]
   + 759 u[53] + 239 u[54] + 242 u[55] + 576 u[56] + 709 u[57] + 707 u[58]
   + 349 u[59] <= 19061
 primal_lower899: 81 u[0] + 773 u[1] + 59 u[2] + 140 u[3] + 357 u[4]
   + 875 u[5] + 838 u[6] + 989 u[7] + 726 u[8] + 659 u[9] + 557 u[10]
   + 212 u[11] + 957 u[12] + 677 u[13] + 862 u[14] + 318 u[15] + 302 u[16]
   + 721 u[17] + 218 u[18] + 919 u[19] + 558 u[20] + 649 u[21] + 141 u[22]
   + 800 u[23] + 246 u[24] + 785 u[25] + 691 u[26] + 769 u[27] + 983 u[28]
   + 296 u[29] + 163 u[30] + 781 u[31] + 669 u[32] + 942 u[33] + 525 u[34]
   + 410 u[35] + 381 u[36] + 942 u[37] + 565 u[38] + 792 u[39] + 656 u[40]
   + 763 u[41] + 975 u[42] + 23 u[43] + 808 u[44] + 644 u[45] + 467 u[46]
   + 915 u[47] + 256 u[48] + 257 u[49] + 888 u[50] + 73 u[51] + 830 u[52]
   + 653 u[53] + 162 u[54] + 41 u[55] + 978 u[56] + 148 u[57] + 757 u[58]
   + 819 u[59] <= 17220
 primal_lower900: 716 u[0] + 488 u[1] + 398 u[2] + 559 u[3] + 280 u[4]
   + 998 u[5] + 897 u[6] + 312 u[7] + 977 u[8] + 990 u[9] + 224 u[10]
   + 407 u[11] + 296 u[12] + 808 u[13] + 521 u[14] + 713 u[15] + 921 u[16]
   + 500 u[17] + 341 u[18] + 922 u[19] + 537 u[20] + 52 u[21] + 328 u[22]
   + 931 u[23] + 73 u[24] + 796 u[25] + 662 u[26] + 60 u[27] + 818 u[28]
   + 843 u[29] + 86 u[30] + 336 u[31] + 856 u[32] + 665 u[33] + 80 u[34]
   + 469 u[35] + 136 u[36] + 785 u[37] + 648 u[38] + 483 u[39] + 755 u[40]
   + 22 u[41] + 506 u[42] + 786 u[43] + 67 u[44] + 239 u[45] + 790 u[46]
   + 718 u[47] + 747 u[48] + 540 u[49] + 371 u[50] + 188 u[51] + 721 u[52]
   + 992 u[53] + 389 u[54] + 532 u[55] + 565 u[56] + 495 u[57] + 304 u[58]
   + 694 u[59] <= 16166
 primal_lower901: 85 u[0] + 118 u[1] + 344 u[2] + 861 u[3] + 882 u[4]
   + 467 u[5] + 731 u[6] + 461 u[7] + 27 u[8] + 820 u[9] + 169 u[10]
   + 45 u[11] + 34 u[12] + 286 u[13] + 578 u[14] + 758 u[15] + 203 u[16]
   + 58 u[17] + 207 u[18] + 976 u[19] + 611 u[20] + 753 u[21] + 98 u[22]
   + 440 u[23] + 18 u[24] + 738 u[25] + 232 u[26] + 401 u[27] + 243 u[28]
   + 537 u[29] + 103 u[30] + 21 u[31] + 265 u[32] + 255 u[33] + 346 u[34]
   + 83 u[35] + 738 u[36] + 934 u[37] + 922 u[38] + 40 u[39] + 229 u[40]
   + 859 u[41] + 4 u[42] + 839 u[43] + 333 u[44] + 124 u[45] + 727 u[46]
   + 475 u[47] + 941 u[48] + 386 u[49] + 780 u[50] + 250 u[51] + 547 u[52]
   + 318 u[53] + 806 u[54] + 617 u[55] + 687 u[56] + 292 u[57] + 530 u[58]
   + 948 u[59] <= 4430
 primal_lower902: 651 u[0] + 92 u[1] + 478 u[2] + 859 u[3] + 840 u[4]
   + 417 u[5] + 457 u[6] + 923 u[7] + 241 u[8] + 858 u[9] + 623 u[10]
   + 659 u[11] + 944 u[12] + 660 u[13] + 208 u[14] + 572 u[15] + 433 u[16]
   + 192 u[17] + 373 u[18] + 14 u[19] + 209 u[20] + 247 u[21] + 760 u[22]
   + 694 u[23] + 112 u[24] + 984 u[25] + 86 u[26] + 751 u[27] + 577 u[28]
   + 39 u[29] + 453 u[30] + 851 u[31] + 703 u[32] + 221 u[33] + 880 u[34]
   + 841 u[35] + 280 u[36] + 924 u[37] + 944 u[38] + 182 u[39] + 747 u[40]
   + 521 u[41] + 170 u[42] + 245 u[43] + 555 u[44] + 458 u[45] + 229 u[46]
   + 473 u[47] + 307 u[48] + 336 u[49] + 674 u[50] + 344 u[51] + 97 u[52]
   + 484 u[53] + 284 u[54] + 167 u[55] + 69 u[56] + 506 u[57] + 272 u[58]
   + 898 u[59] <= 4844
 primal_lower903: 833 u[0] + 930 u[1] + 308 u[2] + 665 u[3] + 150 u[4]
   + 935 u[5] + 247 u[6] + 41 u[7] + 279 u[8] + 232 u[9] + 869 u[10]
   + 689 u[11] + 638 u[12] + 682 u[13] + 742 u[14] + 610 u[15] + 759 u[16]
   + 902 u[17] + 283 u[18] + 356 u[19] + 743 u[20] + 709 u[21] + 854 u[22]
   + 868 u[23] + 846 u[24] + 190 u[25] + 484 u[26] + 861 u[27] + 423 u[28]
   + 637 u[29] + 987 u[30] + 65 u[31] + 333 u[32] + 291 u[33] + 182 u[34]
   + 71 u[35] + 662 u[36] + 2 u[37] + 510 u[38] + 940 u[39] + 905 u[40]
   + 591 u[41] + 72 u[42] + 651 u[43] + 393 u[44] + 264 u[45] + 819 u[46]
   + 567 u[47] + 585 u[48] + 934 u[49] + 72 u[50] + 598 u[51] + 15 u[52]
   + 842 u[53] + 562 u[54] + 45 u[55] + 291 u[56] + 344 u[57] + 902 u[58]
   + 184 u[59] <= 10481
 primal_lower904: 340 u[0] + 736 u[1] + 542 u[2] + 887 u[3] + 408 u[4]
   + 902 u[5] + 361 u[6] + 232 u[7] + 137 u[8] + 710 u[9] + 464 u[10]
   + 623 u[11] + 576 u[12] + 784 u[13] + 745 u[14] + 625 u[15] + 241 u[16]
   + 348 u[17] + 85 u[18] + 218 u[19] + 273 u[20] + 52 u[21] + 816 u[22]
   + 83 u[23] + 849 u[24] + 948 u[25] + 150 u[26] + 316 u[27] + 826 u[28]
   + 123 u[29] + 238 u[30] + 200 u[31] + 1000 u[32] + 985 u[33] + 664 u[34]
   + 933 u[35] + 280 u[36] + 337 u[37] + 424 u[38] + 307 u[39] + 347 u[40]
   + 334 u[41] + 10 u[42] + 18 u[43] + 259 u[44] + 887 u[45] + 190 u[46]
   + 750 u[47] + 235 u[48] + 84 u[49] + 379 u[50] + 628 u[51] + 425 u[52]
   + 544 u[53] + 613 u[54] + 404 u[55] + 949 u[56] + 39 u[57] + 648 u[58]
   + 854 u[59] <= 14182
 primal_lower905: 128 u[0] + 193 u[1] + 483 u[2] + 264 u[3] + 5 u[4]
   + 702 u[5] + 22 u[6] + 136 u[7] + 982 u[8] + 855 u[9] + 460 u[10]
   + 560 u[11] + 557 u[12] + 433 u[13] + 717 u[14] + 249 u[15] + 702 u[16]
   + 637 u[17] + 714 u[18] + 499 u[19] + 998 u[20] + 892 u[21] + 565 u[22]
   + 411 u[23] + 437 u[24] + 933 u[25] + 243 u[26] + 300 u[27] + 22 u[28]
   + 332 u[29] + 626 u[30] + 464 u[31] + 532 u[32] + 146 u[33] + 789 u[34]
   + 342 u[35] + 813 u[36] + 281 u[37] + 509 u[38] + 139 u[39] + 512 u[40]
   + 278 u[41] + 519 u[42] + 826 u[43] + 464 u[44] + 151 u[45] + 850 u[46]
   + 382 u[47] + 584 u[48] + 493 u[49] + 959 u[50] + 245 u[51] + 950 u[52]
   + 177 u[53] + 513 u[54] + 716 u[55] + 602 u[56] + 487 u[57] + 165 u[58]
   + 39 u[59] <= 14492
 primal_lower906: 812 u[0] + 960 u[1] + 694 u[2] + 263 u[3] + 688 u[4]
   + 270 u[5] + 769 u[6] + 64 u[7] + 633 u[8] + 702 u[9] + 976 u[10]
   + 31 u[11] + 664 u[12] + 936 u[13] + 641 u[14] + 937 u[15] + 657 u[16]
   + 92 u[17] + 813 u[18] + 210 u[19] + 737 u[20] + 628 u[21] + 48 u[22]
   + 323 u[23] + 969 u[24] + 44 u[25] + 518 u[26] + 492 u[27] + 546 u[28]
   + 107 u[29] + 606 u[30] + 96 u[31] + 640 u[32] + 81 u[33] + 568 u[34]
   + 93 u[35] + 424 u[36] + 721 u[37] + 776 u[38] + 603 u[39] + 603 u[40]
   + 454 u[41] + 914 u[42] + 114 u[43] + 851 u[44] + 519 u[45] + 190 u[46]
   + 926 u[47] + 451 u[48] + 324 u[49] + 419 u[50] + 180 u[51] + 937 u[52]
   + 904 u[53] + 877 u[54] + 732 u[55] + 965 u[56] + 951 u[57] + 584 u[58]
   + 838 u[59] <= 11188
 primal_lower907: 156 u[0] + 632 u[1] + 390 u[2] + 15 u[3] + 232 u[4]
   + 230 u[5] + 705 u[6] + 456 u[7] + 897 u[8] + 390 u[9] + 568 u[10]
   + 759 u[11] + 752 u[12] + 840 u[13] + 993 u[14] + 721 u[15] + 361 u[16]
   + 12 u[17] + 205 u[18] + 26 u[19] + 65 u[20] + 52 u[21] + 944 u[22]
   + 27 u[23] + 881 u[24] + 780 u[25] + 246 u[26] + 268 u[27] + 242 u[28]
   + 347 u[29] + 966 u[30] + 264 u[31] + 544 u[32] + 313 u[33] + 208 u[34]
   + 325 u[35] + 56 u[36] + 889 u[37] + 392 u[38] + 195 u[39] + 411 u[40]
   + 6 u[41] + 18 u[42] + 722 u[43] + 747 u[44] + 783 u[45] + 830 u[46]
   + 126 u[47] + 3 u[48] + 68 u[49] + 35 u[50] + 116 u[51] + 601 u[52]
   + 8 u[53] + 461 u[54] + 620 u[55] + 437 u[56] + 527 u[57] + 336 u[58]
   + 534 u[59] <= 4122
 primal_lower908: 798 u[0] + 930 u[1] + 96 u[2] + 337 u[3] + 634 u[4]
   + 760 u[5] + 219 u[6] + 522 u[7] + 163 u[8] + 136 u[9] + 650 u[10]
   + 929 u[11] + 986 u[12] + 162 u[13] + 483 u[14] + 763 u[15] + 347 u[16]
   + 110 u[17] + 263 u[18] + 892 u[19] + 419 u[20] + 78 u[21] + 850 u[22]
   + 973 u[23] + 963 u[24] + 102 u[25] + 792 u[26] + 406 u[27] + 524 u[28]
   + 989 u[29] + 872 u[30] + 482 u[31] + 146 u[32] + 587 u[33] + 26 u[34]
   + 567 u[35] + 954 u[36] + 387 u[37] + 618 u[38] + 5 u[39] + 165 u[40]
   + 184 u[41] + 100 u[42] + 220 u[43] + 877 u[44] + 713 u[45] + 808 u[46]
   + 80 u[47] + 389 u[48] + 462 u[49] + 533 u[50] + 726 u[51] + 59 u[52]
   + 250 u[53] + 223 u[54] + 6 u[55] + 695 u[56] + 281 u[57] + 826 u[58]
   + 120 u[59] <= 989
 primal_lower909: 381 u[0] + 990 u[1] + 984 u[2] + 461 u[3] + 842 u[4]
   + 163 u[5] + 643 u[6] + 885 u[7] + 435 u[8] + 796 u[9] + 985 u[10]
   + 357 u[11] + 362 u[12] + 366 u[13] + 850 u[14] + 246 u[15] + 3 u[16]
   + 746 u[17] + 895 u[18] + 56 u[19] + 483 u[20] + 961 u[21] + 146 u[22]
   + 208 u[23] + 682 u[24] + 554 u[25] + 168 u[26] + 489 u[27] + 699 u[28]
   + 513 u[29] + 535 u[30] + 237 u[31] + u[32] + 583 u[33] + 506 u[34]
   + 547 u[35] + 50 u[36] + 22 u[37] + 202 u[38] + 328 u[39] + 749 u[40]
   + 339 u[41] + 860 u[42] + 511 u[43] + 725 u[44] + 468 u[45] + 607 u[46]
   + 267 u[47] + 429 u[48] + 538 u[49] + 348 u[50] + 490 u[51] + 867 u[52]
   + 918 u[53] + 838 u[54] + 745 u[55] + 871 u[56] + 756 u[57] + 498 u[58]
   + 724 u[59] <= 21272
 primal_lower910: 360 u[0] + 817 u[1] + 131 u[2] + 600 u[3] + 773 u[4]
   + 686 u[5] + 102 u[6] + 608 u[7] + 486 u[8] + 39 u[9] + 492 u[10]
   + 848 u[11] + 701 u[12] + 929 u[13] + 645 u[14] + 329 u[15] + 158 u[16]
   + 285 u[17] + 946 u[18] + 771 u[19] + 502 u[20] + 644 u[21] + 309 u[22]
   + 987 u[23] + 677 u[24] + 301 u[25] + 203 u[26] + 316 u[27] + 830 u[28]
   + 76 u[29] + 90 u[30] + 1000 u[31] + 316 u[32] + 706 u[33] + 285 u[34]
   + 974 u[35] + 861 u[36] + 345 u[37] + 677 u[38] + 611 u[39] + 504 u[40]
   + 982 u[41] + 959 u[42] + 170 u[43] + 504 u[44] + 255 u[45] + 674 u[46]
   + 382 u[47] + 816 u[48] + 269 u[49] + 927 u[50] + 213 u[51] + 246 u[52]
   + 241 u[53] + 289 u[54] + 380 u[55] + 890 u[56] + 999 u[57] + 165 u[58]
   + 63 u[59] <= 15672
 primal_lower911: 664 u[0] + 804 u[1] + 874 u[2] + 347 u[3] + 652 u[4]
   + 850 u[5] + 693 u[6] + 404 u[7] + 741 u[8] + 578 u[9] + 348 u[10]
   + 51 u[11] + 284 u[12] + 572 u[13] + 909 u[14] + 389 u[15] + 277 u[16]
   + 752 u[17] + 889 u[18] + 814 u[19] + 517 u[20] + 824 u[21] + 532 u[22]
   + 615 u[23] + 325 u[24] + 984 u[25] + 314 u[26] + 680 u[27] + 326 u[28]
   + 719 u[29] + 170 u[30] + 876 u[31] + 668 u[32] + 261 u[33] + 436 u[34]
   + 225 u[35] + 908 u[36] + 925 u[37] + 500 u[38] + 311 u[39] + 159 u[40]
   + 106 u[41] + 478 u[42] + 598 u[43] + 119 u[44] + 859 u[45] + 714 u[46]
   + 586 u[47] + 575 u[48] + 360 u[49] + 415 u[50] + 520 u[51] + 117 u[52]
   + 908 u[53] + 513 u[54] + 688 u[55] + 345 u[56] + 291 u[57] + 948 u[58]
   + 786 u[59] <= 16546
 primal_lower912: 874 u[0] + 574 u[1] + 284 u[2] + 429 u[3] + 670 u[4]
   + 460 u[5] + 391 u[6] + 366 u[7] + 871 u[8] + 772 u[9] + 166 u[10]
   + 981 u[11] + 14 u[12] + 126 u[13] + 551 u[14] + 383 u[15] + 663 u[16]
   + 154 u[17] + 27 u[18] + 256 u[19] + 335 u[20] + 594 u[21] + 654 u[22]
   + 769 u[23] + 607 u[24] + 530 u[25] + 324 u[26] + 578 u[27] + 440 u[28]
   + 745 u[29] + 300 u[30] + 94 u[31] + 798 u[32] + 607 u[33] + 470 u[34]
   + 491 u[35] + 270 u[36] + 879 u[37] + 6 u[38] + 873 u[39] + 393 u[40]
   + 804 u[41] + 512 u[42] + 648 u[43] + 537 u[44] + 197 u[45] + 580 u[46]
   + 108 u[47] + 289 u[48] + 986 u[49] + 553 u[50] + 866 u[51] + 71 u[52]
   + 950 u[53] + 707 u[54] + 930 u[55] + 339 u[56] + 549 u[57] + 238 u[58]
   + 132 u[59] <= 14882
 primal_lower913: 552 u[0] + 916 u[1] + 690 u[2] + 395 u[3] + 444 u[4]
   + 986 u[5] + 141 u[6] + 660 u[7] + 485 u[8] + 610 u[9] + 732 u[10]
   + 627 u[11] + 124 u[12] + 612 u[13] + 173 u[14] + 317 u[15] + 341 u[16]
   + 40 u[17] + 161 u[18] + 534 u[19] + 133 u[20] + 64 u[21] + 996 u[22]
   + 879 u[23] + 85 u[24] + 832 u[25] + 706 u[26] + 128 u[27] + 846 u[28]
   + 711 u[29] + 530 u[30] + 244 u[31] + 204 u[32] + 277 u[33] + 612 u[34]
   + 585 u[35] + 964 u[36] + 101 u[37] + 300 u[38] + 47 u[39] + 791 u[40]
   + 618 u[41] + 478 u[42] + 870 u[43] + 319 u[44] + 523 u[45] + 370 u[46]
   + 34 u[47] + 927 u[48] + 512 u[49] + 495 u[50] + 160 u[51] + 149 u[52]
   + 116 u[53] + 777 u[54] + 752 u[55] + 497 u[56] + 323 u[57] + 964 u[58]
   + 234 u[59] <= 14346
 primal_lower914: 280 u[0] + 945 u[1] + 763 u[2] + 64 u[3] + 741 u[4]
   + 806 u[5] + 582 u[6] + 344 u[7] + 758 u[8] + 87 u[9] + 268 u[10]
   + 336 u[11] + 285 u[12] + 369 u[13] + 941 u[14] + 289 u[15] + 822 u[16]
   + 989 u[17] + 770 u[18] + 123 u[19] + 630 u[20] + 228 u[21] + 173 u[22]
   + 83 u[23] + 805 u[24] + 861 u[25] + 835 u[26] + 316 u[27] + 670 u[28]
   + 148 u[29] + 362 u[30] + 688 u[31] + 388 u[32] + 82 u[33] + 245 u[34]
   + 702 u[35] + 517 u[36] + 833 u[37] + 21 u[38] + 827 u[39] + 656 u[40]
   + 382 u[41] + 911 u[42] + 194 u[43] + 944 u[44] + 663 u[45] + 474 u[46]
   + 846 u[47] + 288 u[48] + 197 u[49] + 703 u[50] + 445 u[51] + 774 u[52]
   + 249 u[53] + 825 u[54] + 404 u[55] + 746 u[56] + 799 u[57] + 501 u[58]
   + 231 u[59] <= 15604
 primal_lower915: 851 u[0] + 524 u[1] + 150 u[2] + 99 u[3] + 824 u[4]
   + 537 u[5] + u[6] + 419 u[7] + 489 u[8] + 394 u[9] + 935 u[10]
   + 331 u[11] + 120 u[12] + 164 u[13] + 864 u[14] + 396 u[15] + 185 u[16]
   + 112 u[17] + 581 u[18] + 542 u[19] + 441 u[20] + 159 u[21] + 664 u[22]
   + 870 u[23] + 448 u[24] + 528 u[25] + 6 u[26] + 199 u[27] + 705 u[28]
   + 647 u[29] + 109 u[30] + 691 u[31] + 999 u[32] + 445 u[33] + 40 u[34]
   + 721 u[35] + 472 u[36] + 180 u[37] + 656 u[38] + 494 u[39] + 779 u[40]
   + 401 u[41] + 954 u[42] + 53 u[43] + 723 u[44] + 698 u[45] + 853 u[46]
   + 409 u[47] + 611 u[48] + 392 u[49] + 466 u[50] + 984 u[51] + 801 u[52]
   + 116 u[53] + 564 u[54] + 807 u[55] + 517 u[56] + 418 u[57] + 1000 u[58]
   + 410 u[59] <= 4991
 primal_lower916: 853 u[0] + 750 u[1] + 848 u[2] + 413 u[3] + 458 u[4]
   + 827 u[5] + 219 u[6] + 389 u[7] + 571 u[8] + 212 u[9] + 913 u[10]
   + 93 u[11] + 778 u[12] + 894 u[13] + 850 u[14] + 142 u[15] + 315 u[16]
   + 34 u[17] + 287 u[18] + 768 u[19] + 339 u[20] + 425 u[21] + 570 u[22]
   + 176 u[23] + 722 u[24] + 770 u[25] + 816 u[26] + 993 u[27] + 411 u[28]
   + u[29] + 215 u[30] + 133 u[31] + 89 u[32] + 975 u[33] + 842 u[34]
   + 387 u[35] + 314 u[36] + 838 u[37] + 10 u[38] + 672 u[39] + 125 u[40]
   + 595 u[41] + 812 u[42] + 903 u[43] + 965 u[44] + 364 u[45] + 719 u[46]
   + 227 u[47] + 357 u[48] + 738 u[49] + 684 u[50] + 506 u[51] + 579 u[52]
   + 990 u[53] + 950 u[54] + 233 u[55] + 647 u[56] + 508 u[57] + 306 u[58]
   + 540 u[59] <= 5343
 primal_lower917: 317 u[0] + 630 u[1] + 176 u[2] + 21 u[3] + 386 u[4]
   + 723 u[5] + 683 u[6] + 645 u[7] + 659 u[8] + 756 u[9] + 841 u[10]
   + 965 u[11] + 842 u[12] + 102 u[13] + 658 u[14] + 886 u[15] + 931 u[16]
   + 210 u[17] + 471 u[18] + 392 u[19] + 587 u[20] + 433 u[21] + 618 u[22]
   + 760 u[23] + 666 u[24] + 394 u[25] + 744 u[26] + 9 u[27] + 667 u[28]
   + 433 u[29] + 55 u[30] + 829 u[31] + 513 u[32] + 927 u[33] + 282 u[34]
   + 75 u[35] + 154 u[36] + 470 u[37] + 242 u[38] + 936 u[39] + 861 u[40]
   + 67 u[41] + 180 u[42] + 807 u[43] + 605 u[44] + 644 u[45] + 311 u[46]
   + 179 u[47] + 13 u[48] + 538 u[49] + 140 u[50] + 514 u[51] + 75 u[52]
   + 678 u[53] + 86 u[54] + 497 u[55] + 279 u[56] + 892 u[57] + 354 u[58]
   + 604 u[59] <= 4902
 primal_lower918: 307 u[0] + 764 u[1] + 494 u[2] + 683 u[3] + 632 u[4]
   + 753 u[5] + 689 u[6] + 203 u[7] + 809 u[8] + 786 u[9] + 447 u[10]
   + 259 u[11] + 992 u[12] + 132 u[13] + 960 u[14] + 180 u[15] + 817 u[16]
   + 816 u[17] + 645 u[18] + 110 u[19] + 465 u[20] + 711 u[21] + 248 u[22]
   + 910 u[23] + 120 u[24] + 176 u[25] + 446 u[26] + 303 u[27] + 681 u[28]
   + 303 u[29] + 213 u[30] + 875 u[31] + 247 u[32] + 93 u[33] + 672 u[34]
   + 289 u[35] + 576 u[36] + 188 u[37] + 784 u[38] + 638 u[39] + 59 u[40]
   + 913 u[41] + 306 u[42] + 125 u[43] + 307 u[44] + 458 u[45] + 509 u[46]
   + 865 u[47] + 659 u[48] + 552 u[49] + 546 u[50] + 680 u[51] + 633 u[52]
   + 900 u[53] + 548 u[54] + 247 u[55] + 357 u[56] + 770 u[57] + 200 u[58]
   + 34 u[59] <= 20056
 primal_lower919: 481 u[0] + 714 u[1] + 28 u[2] + 281 u[3] + 998 u[4]
   + 823 u[5] + 831 u[6] + 513 u[7] + 951 u[8] + 192 u[9] + 501 u[10]
   + 257 u[11] + 134 u[12] + 882 u[13] + 358 u[14] + 378 u[15] + 583 u[16]
   + 998 u[17] + 451 u[18] + 660 u[19] + 511 u[20] + 373 u[21] + 766 u[22]
   + 220 u[23] + 382 u[24] + 550 u[25] + 324 u[26] + 605 u[27] + 55 u[28]
   + 701 u[29] + 43 u[30] + 809 u[31] + 29 u[32] + 11 u[33] + 886 u[34]
   + 983 u[35] + 406 u[36] + 474 u[37] + 726 u[38] + 796 u[39] + 177 u[40]
   + 583 u[41] + 176 u[42] + 203 u[43] + 609 u[44] + 144 u[45] + 43 u[46]
   + 815 u[47] + 249 u[48] + 102 u[49] + 456 u[50] + 558 u[51] + 695 u[52]
   + 194 u[53] + 426 u[54] + 813 u[55] + 35 u[56] + 24 u[57] + 606 u[58]
   + 984 u[59] <= 14278
 primal_lower920: 522 u[0] + 555 u[1] + 789 u[2] + 962 u[3] + 687 u[4]
   + 600 u[5] + 952 u[6] + 354 u[7] + 8 u[8] + 553 u[9] + 198 u[10]
   + 114 u[11] + 127 u[12] + 467 u[13] + 783 u[14] + 563 u[15] + 216 u[16]
   + 391 u[17] + 556 u[18] + 69 u[19] + 976 u[20] + 62 u[21] + 839 u[22]
   + 725 u[23] + 327 u[24] + 951 u[25] + 477 u[26] + 550 u[27] + 880 u[28]
   + 830 u[29] + 764 u[30] + 722 u[31] + 814 u[32] + 612 u[33] + 663 u[34]
   + 712 u[35] + 807 u[36] + 363 u[37] + 599 u[38] + 685 u[39] + 426 u[40]
   + 576 u[41] + 937 u[42] + 572 u[43] + 202 u[44] + 49 u[45] + 924 u[46]
   + 544 u[47] + 458 u[48] + 671 u[49] + 961 u[50] + 687 u[51] + 984 u[52]
   + 819 u[53] + 995 u[54] + 910 u[55] + 324 u[56] + 449 u[57] + 791 u[58]
   + 729 u[59] <= 11944
 primal_lower921: 745 u[0] + 549 u[1] + 547 u[2] + 436 u[3] + 293 u[4]
   + 923 u[5] + 278 u[6] + 205 u[7] + 438 u[8] + 523 u[9] + 909 u[10]
   + 140 u[11] + 317 u[12] + 517 u[13] + 670 u[14] + 470 u[15] + 518 u[16]
   + 681 u[17] + 202 u[18] + 191 u[19] + 814 u[20] + 361 u[21] + 741 u[22]
   + 16 u[23] + 358 u[24] + 689 u[25] + 339 u[26] + 849 u[27] + 159 u[28]
   + 480 u[29] + 427 u[30] + 853 u[31] + 581 u[32] + 694 u[33] + 389 u[34]
   + 386 u[35] + 877 u[36] + 446 u[37] + 797 u[38] + 800 u[39] + 232 u[40]
   + 971 u[41] + 55 u[42] + 455 u[43] + 632 u[44] + 764 u[45] + 587 u[46]
   + 939 u[47] + 856 u[48] + 857 u[49] + 280 u[50] + 33 u[51] + 198 u[52]
   + 925 u[53] + 338 u[54] + 209 u[55] + 90 u[56] + 644 u[57] + 669 u[58]
   + 883 u[59] <= 15612
 primal_lower922: 618 u[0] + 851 u[1] + 613 u[2] + 802 u[3] + 583 u[4]
   + 560 u[5] + 688 u[6] + 170 u[7] + 992 u[8] + 473 u[9] + 286 u[10]
   + 594 u[11] + 535 u[12] + 811 u[13] + 47 u[14] + 715 u[15] + 232 u[16]
   + 31 u[17] + 500 u[18] + 221 u[19] + 720 u[20] + 198 u[21] + 991 u[22]
   + 453 u[23] + 111 u[24] + 343 u[25] + 589 u[26] + 990 u[27] + 616 u[28]
   + 30 u[29] + 668 u[30] + 178 u[31] + 182 u[32] + 708 u[33] + 39 u[34]
   + 192 u[35] + 935 u[36] + 755 u[37] + 567 u[38] + 133 u[39] + 2 u[40]
   + 40 u[41] + 833 u[42] + 596 u[43] + 330 u[44] + 201 u[45] + 412 u[46]
   + 752 u[47] + 154 u[48] + 71 u[49] + 665 u[50] + 575 u[51] + 848 u[52]
   + 755 u[53] + 515 u[54] + 902 u[55] + 508 u[56] + 185 u[57] + 623 u[58]
   + 937 u[59] <= 14812
 primal_lower923: 139 u[0] + 263 u[1] + 325 u[2] + 574 u[3] + 183 u[4]
   + 797 u[5] + 912 u[6] + 655 u[7] + 952 u[8] + 549 u[9] + 63 u[10]
   + 190 u[11] + 415 u[12] + 687 u[13] + 784 u[14] + 440 u[15] + 408 u[16]
   + 203 u[17] + 220 u[18] + 993 u[19] + 872 u[20] + 955 u[21] + 599 u[22]
   + 730 u[23] + 736 u[24] + 875 u[25] + 37 u[26] + 363 u[27] + 25 u[28]
   + 626 u[29] + 741 u[30] + 191 u[31] + 879 u[32] + 168 u[33] + 887 u[34]
   + 628 u[35] + 311 u[36] + 568 u[37] + 583 u[38] + 914 u[39] + 666 u[40]
   + 21 u[41] + 969 u[42] + 337 u[43] + 954 u[44] + 622 u[45] + 309 u[46]
   + 21 u[47] + 666 u[48] + 451 u[49] + 186 u[50] + 499 u[51] + 264 u[52]
   + 959 u[53] + 284 u[54] + 651 u[55] + 164 u[56] + 662 u[57] + 439 u[58]
   + 373 u[59] <= 10312
 primal_lower924: 325 u[0] + 25 u[1] + 719 u[2] + 864 u[3] + 393 u[4]
   + 903 u[5] + 522 u[6] + 41 u[7] + 346 u[8] + 7 u[9] + 993 u[10]
   + 216 u[11] + 417 u[12] + 745 u[13] + 746 u[14] + 922 u[15] + 962 u[16]
   + 77 u[17] + 830 u[18] + 987 u[19] + 194 u[20] + 733 u[21] + 641 u[22]
   + 748 u[23] + 858 u[24] + 45 u[25] + 711 u[26] + 837 u[27] + 515 u[28]
   + 388 u[29] + 335 u[30] + 913 u[31] + 889 u[32] + 634 u[33] + 729 u[34]
   + 654 u[35] + 481 u[36] + 186 u[37] + 313 u[38] + 492 u[39] + 204 u[40]
   + 183 u[41] + 219 u[42] + 315 u[43] + 588 u[44] + 816 u[45] + 911 u[46]
   + 863 u[47] + 148 u[48] + 869 u[49] + 4 u[50] + 453 u[51] + 434 u[52]
   + 377 u[53] + 846 u[54] + 837 u[55] + 174 u[56] + 752 u[57] + 577 u[58]
   + 815 u[59] <= 16360
 primal_lower925: 591 u[0] + 376 u[1] + 594 u[2] + 567 u[3] + 28 u[4]
   + 909 u[5] + 749 u[6] + 983 u[7] + 773 u[8] + 198 u[9] + 523 u[10]
   + 999 u[11] + 156 u[12] + 232 u[13] + 324 u[14] + 216 u[15] + 133 u[16]
   + 940 u[17] + 289 u[18] + 338 u[19] + 469 u[20] + 219 u[21] + 300 u[22]
   + 354 u[23] + 524 u[24] + 956 u[25] + 66 u[26] + 139 u[27] + 405 u[28]
   + 187 u[29] + 745 u[30] + 991 u[31] + 771 u[32] + 801 u[33] + 236 u[34]
   + 285 u[35] + 996 u[36] + 640 u[37] + 260 u[38] + 370 u[39] + 911 u[40]
   + 453 u[41] + 870 u[42] + 961 u[43] + 615 u[44] + 862 u[45] + 489 u[46]
   + 517 u[47] + 495 u[48] + 868 u[49] + 118 u[50] + 612 u[51] + 189 u[52]
   + 624 u[53] + 640 u[54] + 27 u[55] + 657 u[56] + 246 u[57] + 604 u[58]
   + 774 u[59] <= 5194
 primal_lower926: 90 u[0] + 523 u[1] + 837 u[2] + 226 u[3] + 943 u[4]
   + 568 u[5] + 888 u[6] + 706 u[7] + 888 u[8] + 993 u[9] + 574 u[10]
   + 258 u[11] + 375 u[12] + 947 u[13] + 119 u[14] + 171 u[15] + 280 u[16]
   + 439 u[17] + 724 u[18] + 653 u[19] + 136 u[20] + 846 u[21] + 727 u[22]
   + 493 u[23] + 999 u[24] + 727 u[25] + 173 u[26] + 998 u[27] + 544 u[28]
   + 390 u[29] + 252 u[30] + 922 u[31] + 62 u[32] + 748 u[33] + 607 u[34]
   + 768 u[35] + 215 u[36] + 299 u[37] + 487 u[38] + 237 u[39] + 434 u[40]
   + 408 u[41] + 625 u[42] + 836 u[43] + 338 u[44] + 129 u[45] + 68 u[46]
   + 904 u[47] + 482 u[48] + 367 u[49] + 425 u[50] + 943 u[51] + 576 u[52]
   + 531 u[53] + 451 u[54] + 998 u[55] + 676 u[56] + 481 u[57] + 15 u[58]
   + 593 u[59] <= 21408
 primal_lower927: 517 u[0] + 113 u[1] + 263 u[2] + 984 u[3] + 289 u[4]
   + 63 u[5] + 90 u[6] + 657 u[7] + 834 u[8] + 143 u[9] + 721 u[10]
   + 432 u[11] + 89 u[12] + 233 u[13] + 338 u[14] + 690 u[15] + 658 u[16]
   + 389 u[17] + 310 u[18] + 771 u[19] + 682 u[20] + 429 u[21] + 265 u[22]
   + 780 u[23] + 386 u[24] + 613 u[25] + 519 u[26] + 901 u[27] + 755 u[28]
   + 84 u[29] + 631 u[30] + 545 u[31] + 337 u[32] + 858 u[33] + 945 u[34]
   + 198 u[35] + 49 u[36] + 498 u[37] + 785 u[38] + 68 u[39] + 620 u[40]
   + 991 u[41] + 827 u[42] + 811 u[43] + 252 u[44] + 944 u[45] + 287 u[46]
   + 543 u[47] + 236 u[48] + 749 u[49] + 980 u[50] + 957 u[51] + 426 u[52]
   + 849 u[53] + 54 u[54] + 117 u[55] + 334 u[56] + 480 u[57] + 545 u[58]
   + 159 u[59] <= 5012
 primal_lower928: 544 u[0] + 569 u[1] + 811 u[2] + 32 u[3] + 549 u[4]
   + 382 u[5] + 862 u[6] + 344 u[7] + 430 u[8] + 839 u[9] + 972 u[10]
   + 408 u[11] + 997 u[12] + 737 u[13] + 541 u[14] + 769 u[15] + 278 u[16]
   + 853 u[17] + 266 u[18] + 539 u[19] + 630 u[20] + 412 u[21] + 981 u[22]
   + 835 u[23] + 349 u[24] + 301 u[25] + 643 u[26] + 908 u[27] + 406 u[28]
   + 204 u[29] + 994 u[30] + 48 u[31] + 756 u[32] + 370 u[33] + 925 u[34]
   + 710 u[35] + 645 u[36] + 753 u[37] + 13 u[38] + 155 u[39] + 728 u[40]
   + 558 u[41] + 647 u[42] + 522 u[43] + 432 u[44] + 591 u[45] + 194 u[46]
   + 894 u[47] + 112 u[48] + 869 u[49] + 559 u[50] + 509 u[51] + 422 u[52]
   + 385 u[53] + 977 u[54] + 916 u[55] + 50 u[56] + 647 u[57] + 141 u[58]
   + 967 u[59] <= 5646
 primal_lower929: 760 u[0] + 25 u[1] + 803 u[2] + 464 u[3] + 77 u[4]
   + 222 u[5] + 358 u[6] + 272 u[7] + 622 u[8] + 535 u[9] + 532 u[10]
   + 712 u[11] + 381 u[12] + 929 u[13] + 253 u[14] + 561 u[15] + 366 u[16]
   + 477 u[17] + 410 u[18] + 547 u[19] + 358 u[20] + 972 u[21] + 309 u[22]
   + 683 u[23] + 461 u[24] + 317 u[25] + 131 u[26] + 540 u[27] + 886 u[28]
   + 796 u[29] + 522 u[30] + 680 u[31] + 356 u[32] + 66 u[33] + 229 u[34]
   + 30 u[35] + 365 u[36] + 97 u[37] + 749 u[38] + 283 u[39] + 880 u[40]
   + 878 u[41] + 959 u[42] + 82 u[43] + 680 u[44] + 383 u[45] + 226 u[46]
   + 38 u[47] + 136 u[48] + 533 u[49] + 807 u[50] + 957 u[51] + 46 u[52]
   + 409 u[53] + 889 u[54] + 820 u[55] + 738 u[56] + 855 u[57] + 301 u[58]
   + 111 u[59] <= 9621
 primal_lower930: 163 u[0] + 775 u[1] + 725 u[2] + 406 u[3] + 703 u[4]
   + 709 u[5] + 472 u[6] + 79 u[7] + 832 u[8] + 437 u[9] + 119 u[10]
   + 438 u[11] + 871 u[12] + 623 u[13] + 64 u[14] + 784 u[15] + 832 u[16]
   + 835 u[17] + 228 u[18] + 809 u[19] + 200 u[20] + 171 u[21] + 295 u[22]
   + 410 u[23] + 672 u[24] + 395 u[25] + 813 u[26] + 131 u[27] + 857 u[28]
   + 690 u[29] + 37 u[30] + 495 u[31] + 911 u[32] + 32 u[33] + 215 u[34]
   + 892 u[35] + 455 u[36] + 40 u[37] + 255 u[38] + 802 u[39] + 122 u[40]
   + 477 u[41] + 465 u[42] + 241 u[43] + 442 u[44] + 238 u[45] + 349 u[46]
   + 133 u[47] + 90 u[48] + 739 u[49] + 338 u[50] + 155 u[51] + 456 u[52]
   + 351 u[53] + 220 u[54] + 963 u[55] + 244 u[56] + 150 u[57] + 39 u[58]
   + 421 u[59] <= 4384
 primal_lower931: 763 u[0] + 671 u[1] + 141 u[2] + 558 u[3] + 879 u[4]
   + 813 u[5] + 872 u[6] + 751 u[7] + 808 u[8] + 997 u[9] + 55 u[10]
   + 230 u[11] + 479 u[12] + 919 u[13] + 504 u[14] + 792 u[15] + 232 u[16]
   + 419 u[17] + 588 u[18] + 745 u[19] + 48 u[20] + 483 u[21] + 511 u[22]
   + 82 u[23] + 752 u[24] + 51 u[25] + 877 u[26] + 635 u[27] + 441 u[28]
   + 202 u[29] + 341 u[30] + 863 u[31] + 487 u[32] + 176 u[33] + 983 u[34]
   + 244 u[35] + 287 u[36] + 208 u[37] + 607 u[38] + 594 u[39] + 898 u[40]
   + 309 u[41] + 945 u[42] + 297 u[43] + 202 u[44] + 94 u[45] + 373 u[46]
   + 701 u[47] + 826 u[48] + 115 u[49] + 730 u[50] + 739 u[51] + 176 u[52]
   + 375 u[53] + 964 u[54] + 619 u[55] + 884 u[56] + 494 u[57] + 551 u[58]
   + 653 u[59] <= 10677
 primal_lower932: 787 u[0] + 692 u[1] + 902 u[2] + 155 u[3] + 88 u[4]
   + 577 u[5] + 73 u[6] + 155 u[7] + 681 u[8] + 666 u[9] + 679 u[10]
   + 579 u[11] + 280 u[12] + 820 u[13] + 192 u[14] + 572 u[15] + 401 u[16]
   + 104 u[17] + 245 u[18] + 246 u[19] + 273 u[20] + 303 u[21] + 96 u[22]
   + 486 u[23] + 224 u[24] + 392 u[25] + 598 u[26] + 167 u[27] + 673 u[28]
   + 87 u[29] + 613 u[30] + 859 u[31] + 135 u[32] + 117 u[33] + 552 u[34]
   + 265 u[35] + 984 u[36] + 212 u[37] + 552 u[38] + 342 u[39] + 875 u[40]
   + 849 u[41] + 282 u[42] + 597 u[43] + 843 u[44] + 770 u[45] + 117 u[46]
   + 241 u[47] + 139 u[48] + 1000 u[49] + 314 u[50] + 136 u[51] + 201 u[52]
   + 52 u[53] + 436 u[54] + 399 u[55] + 301 u[56] + 138 u[57] + 448 u[58]
   + 834 u[59] <= 8598
 primal_lower933: 873 u[0] + 85 u[1] + 395 u[2] + 660 u[3] + 85 u[4]
   + 131 u[5] + 918 u[6] + 885 u[7] + 502 u[8] + 571 u[9] + 301 u[10]
   + 884 u[11] + 333 u[12] + 621 u[13] + 854 u[14] + 558 u[15] + 14 u[16]
   + 113 u[17] + 442 u[18] + 495 u[19] + 742 u[20] + 985 u[21] + 741 u[22]
   + 88 u[23] + 694 u[24] + 409 u[25] + 395 u[26] + 657 u[27] + 791 u[28]
   + 264 u[29] + 883 u[30] + 85 u[31] + 365 u[32] + 926 u[33] + 53 u[34]
   + 130 u[35] + 61 u[36] + 206 u[37] + 813 u[38] + 880 u[39] + 48 u[40]
   + 123 u[41] + 7 u[42] + 175 u[43] + 728 u[44] + 20 u[45] + 699 u[46]
   + 755 u[47] + 992 u[48] + 473 u[49] + 88 u[50] + 537 u[51] + 94 u[52]
   + 453 u[53] + 930 u[54] + 537 u[55] + 754 u[56] + 164 u[57] + 365 u[58]
   + 355 u[59] <= 14092
 primal_lower934: 410 u[0] + 646 u[1] + 100 u[2] + 149 u[3] + 630 u[4]
   + 988 u[5] + 367 u[6] + 222 u[7] + 959 u[8] + 748 u[9] + 846 u[10]
   + 269 u[11] + 310 u[12] + 150 u[13] + 287 u[14] + 959 u[15] + 271 u[16]
   + 298 u[17] + 187 u[18] + 32 u[19] + 175 u[20] + 938 u[21] + 598 u[22]
   + 49 u[23] + 15 u[24] + 786 u[25] + 300 u[26] + 762 u[27] + 776 u[28]
   + 673 u[29] + 524 u[30] + 510 u[31] + 254 u[32] + 855 u[33] + 462 u[34]
   + 291 u[35] + 230 u[36] + 687 u[37] + 990 u[38] + 137 u[39] + 377 u[40]
   + 276 u[41] + 936 u[42] + 776 u[43] + 801 u[44] + 869 u[45] + 564 u[46]
   + 612 u[47] + 313 u[48] + 690 u[49] + 169 u[50] + 570 u[51] + 135 u[52]
   + 294 u[53] + 803 u[54] + 162 u[55] + 259 u[56] + 173 u[57] + 598 u[58]
   + 508 u[59] <= 14362
 primal_lower935: 488 u[0] + 689 u[1] + 123 u[2] + 344 u[3] + 645 u[4]
   + 510 u[5] + 374 u[6] + 400 u[7] + 918 u[8] + 607 u[9] + 300 u[10]
   + 752 u[11] + 269 u[12] + 265 u[13] + 373 u[14] + 929 u[15] + 878 u[16]
   + 37 u[17] + 338 u[18] + 475 u[19] + 518 u[20] + 428 u[21] + 493 u[22]
   + 923 u[23] + 557 u[24] + 901 u[25] + 355 u[26] + 324 u[27] + 54 u[28]
   + 412 u[29] + 802 u[30] + 344 u[31] + 172 u[32] + 138 u[33] + 189 u[34]
   + 14 u[35] + 653 u[36] + 737 u[37] + 101 u[38] + 27 u[39] + 848 u[40]
   + 270 u[41] + 703 u[42] + 730 u[43] + 504 u[44] + 271 u[45] + 362 u[46]
   + 654 u[47] + 632 u[48] + 197 u[49] + 807 u[50] + 237 u[51] + 894 u[52]
   + 801 u[53] + 305 u[54] + 396 u[55] + 914 u[56] + 335 u[57] + 77 u[58]
   + 783 u[59] <= 9525
 primal_lower936: 999 u[0] + 912 u[1] + 674 u[2] + 415 u[3] + 740 u[4]
   + 525 u[5] + 309 u[6] + 271 u[7] + 341 u[8] + 886 u[9] + 619 u[10]
   + 463 u[11] + 300 u[12] + 32 u[13] + 660 u[14] + 384 u[15] + 925 u[16]
   + 308 u[17] + 585 u[18] + 994 u[19] + 717 u[20] + 587 u[21] + 148 u[22]
   + 50 u[23] + 420 u[24] + 804 u[25] + 850 u[26] + 931 u[27] + 533 u[28]
   + 691 u[29] + 345 u[30] + 183 u[31] + 883 u[32] + 481 u[33] + 44 u[34]
   + 821 u[35] + 476 u[36] + 688 u[37] + 732 u[38] + 258 u[39] + 367 u[40]
   + 389 u[41] + 174 u[42] + 489 u[43] + 335 u[44] + 230 u[45] + 201 u[46]
   + 237 u[47] + 847 u[48] + 692 u[49] + 158 u[50] + 596 u[51] + 53 u[52]
   + 736 u[53] + 280 u[54] + 227 u[55] + 9 u[56] + 6 u[57] + 140 u[58]
   + 926 u[59] <= 14538
 primal_lower937: 424 u[0] + 692 u[1] + 418 u[2] + 211 u[3] + 364 u[4]
   + 186 u[5] + 973 u[6] + 828 u[7] + 949 u[8] + 522 u[9] + 700 u[10]
   + 227 u[11] + 220 u[12] + 140 u[13] + 589 u[14] + 253 u[15] + 53 u[16]
   + 520 u[17] + 209 u[18] + 214 u[19] + 37 u[20] + 48 u[21] + 420 u[22]
   + 543 u[23] + 909 u[24] + 64 u[25] + 282 u[26] + 856 u[27] + 614 u[28]
   + 727 u[29] + 642 u[30] + 820 u[31] + 332 u[32] + 837 u[33] + 84 u[34]
   + 481 u[35] + 732 u[36] + 477 u[37] + 180 u[38] + 63 u[39] + 543 u[40]
   + 578 u[41] + 238 u[42] + 366 u[43] + 927 u[44] + 547 u[45] + 34 u[46]
   + 650 u[47] + 175 u[48] + 168 u[49] + 903 u[50] + 920 u[51] + 853 u[52]
   + 164 u[53] + 489 u[54] + 488 u[55] + 121 u[56] + 931 u[57] + 908 u[58]
   + 98 u[59] <= 973
 primal_lower938: 755 u[0] + 215 u[1] + 389 u[2] + 454 u[3] + 335 u[4]
   + 317 u[5] + 768 u[6] + 583 u[7] + 176 u[8] + 541 u[9] + 111 u[10]
   + 598 u[11] + 639 u[12] + 415 u[13] + 592 u[14] + 784 u[15] + 832 u[16]
   + 315 u[17] + 700 u[18] + 145 u[19] + 776 u[20] + 195 u[21] + 815 u[22]
   + 874 u[23] + 160 u[24] + 171 u[25] + 317 u[26] + 843 u[27] + 361 u[28]
   + 634 u[29] + 661 u[30] + 735 u[31] + 103 u[32] + 480 u[33] + 287 u[34]
   + 652 u[35] + 839 u[36] + 736 u[37] + 519 u[38] + 474 u[39] + 922 u[40]
   + 933 u[41] + 505 u[42] + 609 u[43] + 738 u[44] + 206 u[45] + 885 u[46]
   + 149 u[47] + 642 u[48] + 123 u[49] + 306 u[50] + 91 u[51] + 696 u[52]
   + 319 u[53] + 396 u[54] + 475 u[55] + 708 u[56] + 398 u[57] + 423 u[58]
   + 117 u[59] <= 14968
 primal_lower939: 220 u[0] + 24 u[1] + 526 u[2] + 799 u[3] + 312 u[4]
   + 366 u[5] + 169 u[6] + 520 u[7] + 169 u[8] + 702 u[9] + 960 u[10]
   + 135 u[11] + 680 u[12] + 656 u[13] + 689 u[14] + 449 u[15] + 929 u[16]
   + 372 u[17] + 5 u[18] + 234 u[19] + 521 u[20] + 860 u[21] + 48 u[22]
   + 275 u[23] + 657 u[24] + 916 u[25] + 318 u[26] + 540 u[27] + 866 u[28]
   + 131 u[29] + 190 u[30] + 864 u[31] + 376 u[32] + 281 u[33] + 920 u[34]
   + 645 u[35] + 312 u[36] + 353 u[37] + 912 u[38] + 731 u[39] + 659 u[40]
   + 918 u[41] + 34 u[42] + 890 u[43] + 811 u[44] + 783 u[45] + 462 u[46]
   + 566 u[47] + 747 u[48] + 756 u[49] + 515 u[50] + 100 u[51] + 993 u[52]
   + 192 u[53] + 949 u[54] + 772 u[55] + 693 u[56] + 487 u[57] + 712 u[58]
   + 534 u[59] <= 16102
 primal_lower940: 725 u[0] + 441 u[1] + 607 u[2] + 296 u[3] + 473 u[4]
   + 503 u[5] + 10 u[6] + 329 u[7] + 250 u[8] + 551 u[9] + 33 u[10]
   + 496 u[11] + 401 u[12] + 961 u[13] + 882 u[14] + 618 u[15] + 642 u[16]
   + 61 u[17] + 134 u[18] + 603 u[19] + 706 u[20] + 485 u[21] + 945 u[22]
   + 300 u[23] + 954 u[24] + 37 u[25] + 143 u[26] + 93 u[27] + 563 u[28]
   + 844 u[29] + 239 u[30] + 553 u[31] + 241 u[32] + 138 u[33] + 385 u[34]
   + 614 u[35] + 921 u[36] + 538 u[37] + 361 u[38] + 308 u[39] + 476 u[40]
   + 79 u[41] + 899 u[42] + 403 u[43] + 84 u[44] + 192 u[45] + 695 u[46]
   + 951 u[47] + 260 u[48] + 501 u[49] + 676 u[50] + 917 u[51] + 818 u[52]
   + 609 u[53] + 350 u[54] + 349 u[55] + 726 u[56] + 1000 u[57] + 769 u[58]
   + 975 u[59] <= 15056
 primal_lower941: 446 u[0] + 767 u[1] + 649 u[2] + 350 u[3] + 763 u[4]
   + 476 u[5] + 148 u[6] + 398 u[7] + 124 u[8] + 205 u[9] + 266 u[10]
   + 902 u[11] + 547 u[12] + 271 u[13] + 171 u[14] + 431 u[15] + 676 u[16]
   + 219 u[17] + 448 u[18] + 497 u[19] + 164 u[20] + 194 u[21] + 43 u[22]
   + 65 u[23] + 331 u[24] + 643 u[25] + 849 u[26] + 178 u[27] + 372 u[28]
   + 714 u[29] + 272 u[30] + 998 u[31] + 282 u[32] + 584 u[33] + 787 u[34]
   + 300 u[35] + 499 u[36] + 431 u[37] + 803 u[38] + 289 u[39] + 478 u[40]
   + 12 u[41] + 733 u[42] + 304 u[43] + 830 u[44] + 805 u[45] + 384 u[46]
   + 868 u[47] + 70 u[48] + 835 u[49] + 869 u[50] + 643 u[51] + 412 u[52]
   + 87 u[53] + 279 u[54] + 490 u[55] + 320 u[56] + 365 u[57] + 971 u[58]
   + 469 u[59] <= 4629
 primal_lower942: 887 u[0] + 800 u[1] + 554 u[2] + 143 u[3] + 76 u[4]
   + 101 u[5] + 661 u[6] + 839 u[7] + 989 u[8] + 854 u[9] + 475 u[10]
   + 767 u[11] + 988 u[12] + 832 u[13] + 60 u[14] + 728 u[15] + 237 u[16]
   + 564 u[17] + 737 u[18] + 10 u[19] + 941 u[20] + 227 u[21] + 876 u[22]
   + 506 u[23] + 172 u[24] + 532 u[25] + 674 u[26] + 339 u[27] + 437 u[28]
   + 627 u[29] + 41 u[30] + 895 u[31] + 523 u[32] + 865 u[33] + 236 u[34]
   + 421 u[35] + 756 u[36] + 616 u[37] + 716 u[38] + 330 u[39] + 375 u[40]
   + 485 u[41] + 622 u[42] + 697 u[43] + 255 u[44] + 774 u[45] + 729 u[46]
   + 61 u[47] + 415 u[48] + 860 u[49] + 790 u[50] + 620 u[51] + 853 u[52]
   + 664 u[53] + 416 u[54] + 427 u[55] + 481 u[56] + 366 u[57] + 740 u[58]
   + 390 u[59] <= 22034
 primal_lower943: 188 u[0] + 384 u[1] + 558 u[2] + 495 u[3] + 904 u[4]
   + 566 u[5] + u[6] + 536 u[7] + 969 u[8] + 574 u[9] + 848 u[10]
   + 535 u[11] + 288 u[12] + 992 u[13] + 265 u[14] + 561 u[15] + 913 u[16]
   + 940 u[17] + 493 u[18] + 58 u[19] + 961 u[20] + 492 u[21] + 608 u[22]
   + 779 u[23] + 969 u[24] + 300 u[25] + 6 u[26] + 108 u[27] + 746 u[28]
   + 67 u[29] + 334 u[30] + 928 u[31] + 632 u[32] + 337 u[33] + 440 u[34]
   + 805 u[35] + 1000 u[36] + 385 u[37] + 576 u[38] + 251 u[39] + 619 u[40]
   + 614 u[41] + 850 u[42] + 90 u[43] + 355 u[44] + 479 u[45] + 766 u[46]
   + 494 u[47] + 51 u[48] + 820 u[49] + 579 u[50] + 364 u[51] + 681 u[52]
   + 48 u[53] + 453 u[54] + 492 u[55] + 413 u[56] + 463 u[57] + 112 u[58]
   + 718 u[59] <= 20835
 primal_lower944: 479 u[0] + 531 u[1] + 369 u[2] + 826 u[3] + 27 u[4]
   + 73 u[5] + 556 u[6] + 499 u[7] + 524 u[8] + 321 u[9] + 283 u[10]
   + 122 u[11] + 155 u[12] + 19 u[13] + 644 u[14] + 732 u[15] + 564 u[16]
   + 111 u[17] + 864 u[18] + 581 u[19] + 788 u[20] + 655 u[21] + 211 u[22]
   + 278 u[23] + 924 u[24] + 743 u[25] + 185 u[26] + 127 u[27] + 293 u[28]
   + 438 u[29] + 993 u[30] + 163 u[31] + 899 u[32] + 476 u[33] + 203 u[34]
   + 560 u[35] + 947 u[36] + 980 u[37] + 963 u[38] + 110 u[39] + 966 u[40]
   + 625 u[41] + 925 u[42] + 93 u[43] + 102 u[44] + 34 u[45] + 801 u[46]
   + 97 u[47] + 390 u[48] + 455 u[49] + 62 u[50] + 87 u[51] + 924 u[52]
   + 987 u[53] + 112 u[54] + 895 u[55] + 920 u[56] + 586 u[57] + 683 u[58]
   + 929 u[59] <= 4981
 primal_lower945: 691 u[0] + 679 u[1] + 109 u[2] + 958 u[3] + 367 u[4]
   + 565 u[5] + 864 u[6] + 407 u[7] + 728 u[8] + 709 u[9] + 303 u[10]
   + 62 u[11] + 159 u[12] + 175 u[13] + 352 u[14] + 544 u[15] + 40 u[16]
   + 827 u[17] + 748 u[18] + 537 u[19] + 616 u[20] + 35 u[21] + 719 u[22]
   + 570 u[23] + 32 u[24] + 155 u[25] + 149 u[26] + 371 u[27] + 145 u[28]
   + 490 u[29] + 373 u[30] + 23 u[31] + 391 u[32] + 312 u[33] + 143 u[34]
   + 844 u[35] + 783 u[36] + 640 u[37] + 783 u[38] + 410 u[39] + 954 u[40]
   + 885 u[41] + 505 u[42] + 409 u[43] + 770 u[44] + 446 u[45] + 677 u[46]
   + 253 u[47] + 26 u[48] + 931 u[49] + 754 u[50] + 203 u[51] + 552 u[52]
   + 103 u[53] + 484 u[54] + 827 u[55] + 900 u[56] + 622 u[57] + 831 u[58]
   + 869 u[59] <= 4968
 primal_lower946: 9 u[0] + 466 u[1] + 780 u[2] + 905 u[3] + 782 u[4]
   + 87 u[5] + 831 u[6] + 57 u[7] + 663 u[8] + 896 u[9] + 653 u[10]
   + 825 u[11] + 614 u[12] + 370 u[13] + 566 u[14] + 66 u[15] + 831 u[16]
   + 790 u[17] + 931 u[18] + 100 u[19] + 7 u[20] + 893 u[21] + 902 u[22]
   + 164 u[23] + 806 u[24] + 878 u[25] + 516 u[26] + 293 u[27] + 311 u[28]
   + 829 u[29] + 427 u[30] + 137 u[31] + 237 u[32] + 523 u[33] + 710 u[34]
   + 775 u[35] + 294 u[36] + 642 u[37] + 294 u[38] + 844 u[39] + 601 u[40]
   + 431 u[41] + 528 u[42] + 955 u[43] + 929 u[44] + 944 u[45] + 419 u[46]
   + 119 u[47] + 9 u[48] + 598 u[49] + 536 u[50] + 166 u[51] + 895 u[52]
   + 746 u[53] + 706 u[54] + 413 u[55] + 643 u[56] + 1000 u[57] + 654 u[58]
   + 352 u[59] <= 11116
 primal_lower947: 913 u[0] + 29 u[1] + 483 u[2] + 332 u[3] + 157 u[4]
   + 643 u[5] + 798 u[6] + 61 u[7] + 150 u[8] + 779 u[9] + 941 u[10]
   + 868 u[11] + 565 u[12] + 725 u[13] + 302 u[14] + 382 u[15] + 854 u[16]
   + 257 u[17] + 802 u[18] + 175 u[19] + 462 u[20] + 297 u[21] + 589 u[22]
   + 768 u[23] + 38 u[24] + 473 u[25] + 315 u[26] + 521 u[27] + 959 u[28]
   + 32 u[29] + 467 u[30] + 757 u[31] + 221 u[32] + 990 u[33] + 125 u[34]
   + 402 u[35] + 189 u[36] + 214 u[37] + 277 u[38] + 728 u[39] + 656 u[40]
   + 435 u[41] + 943 u[42] + 247 u[43] + 832 u[44] + 804 u[45] + 931 u[46]
   + 371 u[47] + 888 u[48] + 897 u[49] + 920 u[50] + 865 u[51] + 182 u[52]
   + 837 u[53] + 10 u[54] + 505 u[55] + 162 u[56] + 596 u[57] + 349 u[58]
   + 627 u[59] <= 990
 primal_lower948: 651 u[0] + 836 u[1] + 598 u[2] + 811 u[3] + 952 u[4]
   + 777 u[5] + 665 u[6] + 219 u[7] + 841 u[8] + 330 u[9] + 39 u[10]
   + 403 u[11] + 192 u[12] + 868 u[13] + 840 u[14] + 428 u[15] + 993 u[16]
   + 528 u[17] + 877 u[18] + 574 u[19] + 449 u[20] + 367 u[21] + 256 u[22]
   + 86 u[23] + 152 u[24] + 888 u[25] + 678 u[26] + 919 u[27] + 177 u[28]
   + 663 u[29] + 45 u[30] + 3 u[31] + 463 u[32] + 469 u[33] + 216 u[34]
   + 425 u[35] + 144 u[36] + 956 u[37] + 376 u[38] + 566 u[39] + 571 u[40]
   + 465 u[41] + 282 u[42] + 909 u[43] + 139 u[44] + 970 u[45] + 573 u[46]
   + 497 u[47] + 3 u[48] + 472 u[49] + 954 u[50] + 336 u[51] + 881 u[52]
   + 68 u[53] + 420 u[54] + 399 u[55] + 725 u[56] + 930 u[57] + 816 u[58]
   + 34 u[59] <= 20776
 primal_lower949: 531 u[0] + 292 u[1] + 822 u[2] + 243 u[3] + 680 u[4]
   + 225 u[5] + 697 u[6] + 243 u[7] + 841 u[8] + 954 u[9] + 479 u[10]
   + 907 u[11] + 472 u[12] + 332 u[13] + 224 u[14] + 956 u[15] + 857 u[16]
   + 144 u[17] + 933 u[18] + 558 u[19] + 633 u[20] + 239 u[21] + 112 u[22]
   + 958 u[23] + 576 u[24] + 120 u[25] + 382 u[26] + 479 u[27] + 25 u[28]
   + 111 u[29] + 501 u[30] + 363 u[31] + 871 u[32] + 357 u[33] + 176 u[34]
   + 673 u[35] + 136 u[36] + 860 u[37] + 352 u[38] + 366 u[39] + 923 u[40]
   + 217 u[41] + 34 u[42] + 965 u[43] + 683 u[44] + 194 u[45] + 45 u[46]
   + 289 u[47] + 411 u[48] + 912 u[49] + 234 u[50] + 360 u[51] + 489 u[52]
   + 836 u[53] + 636 u[54] + 335 u[55] + 205 u[56] + 306 u[57] + 304 u[58]
   + 418 u[59] <= 4746
 primal_lower950: 38 u[0] + 242 u[1] + 392 u[2] + 177 u[3] + 826 u[4]
   + 808 u[5] + 443 u[6] + 546 u[7] + 67 u[8] + 952 u[9] + 490 u[10]
   + u[11] + 962 u[12] + 666 u[13] + 579 u[14] + 483 u[15] + 371 u[16]
   + 910 u[17] + 79 u[18] + 820 u[19] + 59 u[20] + 934 u[21] + 66 u[22]
   + 229 u[23] + 123 u[24] + 758 u[25] + 144 u[26] + 134 u[27] + 20 u[28]
   + 149 u[29] + 816 u[30] + 418 u[31] + 418 u[32] + 251 u[33] + 90 u[34]
   + 831 u[35] + 746 u[36] + 635 u[37] + 674 u[38] + 261 u[39] + 85 u[40]
   + 96 u[41] + 956 u[42] + 172 u[43] + 261 u[44] + 577 u[45] + 992 u[46]
   + 120 u[47] + 549 u[48] + 566 u[49] + 421 u[50] + 102 u[51] + 459 u[52]
   + 186 u[53] + 919 u[54] + 190 u[55] + 415 u[56] + 9 u[57] + 266 u[58]
   + 336 u[59] <= 992
 primal_lower951: 964 u[0] + 328 u[1] + 478 u[2] + 439 u[3] + 136 u[4]
   + 806 u[5] + 961 u[6] + 520 u[7] + 777 u[8] + 94 u[9] + 120 u[10]
   + 247 u[11] + 320 u[12] + 872 u[13] + 289 u[14] + 441 u[15] + 393 u[16]
   + 892 u[17] + 309 u[18] + 50 u[19] + 65 u[20] + 100 u[21] + 592 u[22]
   + 475 u[23] + 913 u[24] + 524 u[25] + 54 u[26] + 484 u[27] + 210 u[28]
   + 739 u[29] + 62 u[30] + 56 u[31] + 768 u[32] + 553 u[33] + 200 u[34]
   + 405 u[35] + 32 u[36] + 129 u[37] + 344 u[38] + 475 u[39] + 963 u[40]
   + 782 u[41] + 114 u[42] + 810 u[43] + 547 u[44] + 847 u[45] + 670 u[46]
   + 150 u[47] + 163 u[48] + 660 u[49] + 835 u[50] + 556 u[51] + 825 u[52]
   + 936 u[53] + 741 u[54] + 756 u[55] + 189 u[56] + 151 u[57] + 608 u[58]
   + 790 u[59] <= 964
 primal_lower952: 697 u[0] + 781 u[1] + 707 u[2] + 468 u[3] + 597 u[4]
   + 59 u[5] + 534 u[6] + 949 u[7] + 726 u[8] + 323 u[9] + 573 u[10]
   + 980 u[11] + 485 u[12] + 365 u[13] + 310 u[14] + 246 u[15] + 430 u[16]
   + 425 u[17] + 498 u[18] + 623 u[19] + 390 u[20] + 969 u[21] + 565 u[22]
   + 776 u[23] + 238 u[24] + 241 u[25] + 331 u[26] + 729 u[27] + 279 u[28]
   + 560 u[29] + 411 u[30] + 85 u[31] + 741 u[32] + 438 u[33] + 725 u[34]
   + 986 u[35] + 405 u[36] + 278 u[37] + 517 u[38] + 936 u[39] + 208 u[40]
   + 115 u[41] + 503 u[42] + 55 u[43] + 520 u[44] + 68 u[45] + 131 u[46]
   + 467 u[47] + 848 u[48] + 409 u[49] + 464 u[50] + 945 u[51] + 142 u[52]
   + 877 u[53] + 194 u[54] + 57 u[55] + 370 u[56] + 780 u[57] + 53 u[58]
   + 595 u[59] <= 4862
 primal_lower953: 598 u[0] + 154 u[1] + 904 u[2] + 713 u[3] + 506 u[4]
   + 344 u[5] + 315 u[6] + 546 u[7] + 83 u[8] + 984 u[9] + 922 u[10]
   + 929 u[11] + 674 u[12] + 474 u[13] + 531 u[14] + 355 u[15] + 699 u[16]
   + 838 u[17] + 7 u[18] + 644 u[19] + 603 u[20] + 470 u[21] + 754 u[22]
   + 261 u[23] + 707 u[24] + 630 u[25] + 784 u[26] + 822 u[27] + 596 u[28]
   + 69 u[29] + 96 u[30] + 642 u[31] + 402 u[32] + 451 u[33] + 242 u[34]
   + 199 u[35] + 642 u[36] + 891 u[37] + 258 u[38] + 837 u[39] + 821 u[40]
   + 360 u[41] + 268 u[42] + 116 u[43] + 869 u[44] + 17 u[45] + 880 u[46]
   + 360 u[47] + 373 u[48] + 446 u[49] + 253 u[50] + 622 u[51] + 963 u[52]
   + 906 u[53] + 95 u[54] + 398 u[55] + 487 u[56] + 337 u[57] + 226 u[58]
   + 776 u[59] <= 15574
 primal_lower954: 985 u[0] + 578 u[1] + 340 u[2] + 153 u[3] + 686 u[4]
   + 991 u[5] + 407 u[6] + 329 u[7] + 455 u[8] + 120 u[9] + 125 u[10]
   + 265 u[11] + 614 u[12] + 698 u[13] + 678 u[14] + 578 u[15] + 207 u[16]
   + 982 u[17] + 691 u[18] + 828 u[19] + 535 u[20] + 509 u[21] + 438 u[22]
   + 956 u[23] + 998 u[24] + 454 u[25] + 4 u[26] + 405 u[27] + 87 u[28]
   + 557 u[29] + 459 u[30] + 641 u[31] + 221 u[32] + 243 u[33] + 270 u[34]
   + 175 u[35] + 862 u[36] + 826 u[37] + 414 u[38] + 764 u[39] + 473 u[40]
   + 199 u[41] + 456 u[42] + 99 u[43] + 849 u[44] + 888 u[45] + 739 u[46]
   + 63 u[47] + 353 u[48] + 470 u[49] + 432 u[50] + 846 u[51] + 711 u[52]
   + 698 u[53] + 994 u[54] + 421 u[55] + 139 u[56] + 768 u[57] + 334 u[58]
   + 592 u[59] <= 5175
 primal_lower955: 992 u[0] + 209 u[1] + 531 u[2] + 640 u[3] + 189 u[4]
   + 382 u[5] + 782 u[6] + 544 u[7] + 590 u[8] + 303 u[9] + 508 u[10]
   + 432 u[11] + 613 u[12] + 897 u[13] + 397 u[14] + 737 u[15] + 606 u[16]
   + 477 u[17] + 914 u[18] + 923 u[19] + 958 u[20] + 868 u[21] + 973 u[22]
   + 123 u[23] + 253 u[24] + 877 u[25] + 755 u[26] + 796 u[27] + 94 u[28]
   + 764 u[29] + 714 u[30] + 984 u[31] + 916 u[32] + 266 u[33] + 141 u[34]
   + 526 u[35] + 989 u[36] + 849 u[37] + 141 u[38] + 947 u[39] + 24 u[40]
   + 750 u[41] + 743 u[42] + 946 u[43] + 96 u[44] + 559 u[45] + 946 u[46]
   + 118 u[47] + 832 u[48] + 797 u[49] + 295 u[50] + 253 u[51] + 518 u[52]
   + 593 u[53] + 25 u[54] + 36 u[55] + 258 u[56] + 239 u[57] + 933 u[58]
   + 559 u[59] <= 22746
 primal_lower956: 538 u[0] + 195 u[1] + 613 u[2] + 722 u[3] + 751 u[4]
   + 752 u[5] + 536 u[6] + 226 u[7] + 704 u[8] + 681 u[9] + 782 u[10]
   + 186 u[11] + 71 u[12] + 539 u[13] + 263 u[14] + 995 u[15] + 168 u[16]
   + 543 u[17] + 932 u[18] + 957 u[19] + 552 u[20] + 38 u[21] + 391 u[22]
   + 877 u[23] + 679 u[24] + 783 u[25] + 797 u[26] + 710 u[27] + 248 u[28]
   + 630 u[29] + 356 u[30] + 250 u[31] + 582 u[32] + 812 u[33] + 791 u[34]
   + 296 u[35] + 239 u[36] + 499 u[37] + 679 u[38] + 493 u[39] + 378 u[40]
   + 48 u[41] + 81 u[42] + 844 u[43] + 306 u[44] + 417 u[45] + 996 u[46]
   + 512 u[47] + 186 u[48] + 719 u[49] + 473 u[50] + 671 u[51] + 968 u[52]
   + 171 u[53] + 371 u[54] + 318 u[55] + 452 u[56] + 633 u[57] + 911 u[58]
   + 313 u[59] <= 10541
 primal_lower957: 694 u[0] + 367 u[1] + 265 u[2] + 774 u[3] + 675 u[4]
   + 36 u[5] + 252 u[6] + 854 u[7] + 500 u[8] + 37 u[9] + 106 u[10]
   + 422 u[11] + 187 u[12] + 879 u[13] + 123 u[14] + 455 u[15] + 924 u[16]
   + 339 u[17] + 16 u[18] + 865 u[19] + 948 u[20] + 274 u[21] + 331 u[22]
   + 849 u[23] + 275 u[24] + 915 u[25] + 417 u[26] + 554 u[27] + 140 u[28]
   + 810 u[29] + 392 u[30] + 366 u[31] + 714 u[32] + 352 u[33] + 843 u[34]
   + 812 u[35] + 971 u[36] + 263 u[37] + 267 u[38] + 97 u[39] + 142 u[40]
   + 132 u[41] + 301 u[42] + 760 u[43] + 878 u[44] + 37 u[45] + 48 u[46]
   + 484 u[47] + 710 u[48] + 163 u[49] + 229 u[50] + 307 u[51] + 444 u[52]
   + 535 u[53] + 663 u[54] + 250 u[55] + 288 u[56] + 69 u[57] + 307 u[58]
   + 325 u[59] <= 17621
 primal_lower958: 510 u[0] + 559 u[1] + 889 u[2] + 350 u[3] + 75 u[4]
   + 380 u[5] + 428 u[6] + 974 u[7] + 620 u[8] + 613 u[9] + 850 u[10]
   + 966 u[11] + 915 u[12] + 231 u[13] + 803 u[14] + 135 u[15] + 36 u[16]
   + 523 u[17] + 712 u[18] + 169 u[19] + 748 u[20] + 778 u[21] + 547 u[22]
   + 681 u[23] + 403 u[24] + 59 u[25] + 561 u[26] + 258 u[27] + 564 u[28]
   + 258 u[29] + 136 u[30] + 550 u[31] + 410 u[32] + 840 u[33] + 923 u[34]
   + 44 u[35] + 179 u[36] + 495 u[37] + 603 u[38] + 265 u[39] + 334 u[40]
   + 500 u[41] + 981 u[42] + 720 u[43] + 470 u[44] + 909 u[45] + 216 u[46]
   + 324 u[47] + 334 u[48] + 155 u[49] + 293 u[50] + 755 u[51] + 884 u[52]
   + 39 u[53] + 727 u[54] + 418 u[55] + 184 u[56] + 61 u[57] + 147 u[58]
   + 333 u[59] <= 981
 primal_lower959: 575 u[0] + 592 u[1] + 626 u[2] + 287 u[3] + 884 u[4]
   + 333 u[5] + 533 u[6] + 191 u[7] + 901 u[8] + 550 u[9] + 523 u[10]
   + 767 u[11] + 468 u[12] + 928 u[13] + 300 u[14] + 272 u[15] + 149 u[16]
   + 468 u[17] + 761 u[18] + 50 u[19] + 189 u[20] + 83 u[21] + 756 u[22]
   + 146 u[23] + 820 u[24] + 244 u[25] + 650 u[26] + 779 u[27] + 445 u[28]
   + 835 u[29] + 89 u[30] + 351 u[31] + 123 u[32] + 401 u[33] + 676 u[34]
   + 213 u[35] + 764 u[36] + 64 u[37] + 964 u[38] + 34 u[39] + 239 u[40]
   + 37 u[41] + 742 u[42] + 849 u[43] + 799 u[44] + 734 u[45] + 841 u[46]
   + 901 u[47] + 87 u[48] + 316 u[49] + 726 u[50] + 724 u[51] + 645 u[52]
   + 432 u[53] + 32 u[54] + 931 u[55] + 977 u[56] + 246 u[57] + 76 u[58]
   + 134 u[59] <= 14626
 primal_lower960: 197 u[0] + 558 u[1] + 648 u[2] + 957 u[3] + 202 u[4]
   + 691 u[5] + 683 u[6] + 501 u[7] + 691 u[8] + 68 u[9] + 201 u[10]
   + 21 u[11] + 442 u[12] + 454 u[13] + 138 u[14] + 878 u[15] + 507 u[16]
   + 106 u[17] + 631 u[18] + 816 u[19] + 235 u[20] + 633 u[21] + 130 u[22]
   + 568 u[23] + 490 u[24] + 602 u[25] + 432 u[26] + 313 u[27] + 323 u[28]
   + 169 u[29] + 335 u[30] + 613 u[31] + 681 u[32] + 487 u[33] + 506 u[34]
   + 115 u[35] + 738 u[36] + 790 u[37] + 554 u[38] + 688 u[39] + 613 u[40]
   + 291 u[41] + 116 u[42] + 423 u[43] + 717 u[44] + 972 u[45] + 415 u[46]
   + 243 u[47] + 285 u[48] + 370 u[49] + 980 u[50] + 602 u[51] + 299 u[52]
   + 78 u[53] + 678 u[54] + 785 u[55] + 383 u[56] + 492 u[57] + 250 u[58]
   + 444 u[59] <= 9409
 primal_lower961: 907 u[0] + 148 u[1] + 38 u[2] + 387 u[3] + 296 u[4]
   + 473 u[5] + 473 u[6] + 355 u[7] + 249 u[8] + 146 u[9] + 407 u[10]
   + 811 u[11] + 616 u[12] + 964 u[13] + 72 u[14] + 604 u[15] + 273 u[16]
   + 416 u[17] + 829 u[18] + 790 u[19] + 265 u[20] + 615 u[21] + 552 u[22]
   + 686 u[23] + 648 u[24] + 136 u[25] + 22 u[26] + 919 u[27] + 425 u[28]
   + 703 u[29] + 253 u[30] + 347 u[31] + 519 u[32] + 877 u[33] + 632 u[34]
   + 945 u[35] + 8 u[36] + 36 u[37] + 688 u[38] + 302 u[39] + 387 u[40]
   + 209 u[41] + 370 u[42] + 389 u[43] + 67 u[44] + 578 u[45] + 189 u[46]
   + 641 u[47] + 323 u[48] + 464 u[49] + 458 u[50] + 656 u[51] + 609 u[52]
   + 988 u[53] + 236 u[54] + 263 u[55] + 213 u[56] + 306 u[57] + 736 u[58]
   + 290 u[59] <= 9068
 primal_lower962: 861 u[0] + 478 u[1] + 280 u[2] + 965 u[3] + 834 u[4]
   + 163 u[5] + 563 u[6] + 21 u[7] + 579 u[8] + 452 u[9] + 161 u[10]
   + 109 u[11] + 546 u[12] + 526 u[13] + 490 u[14] + 542 u[15] + 563 u[16]
   + 194 u[17] + 767 u[18] + 296 u[19] + 387 u[20] + 697 u[21] + 914 u[22]
   + 840 u[23] + 954 u[24] + 386 u[25] + 984 u[26] + 401 u[27] + 283 u[28]
   + 713 u[29] + 663 u[30] + 797 u[31] + 473 u[32] + 439 u[33] + 610 u[34]
   + 579 u[35] + 34 u[36] + 542 u[37] + 194 u[38] + 224 u[39] + 909 u[40]
   + 635 u[41] + 180 u[42] + 695 u[43] + 445 u[44] + 852 u[45] + 111 u[46]
   + 723 u[47] + 373 u[48] + 666 u[49] + 636 u[50] + 274 u[51] + 419 u[52]
   + 190 u[53] + 86 u[54] + 449 u[55] + 47 u[56] + 804 u[57] + 378 u[58]
   + 948 u[59] <= 984
 primal_lower963: 35 u[0] + 796 u[1] + 622 u[2] + 947 u[3] + 88 u[4]
   + 705 u[5] + 465 u[6] + 435 u[7] + 537 u[8] + 394 u[9] + 967 u[10]
   + 651 u[11] + 448 u[12] + 628 u[13] + 80 u[14] + 324 u[15] + 369 u[16]
   + 384 u[17] + 221 u[18] + 326 u[19] + 57 u[20] + 767 u[21] + 64 u[22]
   + 310 u[23] + 400 u[24] + 264 u[25] + 390 u[26] + 167 u[27] + 481 u[28]
   + 695 u[29] + 53 u[30] + 315 u[31] + 855 u[32] + 853 u[33] + 528 u[34]
   + u[35] + 144 u[36] + 516 u[37] + 864 u[38] + 278 u[39] + 467 u[40]
   + 281 u[41] + 226 u[42] + 605 u[43] + 483 u[44] + 370 u[45] + 381 u[46]
   + 785 u[47] + 83 u[48] + 440 u[49] + 914 u[50] + 72 u[51] + 969 u[52]
   + 900 u[53] + 460 u[54] + 671 u[55] + 669 u[56] + 586 u[57] + 480 u[58]
   + 378 u[59] <= 9214
 primal_lower964: 588 u[0] + 120 u[1] + 982 u[2] + 855 u[3] + 928 u[4]
   + 582 u[5] + 289 u[6] + 176 u[7] + 73 u[8] + 382 u[9] + 776 u[10]
   + 39 u[11] + 456 u[12] + 104 u[13] + 585 u[14] + 137 u[15] + 409 u[16]
   + 852 u[17] + 45 u[18] + 394 u[19] + 353 u[20] + 684 u[21] + 760 u[22]
   + 539 u[23] + 353 u[24] + 340 u[25] + 950 u[26] + 780 u[27] + 994 u[28]
   + 499 u[29] + 942 u[30] + 992 u[31] + 104 u[32] + 25 u[33] + 120 u[34]
   + 69 u[35] + 104 u[36] + 721 u[37] + 312 u[38] + 971 u[39] + 979 u[40]
   + 38 u[41] + 474 u[42] + 250 u[43] + 771 u[44] + 503 u[45] + 878 u[46]
   + 878 u[47] + 315 u[48] + 692 u[49] + 707 u[50] + 236 u[51] + 673 u[52]
   + 392 u[53] + 677 u[54] + 580 u[55] + 829 u[56] + 95 u[57] + 32 u[58]
   + 310 u[59] <= 19795
 primal_lower965: 899 u[0] + 860 u[1] + 526 u[2] + 611 u[3] + 384 u[4]
   + 961 u[5] + 593 u[6] + 923 u[7] + 969 u[8] + 322 u[9] + 407 u[10]
   + 363 u[11] + 760 u[12] + 860 u[13] + 216 u[14] + 108 u[15] + 49 u[16]
   + 96 u[17] + 77 u[18] + 158 u[19] + 121 u[20] + 391 u[21] + 672 u[22]
   + 158 u[23] + 864 u[24] + 520 u[25] + 998 u[26] + 271 u[27] + 961 u[28]
   + 575 u[29] + 77 u[30] + 915 u[31] + 167 u[32] + 773 u[33] + 640 u[34]
   + 889 u[35] + 520 u[36] + 644 u[37] + 88 u[38] + 558 u[39] + 451 u[40]
   + 809 u[41] + 466 u[42] + 885 u[43] + 403 u[44] + 210 u[45] + 901 u[46]
   + 65 u[47] + 843 u[48] + 240 u[49] + 178 u[50] + 368 u[51] + 977 u[52]
   + 668 u[53] + 548 u[54] + 495 u[55] + 773 u[56] + 330 u[57] + 840 u[58]
   + 650 u[59] <= 5340
 primal_lower966: 94 u[0] + 106 u[1] + 552 u[2] + 921 u[3] + 50 u[4]
   + 992 u[5] + 875 u[6] + 234 u[7] + 443 u[8] + 168 u[9] + 826 u[10]
   + 609 u[11] + 650 u[12] + 922 u[13] + 795 u[14] + 203 u[15] + 683 u[16]
   + 678 u[17] + 535 u[18] + 828 u[19] + 627 u[20] + 358 u[21] + 122 u[22]
   + 997 u[23] + 219 u[24] + 822 u[25] + 176 u[26] + 902 u[27] + 364 u[28]
   + 5 u[29] + 8 u[30] + 426 u[31] + 418 u[32] + 803 u[33] + 746 u[34]
   + 671 u[35] + 898 u[36] + 195 u[37] + 554 u[38] + 869 u[39] + 853 u[40]
   + 160 u[41] + 220 u[42] + 268 u[43] + 37 u[44] + 833 u[45] + 736 u[46]
   + 976 u[47] + 229 u[48] + 238 u[49] + 517 u[50] + 478 u[51] + 147 u[52]
   + 746 u[53] + 751 u[54] + 110 u[55] + 767 u[56] + 849 u[57] + 970 u[58]
   + 456 u[59] <= 5280
 primal_lower967: 180 u[0] + 600 u[1] + 622 u[2] + 759 u[3] + 896 u[4]
   + 462 u[5] + 593 u[6] + 952 u[7] + 833 u[8] + 902 u[9] + 208 u[10]
   + 431 u[11] + 352 u[12] + 520 u[13] + 393 u[14] + 89 u[15] + 897 u[16]
   + 532 u[17] + 221 u[18] + 602 u[19] + 841 u[20] + 684 u[21] + 152 u[22]
   + 987 u[23] + 345 u[24] + 636 u[25] + 422 u[26] + 996 u[27] + 682 u[28]
   + 931 u[29] + 726 u[30] + 496 u[31] + 384 u[32] + 833 u[33] + 392 u[34]
   + 197 u[35] + 464 u[36] + 321 u[37] + 872 u[38] + 411 u[39] + 443 u[40]
   + 326 u[41] + 658 u[42] + 610 u[43] + 395 u[44] + 199 u[45] + 254 u[46]
   + 350 u[47] + 955 u[48] + 676 u[49] + 515 u[50] + 340 u[51] + 649 u[52]
   + 496 u[53] + 69 u[54] + 980 u[55] + 261 u[56] + 615 u[57] + 856 u[58]
   + 222 u[59] <= 5447
 primal_lower968: 369 u[0] + 781 u[1] + 163 u[2] + 12 u[3] + 741 u[4]
   + 139 u[5] + 878 u[6] + 61 u[7] + 462 u[8] + 227 u[9] + 621 u[10]
   + 308 u[11] + 749 u[12] + 85 u[13] + 750 u[14] + 454 u[15] + 366 u[16]
   + 289 u[17] + 666 u[18] + 431 u[19] + 6 u[20] + 801 u[21] + 989 u[22]
   + 216 u[23] + 438 u[24] + 505 u[25] + 571 u[26] + 905 u[27] + 351 u[28]
   + 824 u[29] + 387 u[30] + 21 u[31] + 949 u[32] + 526 u[33] + 893 u[34]
   + 186 u[35] + 181 u[36] + 350 u[37] + 541 u[38] + 296 u[39] + 96 u[40]
   + 867 u[41] + 71 u[42] + 183 u[43] + 672 u[44] + 348 u[45] + 899 u[46]
   + 587 u[47] + 544 u[48] + 593 u[49] + 632 u[50] + 385 u[51] + 254 u[52]
   + 69 u[53] + 722 u[54] + 481 u[55] + 690 u[56] + 100 u[57] + 461 u[58]
   + 171 u[59] <= 989
 primal_lower969: 756 u[0] + 693 u[1] + 455 u[2] + 356 u[3] + 145 u[4]
   + 698 u[5] + 578 u[6] + 628 u[7] + 842 u[8] + 307 u[9] + 656 u[10]
   + 324 u[11] + 569 u[12] + 725 u[13] + 545 u[14] + 581 u[15] + 802 u[16]
   + 105 u[17] + 358 u[18] + 927 u[19] + 226 u[20] + 888 u[21] + 857 u[22]
   + 503 u[23] + 193 u[24] + 329 u[25] + 167 u[26] + 16 u[27] + 234 u[28]
   + 368 u[29] + 126 u[30] + 132 u[31] + 96 u[32] + 622 u[33] + 593 u[34]
   + 946 u[35] + 513 u[36] + 157 u[37] + 561 u[38] + 799 u[39] + 396 u[40]
   + 786 u[41] + 291 u[42] + 494 u[43] + 204 u[44] + 435 u[45] + 446 u[46]
   + 530 u[47] + 724 u[48] + 81 u[49] + 179 u[50] + 977 u[51] + 762 u[52]
   + 413 u[53] + 893 u[54] + 968 u[55] + 654 u[56] + 187 u[57] + 465 u[58]
   + 67 u[59] <= 977
 primal_lower970: 991 u[0] + 440 u[1] + 394 u[2] + 559 u[3] + 708 u[4]
   + 533 u[5] + 341 u[6] + 231 u[7] + 381 u[8] + 222 u[9] + 339 u[10]
   + 975 u[11] + 420 u[12] + 312 u[13] + 412 u[14] + 256 u[15] + 245 u[16]
   + 964 u[17] + 225 u[18] + 530 u[19] + 93 u[20] + 931 u[21] + 212 u[22]
   + 698 u[23] + 132 u[24] + 780 u[25] + 34 u[26] + 131 u[27] + 637 u[28]
   + 187 u[29] + 473 u[30] + 359 u[31] + 915 u[32] + 105 u[33] + 268 u[34]
   + 373 u[35] + 188 u[36] + 952 u[37] + 612 u[38] + 810 u[39] + 471 u[40]
   + 597 u[41] + 54 u[42] + 913 u[43] + 527 u[44] + 278 u[45] + 625 u[46]
   + 493 u[47] + 671 u[48] + 892 u[49] + 78 u[50] + 860 u[51] + 733 u[52]
   + 464 u[53] + 680 u[54] + 291 u[55] + 49 u[56] + 630 u[57] + 652 u[58]
   + 326 u[59] <= 9550
 primal_lower971: 15 u[0] + 80 u[1] + 330 u[2] + 319 u[3] + 980 u[4]
   + 861 u[5] + 701 u[6] + 815 u[7] + 653 u[8] + 566 u[9] + 283 u[10]
   + 255 u[11] + 252 u[12] + 144 u[13] + 68 u[14] + 672 u[15] + 293 u[16]
   + 332 u[17] + 481 u[18] + 66 u[19] + 301 u[20] + 779 u[21] + 564 u[22]
   + 778 u[23] + 548 u[24] + 348 u[25] + 514 u[26] + 315 u[27] + 669 u[28]
   + 35 u[29] + 281 u[30] + 87 u[31] + 259 u[32] + 345 u[33] + 428 u[34]
   + 749 u[35] + 804 u[36] + 408 u[37] + 164 u[38] + 602 u[39] + 15 u[40]
   + 773 u[41] + 494 u[42] + 81 u[43] + 127 u[44] + 542 u[45] + 185 u[46]
   + 901 u[47] + 247 u[48] + 612 u[49] + 686 u[50] + 924 u[51] + 533 u[52]
   + 968 u[53] + 144 u[54] + 987 u[55] + 801 u[56] + 310 u[57] + 980 u[58]
   + 806 u[59] <= 4710
 primal_lower972: 486 u[0] + 391 u[1] + 201 u[2] + 94 u[3] + 891 u[4]
   + 764 u[5] + 228 u[6] + 222 u[7] + 380 u[8] + 149 u[9] + 210 u[10]
   + 46 u[11] + 595 u[12] + 479 u[13] + 627 u[14] + 183 u[15] + 508 u[16]
   + 435 u[17] + 368 u[18] + 265 u[19] + 812 u[20] + 258 u[21] + 43 u[22]
   + 537 u[23] + 195 u[24] + 659 u[25] + 65 u[26] + 818 u[27] + 340 u[28]
   + 698 u[29] + 152 u[30] + 246 u[31] + 826 u[32] + 80 u[33] + 27 u[34]
   + 460 u[35] + 155 u[36] + 455 u[37] + 387 u[38] + 425 u[39] + 998 u[40]
   + 796 u[41] + 725 u[42] + 112 u[43] + 630 u[44] + 749 u[45] + 288 u[46]
   + 996 u[47] + 622 u[48] + 827 u[49] + 437 u[50] + 563 u[51] + 892 u[52]
   + 167 u[53] + 831 u[54] + 74 u[55] + 56 u[56] + 605 u[57] + 227 u[58]
   + 309 u[59] <= 8688
 primal_lower973: 57 u[0] + 293 u[1] + 795 u[2] + 652 u[3] + 461 u[4]
   + 851 u[5] + 782 u[6] + 581 u[7] + 150 u[8] + 43 u[9] + 557 u[10]
   + 948 u[11] + 909 u[12] + 293 u[13] + 894 u[14] + 534 u[15] + 758 u[16]
   + 721 u[17] + 586 u[18] + 839 u[19] + 790 u[20] + 521 u[21] + 21 u[22]
   + 920 u[23] + 878 u[24] + 241 u[25] + 563 u[26] + 793 u[27] + 359 u[28]
   + 936 u[29] + 611 u[30] + 861 u[31] + 981 u[32] + 582 u[33] + 877 u[34]
   + 994 u[35] + 597 u[36] + 382 u[37] + 453 u[38] + 856 u[39] + 752 u[40]
   + 947 u[41] + 7 u[42] + 583 u[43] + 264 u[44] + 204 u[45] + 571 u[46]
   + 155 u[47] + 352 u[48] + 657 u[49] + 816 u[50] + 809 u[51] + 238 u[52]
   + 205 u[53] + 962 u[54] + 633 u[55] + 562 u[56] + 756 u[57] + 389 u[58]
   + 459 u[59] <= 17620
 primal_lower974: 145 u[0] + 653 u[1] + 51 u[2] + 828 u[3] + 661 u[4]
   + 923 u[5] + 102 u[6] + 837 u[7] + 6 u[8] + 915 u[9] + 781 u[10]
   + 76 u[11] + 573 u[12] + 909 u[13] + 206 u[14] + 142 u[15] + 990 u[16]
   + 753 u[17] + 26 u[18] + 631 u[19] + 302 u[20] + 697 u[21] + 429 u[22]
   + 832 u[23] + 294 u[24] + 537 u[25] + 139 u[26] + 569 u[27] + 999 u[28]
   + 136 u[29] + 763 u[30] + 493 u[31] + 829 u[32] + 214 u[33] + 293 u[34]
   + 706 u[35] + 557 u[36] + 278 u[37] + 949 u[38] + 712 u[39] + 744 u[40]
   + 755 u[41] + 215 u[42] + 519 u[43] + 424 u[44] + 860 u[45] + 595 u[46]
   + 403 u[47] + 584 u[48] + 409 u[49] + 928 u[50] + 425 u[51] + 174 u[52]
   + 389 u[53] + 730 u[54] + 657 u[55] + 546 u[56] + 956 u[57] + 221 u[58]
   + 899 u[59] <= 999
 primal_lower975: 79 u[0] + 523 u[1] + 265 u[2] + 826 u[3] + 171 u[4]
   + 217 u[5] + 28 u[6] + 395 u[7] + 852 u[8] + 729 u[9] + 243 u[10]
   + 426 u[11] + 867 u[12] + 779 u[13] + 788 u[14] + 572 u[15] + 28 u[16]
   + 143 u[17] + 720 u[18] + 125 u[19] + 428 u[20] + 671 u[21] + 603 u[22]
   + 870 u[23] + 708 u[24] + 967 u[25] + 441 u[26] + 31 u[27] + 253 u[28]
   + 862 u[29] + 617 u[30] + 755 u[31] + 427 u[32] + 20 u[33] + 451 u[34]
   + 504 u[35] + 571 u[36] + 28 u[37] + 131 u[38] + 766 u[39] + 990 u[40]
   + 537 u[41] + 373 u[42] + 637 u[43] + 670 u[44] + 410 u[45] + 785 u[46]
   + 769 u[47] + 294 u[48] + 647 u[49] + 598 u[50] + 903 u[51] + 764 u[52]
   + 691 u[53] + 128 u[54] + 927 u[55] + 472 u[56] + 754 u[57] + 819 u[58]
   + 849 u[59] <= 990
 primal_lower976: 807 u[0] + 83 u[1] + 953 u[2] + 586 u[3] + 539 u[4]
   + 649 u[5] + 644 u[6] + 987 u[7] + 548 u[8] + 841 u[9] + 459 u[10]
   + 266 u[11] + 3 u[12] + 387 u[13] + 620 u[14] + 60 u[15] + 868 u[16]
   + 239 u[17] + 384 u[18] + 901 u[19] + 748 u[20] + 399 u[21] + 571 u[22]
   + 526 u[23] + 588 u[24] + 79 u[25] + 593 u[26] + 343 u[27] + 245 u[28]
   + 966 u[29] + 441 u[30] + 579 u[31] + 275 u[32] + 108 u[33] + 43 u[34]
   + 424 u[35] + 547 u[36] + 940 u[37] + 875 u[38] + 646 u[39] + 190 u[40]
   + 433 u[41] + 109 u[42] + 557 u[43] + 278 u[44] + 218 u[45] + 409 u[46]
   + 417 u[47] + 854 u[48] + 143 u[49] + 22 u[50] + 423 u[51] + 292 u[52]
   + 59 u[53] + 856 u[54] + 999 u[55] + 352 u[56] + 346 u[57] + 691 u[58]
   + 737 u[59] <= 19430
 primal_lower977: 822 u[0] + 274 u[1] + 256 u[2] + 841 u[3] + 522 u[4]
   + 880 u[5] + 555 u[6] + 402 u[7] + 883 u[8] + 392 u[9] + 954 u[10]
   + 993 u[11] + 266 u[12] + 698 u[13] + 515 u[14] + 595 u[15] + 403 u[16]
   + 958 u[17] + 135 u[18] + 932 u[19] + 811 u[20] + 230 u[21] + 922 u[22]
   + 973 u[23] + 283 u[24] + 358 u[25] + 32 u[26] + 30 u[27] + 932 u[28]
   + 613 u[29] + 664 u[30] + 898 u[31] + 146 u[32] + 667 u[33] + 650 u[34]
   + 295 u[35] + 138 u[36] + 971 u[37] + 802 u[38] + 709 u[39] + 581 u[40]
   + 664 u[41] + 868 u[42] + 940 u[43] + 565 u[44] + u[45] + 648 u[46]
   + 24 u[47] + 109 u[48] + 174 u[49] + 733 u[50] + 830 u[51] + 403 u[52]
   + 714 u[53] + 279 u[54] + 750 u[55] + 39 u[56] + 649 u[57] + 194 u[58]
   + 272 u[59] <= 16418
 primal_lower978: 84 u[0] + 493 u[1] + 351 u[2] + 300 u[3] + 289 u[4]
   + 234 u[5] + 730 u[6] + 260 u[7] + 994 u[8] + 259 u[9] + 416 u[10]
   + 556 u[11] + 393 u[12] + 933 u[13] + 137 u[14] + 789 u[15] + 874 u[16]
   + 673 u[17] + 54 u[18] + 983 u[19] + 450 u[20] + 168 u[21] + 329 u[22]
   + 71 u[23] + 249 u[24] + 329 u[25] + 607 u[26] + 936 u[27] + 378 u[28]
   + 320 u[29] + 734 u[30] + 316 u[31] + 336 u[32] + 294 u[33] + 905 u[34]
   + 226 u[35] + 929 u[36] + 285 u[37] + 801 u[38] + 623 u[39] + 396 u[40]
   + 842 u[41] + 299 u[42] + 838 u[43] + 668 u[44] + 411 u[45] + 982 u[46]
   + 306 u[47] + 460 u[48] + 177 u[49] + 635 u[50] + 569 u[51] + 514 u[52]
   + 837 u[53] + 885 u[54] + 368 u[55] + 30 u[56] + 499 u[57] + 465 u[58]
   + 963 u[59] <= 5038
 primal_lower979: 77 u[0] + 185 u[1] + 639 u[2] + 176 u[3] + 537 u[4]
   + 903 u[5] + 458 u[6] + 833 u[7] + 546 u[8] + 903 u[9] + 97 u[10]
   + 376 u[11] + 393 u[12] + 681 u[13] + 978 u[14] + 386 u[15] + 298 u[16]
   + 685 u[17] + 862 u[18] + 859 u[19] + 666 u[20] + 685 u[21] + 185 u[22]
   + 12 u[23] + 18 u[24] + 509 u[25] + 511 u[26] + 605 u[27] + 931 u[28]
   + 492 u[29] + 359 u[30] + 385 u[31] + 169 u[32] + 746 u[33] + 417 u[34]
   + 718 u[35] + 585 u[36] + 842 u[37] + 809 u[38] + 500 u[39] + 188 u[40]
   + 615 u[41] + 611 u[42] + 291 u[43] + 108 u[44] + 208 u[45] + 839 u[46]
   + 623 u[47] + 732 u[48] + 941 u[49] + 540 u[50] + 85 u[51] + 330 u[52]
   + 433 u[53] + 302 u[54] + 421 u[55] + 550 u[56] + 96 u[57] + 465 u[58]
   + 911 u[59] <= 5050
 primal_lower980: 370 u[0] + 371 u[1] + 965 u[2] + 442 u[3] + 551 u[4]
   + 544 u[5] + 848 u[6] + 698 u[7] + 352 u[8] + u[9] + 334 u[10]
   + 130 u[11] + 687 u[12] + 147 u[13] + 527 u[14] + 691 u[15] + 936 u[16]
   + 423 u[17] + 476 u[18] + 61 u[19] + 320 u[20] + 214 u[21] + 159 u[22]
   + 397 u[23] + 887 u[24] + 71 u[25] + 733 u[26] + 902 u[27] + 648 u[28]
   + 574 u[29] + 4 u[30] + 154 u[31] + 494 u[32] + 412 u[33] + 623 u[34]
   + 600 u[35] + 999 u[36] + 299 u[37] + 743 u[38] + 709 u[39] + 834 u[40]
   + 640 u[41] + 953 u[42] + 564 u[43] + 650 u[44] + 113 u[45] + 732 u[46]
   + 296 u[47] + 442 u[48] + 911 u[49] + 345 u[50] + 567 u[51] + 784 u[52]
   + 739 u[53] + 851 u[54] + 54 u[55] + 620 u[56] + 649 u[57] + 551 u[58]
   + 737 u[59] <= 15764
 primal_lower981: 539 u[0] + 399 u[1] + 157 u[2] + 502 u[3] + 175 u[4]
   + 685 u[5] + 240 u[6] + 111 u[7] + 824 u[8] + 405 u[9] + 799 u[10]
   + 918 u[11] + 79 u[12] + 631 u[13] + 632 u[14] + 480 u[15] + 760 u[16]
   + 907 u[17] + 612 u[18] + 169 u[19] + 920 u[20] + 379 u[21] + 863 u[22]
   + 346 u[23] + 240 u[24] + 699 u[25] + 485 u[26] + 875 u[27] + 73 u[28]
   + 794 u[29] + 821 u[30] + 215 u[31] + 471 u[32] + 1000 u[33] + 471 u[34]
   + 796 u[35] + 159 u[36] + 504 u[37] + 295 u[38] + 970 u[39] + 730 u[40]
   + 445 u[41] + 465 u[42] + 865 u[43] + 498 u[44] + 894 u[45] + 653 u[46]
   + 837 u[47] + 914 u[48] + 691 u[49] + 914 u[50] + 91 u[51] + 840 u[52]
   + 367 u[53] + 604 u[54] + 3 u[55] + 284 u[56] + 878 u[57] + 31 u[58]
   + 885 u[59] <= 16644
 primal_lower982: 244 u[0] + 336 u[1] + 358 u[2] + 767 u[3] + 576 u[4]
   + 598 u[5] + 193 u[6] + 384 u[7] + 585 u[8] + 686 u[9] + 208 u[10]
   + 215 u[11] + 552 u[12] + 640 u[13] + 409 u[14] + 913 u[15] + 489 u[16]
   + 588 u[17] + 501 u[18] + 538 u[19] + 353 u[20] + 732 u[21] + 544 u[22]
   + 475 u[23] + 217 u[24] + 196 u[25] + 910 u[26] + 372 u[27] + 682 u[28]
   + 51 u[29] + 430 u[30] + 88 u[31] + 840 u[32] + 49 u[33] + 56 u[34]
   + 525 u[35] + 136 u[36] + 25 u[37] + 344 u[38] + 291 u[39] + 715 u[40]
   + 566 u[41] + 274 u[42] + 338 u[43] + 555 u[44] + 703 u[45] + 966 u[46]
   + 350 u[47] + 139 u[48] + 588 u[49] + 443 u[50] + 196 u[51] + 737 u[52]
   + 904 u[53] + 269 u[54] + 612 u[55] + 373 u[56] + 759 u[57] + 40 u[58]
   + 806 u[59] <= 4571
 primal_lower983: 162 u[0] + 46 u[1] + 484 u[2] + 725 u[3] + 718 u[4]
   + 428 u[5] + 263 u[6] + 958 u[7] + 583 u[8] + 916 u[9] + 6 u[10]
   + 941 u[11] + 670 u[12] + 542 u[13] + 335 u[14] + 935 u[15] + 831 u[16]
   + 178 u[17] + 619 u[18] + 664 u[19] + 391 u[20] + 50 u[21] + 310 u[22]
   + 265 u[23] + 879 u[24] + 514 u[25] + 924 u[26] + 386 u[27] + 8 u[28]
   + 577 u[29] + 404 u[30] + 142 u[31] + 822 u[32] + 87 u[33] + 214 u[34]
   + 779 u[35] + 950 u[36] + 855 u[37] + 526 u[38] + 329 u[39] + 521 u[40]
   + 964 u[41] + 368 u[42] + 320 u[43] + 753 u[44] + 637 u[45] + 900 u[46]
   + 996 u[47] + 481 u[48] + 362 u[49] + 809 u[50] + 906 u[51] + 295 u[52]
   + 846 u[53] + 419 u[54] + 402 u[55] + 99 u[56] + 469 u[57] + 262 u[58]
   + 652 u[59] <= 10625
 primal_lower984: 492 u[0] + 621 u[1] + 255 u[2] + 692 u[3] + 801 u[4]
   + 970 u[5] + 922 u[6] + 228 u[7] + 930 u[8] + 787 u[9] + 984 u[10]
   + 916 u[11] + 969 u[12] + 445 u[13] + 361 u[14] + 445 u[15] + 778 u[16]
   + 425 u[17] + 742 u[18] + 447 u[19] + 994 u[20] + 280 u[21] + 641 u[22]
   + 439 u[23] + 513 u[24] + 297 u[25] + 815 u[26] + 816 u[27] + 714 u[28]
   + 912 u[29] + 726 u[30] + 932 u[31] + 120 u[32] + 438 u[33] + 921 u[34]
   + 386 u[35] + 761 u[36] + 269 u[37] + 313 u[38] + 367 u[39] + 628 u[40]
   + 170 u[41] + 499 u[42] + 950 u[43] + 852 u[44] + 163 u[45] + 910 u[46]
   + 730 u[47] + 60 u[48] + 473 u[49] + 643 u[50] + 689 u[51] + 594 u[52]
   + 541 u[53] + 13 u[54] + 984 u[55] + 102 u[56] + 611 u[57] + 241 u[58]
   + 715 u[59] <= 994
 primal_lower985: 123 u[0] + 935 u[1] + 805 u[2] + 398 u[3] + 375 u[4]
   + 349 u[5] + 24 u[6] + 935 u[7] + 944 u[8] + 333 u[9] + 455 u[10]
   + 190 u[11] + 63 u[12] + 127 u[13] + 880 u[14] + 520 u[15] + 728 u[16]
   + 811 u[17] + 700 u[18] + 657 u[19] + 656 u[20] + 43 u[21] + 759 u[22]
   + 802 u[23] + 368 u[24] + 499 u[25] + 21 u[26] + 771 u[27] + 289 u[28]
   + 794 u[29] + 549 u[30] + 479 u[31] + 39 u[32] + 808 u[33] + 183 u[34]
   + 356 u[35] + 151 u[36] + 952 u[37] + 711 u[38] + 522 u[39] + 570 u[40]
   + 277 u[41] + 177 u[42] + 17 u[43] + 106 u[44] + 486 u[45] + 853 u[46]
   + 517 u[47] + 786 u[48] + 411 u[49] + 738 u[50] + 371 u[51] + 384 u[52]
   + 863 u[53] + 156 u[54] + 603 u[55] + 228 u[56] + 262 u[57] + 831 u[58]
   + 181 u[59] <= 4820
 primal_lower986: 166 u[0] + 810 u[1] + 376 u[2] + 745 u[3] + 242 u[4]
   + 904 u[5] + 779 u[6] + 50 u[7] + 435 u[8] + 464 u[9] + 938 u[10]
   + 729 u[11] + 194 u[12] + 322 u[13] + 267 u[14] + 939 u[15] + 555 u[16]
   + 974 u[17] + 695 u[18] + 860 u[19] + 739 u[20] + 646 u[21] + 834 u[22]
   + 101 u[23] + 219 u[24] + 454 u[25] + 848 u[26] + 734 u[27] + 52 u[28]
   + 637 u[29] + 16 u[30] + 34 u[31] + 738 u[32] + 603 u[33] + 242 u[34]
   + 615 u[35] + 98 u[36] + 499 u[37] + 250 u[38] + 293 u[39] + 261 u[40]
   + 888 u[41] + 244 u[42] + 356 u[43] + 301 u[44] + 9 u[45] + 440 u[46]
   + 96 u[47] + 205 u[48] + 870 u[49] + 501 u[50] + 806 u[51] + 147 u[52]
   + 850 u[53] + 247 u[54] + 422 u[55] + 551 u[56] + 433 u[57] + 2 u[58]
   + 496 u[59] <= 18814
 primal_lower987: 647 u[0] + 496 u[1] + 18 u[2] + 167 u[3] + 140 u[4]
   + 733 u[5] + 973 u[6] + 375 u[7] + 549 u[8] + 942 u[9] + 443 u[10]
   + 863 u[11] + 404 u[12] + 280 u[13] + 524 u[14] + 80 u[15] + 885 u[16]
   + 180 u[17] + 241 u[18] + 786 u[19] + 797 u[20] + 715 u[21] + 668 u[22]
   + 730 u[23] + 388 u[24] + 116 u[25] + 506 u[26] + 739 u[27] + 149 u[28]
   + 611 u[29] + 345 u[30] + 847 u[31] + 11 u[32] + 297 u[33] + 364 u[34]
   + 541 u[35] + 92 u[36] + 360 u[37] + 708 u[38] + 786 u[39] + 47 u[40]
   + 573 u[41] + 22 u[42] + 393 u[43] + 807 u[44] + 414 u[45] + 81 u[46]
   + 349 u[47] + 479 u[48] + 404 u[49] + 126 u[50] + 804 u[51] + 93 u[52]
   + 408 u[53] + 336 u[54] + 523 u[55] + 353 u[56] + 662 u[57] + 764 u[58]
   + 950 u[59] <= 18722
 primal_lower988: 633 u[0] + 461 u[1] + 523 u[2] + 972 u[3] + 373 u[4]
   + 675 u[5] + 222 u[6] + 205 u[7] + 70 u[8] + 603 u[9] + 101 u[10]
   + 468 u[11] + 437 u[12] + 485 u[13] + 966 u[14] + 6 u[15] + 782 u[16]
   + 401 u[17] + 146 u[18] + 583 u[19] + 78 u[20] + 713 u[21] + 909 u[22]
   + 96 u[23] + 374 u[24] + 801 u[25] + 603 u[26] + 393 u[27] + 87 u[28]
   + 496 u[29] + 371 u[30] + 149 u[31] + 373 u[32] + 662 u[33] + 45 u[34]
   + 226 u[35] + 317 u[36] + 630 u[37] + 861 u[38] + 720 u[39] + 560 u[40]
   + 99 u[41] + 439 u[42] + 199 u[43] + 640 u[44] + 876 u[45] + 739 u[46]
   + 91 u[47] + 448 u[48] + 481 u[49] + 984 u[50] + 897 u[51] + 286 u[52]
   + 749 u[53] + 122 u[54] + 289 u[55] + 938 u[56] + 308 u[57] + 285 u[58]
   + 995 u[59] <= 4740
 primal_lower989: 40 u[0] + 236 u[1] + 114 u[2] + 443 u[3] + 124 u[4]
   + 826 u[5] + 653 u[6] + 436 u[7] + 541 u[8] + 354 u[9] + 220 u[10]
   + 531 u[11] + 492 u[12] + 580 u[13] + 477 u[14] + 85 u[15] + 205 u[16]
   + 824 u[17] + 81 u[18] + 174 u[19] + 429 u[20] + 32 u[21] + 292 u[22]
   + 551 u[23] + 893 u[24] + 288 u[25] + 986 u[26] + 424 u[27] + 350 u[28]
   + 15 u[29] + 954 u[30] + 788 u[31] + 228 u[32] + 229 u[33] + 500 u[34]
   + 129 u[35] + 612 u[36] + 581 u[37] + 540 u[38] + 479 u[39] + 575 u[40]
   + 74 u[41] + 670 u[42] + 222 u[43] + 175 u[44] + 515 u[45] + 826 u[46]
   + 482 u[47] + 399 u[48] + 312 u[49] + 991 u[50] + 456 u[51] + 501 u[52]
   + 924 u[53] + 897 u[54] + 728 u[55] + 385 u[56] + 827 u[57] + 940 u[58]
   + 442 u[59] <= 14038
 primal_lower990: 10 u[0] + 670 u[1] + 132 u[2] + 877 u[3] + 206 u[4]
   + 212 u[5] + 343 u[6] + 942 u[7] + 783 u[8] + 620 u[9] + 862 u[10]
   + 557 u[11] + 622 u[12] + 462 u[13] + 935 u[14] + 359 u[15] + 423 u[16]
   + 154 u[17] + 611 u[18] + 312 u[19] + 375 u[20] + 234 u[21] + 566 u[22]
   + 633 u[23] + 559 u[24] + 986 u[25] + 204 u[26] + 458 u[27] + 136 u[28]
   + 801 u[29] + 892 u[30] + 102 u[31] + 126 u[32] + 711 u[33] + 198 u[34]
   + 275 u[35] + 214 u[36] + 647 u[37] + 718 u[38] + 129 u[39] + 761 u[40]
   + 20 u[41] + 912 u[42] + 784 u[43] + 313 u[44] + 421 u[45] + 884 u[46]
   + 444 u[47] + 737 u[48] + 570 u[49] + 977 u[50] + 586 u[51] + 767 u[52]
   + 942 u[53] + 747 u[54] + 906 u[55] + 475 u[56] + 245 u[57] + 774 u[58]
   + 924 u[59] <= 10748
 primal_lower991: 179 u[0] + 343 u[1] + 517 u[2] + 230 u[3] + 455 u[4]
   + 405 u[5] + 320 u[6] + 551 u[7] + 264 u[8] + 925 u[9] + 399 u[10]
   + 374 u[11] + 607 u[12] + 639 u[13] + 976 u[14] + 216 u[15] + 736 u[16]
   + 499 u[17] + 340 u[18] + 905 u[19] + 968 u[20] + 243 u[21] + 111 u[22]
   + 290 u[23] + 936 u[24] + 227 u[25] + 653 u[26] + 771 u[27] + 217 u[28]
   + 130 u[29] + 277 u[30] + 559 u[31] + 231 u[32] + 704 u[33] + 983 u[34]
   + 396 u[35] + 39 u[36] + 360 u[37] + 975 u[38] + 186 u[39] + 954 u[40]
   + 669 u[41] + 297 u[42] + 129 u[43] + 914 u[44] + 750 u[45] + 405 u[46]
   + 261 u[47] + 746 u[48] + 763 u[49] + 698 u[50] + 987 u[51] + 408 u[52]
   + 135 u[53] + 508 u[54] + 283 u[55] + 644 u[56] + 502 u[57] + 615 u[58]
   + 661 u[59] <= 987
 primal_lower992: 532 u[0] + 149 u[1] + 599 u[2] + 852 u[3] + 417 u[4]
   + 730 u[5] + 706 u[6] + 524 u[7] + 482 u[8] + 739 u[9] + 288 u[10]
   + 628 u[11] + 49 u[12] + 309 u[13] + 945 u[14] + 877 u[15] + 482 u[16]
   + 537 u[17] + 790 u[18] + 423 u[19] + 514 u[20] + 992 u[21] + 561 u[22]
   + 311 u[23] + 849 u[24] + 49 u[25] + 975 u[26] + 640 u[27] + 74 u[28]
   + 816 u[29] + 646 u[30] + 140 u[31] + 80 u[32] + 870 u[33] + 9 u[34]
   + 898 u[35] + 113 u[36] + 29 u[37] + 961 u[38] + 743 u[39] + 612 u[40]
   + 258 u[41] + 883 u[42] + 150 u[43] + 484 u[44] + 635 u[45] + 822 u[46]
   + 914 u[47] + 980 u[48] + 913 u[49] + 27 u[50] + 209 u[51] + 258 u[52]
   + 453 u[53] + 965 u[54] + 280 u[55] + 22 u[56] + 371 u[57] + 809 u[58]
   + 619 u[59] <= 5332
 primal_lower993: 854 u[0] + 503 u[1] + 377 u[2] + 902 u[3] + 187 u[4]
   + 476 u[5] + 20 u[6] + 942 u[7] + 804 u[8] + 845 u[9] + 362 u[10]
   + 806 u[11] + 603 u[12] + 143 u[13] + 475 u[14] + 991 u[15] + 268 u[16]
   + 155 u[17] + 880 u[18] + 481 u[19] + 380 u[20] + 450 u[21] + 995 u[22]
   + 945 u[23] + 779 u[24] + 35 u[25] + 953 u[26] + 874 u[27] + 284 u[28]
   + 2 u[29] + 96 u[30] + 262 u[31] + 330 u[32] + 312 u[33] + 115 u[34]
   + 548 u[35] + 787 u[36] + 279 u[37] + 11 u[38] + 993 u[39] + 46 u[40]
   + 140 u[41] + 653 u[42] + 360 u[43] + 742 u[44] + 725 u[45] + 792 u[46]
   + 692 u[47] + 990 u[48] + 571 u[49] + 285 u[50] + 595 u[51] + 220 u[52]
   + 583 u[53] + 207 u[54] + 674 u[55] + 976 u[56] + 493 u[57] + 99 u[58]
   + 149 u[59] <= 5082
 primal_lower994: 312 u[0] + 625 u[1] + 707 u[2] + 416 u[3] + 293 u[4]
   + 878 u[5] + 758 u[6] + 216 u[7] + 374 u[8] + 439 u[9] + 628 u[10]
   + 168 u[11] + 805 u[12] + 465 u[13] + 645 u[14] + 129 u[15] + 326 u[16]
   + 429 u[17] + 794 u[18] + 363 u[19] + 910 u[20] + 572 u[21] + 293 u[22]
   + 563 u[23] + 805 u[24] + 189 u[25] + 115 u[26] + 444 u[27] + 166 u[28]
   + 508 u[29] + 186 u[30] + 888 u[31] + 28 u[32] + 578 u[33] + 117 u[34]
   + 102 u[35] + 613 u[36] + 513 u[37] + 653 u[38] + 267 u[39] + 552 u[40]
   + 710 u[41] + 431 u[42] + 986 u[43] + 728 u[44] + 695 u[45] + 202 u[46]
   + 182 u[47] + 264 u[48] + 925 u[49] + 287 u[50] + 541 u[51] + 822 u[52]
   + 529 u[53] + 537 u[54] + 380 u[55] + 994 u[56] + 903 u[57] + 541 u[58]
   + 71 u[59] <= 4926
 primal_lower995: 268 u[0] + 197 u[1] + 367 u[2] + 252 u[3] + 953 u[4]
   + 546 u[5] + 122 u[6] + 916 u[7] + 114 u[8] + 579 u[9] + 504 u[10]
   + 276 u[11] + 241 u[12] + 973 u[13] + 385 u[14] + 741 u[15] + 410 u[16]
   + 561 u[17] + 718 u[18] + 151 u[19] + 474 u[20] + 480 u[21] + 993 u[22]
   + 975 u[23] + 273 u[24] + 17 u[25] + 143 u[26] + 728 u[27] + 546 u[28]
   + 1000 u[29] + 894 u[30] + 284 u[31] + 656 u[32] + 158 u[33] + 785 u[34]
   + 258 u[35] + 705 u[36] + 133 u[37] + 353 u[38] + 695 u[39] + 340 u[40]
   + 362 u[41] + 779 u[42] + 30 u[43] + 500 u[44] + 507 u[45] + 78 u[46]
   + 274 u[47] + 244 u[48] + 89 u[49] + 339 u[50] + 769 u[51] + 58 u[52]
   + 821 u[53] + 805 u[54] + 400 u[55] + 550 u[56] + 963 u[57] + 41 u[58]
   + 923 u[59] <= 4782
 primal_lower996: 298 u[0] + 30 u[1] + 516 u[2] + 189 u[3] + 990 u[4]
   + 452 u[5] + 279 u[6] + 246 u[7] + 623 u[8] + 516 u[9] + 150 u[10]
   + 149 u[11] + 942 u[12] + 198 u[13] + 871 u[14] + 959 u[15] + 247 u[16]
   + 490 u[17] + 235 u[18] + 56 u[19] + 903 u[20] + 618 u[21] + 806 u[22]
   + 65 u[23] + 239 u[24] + 874 u[25] + 356 u[26] + 858 u[27] + 512 u[28]
   + 977 u[29] + 484 u[30] + 422 u[31] + 614 u[32] + 111 u[33] + 382 u[34]
   + 923 u[35] + 262 u[36] + 287 u[37] + 390 u[38] + 9 u[39] + 913 u[40]
   + 876 u[41] + 504 u[42] + 80 u[43] + 569 u[44] + 85 u[45] + 964 u[46]
   + 36 u[47] + 769 u[48] + 514 u[49] + 625 u[50] + 114 u[51] + 31 u[52]
   + 942 u[53] + 963 u[54] + 594 u[55] + 539 u[56] + 61 u[57] + 430 u[58]
   + 884 u[59] <= 9673
 primal_lower997: 128 u[0] + 516 u[1] + 770 u[2] + 627 u[3] + 756 u[4]
   + 762 u[5] + 125 u[6] + 116 u[7] + 669 u[8] + 490 u[9] + 332 u[10]
   + 739 u[11] + 364 u[12] + 380 u[13] + 277 u[14] + 813 u[15] + 717 u[16]
   + 144 u[17] + 745 u[18] + 470 u[19] + 829 u[20] + 768 u[21] + 956 u[22]
   + 519 u[23] + 653 u[24] + 344 u[25] + 898 u[26] + 360 u[27] + 774 u[28]
   + 711 u[29] + 506 u[30] + 876 u[31] + 252 u[32] + 621 u[33] + 172 u[34]
   + 377 u[35] + 788 u[36] + 861 u[37] + 244 u[38] + 391 u[39] + 855 u[40]
   + 794 u[41] + 118 u[42] + 318 u[43] + 767 u[44] + 619 u[45] + 106 u[46]
   + 754 u[47] + 527 u[48] + 392 u[49] + 727 u[50] + 168 u[51] + 573 u[52]
   + 668 u[53] + 961 u[54] + 384 u[55] + 241 u[56] + 363 u[57] + 764 u[58]
   + 762 u[59] <= 10900
 primal_lower998: 968 u[0] + 553 u[1] + 795 u[2] + 288 u[3] + 781 u[4]
   + 854 u[5] + 782 u[6] + 200 u[7] + 342 u[8] + 895 u[9] + 844 u[10]
   + 24 u[11] + 413 u[12] + 729 u[13] + 573 u[14] + 881 u[15] + 150 u[16]
   + 717 u[17] + 562 u[18] + 707 u[19] + 734 u[20] + 108 u[21] + 285 u[22]
   + 387 u[23] + 773 u[24] + 477 u[25] + 883 u[26] + 636 u[27] + 478 u[28]
   + 340 u[29] + 354 u[30] + 760 u[31] + 4 u[32] + 394 u[33] + 573 u[34]
   + 966 u[35] + 45 u[36] + 937 u[37] + 61 u[38] + 339 u[39] + 848 u[40]
   + 158 u[41] + 455 u[42] + 202 u[43] + 704 u[44] + 183 u[45] + 330 u[46]
   + 550 u[47] + 728 u[48] + 5 u[49] + 879 u[50] + 885 u[51] + 574 u[52]
   + 361 u[53] + 665 u[54] + 228 u[55] + 626 u[56] + 743 u[57] + 925 u[58]
   + 263 u[59] <= 968
 primal_lower999: 236 u[0] + 24 u[1] + 862 u[2] + 535 u[3] + 464 u[4]
   + 14 u[5] + 753 u[6] + 632 u[7] + 481 u[8] + 510 u[9] + 488 u[10]
   + 471 u[11] + 936 u[12] + 248 u[13] + 633 u[14] + 905 u[15] + 185 u[16]
   + 460 u[17] + 141 u[18] + 714 u[19] + 505 u[20] + 252 u[21] + 936 u[22]
   + 619 u[23] + 801 u[24] + 700 u[25] + 310 u[26] + 812 u[27] + 618 u[28]
   + 203 u[29] + 454 u[30] + 80 u[31] + 160 u[32] + 217 u[33] + 272 u[34]
   + 93 u[35] + 192 u[36] + 377 u[37] + 168 u[38] + 211 u[39] + 747 u[40]
   + 750 u[41] + 266 u[42] + 418 u[43] + 355 u[44] + 527 u[45] + 894 u[46]
   + 478 u[47] + 907 u[48] + 836 u[49] + 131 u[50] + 44 u[51] + 321 u[52]
   + 984 u[53] + 69 u[54] + 260 u[55] + 653 u[56] + 135 u[57] + 192 u[58]
   + 766 u[59] <= 18270
 interdiction[0]: x[0] + u[0] <= 1
 interdiction[1]: x[1] + u[1] <= 1
 interdiction[2]: x[2] + u[2] <= 1
 interdiction[3]: x[3] + u[3] <= 1
 interdiction[4]: x[4] + u[4] <= 1
 interdiction[5]: x[5] + u[5] <= 1
 interdiction[6]: x[6] + u[6] <= 1
 interdiction[7]: x[7] + u[7] <= 1
 interdiction[8]: x[8] + u[8] <= 1
 interdiction[9]: x[9] + u[9] <= 1
 interdiction[10]: x[10] + u[10] <= 1
 interdiction[11]: x[11] + u[11] <= 1
 interdiction[12]: x[12] + u[12] <= 1
 interdiction[13]: x[13] + u[13] <= 1
 interdiction[14]: x[14] + u[14] <= 1
 interdiction[15]: x[15] + u[15] <= 1
 interdiction[16]: x[16] + u[16] <= 1
 interdiction[17]: x[17] + u[17] <= 1
 interdiction[18]: x[18] + u[18] <= 1
 interdiction[19]: x[19] + u[19] <= 1
 interdiction[20]: x[20] + u[20] <= 1
 interdiction[21]: x[21] + u[21] <= 1
 interdiction[22]: x[22] + u[22] <= 1
 interdiction[23]: x[23] + u[23] <= 1
 interdiction[24]: x[24] + u[24] <= 1
 interdiction[25]: x[25] + u[25] <= 1
 interdiction[26]: x[26] + u[26] <= 1
 interdiction[27]: x[27] + u[27] <= 1
 interdiction[28]: x[28] + u[28] <= 1
 interdiction[29]: x[29] + u[29] <= 1
 interdiction[30]: x[30] + u[30] <= 1
 interdiction[31]: x[31] + u[31] <= 1
 interdiction[32]: x[32] + u[32] <= 1
 interdiction[33]: x[33] + u[33] <= 1
 interdiction[34]: x[34] + u[34] <= 1
 interdiction[35]: x[35] + u[35] <= 1
 interdiction[36]: x[36] + u[36] <= 1
 interdiction[37]: x[37] + u[37] <= 1
 interdiction[38]: x[38] + u[38] <= 1
 interdiction[39]: x[39] + u[39] <= 1
 interdiction[40]: x[40] + u[40] <= 1
 interdiction[41]: x[41] + u[41] <= 1
 interdiction[42]: x[42] + u[42] <= 1
 interdiction[43]: x[43] + u[43] <= 1
 interdiction[44]: x[44] + u[44] <= 1
 interdiction[45]: x[45] + u[45] <= 1
 interdiction[46]: x[46] + u[46] <= 1
 interdiction[47]: x[47] + u[47] <= 1
 interdiction[48]: x[48] + u[48] <= 1
 interdiction[49]: x[49] + u[49] <= 1
 interdiction[50]: x[50] + u[50] <= 1
 interdiction[51]: x[51] + u[51] <= 1
 interdiction[52]: x[52] + u[52] <= 1
 interdiction[53]: x[53] + u[53] <= 1
 interdiction[54]: x[54] + u[54] <= 1
 interdiction[55]: x[55] + u[55] <= 1
 interdiction[56]: x[56] + u[56] <= 1
 interdiction[57]: x[57] + u[57] <= 1
 interdiction[58]: x[58] + u[58] <= 1
 interdiction[59]: x[59] + u[59] <= 1
 mccormick1[0]: - u[0] + z[0] <= 0
 mccormick1[1]: - u[1] + z[1] <= 0
 mccormick1[2]: - u[2] + z[2] <= 0
 mccormick1[3]: - u[3] + z[3] <= 0
 mccormick1[4]: - u[4] + z[4] <= 0
 mccormick1[5]: - u[5] + z[5] <= 0
 mccormick1[6]: - u[6] + z[6] <= 0
 mccormick1[7]: - u[7] + z[7] <= 0
 mccormick1[8]: - u[8] + z[8] <= 0
 mccormick1[9]: - u[9] + z[9] <= 0
 mccormick1[10]: - u[10] + z[10] <= 0
 mccormick1[11]: - u[11] + z[11] <= 0
 mccormick1[12]: - u[12] + z[12] <= 0
 mccormick1[13]: - u[13] + z[13] <= 0
 mccormick1[14]: - u[14] + z[14] <= 0
 mccormick1[15]: - u[15] + z[15] <= 0
 mccormick1[16]: - u[16] + z[16] <= 0
 mccormick1[17]: - u[17] + z[17] <= 0
 mccormick1[18]: - u[18] + z[18] <= 0
 mccormick1[19]: - u[19] + z[19] <= 0
 mccormick1[20]: - u[20] + z[20] <= 0
 mccormick1[21]: - u[21] + z[21] <= 0
 mccormick1[22]: - u[22] + z[22] <= 0
 mccormick1[23]: - u[23] + z[23] <= 0
 mccormick1[24]: - u[24] + z[24] <= 0
 mccormick1[25]: - u[25] + z[25] <= 0
 mccormick1[26]: - u[26] + z[26] <= 0
 mccormick1[27]: - u[27] + z[27] <= 0
 mccormick1[28]: - u[28] + z[28] <= 0
 mccormick1[29]: - u[29] + z[29] <= 0
 mccormick1[30]: - u[30] + z[30] <= 0
 mccormick1[31]: - u[31] + z[31] <= 0
 mccormick1[32]: - u[32] + z[32] <= 0
 mccormick1[33]: - u[33] + z[33] <= 0
 mccormick1[34]: - u[34] + z[34] <= 0
 mccormick1[35]: - u[35] + z[35] <= 0
 mccormick1[36]: - u[36] + z[36] <= 0
 mccormick1[37]: - u[37] + z[37] <= 0
 mccormick1[38]: - u[38] + z[38] <= 0
 mccormick1[39]: - u[39] + z[39] <= 0
 mccormick1[40]: - u[40] + z[40] <= 0
 mccormick1[41]: - u[41] + z[41] <= 0
 mccormick1[42]: - u[42] + z[42] <= 0
 mccormick1[43]: - u[43] + z[43] <= 0
 mccormick1[44]: - u[44] + z[44] <= 0
 mccormick1[45]: - u[45] + z[45] <= 0
 mccormick1[46]: - u[46] + z[46] <= 0
 mccormick1[47]: - u[47] + z[47] <= 0
 mccormick1[48]: - u[48] + z[48] <= 0
 mccormick1[49]: - u[49] + z[49] <= 0
 mccormick1[50]: - u[50] + z[50] <= 0
 mccormick1[51]: - u[51] + z[51] <= 0
 mccormick1[52]: - u[52] + z[52] <= 0
 mccormick1[53]: - u[53] + z[53] <= 0
 mccormick1[54]: - u[54] + z[54] <= 0
 mccormick1[55]: - u[55] + z[55] <= 0
 mccormick1[56]: - u[56] + z[56] <= 0
 mccormick1[57]: - u[57] + z[57] <= 0
 mccormick1[58]: - u[58] + z[58] <= 0
 mccormick1[59]: - u[59] + z[59] <= 0
 mccormick2[0]: - y[0] + z[0] <= 0
 mccormick2[1]: - y[1] + z[1] <= 0
 mccormick2[2]: - y[2] + z[2] <= 0
 mccormick2[3]: - y[3] + z[3] <= 0
 mccormick2[4]: - y[4] + z[4] <= 0
 mccormick2[5]: - y[5] + z[5] <= 0
 mccormick2[6]: - y[6] + z[6] <= 0
 mccormick2[7]: - y[7] + z[7] <= 0
 mccormick2[8]: - y[8] + z[8] <= 0
 mccormick2[9]: - y[9] + z[9] <= 0
 mccormick2[10]: - y[10] + z[10] <= 0
 mccormick2[11]: - y[11] + z[11] <= 0
 mccormick2[12]: - y[12] + z[12] <= 0
 mccormick2[13]: - y[13] + z[13] <= 0
 mccormick2[14]: - y[14] + z[14] <= 0
 mccormick2[15]: - y[15] + z[15] <= 0
 mccormick2[16]: - y[16] + z[16] <= 0
 mccormick2[17]: - y[17] + z[17] <= 0
 mccormick2[18]: - y[18] + z[18] <= 0
 mccormick2[19]: - y[19] + z[19] <= 0
 mccormick2[20]: - y[20] + z[20] <= 0
 mccormick2[21]: - y[21] + z[21] <= 0
 mccormick2[22]: - y[22] + z[22] <= 0
 mccormick2[23]: - y[23] + z[23] <= 0
 mccormick2[24]: - y[24] + z[24] <= 0
 mccormick2[25]: - y[25] + z[25] <= 0
 mccormick2[26]: - y[26] + z[26] <= 0
 mccormick2[27]: - y[27] + z[27] <= 0
 mccormick2[28]: - y[28] + z[28] <= 0
 mccormick2[29]: - y[29] + z[29] <= 0
 mccormick2[30]: - y[30] + z[30] <= 0
 mccormick2[31]: - y[31] + z[31] <= 0
 mccormick2[32]: - y[32] + z[32] <= 0
 mccormick2[33]: - y[33] + z[33] <= 0
 mccormick2[34]: - y[34] + z[34] <= 0
 mccormick2[35]: - y[35] + z[35] <= 0
 mccormick2[36]: - y[36] + z[36] <= 0
 mccormick2[37]: - y[37] + z[37] <= 0
 mccormick2[38]: - y[38] + z[38] <= 0
 mccormick2[39]: - y[39] + z[39] <= 0
 mccormick2[40]: - y[40] + z[40] <= 0
 mccormick2[41]: - y[41] + z[41] <= 0
 mccormick2[42]: - y[42] + z[42] <= 0
 mccormick2[43]: - y[43] + z[43] <= 0
 mccormick2[44]: - y[44] + z[44] <= 0
 mccormick2[45]: - y[45] + z[45] <= 0
 mccormick2[46]: - y[46] + z[46] <= 0
 mccormick2[47]: - y[47] + z[47] <= 0
 mccormick2[48]: - y[48] + z[48] <= 0
 mccormick2[49]: - y[49] + z[49] <= 0
 mccormick2[50]: - y[50] + z[50] <= 0
 mccormick2[51]: - y[51] + z[51] <= 0
 mccormick2[52]: - y[52] + z[52] <= 0
 mccormick2[53]: - y[53] + z[53] <= 0
 mccormick2[54]: - y[54] + z[54] <= 0
 mccormick2[55]: - y[55] + z[55] <= 0
 mccormick2[56]: - y[56] + z[56] <= 0
 mccormick2[57]: - y[57] + z[57] <= 0
 mccormick2[58]: - y[58] + z[58] <= 0
 mccormick2[59]: - y[59] + z[59] <= 0
 mccormick3[0]: y[0] + u[0] - z[0] <= 1
 mccormick3[1]: y[1] + u[1] - z[1] <= 1
 mccormick3[2]: y[2] + u[2] - z[2] <= 1
 mccormick3[3]: y[3] + u[3] - z[3] <= 1
 mccormick3[4]: y[4] + u[4] - z[4] <= 1
 mccormick3[5]: y[5] + u[5] - z[5] <= 1
 mccormick3[6]: y[6] + u[6] - z[6] <= 1
 mccormick3[7]: y[7] + u[7] - z[7] <= 1
 mccormick3[8]: y[8] + u[8] - z[8] <= 1
 mccormick3[9]: y[9] + u[9] - z[9] <= 1
 mccormick3[10]: y[10] + u[10] - z[10] <= 1
 mccormick3[11]: y[11] + u[11] - z[11] <= 1
 mccormick3[12]: y[12] + u[12] - z[12] <= 1
 mccormick3[13]: y[13] + u[13] - z[13] <= 1
 mccormick3[14]: y[14] + u[14] - z[14] <= 1
 mccormick3[15]: y[15] + u[15] - z[15] <= 1
 mccormick3[16]: y[16] + u[16] - z[16] <= 1
 mccormick3[17]: y[17] + u[17] - z[17] <= 1
 mccormick3[18]: y[18] + u[18] - z[18] <= 1
 mccormick3[19]: y[19] + u[19] - z[19] <= 1
 mccormick3[20]: y[20] + u[20] - z[20] <= 1
 mccormick3[21]: y[21] + u[21] - z[21] <= 1
 mccormick3[22]: y[22] + u[22] - z[22] <= 1
 mccormick3[23]: y[23] + u[23] - z[23] <= 1
 mccormick3[24]: y[24] + u[24] - z[24] <= 1
 mccormick3[25]: y[25] + u[25] - z[25] <= 1
 mccormick3[26]: y[26] + u[26] - z[26] <= 1
 mccormick3[27]: y[27] + u[27] - z[27] <= 1
 mccormick3[28]: y[28] + u[28] - z[28] <= 1
 mccormick3[29]: y[29] + u[29] - z[29] <= 1
 mccormick3[30]: y[30] + u[30] - z[30] <= 1
 mccormick3[31]: y[31] + u[31] - z[31] <= 1
 mccormick3[32]: y[32] + u[32] - z[32] <= 1
 mccormick3[33]: y[33] + u[33] - z[33] <= 1
 mccormick3[34]: y[34] + u[34] - z[34] <= 1
 mccormick3[35]: y[35] + u[35] - z[35] <= 1
 mccormick3[36]: y[36] + u[36] - z[36] <= 1
 mccormick3[37]: y[37] + u[37] - z[37] <= 1
 mccormick3[38]: y[38] + u[38] - z[38] <= 1
 mccormick3[39]: y[39] + u[39] - z[39] <= 1
 mccormick3[40]: y[40] + u[40] - z[40] <= 1
 mccormick3[41]: y[41] + u[41] - z[41] <= 1
 mccormick3[42]: y[42] + u[42] - z[42] <= 1
 mccormick3[43]: y[43] + u[43] - z[43] <= 1
 mccormick3[44]: y[44] + u[44] - z[44] <= 1
 mccormick3[45]: y[45] + u[45] - z[45] <= 1
 mccormick3[46]: y[46] + u[46] - z[46] <= 1
 mccormick3[47]: y[47] + u[47] - z[47] <= 1
 mccormick3[48]: y[48] + u[48] - z[48] <= 1
 mccormick3[49]: y[49] + u[49] - z[49] <= 1
 mccormick3[50]: y[50] + u[50] - z[50] <= 1
 mccormick3[51]: y[51] + u[51] - z[51] <= 1
 mccormick3[52]: y[52] + u[52] - z[52] <= 1
 mccormick3[53]: y[53] + u[53] - z[53] <= 1
 mccormick3[54]: y[54] + u[54] - z[54] <= 1
 mccormick3[55]: y[55] + u[55] - z[55] <= 1
 mccormick3[56]: y[56] + u[56] - z[56] <= 1
 mccormick3[57]: y[57] + u[57] - z[57] <= 1
 mccormick3[58]: y[58] + u[58] - z[58] <= 1
 mccormick3[59]: y[59] + u[59] - z[59] <= 1
Bounds
Binaries
 x[0] x[1] x[2] x[3] x[4] x[5] x[6] x[7] x[8] x[9] x[10] x[11] x[12] x[13]
 x[14] x[15] x[16] x[17] x[18] x[19] x[20] x[21] x[22] x[23] x[24] x[25]
 x[26] x[27] x[28] x[29] x[30] x[31] x[32] x[33] x[34] x[35] x[36] x[37]
 x[38] x[39] x[40] x[41] x[42] x[43] x[44] x[45] x[46] x[47] x[48] x[49]
 x[50] x[51] x[52] x[53] x[54] x[55] x[56] x[57] x[58] x[59] y[0] y[1] y[2]
 y[3] y[4] y[5] y[6] y[7] y[8] y[9] y[10] y[11] y[12] y[13] y[14] y[15]
 y[16] y[17] y[18] y[19] y[20] y[21] y[22] y[23] y[24] y[25] y[26] y[27]
 y[28] y[29] y[30] y[31] y[32] y[33] y[34] y[35] y[36] y[37] y[38] y[39]
 y[40] y[41] y[42] y[43] y[44] y[45] y[46] y[47] y[48] y[49] y[50] y[51]
 y[52] y[53] y[54] y[55] y[56] y[57] y[58] y[59] u[0] u[1] u[2] u[3] u[4]
 u[5] u[6] u[7] u[8] u[9] u[10] u[11] u[12] u[13] u[14] u[15] u[16] u[17]
 u[18] u[19] u[20] u[21] u[22] u[23] u[24] u[25] u[26] u[27] u[28] u[29]
 u[30] u[31] u[32] u[33] u[34] u[35] u[36] u[37] u[38] u[39] u[40] u[41]
 u[42] u[43] u[44] u[45] u[46] u[47] u[48] u[49] u[50] u[51] u[52] u[53]
 u[54] u[55] u[56] u[57] u[58] u[59] z[0] z[1] z[2] z[3] z[4] z[5] z[6]
 z[7] z[8] z[9] z[10] z[11] z[12] z[13] z[14] z[15] z[16] z[17] z[18] z[19]
 z[20] z[21] z[22] z[23] z[24] z[25] z[26] z[27] z[28] z[29] z[30] z[31]
 z[32] z[33] z[34] z[35] z[36] z[37] z[38] z[39] z[40] z[41] z[42] z[43]
 z[44] z[45] z[46] z[47] z[48] z[49] z[50] z[51] z[52] z[53] z[54] z[55]
 z[56] z[57] z[58] z[59]
End
