* Signature: 0x9ca384b067bc5ee5
NAME knapsack_80_100_1
ROWS
 N  OBJ
 L  primal_upper
 L  primal_lower0
 L  primal_lower1
 L  primal_lower2
 L  primal_lower3
 L  primal_lower4
 L  primal_lower5
 L  primal_lower6
 L  primal_lower7
 L  primal_lower8
 L  primal_lower9
 L  primal_lower10
 L  primal_lower11
 L  primal_lower12
 L  primal_lower13
 L  primal_lower14
 L  primal_lower15
 L  primal_lower16
 L  primal_lower17
 L  primal_lower18
 L  primal_lower19
 L  primal_lower20
 L  primal_lower21
 L  primal_lower22
 L  primal_lower23
 L  primal_lower24
 L  primal_lower25
 L  primal_lower26
 L  primal_lower27
 L  primal_lower28
 L  primal_lower29
 L  primal_lower30
 L  primal_lower31
 L  primal_lower32
 L  primal_lower33
 L  primal_lower34
 L  primal_lower35
 L  primal_lower36
 L  primal_lower37
 L  primal_lower38
 L  primal_lower39
 L  primal_lower40
 L  primal_lower41
 L  primal_lower42
 L  primal_lower43
 L  primal_lower44
 L  primal_lower45
 L  primal_lower46
 L  primal_lower47
 L  primal_lower48
 L  primal_lower49
 L  primal_lower50
 L  primal_lower51
 L  primal_lower52
 L  primal_lower53
 L  primal_lower54
 L  primal_lower55
 L  primal_lower56
 L  primal_lower57
 L  primal_lower58
 L  primal_lower59
 L  primal_lower60
 L  primal_lower61
 L  primal_lower62
 L  primal_lower63
 L  primal_lower64
 L  primal_lower65
 L  primal_lower66
 L  primal_lower67
 L  primal_lower68
 L  primal_lower69
 L  primal_lower70
 L  primal_lower71
 L  primal_lower72
 L  primal_lower73
 L  primal_lower74
 L  primal_lower75
 L  primal_lower76
 L  primal_lower77
 L  primal_lower78
 L  primal_lower79
 L  primal_lower80
 L  primal_lower81
 L  primal_lower82
 L  primal_lower83
 L  primal_lower84
 L  primal_lower85
 L  primal_lower86
 L  primal_lower87
 L  primal_lower88
 L  primal_lower89
 L  primal_lower90
 L  primal_lower91
 L  primal_lower92
 L  primal_lower93
 L  primal_lower94
 L  primal_lower95
 L  primal_lower96
 L  primal_lower97
 L  primal_lower98
 L  primal_lower99
 L  interdiction[0]
 L  interdiction[1]
 L  interdiction[2]
 L  interdiction[3]
 L  interdiction[4]
 L  interdiction[5]
 L  interdiction[6]
 L  interdiction[7]
 L  interdiction[8]
 L  interdiction[9]
 L  interdiction[10]
 L  interdiction[11]
 L  interdiction[12]
 L  interdiction[13]
 L  interdiction[14]
 L  interdiction[15]
 L  interdiction[16]
 L  interdiction[17]
 L  interdiction[18]
 L  interdiction[19]
 L  interdiction[20]
 L  interdiction[21]
 L  interdiction[22]
 L  interdiction[23]
 L  interdiction[24]
 L  interdiction[25]
 L  interdiction[26]
 L  interdiction[27]
 L  interdiction[28]
 L  interdiction[29]
 L  interdiction[30]
 L  interdiction[31]
 L  interdiction[32]
 L  interdiction[33]
 L  interdiction[34]
 L  interdiction[35]
 L  interdiction[36]
 L  interdiction[37]
 L  interdiction[38]
 L  interdiction[39]
 L  interdiction[40]
 L  interdiction[41]
 L  interdiction[42]
 L  interdiction[43]
 L  interdiction[44]
 L  interdiction[45]
 L  interdiction[46]
 L  interdiction[47]
 L  interdiction[48]
 L  interdiction[49]
 L  interdiction[50]
 L  interdiction[51]
 L  interdiction[52]
 L  interdiction[53]
 L  interdiction[54]
 L  interdiction[55]
 L  interdiction[56]
 L  interdiction[57]
 L  interdiction[58]
 L  interdiction[59]
 L  interdiction[60]
 L  interdiction[61]
 L  interdiction[62]
 L  interdiction[63]
 L  interdiction[64]
 L  interdiction[65]
 L  interdiction[66]
 L  interdiction[67]
 L  interdiction[68]
 L  interdiction[69]
 L  interdiction[70]
 L  interdiction[71]
 L  interdiction[72]
 L  interdiction[73]
 L  interdiction[74]
 L  interdiction[75]
 L  interdiction[76]
 L  interdiction[77]
 L  interdiction[78]
 L  interdiction[79]
 L  mccormick1[0]
 L  mccormick1[1]
 L  mccormick1[2]
 L  mccormick1[3]
 L  mccormick1[4]
 L  mccormick1[5]
 L  mccormick1[6]
 L  mccormick1[7]
 L  mccormick1[8]
 L  mccormick1[9]
 L  mccormick1[10]
 L  mccormick1[11]
 L  mccormick1[12]
 L  mccormick1[13]
 L  mccormick1[14]
 L  mccormick1[15]
 L  mccormick1[16]
 L  mccormick1[17]
 L  mccormick1[18]
 L  mccormick1[19]
 L  mccormick1[20]
 L  mccormick1[21]
 L  mccormick1[22]
 L  mccormick1[23]
 L  mccormick1[24]
 L  mccormick1[25]
 L  mccormick1[26]
 L  mccormick1[27]
 L  mccormick1[28]
 L  mccormick1[29]
 L  mccormick1[30]
 L  mccormick1[31]
 L  mccormick1[32]
 L  mccormick1[33]
 L  mccormick1[34]
 L  mccormick1[35]
 L  mccormick1[36]
 L  mccormick1[37]
 L  mccormick1[38]
 L  mccormick1[39]
 L  mccormick1[40]
 L  mccormick1[41]
 L  mccormick1[42]
 L  mccormick1[43]
 L  mccormick1[44]
 L  mccormick1[45]
 L  mccormick1[46]
 L  mccormick1[47]
 L  mccormick1[48]
 L  mccormick1[49]
 L  mccormick1[50]
 L  mccormick1[51]
 L  mccormick1[52]
 L  mccormick1[53]
 L  mccormick1[54]
 L  mccormick1[55]
 L  mccormick1[56]
 L  mccormick1[57]
 L  mccormick1[58]
 L  mccormick1[59]
 L  mccormick1[60]
 L  mccormick1[61]
 L  mccormick1[62]
 L  mccormick1[63]
 L  mccormick1[64]
 L  mccormick1[65]
 L  mccormick1[66]
 L  mccormick1[67]
 L  mccormick1[68]
 L  mccormick1[69]
 L  mccormick1[70]
 L  mccormick1[71]
 L  mccormick1[72]
 L  mccormick1[73]
 L  mccormick1[74]
 L  mccormick1[75]
 L  mccormick1[76]
 L  mccormick1[77]
 L  mccormick1[78]
 L  mccormick1[79]
 L  mccormick2[0]
 L  mccormick2[1]
 L  mccormick2[2]
 L  mccormick2[3]
 L  mccormick2[4]
 L  mccormick2[5]
 L  mccormick2[6]
 L  mccormick2[7]
 L  mccormick2[8]
 L  mccormick2[9]
 L  mccormick2[10]
 L  mccormick2[11]
 L  mccormick2[12]
 L  mccormick2[13]
 L  mccormick2[14]
 L  mccormick2[15]
 L  mccormick2[16]
 L  mccormick2[17]
 L  mccormick2[18]
 L  mccormick2[19]
 L  mccormick2[20]
 L  mccormick2[21]
 L  mccormick2[22]
 L  mccormick2[23]
 L  mccormick2[24]
 L  mccormick2[25]
 L  mccormick2[26]
 L  mccormick2[27]
 L  mccormick2[28]
 L  mccormick2[29]
 L  mccormick2[30]
 L  mccormick2[31]
 L  mccormick2[32]
 L  mccormick2[33]
 L  mccormick2[34]
 L  mccormick2[35]
 L  mccormick2[36]
 L  mccormick2[37]
 L  mccormick2[38]
 L  mccormick2[39]
 L  mccormick2[40]
 L  mccormick2[41]
 L  mccormick2[42]
 L  mccormick2[43]
 L  mccormick2[44]
 L  mccormick2[45]
 L  mccormick2[46]
 L  mccormick2[47]
 L  mccormick2[48]
 L  mccormick2[49]
 L  mccormick2[50]
 L  mccormick2[51]
 L  mccormick2[52]
 L  mccormick2[53]
 L  mccormick2[54]
 L  mccormick2[55]
 L  mccormick2[56]
 L  mccormick2[57]
 L  mccormick2[58]
 L  mccormick2[59]
 L  mccormick2[60]
 L  mccormick2[61]
 L  mccormick2[62]
 L  mccormick2[63]
 L  mccormick2[64]
 L  mccormick2[65]
 L  mccormick2[66]
 L  mccormick2[67]
 L  mccormick2[68]
 L  mccormick2[69]
 L  mccormick2[70]
 L  mccormick2[71]
 L  mccormick2[72]
 L  mccormick2[73]
 L  mccormick2[74]
 L  mccormick2[75]
 L  mccormick2[76]
 L  mccormick2[77]
 L  mccormick2[78]
 L  mccormick2[79]
 L  mccormick3[0]
 L  mccormick3[1]
 L  mccormick3[2]
 L  mccormick3[3]
 L  mccormick3[4]
 L  mccormick3[5]
 L  mccormick3[6]
 L  mccormick3[7]
 L  mccormick3[8]
 L  mccormick3[9]
 L  mccormick3[10]
 L  mccormick3[11]
 L  mccormick3[12]
 L  mccormick3[13]
 L  mccormick3[14]
 L  mccormick3[15]
 L  mccormick3[16]
 L  mccormick3[17]
 L  mccormick3[18]
 L  mccormick3[19]
 L  mccormick3[20]
 L  mccormick3[21]
 L  mccormick3[22]
 L  mccormick3[23]
 L  mccormick3[24]
 L  mccormick3[25]
 L  mccormick3[26]
 L  mccormick3[27]
 L  mccormick3[28]
 L  mccormick3[29]
 L  mccormick3[30]
 L  mccormick3[31]
 L  mccormick3[32]
 L  mccormick3[33]
 L  mccormick3[34]
 L  mccormick3[35]
 L  mccormick3[36]
 L  mccormick3[37]
 L  mccormick3[38]
 L  mccormick3[39]
 L  mccormick3[40]
 L  mccormick3[41]
 L  mccormick3[42]
 L  mccormick3[43]
 L  mccormick3[44]
 L  mccormick3[45]
 L  mccormick3[46]
 L  mccormick3[47]
 L  mccormick3[48]
 L  mccormick3[49]
 L  mccormick3[50]
 L  mccormick3[51]
 L  mccormick3[52]
 L  mccormick3[53]
 L  mccormick3[54]
 L  mccormick3[55]
 L  mccormick3[56]
 L  mccormick3[57]
 L  mccormick3[58]
 L  mccormick3[59]
 L  mccormick3[60]
 L  mccormick3[61]
 L  mccormick3[62]
 L  mccormick3[63]
 L  mccormick3[64]
 L  mccormick3[65]
 L  mccormick3[66]
 L  mccormick3[67]
 L  mccormick3[68]
 L  mccormick3[69]
 L  mccormick3[70]
 L  mccormick3[71]
 L  mccormick3[72]
 L  mccormick3[73]
 L  mccormick3[74]
 L  mccormick3[75]
 L  mccormick3[76]
 L  mccormick3[77]
 L  mccormick3[78]
 L  mccormick3[79]
COLUMNS
    MARKER    'MARKER'                 'INTORG'
    x[0]      OBJ       10
    x[0]      interdiction[0]  1
    x[1]      OBJ       10
    x[1]      interdiction[1]  1
    x[2]      OBJ       10
    x[2]      interdiction[2]  1
    x[3]      OBJ       10
    x[3]      interdiction[3]  1
    x[4]      OBJ       10
    x[4]      interdiction[4]  1
    x[5]      OBJ       10
    x[5]      interdiction[5]  1
    x[6]      OBJ       10
    x[6]      interdiction[6]  1
    x[7]      OBJ       10
    x[7]      interdiction[7]  1
    x[8]      OBJ       10
    x[8]      interdiction[8]  1
    x[9]      OBJ       10
    x[9]      interdiction[9]  1
    x[10]     OBJ       10
    x[10]     interdiction[10]  1
    x[11]     OBJ       10
    x[11]     interdiction[11]  1
    x[12]     OBJ       10
    x[12]     interdiction[12]  1
    x[13]     OBJ       10
    x[13]     interdiction[13]  1
    x[14]     OBJ       10
    x[14]     interdiction[14]  1
    x[15]     OBJ       10
    x[15]     interdiction[15]  1
    x[16]     OBJ       10
    x[16]     interdiction[16]  1
    x[17]     OBJ       10
    x[17]     interdiction[17]  1
    x[18]     OBJ       10
    x[18]     interdiction[18]  1
    x[19]     OBJ       10
    x[19]     interdiction[19]  1
    x[20]     OBJ       10
    x[20]     interdiction[20]  1
    x[21]     OBJ       10
    x[21]     interdiction[21]  1
    x[22]     OBJ       10
    x[22]     interdiction[22]  1
    x[23]     OBJ       10
    x[23]     interdiction[23]  1
    x[24]     OBJ       10
    x[24]     interdiction[24]  1
    x[25]     OBJ       10
    x[25]     interdiction[25]  1
    x[26]     OBJ       10
    x[26]     interdiction[26]  1
    x[27]     OBJ       10
    x[27]     interdiction[27]  1
    x[28]     OBJ       10
    x[28]     interdiction[28]  1
    x[29]     OBJ       10
    x[29]     interdiction[29]  1
    x[30]     OBJ       10
    x[30]     interdiction[30]  1
    x[31]     OBJ       10
    x[31]     interdiction[31]  1
    x[32]     OBJ       10
    x[32]     interdiction[32]  1
    x[33]     OBJ       10
    x[33]     interdiction[33]  1
    x[34]     OBJ       10
    x[34]     interdiction[34]  1
    x[35]     OBJ       10
    x[35]     interdiction[35]  1
    x[36]     OBJ       10
    x[36]     interdiction[36]  1
    x[37]     OBJ       10
    x[37]     interdiction[37]  1
    x[38]     OBJ       10
    x[38]     interdiction[38]  1
    x[39]     OBJ       10
    x[39]     interdiction[39]  1
    x[40]     OBJ       10
    x[40]     interdiction[40]  1
    x[41]     OBJ       10
    x[41]     interdiction[41]  1
    x[42]     OBJ       10
    x[42]     interdiction[42]  1
    x[43]     OBJ       10
    x[43]     interdiction[43]  1
    x[44]     OBJ       10
    x[44]     interdiction[44]  1
    x[45]     OBJ       10
    x[45]     interdiction[45]  1
    x[46]     OBJ       10
    x[46]     interdiction[46]  1
    x[47]     OBJ       10
    x[47]     interdiction[47]  1
    x[48]     OBJ       10
    x[48]     interdiction[48]  1
    x[49]     OBJ       10
    x[49]     interdiction[49]  1
    x[50]     OBJ       10
    x[50]     interdiction[50]  1
    x[51]     OBJ       10
    x[51]     interdiction[51]  1
    x[52]     OBJ       10
    x[52]     interdiction[52]  1
    x[53]     OBJ       10
    x[53]     interdiction[53]  1
    x[54]     OBJ       10
    x[54]     interdiction[54]  1
    x[55]     OBJ       10
    x[55]     interdiction[55]  1
    x[56]     OBJ       10
    x[56]     interdiction[56]  1
    x[57]     OBJ       10
    x[57]     interdiction[57]  1
    x[58]     OBJ       10
    x[58]     interdiction[58]  1
    x[59]     OBJ       10
    x[59]     interdiction[59]  1
    x[60]     OBJ       10
    x[60]     interdiction[60]  1
    x[61]     OBJ       10
    x[61]     interdiction[61]  1
    x[62]     OBJ       10
    x[62]     interdiction[62]  1
    x[63]     OBJ       10
    x[63]     interdiction[63]  1
    x[64]     OBJ       10
    x[64]     interdiction[64]  1
    x[65]     OBJ       10
    x[65]     interdiction[65]  1
    x[66]     OBJ       10
    x[66]     interdiction[66]  1
    x[67]     OBJ       10
    x[67]     interdiction[67]  1
    x[68]     OBJ       10
    x[68]     interdiction[68]  1
    x[69]     OBJ       10
    x[69]     interdiction[69]  1
    x[70]     OBJ       10
    x[70]     interdiction[70]  1
    x[71]     OBJ       10
    x[71]     interdiction[71]  1
    x[72]     OBJ       10
    x[72]     interdiction[72]  1
    x[73]     OBJ       10
    x[73]     interdiction[73]  1
    x[74]     OBJ       10
    x[74]     interdiction[74]  1
    x[75]     OBJ       10
    x[75]     interdiction[75]  1
    x[76]     OBJ       10
    x[76]     interdiction[76]  1
    x[77]     OBJ       10
    x[77]     interdiction[77]  1
    x[78]     OBJ       10
    x[78]     interdiction[78]  1
    x[79]     OBJ       10
    x[79]     interdiction[79]  1
    y[0]      OBJ       -33
    y[0]      primal_upper  847
    y[0]      mccormick2[0]  -1
    y[0]      mccormick3[0]  1
    y[1]      OBJ       -778
    y[1]      primal_upper  123
    y[1]      mccormick2[1]  -1
    y[1]      mccormick3[1]  1
    y[2]      OBJ       -947
    y[2]      primal_upper  441
    y[2]      mccormick2[2]  -1
    y[2]      mccormick3[2]  1
    y[3]      OBJ       -183
    y[3]      primal_upper  650
    y[3]      mccormick2[3]  -1
    y[3]      mccormick3[3]  1
    y[4]      OBJ       -293
    y[4]      primal_upper  123
    y[4]      mccormick2[4]  -1
    y[4]      mccormick3[4]  1
    y[5]      OBJ       -932
    y[5]      primal_upper  689
    y[5]      mccormick2[5]  -1
    y[5]      mccormick3[5]  1
    y[6]      OBJ       -341
    y[6]      primal_upper  820
    y[6]      mccormick2[6]  -1
    y[6]      mccormick3[6]  1
    y[7]      OBJ       -999
    y[7]      primal_upper  499
    y[7]      mccormick2[7]  -1
    y[7]      mccormick3[7]  1
    y[8]      OBJ       -882
    y[8]      primal_upper  92
    y[8]      mccormick2[8]  -1
    y[8]      mccormick3[8]  1
    y[9]      OBJ       -110
    y[9]      primal_upper  849
    y[9]      mccormick2[9]  -1
    y[9]      mccormick3[9]  1
    y[10]     OBJ       -266
    y[10]     primal_upper  931
    y[10]     mccormick2[10]  -1
    y[10]     mccormick3[10]  1
    y[11]     OBJ       -246
    y[11]     primal_upper  682
    y[11]     mccormick2[11]  -1
    y[11]     mccormick3[11]  1
    y[12]     OBJ       -566
    y[12]     primal_upper  203
    y[12]     mccormick2[12]  -1
    y[12]     mccormick3[12]  1
    y[13]     OBJ       -629
    y[13]     primal_upper  835
    y[13]     mccormick2[13]  -1
    y[13]     mccormick3[13]  1
    y[14]     OBJ       -954
    y[14]     primal_upper  748
    y[14]     mccormick2[14]  -1
    y[14]     mccormick3[14]  1
    y[15]     OBJ       -367
    y[15]     primal_upper  396
    y[15]     mccormick2[15]  -1
    y[15]     mccormick3[15]  1
    y[16]     OBJ       -721
    y[16]     primal_upper  644
    y[16]     mccormick2[16]  -1
    y[16]     mccormick3[16]  1
    y[17]     OBJ       -597
    y[17]     primal_upper  679
    y[17]     mccormick2[17]  -1
    y[17]     mccormick3[17]  1
    y[18]     OBJ       -550
    y[18]     primal_upper  424
    y[18]     mccormick2[18]  -1
    y[18]     mccormick3[18]  1
    y[19]     OBJ       -189
    y[19]     primal_upper  373
    y[19]     mccormick2[19]  -1
    y[19]     mccormick3[19]  1
    y[20]     OBJ       -701
    y[20]     primal_upper  788
    y[20]     mccormick2[20]  -1
    y[20]     mccormick3[20]  1
    y[21]     OBJ       -90
    y[21]     primal_upper  63
    y[21]     mccormick2[21]  -1
    y[21]     mccormick3[21]  1
    y[22]     OBJ       -183
    y[22]     primal_upper  307
    y[22]     mccormick2[22]  -1
    y[22]     mccormick3[22]  1
    y[23]     OBJ       -619
    y[23]     primal_upper  806
    y[23]     mccormick2[23]  -1
    y[23]     mccormick3[23]  1
    y[24]     OBJ       -524
    y[24]     primal_upper  652
    y[24]     mccormick2[24]  -1
    y[24]     mccormick3[24]  1
    y[25]     OBJ       -770
    y[25]     primal_upper  215
    y[25]     mccormick2[25]  -1
    y[25]     mccormick3[25]  1
    y[26]     OBJ       -291
    y[26]     primal_upper  377
    y[26]     mccormick2[26]  -1
    y[26]     mccormick3[26]  1
    y[27]     OBJ       -899
    y[27]     primal_upper  831
    y[27]     mccormick2[27]  -1
    y[27]     mccormick3[27]  1
    y[28]     OBJ       -325
    y[28]     primal_upper  21
    y[28]     mccormick2[28]  -1
    y[28]     mccormick3[28]  1
    y[29]     OBJ       -108
    y[29]     primal_upper  814
    y[29]     mccormick2[29]  -1
    y[29]     mccormick3[29]  1
    y[30]     OBJ       -264
    y[30]     primal_upper  177
    y[30]     mccormick2[30]  -1
    y[30]     mccormick3[30]  1
    y[31]     OBJ       -819
    y[31]     primal_upper  483
    y[31]     mccormick2[31]  -1
    y[31]     mccormick3[31]  1
    y[32]     OBJ       -495
    y[32]     primal_upper  715
    y[32]     mccormick2[32]  -1
    y[32]     mccormick3[32]  1
    y[33]     OBJ       -50
    y[33]     primal_upper  428
    y[33]     mccormick2[33]  -1
    y[33]     mccormick3[33]  1
    y[34]     OBJ       -71
    y[34]     primal_upper  267
    y[34]     mccormick2[34]  -1
    y[34]     mccormick3[34]  1
    y[35]     OBJ       -856
    y[35]     primal_upper  960
    y[35]     mccormick2[35]  -1
    y[35]     mccormick3[35]  1
    y[36]     OBJ       -500
    y[36]     primal_upper  787
    y[36]     mccormick2[36]  -1
    y[36]     mccormick3[36]  1
    y[37]     OBJ       -106
    y[37]     primal_upper  20
    y[37]     mccormick2[37]  -1
    y[37]     mccormick3[37]  1
    y[38]     OBJ       -610
    y[38]     primal_upper  467
    y[38]     mccormick2[38]  -1
    y[38]     mccormick3[38]  1
    y[39]     OBJ       -71
    y[39]     primal_upper  446
    y[39]     mccormick2[39]  -1
    y[39]     mccormick3[39]  1
    y[40]     OBJ       -711
    y[40]     primal_upper  334
    y[40]     mccormick2[40]  -1
    y[40]     mccormick3[40]  1
    y[41]     OBJ       -961
    y[41]     primal_upper  633
    y[41]     mccormick2[41]  -1
    y[41]     mccormick3[41]  1
    y[42]     OBJ       -197
    y[42]     primal_upper  653
    y[42]     mccormick2[42]  -1
    y[42]     mccormick3[42]  1
    y[43]     OBJ       -854
    y[43]     primal_upper  429
    y[43]     mccormick2[43]  -1
    y[43]     mccormick3[43]  1
    y[44]     OBJ       -758
    y[44]     primal_upper  358
    y[44]     mccormick2[44]  -1
    y[44]     mccormick3[44]  1
    y[45]     OBJ       -478
    y[45]     primal_upper  474
    y[45]     mccormick2[45]  -1
    y[45]     mccormick3[45]  1
    y[46]     OBJ       -664
    y[46]     primal_upper  441
    y[46]     mccormick2[46]  -1
    y[46]     mccormick3[46]  1
    y[47]     OBJ       -384
    y[47]     primal_upper  169
    y[47]     mccormick2[47]  -1
    y[47]     mccormick3[47]  1
    y[48]     OBJ       -936
    y[48]     primal_upper  382
    y[48]     mccormick2[48]  -1
    y[48]     mccormick3[48]  1
    y[49]     OBJ       -685
    y[49]     primal_upper  119
    y[49]     mccormick2[49]  -1
    y[49]     mccormick3[49]  1
    y[50]     OBJ       -466
    y[50]     primal_upper  38
    y[50]     mccormick2[50]  -1
    y[50]     mccormick3[50]  1
    y[51]     OBJ       -182
    y[51]     primal_upper  959
    y[51]     mccormick2[51]  -1
    y[51]     mccormick3[51]  1
    y[52]     OBJ       -606
    y[52]     primal_upper  4
    y[52]     mccormick2[52]  -1
    y[52]     mccormick3[52]  1
    y[53]     OBJ       -760
    y[53]     primal_upper  419
    y[53]     mccormick2[53]  -1
    y[53]     mccormick3[53]  1
    y[54]     OBJ       -327
    y[54]     primal_upper  536
    y[54]     mccormick2[54]  -1
    y[54]     mccormick3[54]  1
    y[55]     OBJ       -413
    y[55]     primal_upper  639
    y[55]     mccormick2[55]  -1
    y[55]     mccormick3[55]  1
    y[56]     OBJ       -830
    y[56]     primal_upper  768
    y[56]     mccormick2[56]  -1
    y[56]     mccormick3[56]  1
    y[57]     OBJ       -71
    y[57]     primal_upper  258
    y[57]     mccormick2[57]  -1
    y[57]     mccormick3[57]  1
    y[58]     OBJ       -467
    y[58]     primal_upper  171
    y[58]     mccormick2[58]  -1
    y[58]     mccormick3[58]  1
    y[59]     OBJ       -558
    y[59]     primal_upper  561
    y[59]     mccormick2[59]  -1
    y[59]     mccormick3[59]  1
    y[60]     OBJ       -467
    y[60]     primal_upper  876
    y[60]     mccormick2[60]  -1
    y[60]     mccormick3[60]  1
    y[61]     OBJ       -593
    y[61]     primal_upper  602
    y[61]     mccormick2[61]  -1
    y[61]     mccormick3[61]  1
    y[62]     OBJ       -741
    y[62]     primal_upper  895
    y[62]     mccormick2[62]  -1
    y[62]     mccormick3[62]  1
    y[63]     OBJ       -881
    y[63]     primal_upper  42
    y[63]     mccormick2[63]  -1
    y[63]     mccormick3[63]  1
    y[64]     OBJ       -854
    y[64]     primal_upper  859
    y[64]     mccormick2[64]  -1
    y[64]     mccormick3[64]  1
    y[65]     OBJ       -720
    y[65]     primal_upper  339
    y[65]     mccormick2[65]  -1
    y[65]     mccormick3[65]  1
    y[66]     OBJ       -724
    y[66]     primal_upper  588
    y[66]     mccormick2[66]  -1
    y[66]     mccormick3[66]  1
    y[67]     OBJ       -321
    y[67]     primal_upper  998
    y[67]     mccormick2[67]  -1
    y[67]     mccormick3[67]  1
    y[68]     OBJ       -928
    y[68]     primal_upper  931
    y[68]     mccormick2[68]  -1
    y[68]     mccormick3[68]  1
    y[69]     OBJ       -961
    y[69]     primal_upper  745
    y[69]     mccormick2[69]  -1
    y[69]     mccormick3[69]  1
    y[70]     OBJ       -588
    y[70]     primal_upper  373
    y[70]     mccormick2[70]  -1
    y[70]     mccormick3[70]  1
    y[71]     OBJ       -970
    y[71]     primal_upper  437
    y[71]     mccormick2[71]  -1
    y[71]     mccormick3[71]  1
    y[72]     OBJ       -756
    y[72]     primal_upper  877
    y[72]     mccormick2[72]  -1
    y[72]     mccormick3[72]  1
    y[73]     OBJ       -169
    y[73]     primal_upper  30
    y[73]     mccormick2[73]  -1
    y[73]     mccormick3[73]  1
    y[74]     OBJ       -850
    y[74]     primal_upper  127
    y[74]     mccormick2[74]  -1
    y[74]     mccormick3[74]  1
    y[75]     OBJ       -365
    y[75]     primal_upper  80
    y[75]     mccormick2[75]  -1
    y[75]     mccormick3[75]  1
    y[76]     OBJ       -577
    y[76]     primal_upper  786
    y[76]     mccormick2[76]  -1
    y[76]     mccormick3[76]  1
    y[77]     OBJ       -344
    y[77]     primal_upper  730
    y[77]     mccormick2[77]  -1
    y[77]     mccormick3[77]  1
    y[78]     OBJ       -747
    y[78]     primal_upper  552
    y[78]     mccormick2[78]  -1
    y[78]     mccormick3[78]  1
    y[79]     OBJ       -619
    y[79]     primal_upper  306
    y[79]     mccormick2[79]  -1
    y[79]     mccormick3[79]  1
    u[0]      primal_lower0  156
    u[0]      primal_lower1  281
    u[0]      primal_lower2  105
    u[0]      primal_lower3  18
    u[0]      primal_lower4  763
    u[0]      primal_lower5  945
    u[0]      primal_lower6  414
    u[0]      primal_lower7  317
    u[0]      primal_lower8  783
    u[0]      primal_lower9  601
    u[0]      primal_lower10  1000
    u[0]      primal_lower11  304
    u[0]      primal_lower12  801
    u[0]      primal_lower13  367
    u[0]      primal_lower14  795
    u[0]      primal_lower15  337
    u[0]      primal_lower16  77
    u[0]      primal_lower17  214
    u[0]      primal_lower18  268
    u[0]      primal_lower19  266
    u[0]      primal_lower20  55
    u[0]      primal_lower21  638
    u[0]      primal_lower22  983
    u[0]      primal_lower23  778
    u[0]      primal_lower24  311
    u[0]      primal_lower25  164
    u[0]      primal_lower26  785
    u[0]      primal_lower27  82
    u[0]      primal_lower28  881
    u[0]      primal_lower29  981
    u[0]      primal_lower30  999
    u[0]      primal_lower31  57
    u[0]      primal_lower32  150
    u[0]      primal_lower33  493
    u[0]      primal_lower34  812
    u[0]      primal_lower35  216
    u[0]      primal_lower36  330
    u[0]      primal_lower37  432
    u[0]      primal_lower38  312
    u[0]      primal_lower39  174
    u[0]      primal_lower40  943
    u[0]      primal_lower41  199
    u[0]      primal_lower42  225
    u[0]      primal_lower43  200
    u[0]      primal_lower44  794
    u[0]      primal_lower45  306
    u[0]      primal_lower46  205
    u[0]      primal_lower47  401
    u[0]      primal_lower48  386
    u[0]      primal_lower49  201
    u[0]      primal_lower50  527
    u[0]      primal_lower51  801
    u[0]      primal_lower52  832
    u[0]      primal_lower53  792
    u[0]      primal_lower54  50
    u[0]      primal_lower55  211
    u[0]      primal_lower56  599
    u[0]      primal_lower57  840
    u[0]      primal_lower58  911
    u[0]      primal_lower59  184
    u[0]      primal_lower60  923
    u[0]      primal_lower61  129
    u[0]      primal_lower62  210
    u[0]      primal_lower63  563
    u[0]      primal_lower64  675
    u[0]      primal_lower65  155
    u[0]      primal_lower66  899
    u[0]      primal_lower67  213
    u[0]      primal_lower68  406
    u[0]      primal_lower69  722
    u[0]      primal_lower70  468
    u[0]      primal_lower71  100
    u[0]      primal_lower72  771
    u[0]      primal_lower73  651
    u[0]      primal_lower74  972
    u[0]      primal_lower75  556
    u[0]      primal_lower76  347
    u[0]      primal_lower77  562
    u[0]      primal_lower78  145
    u[0]      primal_lower79  440
    u[0]      primal_lower80  482
    u[0]      primal_lower81  340
    u[0]      primal_lower82  389
    u[0]      primal_lower83  451
    u[0]      primal_lower84  387
    u[0]      primal_lower85  793
    u[0]      primal_lower86  384
    u[0]      primal_lower87  273
    u[0]      primal_lower88  220
    u[0]      primal_lower89  724
    u[0]      primal_lower90  919
    u[0]      primal_lower91  160
    u[0]      primal_lower92  103
    u[0]      primal_lower93  403
    u[0]      primal_lower94  742
    u[0]      primal_lower95  229
    u[0]      primal_lower96  688
    u[0]      primal_lower97  92
    u[0]      primal_lower98  117
    u[0]      primal_lower99  790
    u[0]      interdiction[0]  1
    u[0]      mccormick1[0]  -1
    u[0]      mccormick3[0]  1
    u[1]      primal_lower0  520
    u[1]      primal_lower1  274
    u[1]      primal_lower2  506
    u[1]      primal_lower3  403
    u[1]      primal_lower4  311
    u[1]      primal_lower5  949
    u[1]      primal_lower6  431
    u[1]      primal_lower7  409
    u[1]      primal_lower8  384
    u[1]      primal_lower9  853
    u[1]      primal_lower10  321
    u[1]      primal_lower11  673
    u[1]      primal_lower12  581
    u[1]      primal_lower13  771
    u[1]      primal_lower14  156
    u[1]      primal_lower15  578
    u[1]      primal_lower16  278
    u[1]      primal_lower17  455
    u[1]      primal_lower18  549
    u[1]      primal_lower19  99
    u[1]      primal_lower20  739
    u[1]      primal_lower21  103
    u[1]      primal_lower22  752
    u[1]      primal_lower23  547
    u[1]      primal_lower24  368
    u[1]      primal_lower25  565
    u[1]      primal_lower26  434
    u[1]      primal_lower27  30
    u[1]      primal_lower28  850
    u[1]      primal_lower29  465
    u[1]      primal_lower30  787
    u[1]      primal_lower31  186
    u[1]      primal_lower32  551
    u[1]      primal_lower33  529
    u[1]      primal_lower34  781
    u[1]      primal_lower35  404
    u[1]      primal_lower36  707
    u[1]      primal_lower37  993
    u[1]      primal_lower38  385
    u[1]      primal_lower39  159
    u[1]      primal_lower40  304
    u[1]      primal_lower41  816
    u[1]      primal_lower42  245
    u[1]      primal_lower43  609
    u[1]      primal_lower44  638
    u[1]      primal_lower45  102
    u[1]      primal_lower46  14
    u[1]      primal_lower47  594
    u[1]      primal_lower48  315
    u[1]      primal_lower49  994
    u[1]      primal_lower50  35
    u[1]      primal_lower51  58
    u[1]      primal_lower52  489
    u[1]      primal_lower53  193
    u[1]      primal_lower54  83
    u[1]      primal_lower55  132
    u[1]      primal_lower56  120
    u[1]      primal_lower57  652
    u[1]      primal_lower58  824
    u[1]      primal_lower59  164
    u[1]      primal_lower60  444
    u[1]      primal_lower61  458
    u[1]      primal_lower62  702
    u[1]      primal_lower63  956
    u[1]      primal_lower64  356
    u[1]      primal_lower65  124
    u[1]      primal_lower66  623
    u[1]      primal_lower67  358
    u[1]      primal_lower68  687
    u[1]      primal_lower69  867
    u[1]      primal_lower70  536
    u[1]      primal_lower71  101
    u[1]      primal_lower72  327
    u[1]      primal_lower73  92
    u[1]      primal_lower74  752
    u[1]      primal_lower75  120
    u[1]      primal_lower76  927
    u[1]      primal_lower77  707
    u[1]      primal_lower78  93
    u[1]      primal_lower79  865
    u[1]      primal_lower80  299
    u[1]      primal_lower81  325
    u[1]      primal_lower82  697
    u[1]      primal_lower83  788
    u[1]      primal_lower84  751
    u[1]      primal_lower85  701
    u[1]      primal_lower86  252
    u[1]      primal_lower87  986
    u[1]      primal_lower88  461
    u[1]      primal_lower89  909
    u[1]      primal_lower90  211
    u[1]      primal_lower91  468
    u[1]      primal_lower92  352
    u[1]      primal_lower93  375
    u[1]      primal_lower94  82
    u[1]      primal_lower95  654
    u[1]      primal_lower96  460
    u[1]      primal_lower97  989
    u[1]      primal_lower98  814
    u[1]      primal_lower99  495
    u[1]      interdiction[1]  1
    u[1]      mccormick1[1]  -1
    u[1]      mccormick3[1]  1
    u[2]      primal_lower0  574
    u[2]      primal_lower1  980
    u[2]      primal_lower2  532
    u[2]      primal_lower3  269
    u[2]      primal_lower4  901
    u[2]      primal_lower5  891
    u[2]      primal_lower6  497
    u[2]      primal_lower7  103
    u[2]      primal_lower8  650
    u[2]      primal_lower9  691
    u[2]      primal_lower10  571
    u[2]      primal_lower11  531
    u[2]      primal_lower12  219
    u[2]      primal_lower13  721
    u[2]      primal_lower14  222
    u[2]      primal_lower15  252
    u[2]      primal_lower16  984
    u[2]      primal_lower17  465
    u[2]      primal_lower18  647
    u[2]      primal_lower19  205
    u[2]      primal_lower20  993
    u[2]      primal_lower21  697
    u[2]      primal_lower22  666
    u[2]      primal_lower23  613
    u[2]      primal_lower24  714
    u[2]      primal_lower25  287
    u[2]      primal_lower26  68
    u[2]      primal_lower27  52
    u[2]      primal_lower28  860
    u[2]      primal_lower29  839
    u[2]      primal_lower30  1
    u[2]      primal_lower31  764
    u[2]      primal_lower32  297
    u[2]      primal_lower33  751
    u[2]      primal_lower34  551
    u[2]      primal_lower35  778
    u[2]      primal_lower36  597
    u[2]      primal_lower37  11
    u[2]      primal_lower38  355
    u[2]      primal_lower39  97
    u[2]      primal_lower40  586
    u[2]      primal_lower41  674
    u[2]      primal_lower42  979
    u[2]      primal_lower43  907
    u[2]      primal_lower44  452
    u[2]      primal_lower45  660
    u[2]      primal_lower46  400
    u[2]      primal_lower47  348
    u[2]      primal_lower48  877
    u[2]      primal_lower49  436
    u[2]      primal_lower50  177
    u[2]      primal_lower51  172
    u[2]      primal_lower52  355
    u[2]      primal_lower53  795
    u[2]      primal_lower54  133
    u[2]      primal_lower55  526
    u[2]      primal_lower56  746
    u[2]      primal_lower57  922
    u[2]      primal_lower58  98
    u[2]      primal_lower59  946
    u[2]      primal_lower60  150
    u[2]      primal_lower61  44
    u[2]      primal_lower62  396
    u[2]      primal_lower63  158
    u[2]      primal_lower64  566
    u[2]      primal_lower65  30
    u[2]      primal_lower66  845
    u[2]      primal_lower67  224
    u[2]      primal_lower68  265
    u[2]      primal_lower69  493
    u[2]      primal_lower70  502
    u[2]      primal_lower71  39
    u[2]      primal_lower72  541
    u[2]      primal_lower73  478
    u[2]      primal_lower74  94
    u[2]      primal_lower75  502
    u[2]      primal_lower76  813
    u[2]      primal_lower77  205
    u[2]      primal_lower78  163
    u[2]      primal_lower79  699
    u[2]      primal_lower80  125
    u[2]      primal_lower81  503
    u[2]      primal_lower82  911
    u[2]      primal_lower83  534
    u[2]      primal_lower84  125
    u[2]      primal_lower85  75
    u[2]      primal_lower86  714
    u[2]      primal_lower87  468
    u[2]      primal_lower88  775
    u[2]      primal_lower89  151
    u[2]      primal_lower90  681
    u[2]      primal_lower91  314
    u[2]      primal_lower92  946
    u[2]      primal_lower93  229
    u[2]      primal_lower94  544
    u[2]      primal_lower95  336
    u[2]      primal_lower96  610
    u[2]      primal_lower97  999
    u[2]      primal_lower98  816
    u[2]      primal_lower99  849
    u[2]      interdiction[2]  1
    u[2]      mccormick1[2]  -1
    u[2]      mccormick3[2]  1
    u[3]      primal_lower0  31
    u[3]      primal_lower1  177
    u[3]      primal_lower2  697
    u[3]      primal_lower3  698
    u[3]      primal_lower4  38
    u[3]      primal_lower5  140
    u[3]      primal_lower6  30
    u[3]      primal_lower7  296
    u[3]      primal_lower8  47
    u[3]      primal_lower9  12
    u[3]      primal_lower10  168
    u[3]      primal_lower11  352
    u[3]      primal_lower12  348
    u[3]      primal_lower13  802
    u[3]      primal_lower14  315
    u[3]      primal_lower15  889
    u[3]      primal_lower16  973
    u[3]      primal_lower17  894
    u[3]      primal_lower18  692
    u[3]      primal_lower19  58
    u[3]      primal_lower20  354
    u[3]      primal_lower21  462
    u[3]      primal_lower22  215
    u[3]      primal_lower23  962
    u[3]      primal_lower24  239
    u[3]      primal_lower25  892
    u[3]      primal_lower26  305
    u[3]      primal_lower27  317
    u[3]      primal_lower28  209
    u[3]      primal_lower29  288
    u[3]      primal_lower30  82
    u[3]      primal_lower31  585
    u[3]      primal_lower32  366
    u[3]      primal_lower33  568
    u[3]      primal_lower34  612
    u[3]      primal_lower35  299
    u[3]      primal_lower36  946
    u[3]      primal_lower37  928
    u[3]      primal_lower38  312
    u[3]      primal_lower39  782
    u[3]      primal_lower40  719
    u[3]      primal_lower41  807
    u[3]      primal_lower42  52
    u[3]      primal_lower43  888
    u[3]      primal_lower44  821
    u[3]      primal_lower45  317
    u[3]      primal_lower46  61
    u[3]      primal_lower47  753
    u[3]      primal_lower48  642
    u[3]      primal_lower49  993
    u[3]      primal_lower50  858
    u[3]      primal_lower51  121
    u[3]      primal_lower52  24
    u[3]      primal_lower53  912
    u[3]      primal_lower54  594
    u[3]      primal_lower55  323
    u[3]      primal_lower56  63
    u[3]      primal_lower57  627
    u[3]      primal_lower58  879
    u[3]      primal_lower59  915
    u[3]      primal_lower60  571
    u[3]      primal_lower61  497
    u[3]      primal_lower62  357
    u[3]      primal_lower63  195
    u[3]      primal_lower64  699
    u[3]      primal_lower65  59
    u[3]      primal_lower66  294
    u[3]      primal_lower67  637
    u[3]      primal_lower68  886
    u[3]      primal_lower69  138
    u[3]      primal_lower70  695
    u[3]      primal_lower71  524
    u[3]      primal_lower72  174
    u[3]      primal_lower73  859
    u[3]      primal_lower74  7
    u[3]      primal_lower75  383
    u[3]      primal_lower76  406
    u[3]      primal_lower77  554
    u[3]      primal_lower78  796
    u[3]      primal_lower79  544
    u[3]      primal_lower80  442
    u[3]      primal_lower81  644
    u[3]      primal_lower82  152
    u[3]      primal_lower83  739
    u[3]      primal_lower84  14
    u[3]      primal_lower85  220
    u[3]      primal_lower86  579
    u[3]      primal_lower87  401
    u[3]      primal_lower88  172
    u[3]      primal_lower89  532
    u[3]      primal_lower90  642
    u[3]      primal_lower91  971
    u[3]      primal_lower92  967
    u[3]      primal_lower93  638
    u[3]      primal_lower94  185
    u[3]      primal_lower95  821
    u[3]      primal_lower96  699
    u[3]      primal_lower97  804
    u[3]      primal_lower98  349
    u[3]      primal_lower99  94
    u[3]      interdiction[3]  1
    u[3]      mccormick1[3]  -1
    u[3]      mccormick3[3]  1
    u[4]      primal_lower0  776
    u[4]      primal_lower1  758
    u[4]      primal_lower2  790
    u[4]      primal_lower3  487
    u[4]      primal_lower4  55
    u[4]      primal_lower5  653
    u[4]      primal_lower6  811
    u[4]      primal_lower7  281
    u[4]      primal_lower8  900
    u[4]      primal_lower9  589
    u[4]      primal_lower10  589
    u[4]      primal_lower11  461
    u[4]      primal_lower12  797
    u[4]      primal_lower13  955
    u[4]      primal_lower14  888
    u[4]      primal_lower15  638
    u[4]      primal_lower16  506
    u[4]      primal_lower17  971
    u[4]      primal_lower18  353
    u[4]      primal_lower19  263
    u[4]      primal_lower20  627
    u[4]      primal_lower21  483
    u[4]      primal_lower22  20
    u[4]      primal_lower23  439
    u[4]      primal_lower24  396
    u[4]      primal_lower25  577
    u[4]      primal_lower26  22
    u[4]      primal_lower27  254
    u[4]      primal_lower28  798
    u[4]      primal_lower29  305
    u[4]      primal_lower30  147
    u[4]      primal_lower31  366
    u[4]      primal_lower32  659
    u[4]      primal_lower33  193
    u[4]      primal_lower34  825
    u[4]      primal_lower35  868
    u[4]      primal_lower36  999
    u[4]      primal_lower37  53
    u[4]      primal_lower38  893
    u[4]      primal_lower39  499
    u[4]      primal_lower40  212
    u[4]      primal_lower41  268
    u[4]      primal_lower42  605
    u[4]      primal_lower43  685
    u[4]      primal_lower44  390
    u[4]      primal_lower45  510
    u[4]      primal_lower46  746
    u[4]      primal_lower47  142
    u[4]      primal_lower48  527
    u[4]      primal_lower49  334
    u[4]      primal_lower50  411
    u[4]      primal_lower51  598
    u[4]      primal_lower52  133
    u[4]      primal_lower53  661
    u[4]      primal_lower54  583
    u[4]      primal_lower55  656
    u[4]      primal_lower56  892
    u[4]      primal_lower57  996
    u[4]      primal_lower58  372
    u[4]      primal_lower59  972
    u[4]      primal_lower60  216
    u[4]      primal_lower61  966
    u[4]      primal_lower62  414
    u[4]      primal_lower63  96
    u[4]      primal_lower64  728
    u[4]      primal_lower65  352
    u[4]      primal_lower66  527
    u[4]      primal_lower67  98
    u[4]      primal_lower68  491
    u[4]      primal_lower69  791
    u[4]      primal_lower70  968
    u[4]      primal_lower71  921
    u[4]      primal_lower72  943
    u[4]      primal_lower73  840
    u[4]      primal_lower74  56
    u[4]      primal_lower75  432
    u[4]      primal_lower76  255
    u[4]      primal_lower77  79
    u[4]      primal_lower78  317
    u[4]      primal_lower79  53
    u[4]      primal_lower80  903
    u[4]      primal_lower81  665
    u[4]      primal_lower82  561
    u[4]      primal_lower83  800
    u[4]      primal_lower84  639
    u[4]      primal_lower85  85
    u[4]      primal_lower86  812
    u[4]      primal_lower87  846
    u[4]      primal_lower88  425
    u[4]      primal_lower89  849
    u[4]      primal_lower90  147
    u[4]      primal_lower91  876
    u[4]      primal_lower92  924
    u[4]      primal_lower93  215
    u[4]      primal_lower94  354
    u[4]      primal_lower95  18
    u[4]      primal_lower96  60
    u[4]      primal_lower97  521
    u[4]      primal_lower98  922
    u[4]      primal_lower99  939
    u[4]      interdiction[4]  1
    u[4]      mccormick1[4]  -1
    u[4]      mccormick3[4]  1
    u[5]      primal_lower0  502
    u[5]      primal_lower1  23
    u[5]      primal_lower2  599
    u[5]      primal_lower3  96
    u[5]      primal_lower4  21
    u[5]      primal_lower5  155
    u[5]      primal_lower6  404
    u[5]      primal_lower7  295
    u[5]      primal_lower8  421
    u[5]      primal_lower9  763
    u[5]      primal_lower10  582
    u[5]      primal_lower11  790
    u[5]      primal_lower12  603
    u[5]      primal_lower13  625
    u[5]      primal_lower14  753
    u[5]      primal_lower15  31
    u[5]      primal_lower16  107
    u[5]      primal_lower17  604
    u[5]      primal_lower18  522
    u[5]      primal_lower19  480
    u[5]      primal_lower20  465
    u[5]      primal_lower21  596
    u[5]      primal_lower22  765
    u[5]      primal_lower23  368
    u[5]      primal_lower24  117
    u[5]      primal_lower25  794
    u[5]      primal_lower26  399
    u[5]      primal_lower27  636
    u[5]      primal_lower28  903
    u[5]      primal_lower29  671
    u[5]      primal_lower30  433
    u[5]      primal_lower31  375
    u[5]      primal_lower32  484
    u[5]      primal_lower33  991
    u[5]      primal_lower34  826
    u[5]      primal_lower35  506
    u[5]      primal_lower36  392
    u[5]      primal_lower37  118
    u[5]      primal_lower38  926
    u[5]      primal_lower39  924
    u[5]      primal_lower40  789
    u[5]      primal_lower41  869
    u[5]      primal_lower42  283
    u[5]      primal_lower43  86
    u[5]      primal_lower44  804
    u[5]      primal_lower45  84
    u[5]      primal_lower46  187
    u[5]      primal_lower47  175
    u[5]      primal_lower48  128
    u[5]      primal_lower49  71
    u[5]      primal_lower50  289
    u[5]      primal_lower51  863
    u[5]      primal_lower52  694
    u[5]      primal_lower53  14
    u[5]      primal_lower54  464
    u[5]      primal_lower55  369
    u[5]      primal_lower56  933
    u[5]      primal_lower57  410
    u[5]      primal_lower58  293
    u[5]      primal_lower59  258
    u[5]      primal_lower60  329
    u[5]      primal_lower61  143
    u[5]      primal_lower62  76
    u[5]      primal_lower63  905
    u[5]      primal_lower64  561
    u[5]      primal_lower65  377
    u[5]      primal_lower66  949
    u[5]      primal_lower67  659
    u[5]      primal_lower68  676
    u[5]      primal_lower69  176
    u[5]      primal_lower70  270
    u[5]      primal_lower71  498
    u[5]      primal_lower72  693
    u[5]      primal_lower73  417
    u[5]      primal_lower74  414
    u[5]      primal_lower75  286
    u[5]      primal_lower76  661
    u[5]      primal_lower77  664
    u[5]      primal_lower78  747
    u[5]      primal_lower79  366
    u[5]      primal_lower80  680
    u[5]      primal_lower81  698
    u[5]      primal_lower82  559
    u[5]      primal_lower83  521
    u[5]      primal_lower84  629
    u[5]      primal_lower85  163
    u[5]      primal_lower86  890
    u[5]      primal_lower87  511
    u[5]      primal_lower88  58
    u[5]      primal_lower89  474
    u[5]      primal_lower90  465
    u[5]      primal_lower91  970
    u[5]      primal_lower92  277
    u[5]      primal_lower93  93
    u[5]      primal_lower94  776
    u[5]      primal_lower95  515
    u[5]      primal_lower96  378
    u[5]      primal_lower97  298
    u[5]      primal_lower98  227
    u[5]      primal_lower99  204
    u[5]      interdiction[5]  1
    u[5]      mccormick1[5]  -1
    u[5]      mccormick3[5]  1
    u[6]      primal_lower0  769
    u[6]      primal_lower1  559
    u[6]      primal_lower2  967
    u[6]      primal_lower3  80
    u[6]      primal_lower4  840
    u[6]      primal_lower5  126
    u[6]      primal_lower6  724
    u[6]      primal_lower7  114
    u[6]      primal_lower8  885
    u[6]      primal_lower9  558
    u[6]      primal_lower10  526
    u[6]      primal_lower11  510
    u[6]      primal_lower12  710
    u[6]      primal_lower13  804
    u[6]      primal_lower14  713
    u[6]      primal_lower15  647
    u[6]      primal_lower16  227
    u[6]      primal_lower17  508
    u[6]      primal_lower18  18
    u[6]      primal_lower19  512
    u[6]      primal_lower20  36
    u[6]      primal_lower21  588
    u[6]      primal_lower22  229
    u[6]      primal_lower23  184
    u[6]      primal_lower24  709
    u[6]      primal_lower25  978
    u[6]      primal_lower26  159
    u[6]      primal_lower27  79
    u[6]      primal_lower28  159
    u[6]      primal_lower29  522
    u[6]      primal_lower30  844
    u[6]      primal_lower31  15
    u[6]      primal_lower32  68
    u[6]      primal_lower33  826
    u[6]      primal_lower34  298
    u[6]      primal_lower35  285
    u[6]      primal_lower36  312
    u[6]      primal_lower37  782
    u[6]      primal_lower38  22
    u[6]      primal_lower39  732
    u[6]      primal_lower40  285
    u[6]      primal_lower41  597
    u[6]      primal_lower42  462
    u[6]      primal_lower43  630
    u[6]      primal_lower44  671
    u[6]      primal_lower45  983
    u[6]      primal_lower46  787
    u[6]      primal_lower47  247
    u[6]      primal_lower48  144
    u[6]      primal_lower49  671
    u[6]      primal_lower50  372
    u[6]      primal_lower51  879
    u[6]      primal_lower52  110
    u[6]      primal_lower53  334
    u[6]      primal_lower54  480
    u[6]      primal_lower55  321
    u[6]      primal_lower56  149
    u[6]      primal_lower57  941
    u[6]      primal_lower58  421
    u[6]      primal_lower59  381
    u[6]      primal_lower60  81
    u[6]      primal_lower61  991
    u[6]      primal_lower62  847
    u[6]      primal_lower63  233
    u[6]      primal_lower64  953
    u[6]      primal_lower65  257
    u[6]      primal_lower66  384
    u[6]      primal_lower67  539
    u[6]      primal_lower68  740
    u[6]      primal_lower69  232
    u[6]      primal_lower70  897
    u[6]      primal_lower71  810
    u[6]      primal_lower72  288
    u[6]      primal_lower73  457
    u[6]      primal_lower74  369
    u[6]      primal_lower75  121
    u[6]      primal_lower76  464
    u[6]      primal_lower77  96
    u[6]      primal_lower78  374
    u[6]      primal_lower79  982
    u[6]      primal_lower80  408
    u[6]      primal_lower81  658
    u[6]      primal_lower82  146
    u[6]      primal_lower83  713
    u[6]      primal_lower84  80
    u[6]      primal_lower85  198
    u[6]      primal_lower86  757
    u[6]      primal_lower87  679
    u[6]      primal_lower88  298
    u[6]      primal_lower89  778
    u[6]      primal_lower90  124
    u[6]      primal_lower91  149
    u[6]      primal_lower92  261
    u[6]      primal_lower93  992
    u[6]      primal_lower94  235
    u[6]      primal_lower95  147
    u[6]      primal_lower96  885
    u[6]      primal_lower97  66
    u[6]      primal_lower98  963
    u[6]      primal_lower99  956
    u[6]      interdiction[6]  1
    u[6]      mccormick1[6]  -1
    u[6]      mccormick3[6]  1
    u[7]      primal_lower0  168
    u[7]      primal_lower1  649
    u[7]      primal_lower2  361
    u[7]      primal_lower3  202
    u[7]      primal_lower4  15
    u[7]      primal_lower5  877
    u[7]      primal_lower6  894
    u[7]      primal_lower7  889
    u[7]      primal_lower8  135
    u[7]      primal_lower9  237
    u[7]      primal_lower10  40
    u[7]      primal_lower11  896
    u[7]      primal_lower12  517
    u[7]      primal_lower13  107
    u[7]      primal_lower14  883
    u[7]      primal_lower15  537
    u[7]      primal_lower16  429
    u[7]      primal_lower17  470
    u[7]      primal_lower18  148
    u[7]      primal_lower19  298
    u[7]      primal_lower20  699
    u[7]      primal_lower21  158
    u[7]      primal_lower22  983
    u[7]      primal_lower23  442
    u[7]      primal_lower24  119
    u[7]      primal_lower25  84
    u[7]      primal_lower26  361
    u[7]      primal_lower27  278
    u[7]      primal_lower28  969
    u[7]      primal_lower29  937
    u[7]      primal_lower30  851
    u[7]      primal_lower31  617
    u[7]      primal_lower32  302
    u[7]      primal_lower33  329
    u[7]      primal_lower34  196
    u[7]      primal_lower35  540
    u[7]      primal_lower36  378
    u[7]      primal_lower37  256
    u[7]      primal_lower38  576
    u[7]      primal_lower39  254
    u[7]      primal_lower40  95
    u[7]      primal_lower41  487
    u[7]      primal_lower42  269
    u[7]      primal_lower43  424
    u[7]      primal_lower44  454
    u[7]      primal_lower45  358
    u[7]      primal_lower46  669
    u[7]      primal_lower47  105
    u[7]      primal_lower48  554
    u[7]      primal_lower49  873
    u[7]      primal_lower50  739
    u[7]      primal_lower51  977
    u[7]      primal_lower52  144
    u[7]      primal_lower53  928
    u[7]      primal_lower54  378
    u[7]      primal_lower55  83
    u[7]      primal_lower56  487
    u[7]      primal_lower57  460
    u[7]      primal_lower58  479
    u[7]      primal_lower59  484
    u[7]      primal_lower60  363
    u[7]      primal_lower61  793
    u[7]      primal_lower62  814
    u[7]      primal_lower63  355
    u[7]      primal_lower64  11
    u[7]      primal_lower65  283
    u[7]      primal_lower66  215
    u[7]      primal_lower67  245
    u[7]      primal_lower68  502
    u[7]      primal_lower69  58
    u[7]      primal_lower70  816
    u[7]      primal_lower71  116
    u[7]      primal_lower72  983
    u[7]      primal_lower73  923
    u[7]      primal_lower74  672
    u[7]      primal_lower75  952
    u[7]      primal_lower76  439
    u[7]      primal_lower77  458
    u[7]      primal_lower78  845
    u[7]      primal_lower79  112
    u[7]      primal_lower80  522
    u[7]      primal_lower81  980
    u[7]      primal_lower82  937
    u[7]      primal_lower83  779
    u[7]      primal_lower84  631
    u[7]      primal_lower85  405
    u[7]      primal_lower86  500
    u[7]      primal_lower87  217
    u[7]      primal_lower88  788
    u[7]      primal_lower89  724
    u[7]      primal_lower90  179
    u[7]      primal_lower91  756
    u[7]      primal_lower92  295
    u[7]      primal_lower93  439
    u[7]      primal_lower94  594
    u[7]      primal_lower95  445
    u[7]      primal_lower96  940
    u[7]      primal_lower97  620
    u[7]      primal_lower98  589
    u[7]      primal_lower99  934
    u[7]      interdiction[7]  1
    u[7]      mccormick1[7]  -1
    u[7]      mccormick3[7]  1
    u[8]      primal_lower0  25
    u[8]      primal_lower1  239
    u[8]      primal_lower2  247
    u[8]      primal_lower3  608
    u[8]      primal_lower4  648
    u[8]      primal_lower5  382
    u[8]      primal_lower6  796
    u[8]      primal_lower7  210
    u[8]      primal_lower8  693
    u[8]      primal_lower9  366
    u[8]      primal_lower10  390
    u[8]      primal_lower11  270
    u[8]      primal_lower12  622
    u[8]      primal_lower13  468
    u[8]      primal_lower14  777
    u[8]      primal_lower15  151
    u[8]      primal_lower16  603
    u[8]      primal_lower17  604
    u[8]      primal_lower18  602
    u[8]      primal_lower19  232
    u[8]      primal_lower20  404
    u[8]      primal_lower21  548
    u[8]      primal_lower22  141
    u[8]      primal_lower23  760
    u[8]      primal_lower24  157
    u[8]      primal_lower25  378
    u[8]      primal_lower26  295
    u[8]      primal_lower27  135
    u[8]      primal_lower28  823
    u[8]      primal_lower29  954
    u[8]      primal_lower30  788
    u[8]      primal_lower31  743
    u[8]      primal_lower32  884
    u[8]      primal_lower33  850
    u[8]      primal_lower34  314
    u[8]      primal_lower35  493
    u[8]      primal_lower36  784
    u[8]      primal_lower37  702
    u[8]      primal_lower38  302
    u[8]      primal_lower39  660
    u[8]      primal_lower40  557
    u[8]      primal_lower41  77
    u[8]      primal_lower42  894
    u[8]      primal_lower43  270
    u[8]      primal_lower44  151
    u[8]      primal_lower45  463
    u[8]      primal_lower46  323
    u[8]      primal_lower47  287
    u[8]      primal_lower48  568
    u[8]      primal_lower49  879
    u[8]      primal_lower50  972
    u[8]      primal_lower51  471
    u[8]      primal_lower52  382
    u[8]      primal_lower53  438
    u[8]      primal_lower54  768
    u[8]      primal_lower55  457
    u[8]      primal_lower56  109
    u[8]      primal_lower57  653
    u[8]      primal_lower58  861
    u[8]      primal_lower59  413
    u[8]      primal_lower60  113
    u[8]      primal_lower61  855
    u[8]      primal_lower62  263
    u[8]      primal_lower63  481
    u[8]      primal_lower64  377
    u[8]      primal_lower65  905
    u[8]      primal_lower66  544
    u[8]      primal_lower67  539
    u[8]      primal_lower68  812
    u[8]      primal_lower69  520
    u[8]      primal_lower70  113
    u[8]      primal_lower71  194
    u[8]      primal_lower72  552
    u[8]      primal_lower73  241
    u[8]      primal_lower74  105
    u[8]      primal_lower75  65
    u[8]      primal_lower76  544
    u[8]      primal_lower77  776
    u[8]      primal_lower78  734
    u[8]      primal_lower79  430
    u[8]      primal_lower80  24
    u[8]      primal_lower81  50
    u[8]      primal_lower82  650
    u[8]      primal_lower83  385
    u[8]      primal_lower84  456
    u[8]      primal_lower85  782
    u[8]      primal_lower86  637
    u[8]      primal_lower87  767
    u[8]      primal_lower88  58
    u[8]      primal_lower89  466
    u[8]      primal_lower90  876
    u[8]      primal_lower91  205
    u[8]      primal_lower92  77
    u[8]      primal_lower93  824
    u[8]      primal_lower94  763
    u[8]      primal_lower95  403
    u[8]      primal_lower96  989
    u[8]      primal_lower97  394
    u[8]      primal_lower98  971
    u[8]      primal_lower99  324
    u[8]      interdiction[8]  1
    u[8]      mccormick1[8]  -1
    u[8]      mccormick3[8]  1
    u[9]      primal_lower0  334
    u[9]      primal_lower1  560
    u[9]      primal_lower2  480
    u[9]      primal_lower3  441
    u[9]      primal_lower4  365
    u[9]      primal_lower5  595
    u[9]      primal_lower6  133
    u[9]      primal_lower7  15
    u[9]      primal_lower8  742
    u[9]      primal_lower9  939
    u[9]      primal_lower10  335
    u[9]      primal_lower11  135
    u[9]      primal_lower12  227
    u[9]      primal_lower13  617
    u[9]      primal_lower14  218
    u[9]      primal_lower15  1000
    u[9]      primal_lower16  380
    u[9]      primal_lower17  221
    u[9]      primal_lower18  99
    u[9]      primal_lower19  217
    u[9]      primal_lower20  57
    u[9]      primal_lower21  965
    u[9]      primal_lower22  350
    u[9]      primal_lower23  57
    u[9]      primal_lower24  606
    u[9]      primal_lower25  307
    u[9]      primal_lower26  576
    u[9]      primal_lower27  492
    u[9]      primal_lower28  856
    u[9]      primal_lower29  567
    u[9]      primal_lower30  137
    u[9]      primal_lower31  616
    u[9]      primal_lower32  805
    u[9]      primal_lower33  567
    u[9]      primal_lower34  587
    u[9]      primal_lower35  674
    u[9]      primal_lower36  737
    u[9]      primal_lower37  23
    u[9]      primal_lower38  119
    u[9]      primal_lower39  493
    u[9]      primal_lower40  390
    u[9]      primal_lower41  158
    u[9]      primal_lower42  179
    u[9]      primal_lower43  351
    u[9]      primal_lower44  84
    u[9]      primal_lower45  180
    u[9]      primal_lower46  524
    u[9]      primal_lower47  616
    u[9]      primal_lower48  233
    u[9]      primal_lower49  448
    u[9]      primal_lower50  881
    u[9]      primal_lower51  688
    u[9]      primal_lower52  559
    u[9]      primal_lower53  831
    u[9]      primal_lower54  937
    u[9]      primal_lower55  154
    u[9]      primal_lower56  646
    u[9]      primal_lower57  394
    u[9]      primal_lower58  990
    u[9]      primal_lower59  354
    u[9]      primal_lower60  42
    u[9]      primal_lower61  784
    u[9]      primal_lower62  108
    u[9]      primal_lower63  242
    u[9]      primal_lower64  314
    u[9]      primal_lower65  610
    u[9]      primal_lower66  325
    u[9]      primal_lower67  972
    u[9]      primal_lower68  829
    u[9]      primal_lower69  729
    u[9]      primal_lower70  638
    u[9]      primal_lower71  115
    u[9]      primal_lower72  597
    u[9]      primal_lower73  858
    u[9]      primal_lower74  86
    u[9]      primal_lower75  574
    u[9]      primal_lower76  477
    u[9]      primal_lower77  569
    u[9]      primal_lower78  331
    u[9]      primal_lower79  735
    u[9]      primal_lower80  193
    u[9]      primal_lower81  227
    u[9]      primal_lower82  199
    u[9]      primal_lower83  586
    u[9]      primal_lower84  325
    u[9]      primal_lower85  563
    u[9]      primal_lower86  466
    u[9]      primal_lower87  736
    u[9]      primal_lower88  795
    u[9]      primal_lower89  659
    u[9]      primal_lower90  937
    u[9]      primal_lower91  770
    u[9]      primal_lower92  350
    u[9]      primal_lower93  437
    u[9]      primal_lower94  176
    u[9]      primal_lower95  868
    u[9]      primal_lower96  986
    u[9]      primal_lower97  83
    u[9]      primal_lower98  380
    u[9]      primal_lower99  325
    u[9]      interdiction[9]  1
    u[9]      mccormick1[9]  -1
    u[9]      mccormick3[9]  1
    u[10]     primal_lower0  208
    u[10]     primal_lower1  381
    u[10]     primal_lower2  157
    u[10]     primal_lower3  934
    u[10]     primal_lower4  111
    u[10]     primal_lower5  165
    u[10]     primal_lower6  514
    u[10]     primal_lower7  297
    u[10]     primal_lower8  139
    u[10]     primal_lower9  237
    u[10]     primal_lower10  36
    u[10]     primal_lower11  852
    u[10]     primal_lower12  381
    u[10]     primal_lower13  555
    u[10]     primal_lower14  431
    u[10]     primal_lower15  773
    u[10]     primal_lower16  945
    u[10]     primal_lower17  786
    u[10]     primal_lower18  920
    u[10]     primal_lower19  414
    u[10]     primal_lower20  883
    u[10]     primal_lower21  770
    u[10]     primal_lower22  147
    u[10]     primal_lower23  678
    u[10]     primal_lower24  627
    u[10]     primal_lower25  640
    u[10]     primal_lower26  453
    u[10]     primal_lower27  558
    u[10]     primal_lower28  429
    u[10]     primal_lower29  761
    u[10]     primal_lower30  715
    u[10]     primal_lower31  405
    u[10]     primal_lower32  842
    u[10]     primal_lower33  361
    u[10]     primal_lower34  520
    u[10]     primal_lower35  444
    u[10]     primal_lower36  526
    u[10]     primal_lower37  716
    u[10]     primal_lower38  380
    u[10]     primal_lower39  730
    u[10]     primal_lower40  867
    u[10]     primal_lower41  427
    u[10]     primal_lower42  701
    u[10]     primal_lower43  740
    u[10]     primal_lower44  830
    u[10]     primal_lower45  622
    u[10]     primal_lower46  145
    u[10]     primal_lower47  693
    u[10]     primal_lower48  470
    u[10]     primal_lower49  629
    u[10]     primal_lower50  507
    u[10]     primal_lower51  509
    u[10]     primal_lower52  588
    u[10]     primal_lower53  532
    u[10]     primal_lower54  910
    u[10]     primal_lower55  943
    u[10]     primal_lower56  107
    u[10]     primal_lower57  492
    u[10]     primal_lower58  699
    u[10]     primal_lower59  140
    u[10]     primal_lower60  575
    u[10]     primal_lower61  269
    u[10]     primal_lower62  174
    u[10]     primal_lower63  927
    u[10]     primal_lower64  95
    u[10]     primal_lower65  999
    u[10]     primal_lower66  143
    u[10]     primal_lower67  921
    u[10]     primal_lower68  738
    u[10]     primal_lower69  622
    u[10]     primal_lower70  160
    u[10]     primal_lower71  944
    u[10]     primal_lower72  999
    u[10]     primal_lower73  623
    u[10]     primal_lower74  8
    u[10]     primal_lower75  720
    u[10]     primal_lower76  599
    u[10]     primal_lower77  838
    u[10]     primal_lower78  837
    u[10]     primal_lower79  996
    u[10]     primal_lower80  198
    u[10]     primal_lower81  952
    u[10]     primal_lower82  497
    u[10]     primal_lower83  199
    u[10]     primal_lower84  543
    u[10]     primal_lower85  909
    u[10]     primal_lower86  228
    u[10]     primal_lower87  189
    u[10]     primal_lower88  32
    u[10]     primal_lower89  128
    u[10]     primal_lower90  323
    u[10]     primal_lower91  612
    u[10]     primal_lower92  483
    u[10]     primal_lower93  599
    u[10]     primal_lower94  842
    u[10]     primal_lower95  89
    u[10]     primal_lower96  12
    u[10]     primal_lower97  416
    u[10]     primal_lower98  865
    u[10]     primal_lower99  442
    u[10]     interdiction[10]  1
    u[10]     mccormick1[10]  -1
    u[10]     mccormick3[10]  1
    u[11]     primal_lower0  391
    u[11]     primal_lower1  417
    u[11]     primal_lower2  49
    u[11]     primal_lower3  58
    u[11]     primal_lower4  46
    u[11]     primal_lower5  20
    u[11]     primal_lower6  670
    u[11]     primal_lower7  376
    u[11]     primal_lower8  23
    u[11]     primal_lower9  852
    u[11]     primal_lower10  928
    u[11]     primal_lower11  880
    u[11]     primal_lower12  204
    u[11]     primal_lower13  922
    u[11]     primal_lower14  379
    u[11]     primal_lower15  593
    u[11]     primal_lower16  933
    u[11]     primal_lower17  230
    u[11]     primal_lower18  580
    u[11]     primal_lower19  546
    u[11]     primal_lower20  794
    u[11]     primal_lower21  398
    u[11]     primal_lower22  919
    u[11]     primal_lower23  410
    u[11]     primal_lower24  31
    u[11]     primal_lower25  236
    u[11]     primal_lower26  833
    u[11]     primal_lower27  349
    u[11]     primal_lower28  177
    u[11]     primal_lower29  856
    u[11]     primal_lower30  114
    u[11]     primal_lower31  145
    u[11]     primal_lower32  262
    u[11]     primal_lower33  968
    u[11]     primal_lower34  204
    u[11]     primal_lower35  315
    u[11]     primal_lower36  298
    u[11]     primal_lower37  328
    u[11]     primal_lower38  768
    u[11]     primal_lower39  750
    u[11]     primal_lower40  111
    u[11]     primal_lower41  767
    u[11]     primal_lower42  228
    u[11]     primal_lower43  440
    u[11]     primal_lower44  501
    u[11]     primal_lower45  493
    u[11]     primal_lower46  845
    u[11]     primal_lower47  657
    u[11]     primal_lower48  650
    u[11]     primal_lower49  609
    u[11]     primal_lower50  146
    u[11]     primal_lower51  49
    u[11]     primal_lower52  512
    u[11]     primal_lower53  32
    u[11]     primal_lower54  618
    u[11]     primal_lower55  619
    u[11]     primal_lower56  871
    u[11]     primal_lower57  531
    u[11]     primal_lower58  527
    u[11]     primal_lower59  51
    u[11]     primal_lower60  555
    u[11]     primal_lower61  865
    u[11]     primal_lower62  813
    u[11]     primal_lower63  803
    u[11]     primal_lower64  819
    u[11]     primal_lower65  851
    u[11]     primal_lower66  646
    u[11]     primal_lower67  381
    u[11]     primal_lower68  526
    u[11]     primal_lower69  922
    u[11]     primal_lower70  583
    u[11]     primal_lower71  644
    u[11]     primal_lower72  302
    u[11]     primal_lower73  659
    u[11]     primal_lower74  895
    u[11]     primal_lower75  983
    u[11]     primal_lower76  222
    u[11]     primal_lower77  626
    u[11]     primal_lower78  452
    u[11]     primal_lower79  424
    u[11]     primal_lower80  594
    u[11]     primal_lower81  644
    u[11]     primal_lower82  952
    u[11]     primal_lower83  827
    u[11]     primal_lower84  342
    u[11]     primal_lower85  860
    u[11]     primal_lower86  587
    u[11]     primal_lower87  969
    u[11]     primal_lower88  828
    u[11]     primal_lower89  564
    u[11]     primal_lower90  90
    u[11]     primal_lower91  491
    u[11]     primal_lower92  503
    u[11]     primal_lower93  558
    u[11]     primal_lower94  449
    u[11]     primal_lower95  125
    u[11]     primal_lower96  459
    u[11]     primal_lower97  340
    u[11]     primal_lower98  733
    u[11]     primal_lower99  718
    u[11]     interdiction[11]  1
    u[11]     mccormick1[11]  -1
    u[11]     mccormick3[11]  1
    u[12]     primal_lower0  416
    u[12]     primal_lower1  374
    u[12]     primal_lower2  462
    u[12]     primal_lower3  679
    u[12]     primal_lower4  303
    u[12]     primal_lower5  277
    u[12]     primal_lower6  491
    u[12]     primal_lower7  793
    u[12]     primal_lower8  708
    u[12]     primal_lower9  645
    u[12]     primal_lower10  317
    u[12]     primal_lower11  693
    u[12]     primal_lower12  509
    u[12]     primal_lower13  179
    u[12]     primal_lower14  704
    u[12]     primal_lower15  358
    u[12]     primal_lower16  66
    u[12]     primal_lower17  267
    u[12]     primal_lower18  961
    u[12]     primal_lower19  151
    u[12]     primal_lower20  483
    u[12]     primal_lower21  195
    u[12]     primal_lower22  452
    u[12]     primal_lower23  847
    u[12]     primal_lower24  924
    u[12]     primal_lower25  393
    u[12]     primal_lower26  406
    u[12]     primal_lower27  838
    u[12]     primal_lower28  606
    u[12]     primal_lower29  665
    u[12]     primal_lower30  411
    u[12]     primal_lower31  190
    u[12]     primal_lower32  891
    u[12]     primal_lower33  289
    u[12]     primal_lower34  601
    u[12]     primal_lower35  708
    u[12]     primal_lower36  975
    u[12]     primal_lower37  565
    u[12]     primal_lower38  93
    u[12]     primal_lower39  315
    u[12]     primal_lower40  172
    u[12]     primal_lower41  316
    u[12]     primal_lower42  477
    u[12]     primal_lower43  941
    u[12]     primal_lower44  974
    u[12]     primal_lower45  846
    u[12]     primal_lower46  474
    u[12]     primal_lower47  742
    u[12]     primal_lower48  103
    u[12]     primal_lower49  198
    u[12]     primal_lower50  779
    u[12]     primal_lower51  310
    u[12]     primal_lower52  541
    u[12]     primal_lower53  589
    u[12]     primal_lower54  679
    u[12]     primal_lower55  840
    u[12]     primal_lower56  964
    u[12]     primal_lower57  988
    u[12]     primal_lower58  564
    u[12]     primal_lower59  292
    u[12]     primal_lower60  424
    u[12]     primal_lower61  22
    u[12]     primal_lower62  494
    u[12]     primal_lower63  432
    u[12]     primal_lower64  232
    u[12]     primal_lower65  408
    u[12]     primal_lower66  343
    u[12]     primal_lower67  306
    u[12]     primal_lower68  355
    u[12]     primal_lower69  511
    u[12]     primal_lower70  936
    u[12]     primal_lower71  121
    u[12]     primal_lower72  231
    u[12]     primal_lower73  944
    u[12]     primal_lower74  944
    u[12]     primal_lower75  752
    u[12]     primal_lower76  471
    u[12]     primal_lower77  335
    u[12]     primal_lower78  677
    u[12]     primal_lower79  941
    u[12]     primal_lower80  975
    u[12]     primal_lower81  521
    u[12]     primal_lower82  665
    u[12]     primal_lower83  952
    u[12]     primal_lower84  911
    u[12]     primal_lower85  605
    u[12]     primal_lower86  524
    u[12]     primal_lower87  710
    u[12]     primal_lower88  489
    u[12]     primal_lower89  625
    u[12]     primal_lower90  683
    u[12]     primal_lower91  484
    u[12]     primal_lower92  340
    u[12]     primal_lower93  815
    u[12]     primal_lower94  666
    u[12]     primal_lower95  114
    u[12]     primal_lower96  484
    u[12]     primal_lower97  225
    u[12]     primal_lower98  402
    u[12]     primal_lower99  611
    u[12]     interdiction[12]  1
    u[12]     mccormick1[12]  -1
    u[12]     mccormick3[12]  1
    u[13]     primal_lower0  160
    u[13]     primal_lower1  426
    u[13]     primal_lower2  922
    u[13]     primal_lower3  307
    u[13]     primal_lower4  519
    u[13]     primal_lower5  469
    u[13]     primal_lower6  287
    u[13]     primal_lower7  793
    u[13]     primal_lower8  592
    u[13]     primal_lower9  373
    u[13]     primal_lower10  217
    u[13]     primal_lower11  593
    u[13]     primal_lower12  293
    u[13]     primal_lower13  955
    u[13]     primal_lower14  276
    u[13]     primal_lower15  210
    u[13]     primal_lower16  94
    u[13]     primal_lower17  527
    u[13]     primal_lower18  109
    u[13]     primal_lower19  139
    u[13]     primal_lower20  715
    u[13]     primal_lower21  599
    u[13]     primal_lower22  992
    u[13]     primal_lower23  547
    u[13]     primal_lower24  464
    u[13]     primal_lower25  445
    u[13]     primal_lower26  538
    u[13]     primal_lower27  678
    u[13]     primal_lower28  826
    u[13]     primal_lower29  521
    u[13]     primal_lower30  67
    u[13]     primal_lower31  754
    u[13]     primal_lower32  7
    u[13]     primal_lower33  121
    u[13]     primal_lower34  221
    u[13]     primal_lower35  108
    u[13]     primal_lower36  555
    u[13]     primal_lower37  409
    u[13]     primal_lower38  889
    u[13]     primal_lower39  287
    u[13]     primal_lower40  568
    u[13]     primal_lower41  736
    u[13]     primal_lower42  581
    u[13]     primal_lower43  489
    u[13]     primal_lower44  462
    u[13]     primal_lower45  14
    u[13]     primal_lower46  150
    u[13]     primal_lower47  290
    u[13]     primal_lower48  19
    u[13]     primal_lower49  578
    u[13]     primal_lower50  923
    u[13]     primal_lower51  394
    u[13]     primal_lower52  873
    u[13]     primal_lower53  633
    u[13]     primal_lower54  475
    u[13]     primal_lower55  556
    u[13]     primal_lower56  272
    u[13]     primal_lower57  84
    u[13]     primal_lower58  352
    u[13]     primal_lower59  348
    u[13]     primal_lower60  852
    u[13]     primal_lower61  578
    u[13]     primal_lower62  942
    u[13]     primal_lower63  284
    u[13]     primal_lower64  948
    u[13]     primal_lower65  68
    u[13]     primal_lower66  215
    u[13]     primal_lower67  94
    u[13]     primal_lower68  319
    u[13]     primal_lower69  27
    u[13]     primal_lower70  64
    u[13]     primal_lower71  453
    u[13]     primal_lower72  687
    u[13]     primal_lower73  660
    u[13]     primal_lower74  16
    u[13]     primal_lower75  920
    u[13]     primal_lower76  455
    u[13]     primal_lower77  475
    u[13]     primal_lower78  437
    u[13]     primal_lower79  153
    u[13]     primal_lower80  731
    u[13]     primal_lower81  565
    u[13]     primal_lower82  833
    u[13]     primal_lower83  244
    u[13]     primal_lower84  615
    u[13]     primal_lower85  285
    u[13]     primal_lower86  668
    u[13]     primal_lower87  130
    u[13]     primal_lower88  253
    u[13]     primal_lower89  21
    u[13]     primal_lower90  923
    u[13]     primal_lower91  676
    u[13]     primal_lower92  560
    u[13]     primal_lower93  471
    u[13]     primal_lower94  242
    u[13]     primal_lower95  982
    u[13]     primal_lower96  740
    u[13]     primal_lower97  941
    u[13]     primal_lower98  790
    u[13]     primal_lower99  15
    u[13]     interdiction[13]  1
    u[13]     mccormick1[13]  -1
    u[13]     mccormick3[13]  1
    u[14]     primal_lower0  953
    u[14]     primal_lower1  950
    u[14]     primal_lower2  654
    u[14]     primal_lower3  975
    u[14]     primal_lower4  256
    u[14]     primal_lower5  14
    u[14]     primal_lower6  787
    u[14]     primal_lower7  146
    u[14]     primal_lower8  380
    u[14]     primal_lower9  46
    u[14]     primal_lower10  205
    u[14]     primal_lower11  333
    u[14]     primal_lower12  350
    u[14]     primal_lower13  900
    u[14]     primal_lower14  48
    u[14]     primal_lower15  950
    u[14]     primal_lower16  306
    u[14]     primal_lower17  59
    u[14]     primal_lower18  241
    u[14]     primal_lower19  391
    u[14]     primal_lower20  972
    u[14]     primal_lower21  379
    u[14]     primal_lower22  220
    u[14]     primal_lower23  615
    u[14]     primal_lower24  204
    u[14]     primal_lower25  593
    u[14]     primal_lower26  702
    u[14]     primal_lower27  303
    u[14]     primal_lower28  206
    u[14]     primal_lower29  242
    u[14]     primal_lower30  828
    u[14]     primal_lower31  470
    u[14]     primal_lower32  795
    u[14]     primal_lower33  82
    u[14]     primal_lower34  433
    u[14]     primal_lower35  301
    u[14]     primal_lower36  223
    u[14]     primal_lower37  405
    u[14]     primal_lower38  613
    u[14]     primal_lower39  755
    u[14]     primal_lower40  812
    u[14]     primal_lower41  820
    u[14]     primal_lower42  814
    u[14]     primal_lower43  509
    u[14]     primal_lower44  839
    u[14]     primal_lower45  423
    u[14]     primal_lower46  242
    u[14]     primal_lower47  38
    u[14]     primal_lower48  263
    u[14]     primal_lower49  134
    u[14]     primal_lower50  436
    u[14]     primal_lower51  38
    u[14]     primal_lower52  717
    u[14]     primal_lower53  605
    u[14]     primal_lower54  463
    u[14]     primal_lower55  152
    u[14]     primal_lower56  916
    u[14]     primal_lower57  525
    u[14]     primal_lower58  884
    u[14]     primal_lower59  381
    u[14]     primal_lower60  256
    u[14]     primal_lower61  910
    u[14]     primal_lower62  63
    u[14]     primal_lower63  568
    u[14]     primal_lower64  64
    u[14]     primal_lower65  584
    u[14]     primal_lower66  536
    u[14]     primal_lower67  330
    u[14]     primal_lower68  979
    u[14]     primal_lower69  199
    u[14]     primal_lower70  713
    u[14]     primal_lower71  113
    u[14]     primal_lower72  384
    u[14]     primal_lower73  208
    u[14]     primal_lower74  889
    u[14]     primal_lower75  697
    u[14]     primal_lower76  680
    u[14]     primal_lower77  735
    u[14]     primal_lower78  990
    u[14]     primal_lower79  181
    u[14]     primal_lower80  735
    u[14]     primal_lower81  281
    u[14]     primal_lower82  730
    u[14]     primal_lower83  544
    u[14]     primal_lower84  696
    u[14]     primal_lower85  606
    u[14]     primal_lower86  933
    u[14]     primal_lower87  286
    u[14]     primal_lower88  121
    u[14]     primal_lower89  769
    u[14]     primal_lower90  580
    u[14]     primal_lower91  301
    u[14]     primal_lower92  260
    u[14]     primal_lower93  32
    u[14]     primal_lower94  627
    u[14]     primal_lower95  706
    u[14]     primal_lower96  733
    u[14]     primal_lower97  305
    u[14]     primal_lower98  426
    u[14]     primal_lower99  139
    u[14]     interdiction[14]  1
    u[14]     mccormick1[14]  -1
    u[14]     mccormick3[14]  1
    u[15]     primal_lower0  769
    u[15]     primal_lower1  482
    u[15]     primal_lower2  266
    u[15]     primal_lower3  851
    u[15]     primal_lower4  280
    u[15]     primal_lower5  926
    u[15]     primal_lower6  495
    u[15]     primal_lower7  474
    u[15]     primal_lower8  592
    u[15]     primal_lower9  486
    u[15]     primal_lower10  161
    u[15]     primal_lower11  145
    u[15]     primal_lower12  214
    u[15]     primal_lower13  540
    u[15]     primal_lower14  460
    u[15]     primal_lower15  298
    u[15]     primal_lower16  726
    u[15]     primal_lower17  695
    u[15]     primal_lower18  205
    u[15]     primal_lower19  67
    u[15]     primal_lower20  644
    u[15]     primal_lower21  271
    u[15]     primal_lower22  488
    u[15]     primal_lower23  347
    u[15]     primal_lower24  744
    u[15]     primal_lower25  93
    u[15]     primal_lower26  266
    u[15]     primal_lower27  703
    u[15]     primal_lower28  610
    u[15]     primal_lower29  90
    u[15]     primal_lower30  484
    u[15]     primal_lower31  802
    u[15]     primal_lower32  359
    u[15]     primal_lower33  26
    u[15]     primal_lower34  885
    u[15]     primal_lower35  957
    u[15]     primal_lower36  819
    u[15]     primal_lower37  721
    u[15]     primal_lower38  105
    u[15]     primal_lower39  407
    u[15]     primal_lower40  616
    u[15]     primal_lower41  992
    u[15]     primal_lower42  910
    u[15]     primal_lower43  473
    u[15]     primal_lower44  223
    u[15]     primal_lower45  943
    u[15]     primal_lower46  886
    u[15]     primal_lower47  266
    u[15]     primal_lower48  587
    u[15]     primal_lower49  930
    u[15]     primal_lower50  956
    u[15]     primal_lower51  770
    u[15]     primal_lower52  785
    u[15]     primal_lower53  305
    u[15]     primal_lower54  371
    u[15]     primal_lower55  516
    u[15]     primal_lower56  736
    u[15]     primal_lower57  869
    u[15]     primal_lower58  168
    u[15]     primal_lower59  21
    u[15]     primal_lower60  644
    u[15]     primal_lower61  706
    u[15]     primal_lower62  719
    u[15]     primal_lower63  356
    u[15]     primal_lower64  36
    u[15]     primal_lower65  284
    u[15]     primal_lower66  256
    u[15]     primal_lower67  262
    u[15]     primal_lower68  463
    u[15]     primal_lower69  387
    u[15]     primal_lower70  33
    u[15]     primal_lower71  853
    u[15]     primal_lower72  192
    u[15]     primal_lower73  572
    u[15]     primal_lower74  889
    u[15]     primal_lower75  417
    u[15]     primal_lower76  688
    u[15]     primal_lower77  531
    u[15]     primal_lower78  238
    u[15]     primal_lower79  121
    u[15]     primal_lower80  715
    u[15]     primal_lower81  133
    u[15]     primal_lower82  306
    u[15]     primal_lower83  820
    u[15]     primal_lower84  512
    u[15]     primal_lower85  422
    u[15]     primal_lower86  453
    u[15]     primal_lower87  178
    u[15]     primal_lower88  373
    u[15]     primal_lower89  181
    u[15]     primal_lower90  156
    u[15]     primal_lower91  725
    u[15]     primal_lower92  32
    u[15]     primal_lower93  16
    u[15]     primal_lower94  291
    u[15]     primal_lower95  302
    u[15]     primal_lower96  245
    u[15]     primal_lower97  429
    u[15]     primal_lower98  718
    u[15]     primal_lower99  95
    u[15]     interdiction[15]  1
    u[15]     mccormick1[15]  -1
    u[15]     mccormick3[15]  1
    u[16]     primal_lower0  825
    u[16]     primal_lower1  967
    u[16]     primal_lower2  407
    u[16]     primal_lower3  464
    u[16]     primal_lower4  56
    u[16]     primal_lower5  582
    u[16]     primal_lower6  4
    u[16]     primal_lower7  58
    u[16]     primal_lower8  981
    u[16]     primal_lower9  262
    u[16]     primal_lower10  110
    u[16]     primal_lower11  134
    u[16]     primal_lower12  942
    u[16]     primal_lower13  444
    u[16]     primal_lower14  665
    u[16]     primal_lower15  303
    u[16]     primal_lower16  547
    u[16]     primal_lower17  556
    u[16]     primal_lower18  978
    u[16]     primal_lower19  904
    u[16]     primal_lower20  948
    u[16]     primal_lower21  140
    u[16]     primal_lower22  549
    u[16]     primal_lower23  552
    u[16]     primal_lower24  37
    u[16]     primal_lower25  74
    u[16]     primal_lower26  583
    u[16]     primal_lower27  591
    u[16]     primal_lower28  743
    u[16]     primal_lower29  794
    u[16]     primal_lower30  372
    u[16]     primal_lower31  951
    u[16]     primal_lower32  980
    u[16]     primal_lower33  250
    u[16]     primal_lower34  866
    u[16]     primal_lower35  237
    u[16]     primal_lower36  680
    u[16]     primal_lower37  742
    u[16]     primal_lower38  166
    u[16]     primal_lower39  340
    u[16]     primal_lower40  245
    u[16]     primal_lower41  325
    u[16]     primal_lower42  614
    u[16]     primal_lower43  638
    u[16]     primal_lower44  143
    u[16]     primal_lower45  391
    u[16]     primal_lower46  907
    u[16]     primal_lower47  479
    u[16]     primal_lower48  360
    u[16]     primal_lower49  743
    u[16]     primal_lower50  412
    u[16]     primal_lower51  255
    u[16]     primal_lower52  206
    u[16]     primal_lower53  798
    u[16]     primal_lower54  840
    u[16]     primal_lower55  577
    u[16]     primal_lower56  661
    u[16]     primal_lower57  557
    u[16]     primal_lower58  541
    u[16]     primal_lower59  757
    u[16]     primal_lower60  329
    u[16]     primal_lower61  855
    u[16]     primal_lower62  511
    u[16]     primal_lower63  145
    u[16]     primal_lower64  89
    u[16]     primal_lower65  233
    u[16]     primal_lower66  768
    u[16]     primal_lower67  899
    u[16]     primal_lower68  348
    u[16]     primal_lower69  824
    u[16]     primal_lower70  913
    u[16]     primal_lower71  330
    u[16]     primal_lower72  432
    u[16]     primal_lower73  433
    u[16]     primal_lower74  105
    u[16]     primal_lower75  89
    u[16]     primal_lower76  616
    u[16]     primal_lower77  400
    u[16]     primal_lower78  14
    u[16]     primal_lower79  86
    u[16]     primal_lower80  168
    u[16]     primal_lower81  90
    u[16]     primal_lower82  242
    u[16]     primal_lower83  497
    u[16]     primal_lower84  312
    u[16]     primal_lower85  798
    u[16]     primal_lower86  613
    u[16]     primal_lower87  743
    u[16]     primal_lower88  882
    u[16]     primal_lower89  562
    u[16]     primal_lower90  964
    u[16]     primal_lower91  941
    u[16]     primal_lower92  261
    u[16]     primal_lower93  984
    u[16]     primal_lower94  443
    u[16]     primal_lower95  955
    u[16]     primal_lower96  733
    u[16]     primal_lower97  826
    u[16]     primal_lower98  987
    u[16]     primal_lower99  956
    u[16]     interdiction[16]  1
    u[16]     mccormick1[16]  -1
    u[16]     mccormick3[16]  1
    u[17]     primal_lower0  324
    u[17]     primal_lower1  854
    u[17]     primal_lower2  766
    u[17]     primal_lower3  111
    u[17]     primal_lower4  827
    u[17]     primal_lower5  777
    u[17]     primal_lower6  475
    u[17]     primal_lower7  605
    u[17]     primal_lower8  196
    u[17]     primal_lower9  601
    u[17]     primal_lower10  37
    u[17]     primal_lower11  429
    u[17]     primal_lower12  193
    u[17]     primal_lower13  135
    u[17]     primal_lower14  432
    u[17]     primal_lower15  270
    u[17]     primal_lower16  554
    u[17]     primal_lower17  635
    u[17]     primal_lower18  329
    u[17]     primal_lower19  183
    u[17]     primal_lower20  647
    u[17]     primal_lower21  779
    u[17]     primal_lower22  852
    u[17]     primal_lower23  199
    u[17]     primal_lower24  244
    u[17]     primal_lower25  385
    u[17]     primal_lower26  358
    u[17]     primal_lower27  906
    u[17]     primal_lower28  702
    u[17]     primal_lower29  845
    u[17]     primal_lower30  999
    u[17]     primal_lower31  174
    u[17]     primal_lower32  795
    u[17]     primal_lower33  117
    u[17]     primal_lower34  905
    u[17]     primal_lower35  704
    u[17]     primal_lower36  503
    u[17]     primal_lower37  53
    u[17]     primal_lower38  5
    u[17]     primal_lower39  531
    u[17]     primal_lower40  396
    u[17]     primal_lower41  852
    u[17]     primal_lower42  577
    u[17]     primal_lower43  829
    u[17]     primal_lower44  786
    u[17]     primal_lower45  194
    u[17]     primal_lower46  210
    u[17]     primal_lower47  262
    u[17]     primal_lower48  415
    u[17]     primal_lower49  750
    u[17]     primal_lower50  879
    u[17]     primal_lower51  462
    u[17]     primal_lower52  693
    u[17]     primal_lower53  781
    u[17]     primal_lower54  207
    u[17]     primal_lower55  856
    u[17]     primal_lower56  148
    u[17]     primal_lower57  552
    u[17]     primal_lower58  332
    u[17]     primal_lower59  912
    u[17]     primal_lower60  216
    u[17]     primal_lower61  46
    u[17]     primal_lower62  90
    u[17]     primal_lower63  192
    u[17]     primal_lower64  384
    u[17]     primal_lower65  960
    u[17]     primal_lower66  99
    u[17]     primal_lower67  970
    u[17]     primal_lower68  923
    u[17]     primal_lower69  607
    u[17]     primal_lower70  612
    u[17]     primal_lower71  385
    u[17]     primal_lower72  91
    u[17]     primal_lower73  192
    u[17]     primal_lower74  556
    u[17]     primal_lower75  484
    u[17]     primal_lower76  195
    u[17]     primal_lower77  175
    u[17]     primal_lower78  401
    u[17]     primal_lower79  189
    u[17]     primal_lower80  335
    u[17]     primal_lower81  113
    u[17]     primal_lower82  717
    u[17]     primal_lower83  200
    u[17]     primal_lower84  827
    u[17]     primal_lower85  489
    u[17]     primal_lower86  288
    u[17]     primal_lower87  342
    u[17]     primal_lower88  593
    u[17]     primal_lower89  545
    u[17]     primal_lower90  375
    u[17]     primal_lower91  296
    u[17]     primal_lower92  484
    u[17]     primal_lower93  739
    u[17]     primal_lower94  926
    u[17]     primal_lower95  578
    u[17]     primal_lower96  512
    u[17]     primal_lower97  825
    u[17]     primal_lower98  546
    u[17]     primal_lower99  387
    u[17]     interdiction[17]  1
    u[17]     mccormick1[17]  -1
    u[17]     mccormick3[17]  1
    u[18]     primal_lower0  429
    u[18]     primal_lower1  539
    u[18]     primal_lower2  379
    u[18]     primal_lower3  444
    u[18]     primal_lower4  452
    u[18]     primal_lower5  226
    u[18]     primal_lower6  904
    u[18]     primal_lower7  318
    u[18]     primal_lower8  177
    u[18]     primal_lower9  202
    u[18]     primal_lower10  946
    u[18]     primal_lower11  194
    u[18]     primal_lower12  610
    u[18]     primal_lower13  192
    u[18]     primal_lower14  645
    u[18]     primal_lower15  915
    u[18]     primal_lower16  575
    u[18]     primal_lower17  512
    u[18]     primal_lower18  86
    u[18]     primal_lower19  260
    u[18]     primal_lower20  312
    u[18]     primal_lower21  720
    u[18]     primal_lower22  825
    u[18]     primal_lower23  636
    u[18]     primal_lower24  97
    u[18]     primal_lower25  742
    u[18]     primal_lower26  163
    u[18]     primal_lower27  915
    u[18]     primal_lower28  843
    u[18]     primal_lower29  406
    u[18]     primal_lower30  304
    u[18]     primal_lower31  979
    u[18]     primal_lower32  96
    u[18]     primal_lower33  222
    u[18]     primal_lower34  126
    u[18]     primal_lower35  273
    u[18]     primal_lower36  292
    u[18]     primal_lower37  18
    u[18]     primal_lower38  578
    u[18]     primal_lower39  976
    u[18]     primal_lower40  433
    u[18]     primal_lower41  713
    u[18]     primal_lower42  290
    u[18]     primal_lower43  2
    u[18]     primal_lower44  99
    u[18]     primal_lower45  571
    u[18]     primal_lower46  519
    u[18]     primal_lower47  483
    u[18]     primal_lower48  444
    u[18]     primal_lower49  947
    u[18]     primal_lower50  304
    u[18]     primal_lower51  67
    u[18]     primal_lower52  170
    u[18]     primal_lower53  634
    u[18]     primal_lower54  844
    u[18]     primal_lower55  549
    u[18]     primal_lower56  49
    u[18]     primal_lower57  17
    u[18]     primal_lower58  545
    u[18]     primal_lower59  785
    u[18]     primal_lower60  349
    u[18]     primal_lower61  923
    u[18]     primal_lower62  171
    u[18]     primal_lower63  861
    u[18]     primal_lower64  397
    u[18]     primal_lower65  557
    u[18]     primal_lower66  20
    u[18]     primal_lower67  255
    u[18]     primal_lower68  328
    u[18]     primal_lower69  220
    u[18]     primal_lower70  213
    u[18]     primal_lower71  862
    u[18]     primal_lower72  804
    u[18]     primal_lower73  373
    u[18]     primal_lower74  821
    u[18]     primal_lower75  773
    u[18]     primal_lower76  580
    u[18]     primal_lower77  748
    u[18]     primal_lower78  754
    u[18]     primal_lower79  26
    u[18]     primal_lower80  908
    u[18]     primal_lower81  510
    u[18]     primal_lower82  734
    u[18]     primal_lower83  221
    u[18]     primal_lower84  12
    u[18]     primal_lower85  466
    u[18]     primal_lower86  329
    u[18]     primal_lower87  787
    u[18]     primal_lower88  574
    u[18]     primal_lower89  694
    u[18]     primal_lower90  328
    u[18]     primal_lower91  545
    u[18]     primal_lower92  561
    u[18]     primal_lower93  916
    u[18]     primal_lower94  711
    u[18]     primal_lower95  775
    u[18]     primal_lower96  49
    u[18]     primal_lower97  830
    u[18]     primal_lower98  703
    u[18]     primal_lower99  824
    u[18]     interdiction[18]  1
    u[18]     mccormick1[18]  -1
    u[18]     mccormick3[18]  1
    u[19]     primal_lower0  362
    u[19]     primal_lower1  428
    u[19]     primal_lower2  4
    u[19]     primal_lower3  725
    u[19]     primal_lower4  777
    u[19]     primal_lower5  983
    u[19]     primal_lower6  793
    u[19]     primal_lower7  123
    u[19]     primal_lower8  2
    u[19]     primal_lower9  951
    u[19]     primal_lower10  419
    u[19]     primal_lower11  131
    u[19]     primal_lower12  599
    u[19]     primal_lower13  21
    u[19]     primal_lower14  358
    u[19]     primal_lower15  524
    u[19]     primal_lower16  408
    u[19]     primal_lower17  217
    u[19]     primal_lower18  575
    u[19]     primal_lower19  453
    u[19]     primal_lower20  381
    u[19]     primal_lower21  17
    u[19]     primal_lower22  250
    u[19]     primal_lower23  941
    u[19]     primal_lower24  850
    u[19]     primal_lower25  951
    u[19]     primal_lower26  284
    u[19]     primal_lower27  432
    u[19]     primal_lower28  644
    u[19]     primal_lower29  835
    u[19]     primal_lower30  901
    u[19]     primal_lower31  876
    u[19]     primal_lower32  505
    u[19]     primal_lower33  539
    u[19]     primal_lower34  639
    u[19]     primal_lower35  438
    u[19]     primal_lower36  669
    u[19]     primal_lower37  435
    u[19]     primal_lower38  979
    u[19]     primal_lower39  305
    u[19]     primal_lower40  426
    u[19]     primal_lower41  778
    u[19]     primal_lower42  455
    u[19]     primal_lower43  547
    u[19]     primal_lower44  328
    u[19]     primal_lower45  496
    u[19]     primal_lower46  416
    u[19]     primal_lower47  276
    u[19]     primal_lower48  237
    u[19]     primal_lower49  780
    u[19]     primal_lower50  165
    u[19]     primal_lower51  308
    u[19]     primal_lower52  11
    u[19]     primal_lower53  99
    u[19]     primal_lower54  341
    u[19]     primal_lower55  558
    u[19]     primal_lower56  730
    u[19]     primal_lower57  734
    u[19]     primal_lower58  514
    u[19]     primal_lower59  286
    u[19]     primal_lower60  766
    u[19]     primal_lower61  524
    u[19]     primal_lower62  192
    u[19]     primal_lower63  118
    u[19]     primal_lower64  902
    u[19]     primal_lower65  150
    u[19]     primal_lower66  401
    u[19]     primal_lower67  784
    u[19]     primal_lower68  777
    u[19]     primal_lower69  389
    u[19]     primal_lower70  130
    u[19]     primal_lower71  135
    u[19]     primal_lower72  289
    u[19]     primal_lower73  14
    u[19]     primal_lower74  914
    u[19]     primal_lower75  626
    u[19]     primal_lower76  225
    u[19]     primal_lower77  773
    u[19]     primal_lower78  527
    u[19]     primal_lower79  547
    u[19]     primal_lower80  213
    u[19]     primal_lower81  399
    u[19]     primal_lower82  827
    u[19]     primal_lower83  206
    u[19]     primal_lower84  697
    u[19]     primal_lower85  351
    u[19]     primal_lower86  902
    u[19]     primal_lower87  988
    u[19]     primal_lower88  695
    u[19]     primal_lower89  159
    u[19]     primal_lower90  565
    u[19]     primal_lower91  14
    u[19]     primal_lower92  194
    u[19]     primal_lower93  529
    u[19]     primal_lower94  564
    u[19]     primal_lower95  760
    u[19]     primal_lower96  838
    u[19]     primal_lower97  639
    u[19]     primal_lower98  80
    u[19]     primal_lower99  241
    u[19]     interdiction[19]  1
    u[19]     mccormick1[19]  -1
    u[19]     mccormick3[19]  1
    u[20]     primal_lower0  729
    u[20]     primal_lower1  783
    u[20]     primal_lower2  991
    u[20]     primal_lower3  824
    u[20]     primal_lower4  920
    u[20]     primal_lower5  294
    u[20]     primal_lower6  940
    u[20]     primal_lower7  674
    u[20]     primal_lower8  181
    u[20]     primal_lower9  270
    u[20]     primal_lower10  646
    u[20]     primal_lower11  662
    u[20]     primal_lower12  790
    u[20]     primal_lower13  284
    u[20]     primal_lower14  849
    u[20]     primal_lower15  63
    u[20]     primal_lower16  699
    u[20]     primal_lower17  156
    u[20]     primal_lower18  554
    u[20]     primal_lower19  264
    u[20]     primal_lower20  324
    u[20]     primal_lower21  724
    u[20]     primal_lower22  293
    u[20]     primal_lower23  440
    u[20]     primal_lower24  373
    u[20]     primal_lower25  10
    u[20]     primal_lower26  623
    u[20]     primal_lower27  95
    u[20]     primal_lower28  751
    u[20]     primal_lower29  202
    u[20]     primal_lower30  932
    u[20]     primal_lower31  327
    u[20]     primal_lower32  708
    u[20]     primal_lower33  74
    u[20]     primal_lower34  994
    u[20]     primal_lower35  69
    u[20]     primal_lower36  896
    u[20]     primal_lower37  78
    u[20]     primal_lower38  502
    u[20]     primal_lower39  356
    u[20]     primal_lower40  909
    u[20]     primal_lower41  885
    u[20]     primal_lower42  902
    u[20]     primal_lower43  790
    u[20]     primal_lower44  343
    u[20]     primal_lower45  535
    u[20]     primal_lower46  315
    u[20]     primal_lower47  375
    u[20]     primal_lower48  704
    u[20]     primal_lower49  207
    u[20]     primal_lower50  404
    u[20]     primal_lower51  655
    u[20]     primal_lower52  918
    u[20]     primal_lower53  118
    u[20]     primal_lower54  440
    u[20]     primal_lower55  633
    u[20]     primal_lower56  61
    u[20]     primal_lower57  805
    u[20]     primal_lower58  981
    u[20]     primal_lower59  693
    u[20]     primal_lower60  65
    u[20]     primal_lower61  31
    u[20]     primal_lower62  951
    u[20]     primal_lower63  897
    u[20]     primal_lower64  465
    u[20]     primal_lower65  169
    u[20]     primal_lower66  1000
    u[20]     primal_lower67  723
    u[20]     primal_lower68  876
    u[20]     primal_lower69  824
    u[20]     primal_lower70  481
    u[20]     primal_lower71  466
    u[20]     primal_lower72  288
    u[20]     primal_lower73  209
    u[20]     primal_lower74  585
    u[20]     primal_lower75  385
    u[20]     primal_lower76  984
    u[20]     primal_lower77  880
    u[20]     primal_lower78  206
    u[20]     primal_lower79  358
    u[20]     primal_lower80  424
    u[20]     primal_lower81  282
    u[20]     primal_lower82  922
    u[20]     primal_lower83  857
    u[20]     primal_lower84  320
    u[20]     primal_lower85  350
    u[20]     primal_lower86  341
    u[20]     primal_lower87  639
    u[20]     primal_lower88  138
    u[20]     primal_lower89  770
    u[20]     primal_lower90  540
    u[20]     primal_lower91  221
    u[20]     primal_lower92  181
    u[20]     primal_lower93  160
    u[20]     primal_lower94  867
    u[20]     primal_lower95  715
    u[20]     primal_lower96  933
    u[20]     primal_lower97  778
    u[20]     primal_lower98  243
    u[20]     primal_lower99  564
    u[20]     interdiction[20]  1
    u[20]     mccormick1[20]  -1
    u[20]     mccormick3[20]  1
    u[21]     primal_lower0  980
    u[21]     primal_lower1  117
    u[21]     primal_lower2  957
    u[21]     primal_lower3  766
    u[21]     primal_lower4  419
    u[21]     primal_lower5  993
    u[21]     primal_lower6  898
    u[21]     primal_lower7  725
    u[21]     primal_lower8  123
    u[21]     primal_lower9  625
    u[21]     primal_lower10  460
    u[21]     primal_lower11  892
    u[21]     primal_lower12  585
    u[21]     primal_lower13  335
    u[21]     primal_lower14  127
    u[21]     primal_lower15  589
    u[21]     primal_lower16  953
    u[21]     primal_lower17  402
    u[21]     primal_lower18  520
    u[21]     primal_lower19  462
    u[21]     primal_lower20  471
    u[21]     primal_lower21  426
    u[21]     primal_lower22  475
    u[21]     primal_lower23  518
    u[21]     primal_lower24  587
    u[21]     primal_lower25  120
    u[21]     primal_lower26  757
    u[21]     primal_lower27  826
    u[21]     primal_lower28  797
    u[21]     primal_lower29  573
    u[21]     primal_lower30  39
    u[21]     primal_lower31  445
    u[21]     primal_lower32  290
    u[21]     primal_lower33  573
    u[21]     primal_lower34  104
    u[21]     primal_lower35  424
    u[21]     primal_lower36  70
    u[21]     primal_lower37  68
    u[21]     primal_lower38  60
    u[21]     primal_lower39  858
    u[21]     primal_lower40  43
    u[21]     primal_lower41  179
    u[21]     primal_lower42  785
    u[21]     primal_lower43  828
    u[21]     primal_lower44  618
    u[21]     primal_lower45  394
    u[21]     primal_lower46  921
    u[21]     primal_lower47  421
    u[21]     primal_lower48  614
    u[21]     primal_lower49  445
    u[21]     primal_lower50  143
    u[21]     primal_lower51  173
    u[21]     primal_lower52  292
    u[21]     primal_lower53  556
    u[21]     primal_lower54  950
    u[21]     primal_lower55  415
    u[21]     primal_lower56  859
    u[21]     primal_lower57  424
    u[21]     primal_lower58  395
    u[21]     primal_lower59  936
    u[21]     primal_lower60  703
    u[21]     primal_lower61  221
    u[21]     primal_lower62  722
    u[21]     primal_lower63  863
    u[21]     primal_lower64  119
    u[21]     primal_lower65  447
    u[21]     primal_lower66  771
    u[21]     primal_lower67  681
    u[21]     primal_lower68  906
    u[21]     primal_lower69  878
    u[21]     primal_lower70  932
    u[21]     primal_lower71  864
    u[21]     primal_lower72  659
    u[21]     primal_lower73  247
    u[21]     primal_lower74  108
    u[21]     primal_lower75  708
    u[21]     primal_lower76  363
    u[21]     primal_lower77  446
    u[21]     primal_lower78  553
    u[21]     primal_lower79  148
    u[21]     primal_lower80  142
    u[21]     primal_lower81  712
    u[21]     primal_lower82  869
    u[21]     primal_lower83  967
    u[21]     primal_lower84  771
    u[21]     primal_lower85  617
    u[21]     primal_lower86  960
    u[21]     primal_lower87  893
    u[21]     primal_lower88  824
    u[21]     primal_lower89  168
    u[21]     primal_lower90  671
    u[21]     primal_lower91  552
    u[21]     primal_lower92  947
    u[21]     primal_lower93  187
    u[21]     primal_lower94  374
    u[21]     primal_lower95  769
    u[21]     primal_lower96  584
    u[21]     primal_lower97  272
    u[21]     primal_lower98  657
    u[21]     primal_lower99  154
    u[21]     interdiction[21]  1
    u[21]     mccormick1[21]  -1
    u[21]     mccormick3[21]  1
    u[22]     primal_lower0  528
    u[22]     primal_lower1  662
    u[22]     primal_lower2  742
    u[22]     primal_lower3  279
    u[22]     primal_lower4  887
    u[22]     primal_lower5  877
    u[22]     primal_lower6  827
    u[22]     primal_lower7  713
    u[22]     primal_lower8  276
    u[22]     primal_lower9  237
    u[22]     primal_lower10  285
    u[22]     primal_lower11  405
    u[22]     primal_lower12  325
    u[22]     primal_lower13  523
    u[22]     primal_lower14  992
    u[22]     primal_lower15  990
    u[22]     primal_lower16  434
    u[22]     primal_lower17  627
    u[22]     primal_lower18  385
    u[22]     primal_lower19  551
    u[22]     primal_lower20  67
    u[22]     primal_lower21  779
    u[22]     primal_lower22  836
    u[22]     primal_lower23  575
    u[22]     primal_lower24  348
    u[22]     primal_lower25  857
    u[22]     primal_lower26  422
    u[22]     primal_lower27  86
    u[22]     primal_lower28  222
    u[22]     primal_lower29  161
    u[22]     primal_lower30  131
    u[22]     primal_lower31  70
    u[22]     primal_lower32  803
    u[22]     primal_lower33  929
    u[22]     primal_lower34  649
    u[22]     primal_lower35  516
    u[22]     primal_lower36  287
    u[22]     primal_lower37  61
    u[22]     primal_lower38  221
    u[22]     primal_lower39  387
    u[22]     primal_lower40  404
    u[22]     primal_lower41  804
    u[22]     primal_lower42  717
    u[22]     primal_lower43  197
    u[22]     primal_lower44  174
    u[22]     primal_lower45  342
    u[22]     primal_lower46  826
    u[22]     primal_lower47  326
    u[22]     primal_lower48  31
    u[22]     primal_lower49  798
    u[22]     primal_lower50  843
    u[22]     primal_lower51  542
    u[22]     primal_lower52  45
    u[22]     primal_lower53  805
    u[22]     primal_lower54  495
    u[22]     primal_lower55  912
    u[22]     primal_lower56  884
    u[22]     primal_lower57  196
    u[22]     primal_lower58  388
    u[22]     primal_lower59  476
    u[22]     primal_lower60  912
    u[22]     primal_lower61  710
    u[22]     primal_lower62  974
    u[22]     primal_lower63  896
    u[22]     primal_lower64  344
    u[22]     primal_lower65  864
    u[22]     primal_lower66  239
    u[22]     primal_lower67  10
    u[22]     primal_lower68  339
    u[22]     primal_lower69  287
    u[22]     primal_lower70  456
    u[22]     primal_lower71  113
    u[22]     primal_lower72  119
    u[22]     primal_lower73  760
    u[22]     primal_lower74  520
    u[22]     primal_lower75  792
    u[22]     primal_lower76  271
    u[22]     primal_lower77  87
    u[22]     primal_lower78  701
    u[22]     primal_lower79  301
    u[22]     primal_lower80  567
    u[22]     primal_lower81  641
    u[22]     primal_lower82  593
    u[22]     primal_lower83  512
    u[22]     primal_lower84  471
    u[22]     primal_lower85  789
    u[22]     primal_lower86  188
    u[22]     primal_lower87  590
    u[22]     primal_lower88  489
    u[22]     primal_lower89  425
    u[22]     primal_lower90  179
    u[22]     primal_lower91  12
    u[22]     primal_lower92  284
    u[22]     primal_lower93  591
    u[22]     primal_lower94  938
    u[22]     primal_lower95  178
    u[22]     primal_lower96  220
    u[22]     primal_lower97  801
    u[22]     primal_lower98  650
    u[22]     primal_lower99  859
    u[22]     interdiction[22]  1
    u[22]     mccormick1[22]  -1
    u[22]     mccormick3[22]  1
    u[23]     primal_lower0  771
    u[23]     primal_lower1  564
    u[23]     primal_lower2  284
    u[23]     primal_lower3  581
    u[23]     primal_lower4  402
    u[23]     primal_lower5  392
    u[23]     primal_lower6  825
    u[23]     primal_lower7  340
    u[23]     primal_lower8  930
    u[23]     primal_lower9  400
    u[23]     primal_lower10  795
    u[23]     primal_lower11  91
    u[23]     primal_lower12  168
    u[23]     primal_lower13  750
    u[23]     primal_lower14  366
    u[23]     primal_lower15  468
    u[23]     primal_lower16  224
    u[23]     primal_lower17  929
    u[23]     primal_lower18  183
    u[23]     primal_lower19  69
    u[23]     primal_lower20  734
    u[23]     primal_lower21  225
    u[23]     primal_lower22  506
    u[23]     primal_lower23  605
    u[23]     primal_lower24  354
    u[23]     primal_lower25  455
    u[23]     primal_lower26  380
    u[23]     primal_lower27  9
    u[23]     primal_lower28  836
    u[23]     primal_lower29  492
    u[23]     primal_lower30  38
    u[23]     primal_lower31  652
    u[23]     primal_lower32  569
    u[23]     primal_lower33  124
    u[23]     primal_lower34  271
    u[23]     primal_lower35  495
    u[23]     primal_lower36  349
    u[23]     primal_lower37  835
    u[23]     primal_lower38  99
    u[23]     primal_lower39  849
    u[23]     primal_lower40  890
    u[23]     primal_lower41  674
    u[23]     primal_lower42  608
    u[23]     primal_lower43  915
    u[23]     primal_lower44  265
    u[23]     primal_lower45  265
    u[23]     primal_lower46  776
    u[23]     primal_lower47  188
    u[23]     primal_lower48  509
    u[23]     primal_lower49  332
    u[23]     primal_lower50  246
    u[23]     primal_lower51  388
    u[23]     primal_lower52  835
    u[23]     primal_lower53  947
    u[23]     primal_lower54  357
    u[23]     primal_lower55  126
    u[23]     primal_lower56  970
    u[23]     primal_lower57  839
    u[23]     primal_lower58  594
    u[23]     primal_lower59  151
    u[23]     primal_lower60  302
    u[23]     primal_lower61  100
    u[23]     primal_lower62  953
    u[23]     primal_lower63  782
    u[23]     primal_lower64  438
    u[23]     primal_lower65  302
    u[23]     primal_lower66  82
    u[23]     primal_lower67  432
    u[23]     primal_lower68  505
    u[23]     primal_lower69  173
    u[23]     primal_lower70  939
    u[23]     primal_lower71  231
    u[23]     primal_lower72  474
    u[23]     primal_lower73  694
    u[23]     primal_lower74  75
    u[23]     primal_lower75  659
    u[23]     primal_lower76  306
    u[23]     primal_lower77  749
    u[23]     primal_lower78  968
    u[23]     primal_lower79  43
    u[23]     primal_lower80  309
    u[23]     primal_lower81  559
    u[23]     primal_lower82  932
    u[23]     primal_lower83  918
    u[23]     primal_lower84  258
    u[23]     primal_lower85  968
    u[23]     primal_lower86  599
    u[23]     primal_lower87  36
    u[23]     primal_lower88  23
    u[23]     primal_lower89  951
    u[23]     primal_lower90  918
    u[23]     primal_lower91  943
    u[23]     primal_lower92  762
    u[23]     primal_lower93  266
    u[23]     primal_lower94  861
    u[23]     primal_lower95  856
    u[23]     primal_lower96  543
    u[23]     primal_lower97  559
    u[23]     primal_lower98  64
    u[23]     primal_lower99  705
    u[23]     interdiction[23]  1
    u[23]     mccormick1[23]  -1
    u[23]     mccormick3[23]  1
    u[24]     primal_lower0  289
    u[24]     primal_lower1  286
    u[24]     primal_lower2  822
    u[24]     primal_lower3  991
    u[24]     primal_lower4  944
    u[24]     primal_lower5  126
    u[24]     primal_lower6  235
    u[24]     primal_lower7  218
    u[24]     primal_lower8  220
    u[24]     primal_lower9  638
    u[24]     primal_lower10  925
    u[24]     primal_lower11  373
    u[24]     primal_lower12  438
    u[24]     primal_lower13  972
    u[24]     primal_lower14  384
    u[24]     primal_lower15  22
    u[24]     primal_lower16  178
    u[24]     primal_lower17  235
    u[24]     primal_lower18  569
    u[24]     primal_lower19  479
    u[24]     primal_lower20  748
    u[24]     primal_lower21  59
    u[24]     primal_lower22  36
    u[24]     primal_lower23  167
    u[24]     primal_lower24  412
    u[24]     primal_lower25  689
    u[24]     primal_lower26  190
    u[24]     primal_lower27  639
    u[24]     primal_lower28  886
    u[24]     primal_lower29  730
    u[24]     primal_lower30  692
    u[24]     primal_lower31  470
    u[24]     primal_lower32  747
    u[24]     primal_lower33  994
    u[24]     primal_lower34  297
    u[24]     primal_lower35  669
    u[24]     primal_lower36  871
    u[24]     primal_lower37  269
    u[24]     primal_lower38  733
    u[24]     primal_lower39  403
    u[24]     primal_lower40  284
    u[24]     primal_lower41  332
    u[24]     primal_lower42  958
    u[24]     primal_lower43  909
    u[24]     primal_lower44  23
    u[24]     primal_lower45  583
    u[24]     primal_lower46  82
    u[24]     primal_lower47  926
    u[24]     primal_lower48  7
    u[24]     primal_lower49  782
    u[24]     primal_lower50  956
    u[24]     primal_lower51  654
    u[24]     primal_lower52  757
    u[24]     primal_lower53  925
    u[24]     primal_lower54  815
    u[24]     primal_lower55  984
    u[24]     primal_lower56  836
    u[24]     primal_lower57  445
    u[24]     primal_lower58  836
    u[24]     primal_lower59  117
    u[24]     primal_lower60  80
    u[24]     primal_lower61  590
    u[24]     primal_lower62  775
    u[24]     primal_lower63  704
    u[24]     primal_lower64  848
    u[24]     primal_lower65  536
    u[24]     primal_lower66  352
    u[24]     primal_lower67  66
    u[24]     primal_lower68  939
    u[24]     primal_lower69  751
    u[24]     primal_lower70  449
    u[24]     primal_lower71  841
    u[24]     primal_lower72  88
    u[24]     primal_lower73  112
    u[24]     primal_lower74  745
    u[24]     primal_lower75  873
    u[24]     primal_lower76  656
    u[24]     primal_lower77  615
    u[24]     primal_lower78  742
    u[24]     primal_lower79  869
    u[24]     primal_lower80  823
    u[24]     primal_lower81  849
    u[24]     primal_lower82  34
    u[24]     primal_lower83  64
    u[24]     primal_lower84  88
    u[24]     primal_lower85  94
    u[24]     primal_lower86  533
    u[24]     primal_lower87  502
    u[24]     primal_lower88  545
    u[24]     primal_lower89  153
    u[24]     primal_lower90  900
    u[24]     primal_lower91  309
    u[24]     primal_lower92  4
    u[24]     primal_lower93  552
    u[24]     primal_lower94  931
    u[24]     primal_lower95  498
    u[24]     primal_lower96  805
    u[24]     primal_lower97  169
    u[24]     primal_lower98  906
    u[24]     primal_lower99  443
    u[24]     interdiction[24]  1
    u[24]     mccormick1[24]  -1
    u[24]     mccormick3[24]  1
    u[25]     primal_lower0  68
    u[25]     primal_lower1  958
    u[25]     primal_lower2  366
    u[25]     primal_lower3  975
    u[25]     primal_lower4  787
    u[25]     primal_lower5  257
    u[25]     primal_lower6  739
    u[25]     primal_lower7  141
    u[25]     primal_lower8  596
    u[25]     primal_lower9  161
    u[25]     primal_lower10  829
    u[25]     primal_lower11  261
    u[25]     primal_lower12  513
    u[25]     primal_lower13  831
    u[25]     primal_lower14  320
    u[25]     primal_lower15  22
    u[25]     primal_lower16  522
    u[25]     primal_lower17  531
    u[25]     primal_lower18  185
    u[25]     primal_lower19  823
    u[25]     primal_lower20  711
    u[25]     primal_lower21  875
    u[25]     primal_lower22  188
    u[25]     primal_lower23  655
    u[25]     primal_lower24  284
    u[25]     primal_lower25  9
    u[25]     primal_lower26  982
    u[25]     primal_lower27  690
    u[25]     primal_lower28  566
    u[25]     primal_lower29  213
    u[25]     primal_lower30  815
    u[25]     primal_lower31  206
    u[25]     primal_lower32  707
    u[25]     primal_lower33  405
    u[25]     primal_lower34  513
    u[25]     primal_lower35  664
    u[25]     primal_lower36  335
    u[25]     primal_lower37  101
    u[25]     primal_lower38  237
    u[25]     primal_lower39  299
    u[25]     primal_lower40  836
    u[25]     primal_lower41  820
    u[25]     primal_lower42  1
    u[25]     primal_lower43  493
    u[25]     primal_lower44  138
    u[25]     primal_lower45  610
    u[25]     primal_lower46  482
    u[25]     primal_lower47  254
    u[25]     primal_lower48  303
    u[25]     primal_lower49  446
    u[25]     primal_lower50  999
    u[25]     primal_lower51  862
    u[25]     primal_lower52  685
    u[25]     primal_lower53  453
    u[25]     primal_lower54  807
    u[25]     primal_lower55  904
    u[25]     primal_lower56  908
    u[25]     primal_lower57  816
    u[25]     primal_lower58  244
    u[25]     primal_lower59  528
    u[25]     primal_lower60  40
    u[25]     primal_lower61  886
    u[25]     primal_lower62  554
    u[25]     primal_lower63  616
    u[25]     primal_lower64  456
    u[25]     primal_lower65  152
    u[25]     primal_lower66  627
    u[25]     primal_lower67  146
    u[25]     primal_lower68  291
    u[25]     primal_lower69  495
    u[25]     primal_lower70  356
    u[25]     primal_lower71  377
    u[25]     primal_lower72  667
    u[25]     primal_lower73  984
    u[25]     primal_lower74  428
    u[25]     primal_lower75  964
    u[25]     primal_lower76  179
    u[25]     primal_lower77  303
    u[25]     primal_lower78  729
    u[25]     primal_lower79  101
    u[25]     primal_lower80  743
    u[25]     primal_lower81  9
    u[25]     primal_lower82  157
    u[25]     primal_lower83  488
    u[25]     primal_lower84  435
    u[25]     primal_lower85  777
    u[25]     primal_lower86  952
    u[25]     primal_lower87  150
    u[25]     primal_lower88  49
    u[25]     primal_lower89  833
    u[25]     primal_lower90  991
    u[25]     primal_lower91  912
    u[25]     primal_lower92  812
    u[25]     primal_lower93  123
    u[25]     primal_lower94  870
    u[25]     primal_lower95  50
    u[25]     primal_lower96  192
    u[25]     primal_lower97  425
    u[25]     primal_lower98  210
    u[25]     primal_lower99  235
    u[25]     interdiction[25]  1
    u[25]     mccormick1[25]  -1
    u[25]     mccormick3[25]  1
    u[26]     primal_lower0  798
    u[26]     primal_lower1  412
    u[26]     primal_lower2  412
    u[26]     primal_lower3  741
    u[26]     primal_lower4  341
    u[26]     primal_lower5  419
    u[26]     primal_lower6  985
    u[26]     primal_lower7  991
    u[26]     primal_lower8  74
    u[26]     primal_lower9  939
    u[26]     primal_lower10  35
    u[26]     primal_lower11  187
    u[26]     primal_lower12  43
    u[26]     primal_lower13  473
    u[26]     primal_lower14  342
    u[26]     primal_lower15  588
    u[26]     primal_lower16  560
    u[26]     primal_lower17  657
    u[26]     primal_lower18  607
    u[26]     primal_lower19  37
    u[26]     primal_lower20  57
    u[26]     primal_lower21  881
    u[26]     primal_lower22  506
    u[26]     primal_lower23  981
    u[26]     primal_lower24  210
    u[26]     primal_lower25  967
    u[26]     primal_lower26  140
    u[26]     primal_lower27  788
    u[26]     primal_lower28  772
    u[26]     primal_lower29  431
    u[26]     primal_lower30  153
    u[26]     primal_lower31  620
    u[26]     primal_lower32  825
    u[26]     primal_lower33  127
    u[26]     primal_lower34  959
    u[26]     primal_lower35  490
    u[26]     primal_lower36  821
    u[26]     primal_lower37  859
    u[26]     primal_lower38  155
    u[26]     primal_lower39  465
    u[26]     primal_lower40  226
    u[26]     primal_lower41  890
    u[26]     primal_lower42  523
    u[26]     primal_lower43  859
    u[26]     primal_lower44  660
    u[26]     primal_lower45  996
    u[26]     primal_lower46  800
    u[26]     primal_lower47  924
    u[26]     primal_lower48  637
    u[26]     primal_lower49  468
    u[26]     primal_lower50  713
    u[26]     primal_lower51  204
    u[26]     primal_lower52  787
    u[26]     primal_lower53  595
    u[26]     primal_lower54  885
    u[26]     primal_lower55  430
    u[26]     primal_lower56  682
    u[26]     primal_lower57  978
    u[26]     primal_lower58  266
    u[26]     primal_lower59  354
    u[26]     primal_lower60  254
    u[26]     primal_lower61  332
    u[26]     primal_lower62  620
    u[26]     primal_lower63  270
    u[26]     primal_lower64  638
    u[26]     primal_lower65  302
    u[26]     primal_lower66  661
    u[26]     primal_lower67  240
    u[26]     primal_lower68  233
    u[26]     primal_lower69  877
    u[26]     primal_lower70  822
    u[26]     primal_lower71  279
    u[26]     primal_lower72  757
    u[26]     primal_lower73  86
    u[26]     primal_lower74  966
    u[26]     primal_lower75  966
    u[26]     primal_lower76  757
    u[26]     primal_lower77  573
    u[26]     primal_lower78  283
    u[26]     primal_lower79  987
    u[26]     primal_lower80  117
    u[26]     primal_lower81  759
    u[26]     primal_lower82  767
    u[26]     primal_lower83  870
    u[26]     primal_lower84  965
    u[26]     primal_lower85  595
    u[26]     primal_lower86  994
    u[26]     primal_lower87  196
    u[26]     primal_lower88  647
    u[26]     primal_lower89  759
    u[26]     primal_lower90  161
    u[26]     primal_lower91  650
    u[26]     primal_lower92  218
    u[26]     primal_lower93  29
    u[26]     primal_lower94  152
    u[26]     primal_lower95  280
    u[26]     primal_lower96  186
    u[26]     primal_lower97  999
    u[26]     primal_lower98  768
    u[26]     primal_lower99  993
    u[26]     interdiction[26]  1
    u[26]     mccormick1[26]  -1
    u[26]     mccormick3[26]  1
    u[27]     primal_lower0  860
    u[27]     primal_lower1  29
    u[27]     primal_lower2  901
    u[27]     primal_lower3  126
    u[27]     primal_lower4  299
    u[27]     primal_lower5  505
    u[27]     primal_lower6  154
    u[27]     primal_lower7  837
    u[27]     primal_lower8  587
    u[27]     primal_lower9  753
    u[27]     primal_lower10  260
    u[27]     primal_lower11  996
    u[27]     primal_lower12  729
    u[27]     primal_lower13  799
    u[27]     primal_lower14  87
    u[27]     primal_lower15  557
    u[27]     primal_lower16  361
    u[27]     primal_lower17  474
    u[27]     primal_lower18  184
    u[27]     primal_lower19  350
    u[27]     primal_lower20  455
    u[27]     primal_lower21  946
    u[27]     primal_lower22  451
    u[27]     primal_lower23  358
    u[27]     primal_lower24  251
    u[27]     primal_lower25  64
    u[27]     primal_lower26  389
    u[27]     primal_lower27  962
    u[27]     primal_lower28  117
    u[27]     primal_lower29  469
    u[27]     primal_lower30  383
    u[27]     primal_lower31  613
    u[27]     primal_lower32  954
    u[27]     primal_lower33  453
    u[27]     primal_lower34  824
    u[27]     primal_lower35  584
    u[27]     primal_lower36  310
    u[27]     primal_lower37  892
    u[27]     primal_lower38  620
    u[27]     primal_lower39  346
    u[27]     primal_lower40  995
    u[27]     primal_lower41  899
    u[27]     primal_lower42  17
    u[27]     primal_lower43  508
    u[27]     primal_lower44  802
    u[27]     primal_lower45  594
    u[27]     primal_lower46  105
    u[27]     primal_lower47  901
    u[27]     primal_lower48  246
    u[27]     primal_lower49  117
    u[27]     primal_lower50  535
    u[27]     primal_lower51  541
    u[27]     primal_lower52  516
    u[27]     primal_lower53  196
    u[27]     primal_lower54  478
    u[27]     primal_lower55  663
    u[27]     primal_lower56  747
    u[27]     primal_lower57  648
    u[27]     primal_lower58  771
    u[27]     primal_lower59  216
    u[27]     primal_lower60  943
    u[27]     primal_lower61  621
    u[27]     primal_lower62  874
    u[27]     primal_lower63  823
    u[27]     primal_lower64  815
    u[27]     primal_lower65  695
    u[27]     primal_lower66  315
    u[27]     primal_lower67  457
    u[27]     primal_lower68  962
    u[27]     primal_lower69  710
    u[27]     primal_lower70  420
    u[27]     primal_lower71  304
    u[27]     primal_lower72  523
    u[27]     primal_lower73  751
    u[27]     primal_lower74  484
    u[27]     primal_lower75  236
    u[27]     primal_lower76  755
    u[27]     primal_lower77  478
    u[27]     primal_lower78  521
    u[27]     primal_lower79  724
    u[27]     primal_lower80  150
    u[27]     primal_lower81  536
    u[27]     primal_lower82  853
    u[27]     primal_lower83  719
    u[27]     primal_lower84  331
    u[27]     primal_lower85  993
    u[27]     primal_lower86  336
    u[27]     primal_lower87  381
    u[27]     primal_lower88  624
    u[27]     primal_lower89  384
    u[27]     primal_lower90  719
    u[27]     primal_lower91  328
    u[27]     primal_lower92  595
    u[27]     primal_lower93  483
    u[27]     primal_lower94  614
    u[27]     primal_lower95  289
    u[27]     primal_lower96  648
    u[27]     primal_lower97  648
    u[27]     primal_lower98  537
    u[27]     primal_lower99  658
    u[27]     interdiction[27]  1
    u[27]     mccormick1[27]  -1
    u[27]     mccormick3[27]  1
    u[28]     primal_lower0  50
    u[28]     primal_lower1  719
    u[28]     primal_lower2  647
    u[28]     primal_lower3  240
    u[28]     primal_lower4  825
    u[28]     primal_lower5  887
    u[28]     primal_lower6  444
    u[28]     primal_lower7  835
    u[28]     primal_lower8  45
    u[28]     primal_lower9  367
    u[28]     primal_lower10  374
    u[28]     primal_lower11  486
    u[28]     primal_lower12  79
    u[28]     primal_lower13  13
    u[28]     primal_lower14  961
    u[28]     primal_lower15  663
    u[28]     primal_lower16  755
    u[28]     primal_lower17  732
    u[28]     primal_lower18  554
    u[28]     primal_lower19  40
    u[28]     primal_lower20  437
    u[28]     primal_lower21  804
    u[28]     primal_lower22  373
    u[28]     primal_lower23  160
    u[28]     primal_lower24  125
    u[28]     primal_lower25  362
    u[28]     primal_lower26  567
    u[28]     primal_lower27  24
    u[28]     primal_lower28  295
    u[28]     primal_lower29  11
    u[28]     primal_lower30  501
    u[28]     primal_lower31  975
    u[28]     primal_lower32  924
    u[28]     primal_lower33  147
    u[28]     primal_lower34  386
    u[28]     primal_lower35  414
    u[28]     primal_lower36  840
    u[28]     primal_lower37  326
    u[28]     primal_lower38  774
    u[28]     primal_lower39  748
    u[28]     primal_lower40  397
    u[28]     primal_lower41  429
    u[28]     primal_lower42  967
    u[28]     primal_lower43  910
    u[28]     primal_lower44  480
    u[28]     primal_lower45  184
    u[28]     primal_lower46  403
    u[28]     primal_lower47  895
    u[28]     primal_lower48  976
    u[28]     primal_lower49  151
    u[28]     primal_lower50  357
    u[28]     primal_lower51  119
    u[28]     primal_lower52  758
    u[28]     primal_lower53  774
    u[28]     primal_lower54  968
    u[28]     primal_lower55  161
    u[28]     primal_lower56  285
    u[28]     primal_lower57  422
    u[28]     primal_lower58  877
    u[28]     primal_lower59  518
    u[28]     primal_lower60  993
    u[28]     primal_lower61  271
    u[28]     primal_lower62  464
    u[28]     primal_lower63  745
    u[28]     primal_lower64  409
    u[28]     primal_lower65  225
    u[28]     primal_lower66  545
    u[28]     primal_lower67  867
    u[28]     primal_lower68  988
    u[28]     primal_lower69  16
    u[28]     primal_lower70  42
    u[28]     primal_lower71  346
    u[28]     primal_lower72  497
    u[28]     primal_lower73  577
    u[28]     primal_lower74  890
    u[28]     primal_lower75  490
    u[28]     primal_lower76  425
    u[28]     primal_lower77  272
    u[28]     primal_lower78  407
    u[28]     primal_lower79  214
    u[28]     primal_lower80  312
    u[28]     primal_lower81  58
    u[28]     primal_lower82  947
    u[28]     primal_lower83  457
    u[28]     primal_lower84  601
    u[28]     primal_lower85  215
    u[28]     primal_lower86  846
    u[28]     primal_lower87  447
    u[28]     primal_lower88  298
    u[28]     primal_lower89  522
    u[28]     primal_lower90  925
    u[28]     primal_lower91  294
    u[28]     primal_lower92  717
    u[28]     primal_lower93  961
    u[28]     primal_lower94  764
    u[28]     primal_lower95  435
    u[28]     primal_lower96  942
    u[28]     primal_lower97  66
    u[28]     primal_lower98  363
    u[28]     primal_lower99  260
    u[28]     interdiction[28]  1
    u[28]     mccormick1[28]  -1
    u[28]     mccormick3[28]  1
    u[29]     primal_lower0  499
    u[29]     primal_lower1  141
    u[29]     primal_lower2  461
    u[29]     primal_lower3  894
    u[29]     primal_lower4  762
    u[29]     primal_lower5  384
    u[29]     primal_lower6  690
    u[29]     primal_lower7  332
    u[29]     primal_lower8  931
    u[29]     primal_lower9  136
    u[29]     primal_lower10  828
    u[29]     primal_lower11  932
    u[29]     primal_lower12  608
    u[29]     primal_lower13  22
    u[29]     primal_lower14  799
    u[29]     primal_lower15  581
    u[29]     primal_lower16  617
    u[29]     primal_lower17  602
    u[29]     primal_lower18  648
    u[29]     primal_lower19  238
    u[29]     primal_lower20  654
    u[29]     primal_lower21  26
    u[29]     primal_lower22  131
    u[29]     primal_lower23  446
    u[29]     primal_lower24  875
    u[29]     primal_lower25  392
    u[29]     primal_lower26  221
    u[29]     primal_lower27  929
    u[29]     primal_lower28  869
    u[29]     primal_lower29  804
    u[29]     primal_lower30  670
    u[29]     primal_lower31  109
    u[29]     primal_lower32  42
    u[29]     primal_lower33  20
    u[29]     primal_lower34  88
    u[29]     primal_lower35  623
    u[29]     primal_lower36  574
    u[29]     primal_lower37  996
    u[29]     primal_lower38  68
    u[29]     primal_lower39  378
    u[29]     primal_lower40  211
    u[29]     primal_lower41  227
    u[29]     primal_lower42  776
    u[29]     primal_lower43  884
    u[29]     primal_lower44  409
    u[29]     primal_lower45  193
    u[29]     primal_lower46  737
    u[29]     primal_lower47  349
    u[29]     primal_lower48  54
    u[29]     primal_lower49  301
    u[29]     primal_lower50  806
    u[29]     primal_lower51  85
    u[29]     primal_lower52  436
    u[29]     primal_lower53  212
    u[29]     primal_lower54  614
    u[29]     primal_lower55  743
    u[29]     primal_lower56  835
    u[29]     primal_lower57  903
    u[29]     primal_lower58  635
    u[29]     primal_lower59  847
    u[29]     primal_lower60  999
    u[29]     primal_lower61  109
    u[29]     primal_lower62  481
    u[29]     primal_lower63  895
    u[29]     primal_lower64  679
    u[29]     primal_lower65  527
    u[29]     primal_lower66  898
    u[29]     primal_lower67  97
    u[29]     primal_lower68  210
    u[29]     primal_lower69  606
    u[29]     primal_lower70  99
    u[29]     primal_lower71  608
    u[29]     primal_lower72  554
    u[29]     primal_lower73  39
    u[29]     primal_lower74  603
    u[29]     primal_lower75  163
    u[29]     primal_lower76  746
    u[29]     primal_lower77  694
    u[29]     primal_lower78  720
    u[29]     primal_lower79  428
    u[29]     primal_lower80  262
    u[29]     primal_lower81  448
    u[29]     primal_lower82  460
    u[29]     primal_lower83  407
    u[29]     primal_lower84  874
    u[29]     primal_lower85  392
    u[29]     primal_lower86  759
    u[29]     primal_lower87  13
    u[29]     primal_lower88  952
    u[29]     primal_lower89  944
    u[29]     primal_lower90  606
    u[29]     primal_lower91  575
    u[29]     primal_lower92  107
    u[29]     primal_lower93  738
    u[29]     primal_lower94  901
    u[29]     primal_lower95  585
    u[29]     primal_lower96  335
    u[29]     primal_lower97  544
    u[29]     primal_lower98  833
    u[29]     primal_lower99  378
    u[29]     interdiction[29]  1
    u[29]     mccormick1[29]  -1
    u[29]     mccormick3[29]  1
    u[30]     primal_lower0  454
    u[30]     primal_lower1  331
    u[30]     primal_lower2  923
    u[30]     primal_lower3  580
    u[30]     primal_lower4  29
    u[30]     primal_lower5  339
    u[30]     primal_lower6  736
    u[30]     primal_lower7  399
    u[30]     primal_lower8  465
    u[30]     primal_lower9  259
    u[30]     primal_lower10  274
    u[30]     primal_lower11  74
    u[30]     primal_lower12  99
    u[30]     primal_lower13  57
    u[30]     primal_lower14  349
    u[30]     primal_lower15  795
    u[30]     primal_lower16  311
    u[30]     primal_lower17  544
    u[30]     primal_lower18  262
    u[30]     primal_lower19  492
    u[30]     primal_lower20  745
    u[30]     primal_lower21  728
    u[30]     primal_lower22  633
    u[30]     primal_lower23  100
    u[30]     primal_lower24  569
    u[30]     primal_lower25  710
    u[30]     primal_lower26  763
    u[30]     primal_lower27  780
    u[30]     primal_lower28  123
    u[30]     primal_lower29  487
    u[30]     primal_lower30  649
    u[30]     primal_lower31  507
    u[30]     primal_lower32  336
    u[30]     primal_lower33  815
    u[30]     primal_lower34  790
    u[30]     primal_lower35  834
    u[30]     primal_lower36  492
    u[30]     primal_lower37  114
    u[30]     primal_lower38  162
    u[30]     primal_lower39  592
    u[30]     primal_lower40  561
    u[30]     primal_lower41  993
    u[30]     primal_lower42  667
    u[30]     primal_lower43  674
    u[30]     primal_lower44  276
    u[30]     primal_lower45  244
    u[30]     primal_lower46  15
    u[30]     primal_lower47  155
    u[30]     primal_lower48  276
    u[30]     primal_lower49  995
    u[30]     primal_lower50  465
    u[30]     primal_lower51  163
    u[30]     primal_lower52  674
    u[30]     primal_lower53  722
    u[30]     primal_lower54  236
    u[30]     primal_lower55  245
    u[30]     primal_lower56  577
    u[30]     primal_lower57  178
    u[30]     primal_lower58  961
    u[30]     primal_lower59  90
    u[30]     primal_lower60  725
    u[30]     primal_lower61  491
    u[30]     primal_lower62  76
    u[30]     primal_lower63  965
    u[30]     primal_lower64  397
    u[30]     primal_lower65  989
    u[30]     primal_lower66  869
    u[30]     primal_lower67  351
    u[30]     primal_lower68  736
    u[30]     primal_lower69  772
    u[30]     primal_lower70  598
    u[30]     primal_lower71  774
    u[30]     primal_lower72  437
    u[30]     primal_lower73  453
    u[30]     primal_lower74  998
    u[30]     primal_lower75  414
    u[30]     primal_lower76  413
    u[30]     primal_lower77  652
    u[30]     primal_lower78  843
    u[30]     primal_lower79  458
    u[30]     primal_lower80  612
    u[30]     primal_lower81  814
    u[30]     primal_lower82  575
    u[30]     primal_lower83  501
    u[30]     primal_lower84  541
    u[30]     primal_lower85  531
    u[30]     primal_lower86  434
    u[30]     primal_lower87  155
    u[30]     primal_lower88  454
    u[30]     primal_lower89  14
    u[30]     primal_lower90  105
    u[30]     primal_lower91  930
    u[30]     primal_lower92  529
    u[30]     primal_lower93  941
    u[30]     primal_lower94  232
    u[30]     primal_lower95  823
    u[30]     primal_lower96  530
    u[30]     primal_lower97  214
    u[30]     primal_lower98  119
    u[30]     primal_lower99  792
    u[30]     interdiction[30]  1
    u[30]     mccormick1[30]  -1
    u[30]     mccormick3[30]  1
    u[31]     primal_lower0  344
    u[31]     primal_lower1  81
    u[31]     primal_lower2  745
    u[31]     primal_lower3  658
    u[31]     primal_lower4  975
    u[31]     primal_lower5  309
    u[31]     primal_lower6  790
    u[31]     primal_lower7  169
    u[31]     primal_lower8  895
    u[31]     primal_lower9  597
    u[31]     primal_lower10  112
    u[31]     primal_lower11  568
    u[31]     primal_lower12  357
    u[31]     primal_lower13  955
    u[31]     primal_lower14  875
    u[31]     primal_lower15  321
    u[31]     primal_lower16  429
    u[31]     primal_lower17  70
    u[31]     primal_lower18  556
    u[31]     primal_lower19  266
    u[31]     primal_lower20  915
    u[31]     primal_lower21  398
    u[31]     primal_lower22  159
    u[31]     primal_lower23  650
    u[31]     primal_lower24  959
    u[31]     primal_lower25  708
    u[31]     primal_lower26  33
    u[31]     primal_lower27  518
    u[31]     primal_lower28  833
    u[31]     primal_lower29  665
    u[31]     primal_lower30  755
    u[31]     primal_lower31  17
    u[31]     primal_lower32  782
    u[31]     primal_lower33  785
    u[31]     primal_lower34  796
    u[31]     primal_lower35  84
    u[31]     primal_lower36  434
    u[31]     primal_lower37  224
    u[31]     primal_lower38  544
    u[31]     primal_lower39  126
    u[31]     primal_lower40  215
    u[31]     primal_lower41  439
    u[31]     primal_lower42  381
    u[31]     primal_lower43  840
    u[31]     primal_lower44  206
    u[31]     primal_lower45  86
    u[31]     primal_lower46  741
    u[31]     primal_lower47  537
    u[31]     primal_lower48  594
    u[31]     primal_lower49  1
    u[31]     primal_lower50  275
    u[31]     primal_lower51  57
    u[31]     primal_lower52  936
    u[31]     primal_lower53  992
    u[31]     primal_lower54  866
    u[31]     primal_lower55  499
    u[31]     primal_lower56  159
    u[31]     primal_lower57  948
    u[31]     primal_lower58  895
    u[31]     primal_lower59  116
    u[31]     primal_lower60  875
    u[31]     primal_lower61  281
    u[31]     primal_lower62  982
    u[31]     primal_lower63  875
    u[31]     primal_lower64  195
    u[31]     primal_lower65  379
    u[31]     primal_lower66  759
    u[31]     primal_lower67  941
    u[31]     primal_lower68  630
    u[31]     primal_lower69  26
    u[31]     primal_lower70  888
    u[31]     primal_lower71  652
    u[31]     primal_lower72  871
    u[31]     primal_lower73  851
    u[31]     primal_lower74  800
    u[31]     primal_lower75  368
    u[31]     primal_lower76  311
    u[31]     primal_lower77  554
    u[31]     primal_lower78  917
    u[31]     primal_lower79  816
    u[31]     primal_lower80  50
    u[31]     primal_lower81  628
    u[31]     primal_lower82  129
    u[31]     primal_lower83  627
    u[31]     primal_lower84  831
    u[31]     primal_lower85  693
    u[31]     primal_lower86  956
    u[31]     primal_lower87  649
    u[31]     primal_lower88  100
    u[31]     primal_lower89  84
    u[31]     primal_lower90  555
    u[31]     primal_lower91  620
    u[31]     primal_lower92  759
    u[31]     primal_lower93  663
    u[31]     primal_lower94  162
    u[31]     primal_lower95  469
    u[31]     primal_lower96  292
    u[31]     primal_lower97  716
    u[31]     primal_lower98  725
    u[31]     primal_lower99  934
    u[31]     interdiction[31]  1
    u[31]     mccormick1[31]  -1
    u[31]     mccormick3[31]  1
    u[32]     primal_lower0  8
    u[32]     primal_lower1  165
    u[32]     primal_lower2  173
    u[32]     primal_lower3  846
    u[32]     primal_lower4  455
    u[32]     primal_lower5  341
    u[32]     primal_lower6  266
    u[32]     primal_lower7  41
    u[32]     primal_lower8  27
    u[32]     primal_lower9  165
    u[32]     primal_lower10  852
    u[32]     primal_lower11  748
    u[32]     primal_lower12  789
    u[32]     primal_lower13  555
    u[32]     primal_lower14  895
    u[32]     primal_lower15  389
    u[32]     primal_lower16  521
    u[32]     primal_lower17  778
    u[32]     primal_lower18  672
    u[32]     primal_lower19  878
    u[32]     primal_lower20  203
    u[32]     primal_lower21  402
    u[32]     primal_lower22  443
    u[32]     primal_lower23  574
    u[32]     primal_lower24  699
    u[32]     primal_lower25  832
    u[32]     primal_lower26  701
    u[32]     primal_lower27  998
    u[32]     primal_lower28  621
    u[32]     primal_lower29  521
    u[32]     primal_lower30  995
    u[32]     primal_lower31  765
    u[32]     primal_lower32  290
    u[32]     primal_lower33  681
    u[32]     primal_lower34  992
    u[32]     primal_lower35  340
    u[32]     primal_lower36  22
    u[32]     primal_lower37  396
    u[32]     primal_lower38  372
    u[32]     primal_lower39  98
    u[32]     primal_lower40  315
    u[32]     primal_lower41  115
    u[32]     primal_lower42  189
    u[32]     primal_lower43  268
    u[32]     primal_lower44  990
    u[32]     primal_lower45  638
    u[32]     primal_lower46  873
    u[32]     primal_lower47  237
    u[32]     primal_lower48  782
    u[32]     primal_lower49  717
    u[32]     primal_lower50  291
    u[32]     primal_lower51  693
    u[32]     primal_lower52  196
    u[32]     primal_lower53  516
    u[32]     primal_lower54  502
    u[32]     primal_lower55  999
    u[32]     primal_lower56  739
    u[32]     primal_lower57  484
    u[32]     primal_lower58  227
    u[32]     primal_lower59  732
    u[32]     primal_lower60  647
    u[32]     primal_lower61  621
    u[32]     primal_lower62  110
    u[32]     primal_lower63  751
    u[32]     primal_lower64  63
    u[32]     primal_lower65  119
    u[32]     primal_lower66  743
    u[32]     primal_lower67  89
    u[32]     primal_lower68  930
    u[32]     primal_lower69  558
    u[32]     primal_lower70  600
    u[32]     primal_lower71  568
    u[32]     primal_lower72  615
    u[32]     primal_lower73  703
    u[32]     primal_lower74  808
    u[32]     primal_lower75  152
    u[32]     primal_lower76  663
    u[32]     primal_lower77  614
    u[32]     primal_lower78  861
    u[32]     primal_lower79  484
    u[32]     primal_lower80  46
    u[32]     primal_lower81  440
    u[32]     primal_lower82  289
    u[32]     primal_lower83  527
    u[32]     primal_lower84  775
    u[32]     primal_lower85  765
    u[32]     primal_lower86  580
    u[32]     primal_lower87  813
    u[32]     primal_lower88  176
    u[32]     primal_lower89  664
    u[32]     primal_lower90  395
    u[32]     primal_lower91  908
    u[32]     primal_lower92  899
    u[32]     primal_lower93  767
    u[32]     primal_lower94  98
    u[32]     primal_lower95  217
    u[32]     primal_lower96  772
    u[32]     primal_lower97  632
    u[32]     primal_lower98  681
    u[32]     primal_lower99  858
    u[32]     interdiction[32]  1
    u[32]     mccormick1[32]  -1
    u[32]     mccormick3[32]  1
    u[33]     primal_lower0  425
    u[33]     primal_lower1  75
    u[33]     primal_lower2  483
    u[33]     primal_lower3  316
    u[33]     primal_lower4  584
    u[33]     primal_lower5  606
    u[33]     primal_lower6  336
    u[33]     primal_lower7  58
    u[33]     primal_lower8  257
    u[33]     primal_lower9  838
    u[33]     primal_lower10  50
    u[33]     primal_lower11  482
    u[33]     primal_lower12  174
    u[33]     primal_lower13  868
    u[33]     primal_lower14  909
    u[33]     primal_lower15  987
    u[33]     primal_lower16  239
    u[33]     primal_lower17  960
    u[33]     primal_lower18  166
    u[33]     primal_lower19  4
    u[33]     primal_lower20  772
    u[33]     primal_lower21  656
    u[33]     primal_lower22  857
    u[33]     primal_lower23  500
    u[33]     primal_lower24  113
    u[33]     primal_lower25  822
    u[33]     primal_lower26  275
    u[33]     primal_lower27  407
    u[33]     primal_lower28  843
    u[33]     primal_lower29  482
    u[33]     primal_lower30  868
    u[33]     primal_lower31  979
    u[33]     primal_lower32  152
    u[33]     primal_lower33  322
    u[33]     primal_lower34  806
    u[33]     primal_lower35  773
    u[33]     primal_lower36  844
    u[33]     primal_lower37  178
    u[33]     primal_lower38  314
    u[33]     primal_lower39  80
    u[33]     primal_lower40  681
    u[33]     primal_lower41  329
    u[33]     primal_lower42  358
    u[33]     primal_lower43  882
    u[33]     primal_lower44  551
    u[33]     primal_lower45  679
    u[33]     primal_lower46  375
    u[33]     primal_lower47  539
    u[33]     primal_lower48  644
    u[33]     primal_lower49  723
    u[33]     primal_lower50  396
    u[33]     primal_lower51  987
    u[33]     primal_lower52  746
    u[33]     primal_lower53  674
    u[33]     primal_lower54  476
    u[33]     primal_lower55  989
    u[33]     primal_lower56  753
    u[33]     primal_lower57  93
    u[33]     primal_lower58  425
    u[33]     primal_lower59  637
    u[33]     primal_lower60  973
    u[33]     primal_lower61  515
    u[33]     primal_lower62  791
    u[33]     primal_lower63  221
    u[33]     primal_lower64  45
    u[33]     primal_lower65  237
    u[33]     primal_lower66  80
    u[33]     primal_lower67  519
    u[33]     primal_lower68  48
    u[33]     primal_lower69  364
    u[33]     primal_lower70  889
    u[33]     primal_lower71  182
    u[33]     primal_lower72  304
    u[33]     primal_lower73  221
    u[33]     primal_lower74  129
    u[33]     primal_lower75  153
    u[33]     primal_lower76  648
    u[33]     primal_lower77  484
    u[33]     primal_lower78  574
    u[33]     primal_lower79  506
    u[33]     primal_lower80  948
    u[33]     primal_lower81  494
    u[33]     primal_lower82  274
    u[33]     primal_lower83  565
    u[33]     primal_lower84  48
    u[33]     primal_lower85  606
    u[33]     primal_lower86  565
    u[33]     primal_lower87  779
    u[33]     primal_lower88  686
    u[33]     primal_lower89  478
    u[33]     primal_lower90  548
    u[33]     primal_lower91  549
    u[33]     primal_lower92  817
    u[33]     primal_lower93  760
    u[33]     primal_lower94  667
    u[33]     primal_lower95  423
    u[33]     primal_lower96  133
    u[33]     primal_lower97  398
    u[33]     primal_lower98  239
    u[33]     primal_lower99  664
    u[33]     interdiction[33]  1
    u[33]     mccormick1[33]  -1
    u[33]     mccormick3[33]  1
    u[34]     primal_lower0  456
    u[34]     primal_lower1  342
    u[34]     primal_lower2  614
    u[34]     primal_lower3  935
    u[34]     primal_lower4  279
    u[34]     primal_lower5  869
    u[34]     primal_lower6  867
    u[34]     primal_lower7  521
    u[34]     primal_lower8  380
    u[34]     primal_lower9  53
    u[34]     primal_lower10  213
    u[34]     primal_lower11  365
    u[34]     primal_lower12  77
    u[34]     primal_lower13  211
    u[34]     primal_lower14  440
    u[34]     primal_lower15  774
    u[34]     primal_lower16  346
    u[34]     primal_lower17  563
    u[34]     primal_lower18  601
    u[34]     primal_lower19  815
    u[34]     primal_lower20  51
    u[34]     primal_lower21  283
    u[34]     primal_lower22  372
    u[34]     primal_lower23  727
    u[34]     primal_lower24  380
    u[34]     primal_lower25  137
    u[34]     primal_lower26  262
    u[34]     primal_lower27  262
    u[34]     primal_lower28  278
    u[34]     primal_lower29  649
    u[34]     primal_lower30  435
    u[34]     primal_lower31  614
    u[34]     primal_lower32  195
    u[34]     primal_lower33  737
    u[34]     primal_lower34  233
    u[34]     primal_lower35  324
    u[34]     primal_lower36  839
    u[34]     primal_lower37  237
    u[34]     primal_lower38  533
    u[34]     primal_lower39  675
    u[34]     primal_lower40  860
    u[34]     primal_lower41  988
    u[34]     primal_lower42  877
    u[34]     primal_lower43  133
    u[34]     primal_lower44  262
    u[34]     primal_lower45  582
    u[34]     primal_lower46  202
    u[34]     primal_lower47  374
    u[34]     primal_lower48  23
    u[34]     primal_lower49  702
    u[34]     primal_lower50  315
    u[34]     primal_lower51  310
    u[34]     primal_lower52  853
    u[34]     primal_lower53  965
    u[34]     primal_lower54  287
    u[34]     primal_lower55  864
    u[34]     primal_lower56  84
    u[34]     primal_lower57  908
    u[34]     primal_lower58  700
    u[34]     primal_lower59  228
    u[34]     primal_lower60  328
    u[34]     primal_lower61  718
    u[34]     primal_lower62  646
    u[34]     primal_lower63  448
    u[34]     primal_lower64  928
    u[34]     primal_lower65  968
    u[34]     primal_lower66  471
    u[34]     primal_lower67  666
    u[34]     primal_lower68  691
    u[34]     primal_lower69  183
    u[34]     primal_lower70  208
    u[34]     primal_lower71  545
    u[34]     primal_lower72  199
    u[34]     primal_lower73  880
    u[34]     primal_lower74  216
    u[34]     primal_lower75  416
    u[34]     primal_lower76  759
    u[34]     primal_lower77  119
    u[34]     primal_lower78  877
    u[34]     primal_lower79  917
    u[34]     primal_lower80  455
    u[34]     primal_lower81  649
    u[34]     primal_lower82  705
    u[34]     primal_lower83  552
    u[34]     primal_lower84  383
    u[34]     primal_lower85  685
    u[34]     primal_lower86  764
    u[34]     primal_lower87  350
    u[34]     primal_lower88  473
    u[34]     primal_lower89  873
    u[34]     primal_lower90  259
    u[34]     primal_lower91  788
    u[34]     primal_lower92  692
    u[34]     primal_lower93  623
    u[34]     primal_lower94  778
    u[34]     primal_lower95  362
    u[34]     primal_lower96  4
    u[34]     primal_lower97  281
    u[34]     primal_lower98  298
    u[34]     primal_lower99  707
    u[34]     interdiction[34]  1
    u[34]     mccormick1[34]  -1
    u[34]     mccormick3[34]  1
    u[35]     primal_lower0  877
    u[35]     primal_lower1  911
    u[35]     primal_lower2  647
    u[35]     primal_lower3  256
    u[35]     primal_lower4  900
    u[35]     primal_lower5  226
    u[35]     primal_lower6  908
    u[35]     primal_lower7  910
    u[35]     primal_lower8  229
    u[35]     primal_lower9  234
    u[35]     primal_lower10  630
    u[35]     primal_lower11  342
    u[35]     primal_lower12  898
    u[35]     primal_lower13  32
    u[35]     primal_lower14  241
    u[35]     primal_lower15  695
    u[35]     primal_lower16  771
    u[35]     primal_lower17  20
    u[35]     primal_lower18  130
    u[35]     primal_lower19  704
    u[35]     primal_lower20  832
    u[35]     primal_lower21  260
    u[35]     primal_lower22  221
    u[35]     primal_lower23  792
    u[35]     primal_lower24  973
    u[35]     primal_lower25  690
    u[35]     primal_lower26  751
    u[35]     primal_lower27  539
    u[35]     primal_lower28  151
    u[35]     primal_lower29  870
    u[35]     primal_lower30  920
    u[35]     primal_lower31  663
    u[35]     primal_lower32  156
    u[35]     primal_lower33  718
    u[35]     primal_lower34  354
    u[35]     primal_lower35  297
    u[35]     primal_lower36  920
    u[35]     primal_lower37  710
    u[35]     primal_lower38  350
    u[35]     primal_lower39  876
    u[35]     primal_lower40  589
    u[35]     primal_lower41  629
    u[35]     primal_lower42  994
    u[35]     primal_lower43  22
    u[35]     primal_lower44  715
    u[35]     primal_lower45  795
    u[35]     primal_lower46  707
    u[35]     primal_lower47  679
    u[35]     primal_lower48  152
    u[35]     primal_lower49  455
    u[35]     primal_lower50  72
    u[35]     primal_lower51  671
    u[35]     primal_lower52  550
    u[35]     primal_lower53  406
    u[35]     primal_lower54  328
    u[35]     primal_lower55  513
    u[35]     primal_lower56  333
    u[35]     primal_lower57  761
    u[35]     primal_lower58  709
    u[35]     primal_lower59  841
    u[35]     primal_lower60  41
    u[35]     primal_lower61  855
    u[35]     primal_lower62  59
    u[35]     primal_lower63  889
    u[35]     primal_lower64  881
    u[35]     primal_lower65  377
    u[35]     primal_lower66  540
    u[35]     primal_lower67  179
    u[35]     primal_lower68  532
    u[35]     primal_lower69  480
    u[35]     primal_lower70  85
    u[35]     primal_lower71  962
    u[35]     primal_lower72  356
    u[35]     primal_lower73  841
    u[35]     primal_lower74  957
    u[35]     primal_lower75  365
    u[35]     primal_lower76  340
    u[35]     primal_lower77  560
    u[35]     primal_lower78  650
    u[35]     primal_lower79  62
    u[35]     primal_lower80  800
    u[35]     primal_lower81  154
    u[35]     primal_lower82  958
    u[35]     primal_lower83  457
    u[35]     primal_lower84  692
    u[35]     primal_lower85  26
    u[35]     primal_lower86  41
    u[35]     primal_lower87  855
    u[35]     primal_lower88  186
    u[35]     primal_lower89  618
    u[35]     primal_lower90  816
    u[35]     primal_lower91  49
    u[35]     primal_lower92  389
    u[35]     primal_lower93  420
    u[35]     primal_lower94  911
    u[35]     primal_lower95  275
    u[35]     primal_lower96  593
    u[35]     primal_lower97  858
    u[35]     primal_lower98  147
    u[35]     primal_lower99  948
    u[35]     interdiction[35]  1
    u[35]     mccormick1[35]  -1
    u[35]     mccormick3[35]  1
    u[36]     primal_lower0  424
    u[36]     primal_lower1  894
    u[36]     primal_lower2  286
    u[36]     primal_lower3  239
    u[36]     primal_lower4  327
    u[36]     primal_lower5  901
    u[36]     primal_lower6  11
    u[36]     primal_lower7  393
    u[36]     primal_lower8  100
    u[36]     primal_lower9  365
    u[36]     primal_lower10  317
    u[36]     primal_lower11  117
    u[36]     primal_lower12  477
    u[36]     primal_lower13  475
    u[36]     primal_lower14  560
    u[36]     primal_lower15  470
    u[36]     primal_lower16  874
    u[36]     primal_lower17  891
    u[36]     primal_lower18  953
    u[36]     primal_lower19  335
    u[36]     primal_lower20  155
    u[36]     primal_lower21  883
    u[36]     primal_lower22  764
    u[36]     primal_lower23  519
    u[36]     primal_lower24  892
    u[36]     primal_lower25  401
    u[36]     primal_lower26  782
    u[36]     primal_lower27  294
    u[36]     primal_lower28  254
    u[36]     primal_lower29  481
    u[36]     primal_lower30  827
    u[36]     primal_lower31  758
    u[36]     primal_lower32  259
    u[36]     primal_lower33  761
    u[36]     primal_lower34  249
    u[36]     primal_lower35  156
    u[36]     primal_lower36  535
    u[36]     primal_lower37  653
    u[36]     primal_lower38  509
    u[36]     primal_lower39  515
    u[36]     primal_lower40  460
    u[36]     primal_lower41  748
    u[36]     primal_lower42  309
    u[36]     primal_lower43  709
    u[36]     primal_lower44  398
    u[36]     primal_lower45  102
    u[36]     primal_lower46  186
    u[36]     primal_lower47  246
    u[36]     primal_lower48  551
    u[36]     primal_lower49  94
    u[36]     primal_lower50  955
    u[36]     primal_lower51  374
    u[36]     primal_lower52  949
    u[36]     primal_lower53  573
    u[36]     primal_lower54  847
    u[36]     primal_lower55  456
    u[36]     primal_lower56  556
    u[36]     primal_lower57  300
    u[36]     primal_lower58  788
    u[36]     primal_lower59  292
    u[36]     primal_lower60  128
    u[36]     primal_lower61  854
    u[36]     primal_lower62  470
    u[36]     primal_lower63  904
    u[36]     primal_lower64  416
    u[36]     primal_lower65  504
    u[36]     primal_lower66  239
    u[36]     primal_lower67  298
    u[36]     primal_lower68  771
    u[36]     primal_lower69  847
    u[36]     primal_lower70  608
    u[36]     primal_lower71  1
    u[36]     primal_lower72  351
    u[36]     primal_lower73  280
    u[36]     primal_lower74  120
    u[36]     primal_lower75  344
    u[36]     primal_lower76  175
    u[36]     primal_lower77  383
    u[36]     primal_lower78  981
    u[36]     primal_lower79  685
    u[36]     primal_lower80  919
    u[36]     primal_lower81  809
    u[36]     primal_lower82  329
    u[36]     primal_lower83  368
    u[36]     primal_lower84  959
    u[36]     primal_lower85  637
    u[36]     primal_lower86  364
    u[36]     primal_lower87  598
    u[36]     primal_lower88  721
    u[36]     primal_lower89  401
    u[36]     primal_lower90  595
    u[36]     primal_lower91  860
    u[36]     primal_lower92  780
    u[36]     primal_lower93  551
    u[36]     primal_lower94  130
    u[36]     primal_lower95  610
    u[36]     primal_lower96  852
    u[36]     primal_lower97  673
    u[36]     primal_lower98  866
    u[36]     primal_lower99  139
    u[36]     interdiction[36]  1
    u[36]     mccormick1[36]  -1
    u[36]     mccormick3[36]  1
    u[37]     primal_lower0  361
    u[37]     primal_lower1  226
    u[37]     primal_lower2  66
    u[37]     primal_lower3  747
    u[37]     primal_lower4  320
    u[37]     primal_lower5  598
    u[37]     primal_lower6  991
    u[37]     primal_lower7  818
    u[37]     primal_lower8  528
    u[37]     primal_lower9  574
    u[37]     primal_lower10  889
    u[37]     primal_lower11  561
    u[37]     primal_lower12  510
    u[37]     primal_lower13  948
    u[37]     primal_lower14  292
    u[37]     primal_lower15  98
    u[37]     primal_lower16  318
    u[37]     primal_lower17  695
    u[37]     primal_lower18  365
    u[37]     primal_lower19  651
    u[37]     primal_lower20  940
    u[37]     primal_lower21  103
    u[37]     primal_lower22  768
    u[37]     primal_lower23  459
    u[37]     primal_lower24  744
    u[37]     primal_lower25  789
    u[37]     primal_lower26  642
    u[37]     primal_lower27  711
    u[37]     primal_lower28  410
    u[37]     primal_lower29  546
    u[37]     primal_lower30  300
    u[37]     primal_lower31  58
    u[37]     primal_lower32  911
    u[37]     primal_lower33  402
    u[37]     primal_lower34  773
    u[37]     primal_lower35  341
    u[37]     primal_lower36  563
    u[37]     primal_lower37  65
    u[37]     primal_lower38  1
    u[37]     primal_lower39  455
    u[37]     primal_lower40  480
    u[37]     primal_lower41  168
    u[37]     primal_lower42  566
    u[37]     primal_lower43  513
    u[37]     primal_lower44  159
    u[37]     primal_lower45  423
    u[37]     primal_lower46  70
    u[37]     primal_lower47  602
    u[37]     primal_lower48  963
    u[37]     primal_lower49  458
    u[37]     primal_lower50  140
    u[37]     primal_lower51  322
    u[37]     primal_lower52  889
    u[37]     primal_lower53  649
    u[37]     primal_lower54  811
    u[37]     primal_lower55  164
    u[37]     primal_lower56  184
    u[37]     primal_lower57  893
    u[37]     primal_lower58  408
    u[37]     primal_lower59  973
    u[37]     primal_lower60  932
    u[37]     primal_lower61  850
    u[37]     primal_lower62  303
    u[37]     primal_lower63  84
    u[37]     primal_lower64  228
    u[37]     primal_lower65  356
    u[37]     primal_lower66  536
    u[37]     primal_lower67  822
    u[37]     primal_lower68  639
    u[37]     primal_lower69  435
    u[37]     primal_lower70  913
    u[37]     primal_lower71  509
    u[37]     primal_lower72  288
    u[37]     primal_lower73  924
    u[37]     primal_lower74  497
    u[37]     primal_lower75  57
    u[37]     primal_lower76  48
    u[37]     primal_lower77  971
    u[37]     primal_lower78  782
    u[37]     primal_lower79  593
    u[37]     primal_lower80  27
    u[37]     primal_lower81  485
    u[37]     primal_lower82  258
    u[37]     primal_lower83  844
    u[37]     primal_lower84  680
    u[37]     primal_lower85  374
    u[37]     primal_lower86  989
    u[37]     primal_lower87  834
    u[37]     primal_lower88  261
    u[37]     primal_lower89  557
    u[37]     primal_lower90  468
    u[37]     primal_lower91  157
    u[37]     primal_lower92  224
    u[37]     primal_lower93  360
    u[37]     primal_lower94  283
    u[37]     primal_lower95  718
    u[37]     primal_lower96  29
    u[37]     primal_lower97  469
    u[37]     primal_lower98  70
    u[37]     primal_lower99  767
    u[37]     interdiction[37]  1
    u[37]     mccormick1[37]  -1
    u[37]     mccormick3[37]  1
    u[38]     primal_lower0  736
    u[38]     primal_lower1  774
    u[38]     primal_lower2  694
    u[38]     primal_lower3  783
    u[38]     primal_lower4  119
    u[38]     primal_lower5  949
    u[38]     primal_lower6  123
    u[38]     primal_lower7  785
    u[38]     primal_lower8  636
    u[38]     primal_lower9  85
    u[38]     primal_lower10  773
    u[38]     primal_lower11  461
    u[38]     primal_lower12  853
    u[38]     primal_lower13  643
    u[38]     primal_lower14  880
    u[38]     primal_lower15  430
    u[38]     primal_lower16  578
    u[38]     primal_lower17  219
    u[38]     primal_lower18  49
    u[38]     primal_lower19  71
    u[38]     primal_lower20  363
    u[38]     primal_lower21  603
    u[38]     primal_lower22  228
    u[38]     primal_lower23  535
    u[38]     primal_lower24  260
    u[38]     primal_lower25  697
    u[38]     primal_lower26  830
    u[38]     primal_lower27  958
    u[38]     primal_lower28  438
    u[38]     primal_lower29  353
    u[38]     primal_lower30  403
    u[38]     primal_lower31  982
    u[38]     primal_lower32  67
    u[38]     primal_lower33  65
    u[38]     primal_lower34  449
    u[38]     primal_lower35  404
    u[38]     primal_lower36  663
    u[38]     primal_lower37  709
    u[38]     primal_lower38  117
    u[38]     primal_lower39  867
    u[38]     primal_lower40  420
    u[38]     primal_lower41  468
    u[38]     primal_lower42  269
    u[38]     primal_lower43  77
    u[38]     primal_lower44  230
    u[38]     primal_lower45  222
    u[38]     primal_lower46  642
    u[38]     primal_lower47  742
    u[38]     primal_lower48  167
    u[38]     primal_lower49  350
    u[38]     primal_lower50  883
    u[38]     primal_lower51  878
    u[38]     primal_lower52  597
    u[38]     primal_lower53  437
    u[38]     primal_lower54  919
    u[38]     primal_lower55  408
    u[38]     primal_lower56  668
    u[38]     primal_lower57  180
    u[38]     primal_lower58  524
    u[38]     primal_lower59  548
    u[38]     primal_lower60  312
    u[38]     primal_lower61  142
    u[38]     primal_lower62  646
    u[38]     primal_lower63  456
    u[38]     primal_lower64  288
    u[38]     primal_lower65  120
    u[38]     primal_lower66  103
    u[38]     primal_lower67  570
    u[38]     primal_lower68  411
    u[38]     primal_lower69  863
    u[38]     primal_lower70  488
    u[38]     primal_lower71  321
    u[38]     primal_lower72  431
    u[38]     primal_lower73  944
    u[38]     primal_lower74  680
    u[38]     primal_lower75  800
    u[38]     primal_lower76  567
    u[38]     primal_lower77  351
    u[38]     primal_lower78  533
    u[38]     primal_lower79  805
    u[38]     primal_lower80  239
    u[38]     primal_lower81  297
    u[38]     primal_lower82  977
    u[38]     primal_lower83  920
    u[38]     primal_lower84  391
    u[38]     primal_lower85  21
    u[38]     primal_lower86  612
    u[38]     primal_lower87  366
    u[38]     primal_lower88  137
    u[38]     primal_lower89  817
    u[38]     primal_lower90  611
    u[38]     primal_lower91  668
    u[38]     primal_lower92  580
    u[38]     primal_lower93  439
    u[38]     primal_lower94  266
    u[38]     primal_lower95  194
    u[38]     primal_lower96  580
    u[38]     primal_lower97  689
    u[38]     primal_lower98  586
    u[38]     primal_lower99  747
    u[38]     interdiction[38]  1
    u[38]     mccormick1[38]  -1
    u[38]     mccormick3[38]  1
    u[39]     primal_lower0  811
    u[39]     primal_lower1  156
    u[39]     primal_lower2  484
    u[39]     primal_lower3  149
    u[39]     primal_lower4  218
    u[39]     primal_lower5  160
    u[39]     primal_lower6  385
    u[39]     primal_lower7  324
    u[39]     primal_lower8  706
    u[39]     primal_lower9  384
    u[39]     primal_lower10  19
    u[39]     primal_lower11  51
    u[39]     primal_lower12  272
    u[39]     primal_lower13  558
    u[39]     primal_lower14  982
    u[39]     primal_lower15  572
    u[39]     primal_lower16  400
    u[39]     primal_lower17  209
    u[39]     primal_lower18  263
    u[39]     primal_lower19  421
    u[39]     primal_lower20  446
    u[39]     primal_lower21  153
    u[39]     primal_lower22  730
    u[39]     primal_lower23  221
    u[39]     primal_lower24  554
    u[39]     primal_lower25  735
    u[39]     primal_lower26  212
    u[39]     primal_lower27  505
    u[39]     primal_lower28  852
    u[39]     primal_lower29  284
    u[39]     primal_lower30  406
    u[39]     primal_lower31  236
    u[39]     primal_lower32  953
    u[39]     primal_lower33  76
    u[39]     primal_lower34  71
    u[39]     primal_lower35  295
    u[39]     primal_lower36  397
    u[39]     primal_lower37  795
    u[39]     primal_lower38  787
    u[39]     primal_lower39  793
    u[39]     primal_lower40  266
    u[39]     primal_lower41  818
    u[39]     primal_lower42  736
    u[39]     primal_lower43  803
    u[39]     primal_lower44  185
    u[39]     primal_lower45  609
    u[39]     primal_lower46  808
    u[39]     primal_lower47  916
    u[39]     primal_lower48  389
    u[39]     primal_lower49  228
    u[39]     primal_lower50  358
    u[39]     primal_lower51  692
    u[39]     primal_lower52  523
    u[39]     primal_lower53  107
    u[39]     primal_lower54  101
    u[39]     primal_lower55  662
    u[39]     primal_lower56  250
    u[39]     primal_lower57  119
    u[39]     primal_lower58  834
    u[39]     primal_lower59  855
    u[39]     primal_lower60  62
    u[39]     primal_lower61  180
    u[39]     primal_lower62  105
    u[39]     primal_lower63  990
    u[39]     primal_lower64  974
    u[39]     primal_lower65  334
    u[39]     primal_lower66  130
    u[39]     primal_lower67  840
    u[39]     primal_lower68  17
    u[39]     primal_lower69  613
    u[39]     primal_lower70  299
    u[39]     primal_lower71  479
    u[39]     primal_lower72  530
    u[39]     primal_lower73  182
    u[39]     primal_lower74  451
    u[39]     primal_lower75  819
    u[39]     primal_lower76  682
    u[39]     primal_lower77  573
    u[39]     primal_lower78  520
    u[39]     primal_lower79  579
    u[39]     primal_lower80  741
    u[39]     primal_lower81  111
    u[39]     primal_lower82  788
    u[39]     primal_lower83  774
    u[39]     primal_lower84  146
    u[39]     primal_lower85  672
    u[39]     primal_lower86  119
    u[39]     primal_lower87  412
    u[39]     primal_lower88  487
    u[39]     primal_lower89  599
    u[39]     primal_lower90  198
    u[39]     primal_lower91  775
    u[39]     primal_lower92  218
    u[39]     primal_lower93  818
    u[39]     primal_lower94  21
    u[39]     primal_lower95  600
    u[39]     primal_lower96  919
    u[39]     primal_lower97  215
    u[39]     primal_lower98  808
    u[39]     primal_lower99  169
    u[39]     interdiction[39]  1
    u[39]     mccormick1[39]  -1
    u[39]     mccormick3[39]  1
    u[40]     primal_lower0  243
    u[40]     primal_lower1  553
    u[40]     primal_lower2  193
    u[40]     primal_lower3  402
    u[40]     primal_lower4  858
    u[40]     primal_lower5  904
    u[40]     primal_lower6  606
    u[40]     primal_lower7  780
    u[40]     primal_lower8  711
    u[40]     primal_lower9  72
    u[40]     primal_lower10  880
    u[40]     primal_lower11  336
    u[40]     primal_lower12  944
    u[40]     primal_lower13  494
    u[40]     primal_lower14  251
    u[40]     primal_lower15  169
    u[40]     primal_lower16  181
    u[40]     primal_lower17  150
    u[40]     primal_lower18  860
    u[40]     primal_lower19  890
    u[40]     primal_lower20  726
    u[40]     primal_lower21  478
    u[40]     primal_lower22  831
    u[40]     primal_lower23  250
    u[40]     primal_lower24  159
    u[40]     primal_lower25  644
    u[40]     primal_lower26  977
    u[40]     primal_lower27  49
    u[40]     primal_lower28  241
    u[40]     primal_lower29  564
    u[40]     primal_lower30  630
    u[40]     primal_lower31  345
    u[40]     primal_lower32  838
    u[40]     primal_lower33  948
    u[40]     primal_lower34  980
    u[40]     primal_lower35  831
    u[40]     primal_lower36  266
    u[40]     primal_lower37  928
    u[40]     primal_lower38  296
    u[40]     primal_lower39  830
    u[40]     primal_lower40  391
    u[40]     primal_lower41  511
    u[40]     primal_lower42  192
    u[40]     primal_lower43  192
    u[40]     primal_lower44  633
    u[40]     primal_lower45  625
    u[40]     primal_lower46  397
    u[40]     primal_lower47  937
    u[40]     primal_lower48  50
    u[40]     primal_lower49  673
    u[40]     primal_lower50  486
    u[40]     primal_lower51  201
    u[40]     primal_lower52  744
    u[40]     primal_lower53  616
    u[40]     primal_lower54  394
    u[40]     primal_lower55  571
    u[40]     primal_lower56  423
    u[40]     primal_lower57  423
    u[40]     primal_lower58  991
    u[40]     primal_lower59  591
    u[40]     primal_lower60  219
    u[40]     primal_lower61  305
    u[40]     primal_lower62  281
    u[40]     primal_lower63  187
    u[40]     primal_lower64  427
    u[40]     primal_lower65  891
    u[40]     primal_lower66  546
    u[40]     primal_lower67  917
    u[40]     primal_lower68  382
    u[40]     primal_lower69  962
    u[40]     primal_lower70  379
    u[40]     primal_lower71  988
    u[40]     primal_lower72  986
    u[40]     primal_lower73  747
    u[40]     primal_lower74  387
    u[40]     primal_lower75  995
    u[40]     primal_lower76  242
    u[40]     primal_lower77  834
    u[40]     primal_lower78  400
    u[40]     primal_lower79  528
    u[40]     primal_lower80  58
    u[40]     primal_lower81  772
    u[40]     primal_lower82  852
    u[40]     primal_lower83  611
    u[40]     primal_lower84  354
    u[40]     primal_lower85  232
    u[40]     primal_lower86  695
    u[40]     primal_lower87  617
    u[40]     primal_lower88  964
    u[40]     primal_lower89  636
    u[40]     primal_lower90  814
    u[40]     primal_lower91  655
    u[40]     primal_lower92  63
    u[40]     primal_lower93  578
    u[40]     primal_lower94  837
    u[40]     primal_lower95  941
    u[40]     primal_lower96  143
    u[40]     primal_lower97  324
    u[40]     primal_lower98  853
    u[40]     primal_lower99  870
    u[40]     interdiction[40]  1
    u[40]     mccormick1[40]  -1
    u[40]     mccormick3[40]  1
    u[41]     primal_lower0  702
    u[41]     primal_lower1  895
    u[41]     primal_lower2  31
    u[41]     primal_lower3  264
    u[41]     primal_lower4  333
    u[41]     primal_lower5  211
    u[41]     primal_lower6  12
    u[41]     primal_lower7  447
    u[41]     primal_lower8  789
    u[41]     primal_lower9  627
    u[41]     primal_lower10  374
    u[41]     primal_lower11  446
    u[41]     primal_lower12  587
    u[41]     primal_lower13  665
    u[41]     primal_lower14  225
    u[41]     primal_lower15  599
    u[41]     primal_lower16  707
    u[41]     primal_lower17  804
    u[41]     primal_lower18  114
    u[41]     primal_lower19  888
    u[41]     primal_lower20  417
    u[41]     primal_lower21  876
    u[41]     primal_lower22  197
    u[41]     primal_lower23  408
    u[41]     primal_lower24  669
    u[41]     primal_lower25  58
    u[41]     primal_lower26  15
    u[41]     primal_lower27  804
    u[41]     primal_lower28  199
    u[41]     primal_lower29  127
    u[41]     primal_lower30  465
    u[41]     primal_lower31  231
    u[41]     primal_lower32  396
    u[41]     primal_lower33  679
    u[41]     primal_lower34  74
    u[41]     primal_lower35  130
    u[41]     primal_lower36  600
    u[41]     primal_lower37  182
    u[41]     primal_lower38  878
    u[41]     primal_lower39  740
    u[41]     primal_lower40  189
    u[41]     primal_lower41  125
    u[41]     primal_lower42  691
    u[41]     primal_lower43  310
    u[41]     primal_lower44  732
    u[41]     primal_lower45  860
    u[41]     primal_lower46  859
    u[41]     primal_lower47  927
    u[41]     primal_lower48  800
    u[41]     primal_lower49  879
    u[41]     primal_lower50  9
    u[41]     primal_lower51  263
    u[41]     primal_lower52  158
    u[41]     primal_lower53  94
    u[41]     primal_lower54  208
    u[41]     primal_lower55  313
    u[41]     primal_lower56  717
    u[41]     primal_lower57  250
    u[41]     primal_lower58  53
    u[41]     primal_lower59  442
    u[41]     primal_lower60  737
    u[41]     primal_lower61  127
    u[41]     primal_lower62  900
    u[41]     primal_lower63  937
    u[41]     primal_lower64  921
    u[41]     primal_lower65  113
    u[41]     primal_lower66  389
    u[41]     primal_lower67  315
    u[41]     primal_lower68  364
    u[41]     primal_lower69  928
    u[41]     primal_lower70  150
    u[41]     primal_lower71  482
    u[41]     primal_lower72  69
    u[41]     primal_lower73  521
    u[41]     primal_lower74  518
    u[41]     primal_lower75  182
    u[41]     primal_lower76  245
    u[41]     primal_lower77  504
    u[41]     primal_lower78  395
    u[41]     primal_lower79  974
    u[41]     primal_lower80  152
    u[41]     primal_lower81  314
    u[41]     primal_lower82  567
    u[41]     primal_lower83  977
    u[41]     primal_lower84  837
    u[41]     primal_lower85  603
    u[41]     primal_lower86  570
    u[41]     primal_lower87  495
    u[41]     primal_lower88  954
    u[41]     primal_lower89  346
    u[41]     primal_lower90  945
    u[41]     primal_lower91  210
    u[41]     primal_lower92  693
    u[41]     primal_lower93  85
    u[41]     primal_lower94  728
    u[41]     primal_lower95  843
    u[41]     primal_lower96  698
    u[41]     primal_lower97  858
    u[41]     primal_lower98  219
    u[41]     primal_lower99  620
    u[41]     interdiction[41]  1
    u[41]     mccormick1[41]  -1
    u[41]     mccormick3[41]  1
    u[42]     primal_lower0  562
    u[42]     primal_lower1  136
    u[42]     primal_lower2  536
    u[42]     primal_lower3  241
    u[42]     primal_lower4  217
    u[42]     primal_lower5  503
    u[42]     primal_lower6  621
    u[42]     primal_lower7  115
    u[42]     primal_lower8  550
    u[42]     primal_lower9  591
    u[42]     primal_lower10  135
    u[42]     primal_lower11  511
    u[42]     primal_lower12  599
    u[42]     primal_lower13  869
    u[42]     primal_lower14  978
    u[42]     primal_lower15  56
    u[42]     primal_lower16  540
    u[42]     primal_lower17  173
    u[42]     primal_lower18  83
    u[42]     primal_lower19  865
    u[42]     primal_lower20  141
    u[42]     primal_lower21  165
    u[42]     primal_lower22  470
    u[42]     primal_lower23  529
    u[42]     primal_lower24  710
    u[42]     primal_lower25  603
    u[42]     primal_lower26  88
    u[42]     primal_lower27  888
    u[42]     primal_lower28  672
    u[42]     primal_lower29  379
    u[42]     primal_lower30  525
    u[42]     primal_lower31  872
    u[42]     primal_lower32  829
    u[42]     primal_lower33  851
    u[42]     primal_lower34  107
    u[42]     primal_lower35  142
    u[42]     primal_lower36  537
    u[42]     primal_lower37  167
    u[42]     primal_lower38  31
    u[42]     primal_lower39  741
    u[42]     primal_lower40  798
    u[42]     primal_lower41  502
    u[42]     primal_lower42  79
    u[42]     primal_lower43  127
    u[42]     primal_lower44  408
    u[42]     primal_lower45  112
    u[42]     primal_lower46  748
    u[42]     primal_lower47  496
    u[42]     primal_lower48  913
    u[42]     primal_lower49  792
    u[42]     primal_lower50  165
    u[42]     primal_lower51  552
    u[42]     primal_lower52  943
    u[42]     primal_lower53  319
    u[42]     primal_lower54  401
    u[42]     primal_lower55  426
    u[42]     primal_lower56  726
    u[42]     primal_lower57  646
    u[42]     primal_lower58  894
    u[42]     primal_lower59  278
    u[42]     primal_lower60  274
    u[42]     primal_lower61  496
    u[42]     primal_lower62  824
    u[42]     primal_lower63  514
    u[42]     primal_lower64  842
    u[42]     primal_lower65  178
    u[42]     primal_lower66  553
    u[42]     primal_lower67  92
    u[42]     primal_lower68  405
    u[42]     primal_lower69  33
    u[42]     primal_lower70  442
    u[42]     primal_lower71  915
    u[42]     primal_lower72  193
    u[42]     primal_lower73  170
    u[42]     primal_lower74  26
    u[42]     primal_lower75  10
    u[42]     primal_lower76  833
    u[42]     primal_lower77  385
    u[42]     primal_lower78  871
    u[42]     primal_lower79  159
    u[42]     primal_lower80  289
    u[42]     primal_lower81  419
    u[42]     primal_lower82  419
    u[42]     primal_lower83  330
    u[42]     primal_lower84  81
    u[42]     primal_lower85  991
    u[42]     primal_lower86  14
    u[42]     primal_lower87  232
    u[42]     primal_lower88  395
    u[42]     primal_lower89  123
    u[42]     primal_lower90  509
    u[42]     primal_lower91  206
    u[42]     primal_lower92  350
    u[42]     primal_lower93  737
    u[42]     primal_lower94  876
    u[42]     primal_lower95  996
    u[42]     primal_lower96  958
    u[42]     primal_lower97  523
    u[42]     primal_lower98  12
    u[42]     primal_lower99  469
    u[42]     interdiction[42]  1
    u[42]     mccormick1[42]  -1
    u[42]     mccormick3[42]  1
    u[43]     primal_lower0  154
    u[43]     primal_lower1  939
    u[43]     primal_lower2  643
    u[43]     primal_lower3  876
    u[43]     primal_lower4  113
    u[43]     primal_lower5  799
    u[43]     primal_lower6  880
    u[43]     primal_lower7  91
    u[43]     primal_lower8  353
    u[43]     primal_lower9  671
    u[43]     primal_lower10  338
    u[43]     primal_lower11  322
    u[43]     primal_lower12  807
    u[43]     primal_lower13  437
    u[43]     primal_lower14  933
    u[43]     primal_lower15  131
    u[43]     primal_lower16  743
    u[43]     primal_lower17  56
    u[43]     primal_lower18  974
    u[43]     primal_lower19  60
    u[43]     primal_lower20  821
    u[43]     primal_lower21  488
    u[43]     primal_lower22  233
    u[43]     primal_lower23  908
    u[43]     primal_lower24  625
    u[43]     primal_lower25  270
    u[43]     primal_lower26  91
    u[43]     primal_lower27  384
    u[43]     primal_lower28  731
    u[43]     primal_lower29  275
    u[43]     primal_lower30  573
    u[43]     primal_lower31  387
    u[43]     primal_lower32  144
    u[43]     primal_lower33  451
    u[43]     primal_lower34  462
    u[43]     primal_lower35  694
    u[43]     primal_lower36  716
    u[43]     primal_lower37  818
    u[43]     primal_lower38  346
    u[43]     primal_lower39  848
    u[43]     primal_lower40  729
    u[43]     primal_lower41  737
    u[43]     primal_lower42  935
    u[43]     primal_lower43  114
    u[43]     primal_lower44  744
    u[43]     primal_lower45  168
    u[43]     primal_lower46  111
    u[43]     primal_lower47  539
    u[43]     primal_lower48  476
    u[43]     primal_lower49  547
    u[43]     primal_lower50  109
    u[43]     primal_lower51  859
    u[43]     primal_lower52  410
    u[43]     primal_lower53  202
    u[43]     primal_lower54  788
    u[43]     primal_lower55  261
    u[43]     primal_lower56  449
    u[43]     primal_lower57  118
    u[43]     primal_lower58  273
    u[43]     primal_lower59  998
    u[43]     primal_lower60  365
    u[43]     primal_lower61  835
    u[43]     primal_lower62  416
    u[43]     primal_lower63  181
    u[43]     primal_lower64  461
    u[43]     primal_lower65  325
    u[43]     primal_lower66  593
    u[43]     primal_lower67  303
    u[43]     primal_lower68  320
    u[43]     primal_lower69  764
    u[43]     primal_lower70  194
    u[43]     primal_lower71  646
    u[43]     primal_lower72  513
    u[43]     primal_lower73  245
    u[43]     primal_lower74  226
    u[43]     primal_lower75  194
    u[43]     primal_lower76  769
    u[43]     primal_lower77  748
    u[43]     primal_lower78  807
    u[43]     primal_lower79  378
    u[43]     primal_lower80  284
    u[43]     primal_lower81  446
    u[43]     primal_lower82  235
    u[43]     primal_lower83  701
    u[43]     primal_lower84  417
    u[43]     primal_lower85  527
    u[43]     primal_lower86  318
    u[43]     primal_lower87  435
    u[43]     primal_lower88  830
    u[43]     primal_lower89  854
    u[43]     primal_lower90  925
    u[43]     primal_lower91  142
    u[43]     primal_lower92  57
    u[43]     primal_lower93  993
    u[43]     primal_lower94  892
    u[43]     primal_lower95  87
    u[43]     primal_lower96  534
    u[43]     primal_lower97  446
    u[43]     primal_lower98  519
    u[43]     primal_lower99  600
    u[43]     interdiction[43]  1
    u[43]     mccormick1[43]  -1
    u[43]     mccormick3[43]  1
    u[44]     primal_lower0  979
    u[44]     primal_lower1  505
    u[44]     primal_lower2  833
    u[44]     primal_lower3  794
    u[44]     primal_lower4  402
    u[44]     primal_lower5  48
    u[44]     primal_lower6  142
    u[44]     primal_lower7  68
    u[44]     primal_lower8  455
    u[44]     primal_lower9  128
    u[44]     primal_lower10  912
    u[44]     primal_lower11  968
    u[44]     primal_lower12  848
    u[44]     primal_lower13  606
    u[44]     primal_lower14  243
    u[44]     primal_lower15  289
    u[44]     primal_lower16  533
    u[44]     primal_lower17  750
    u[44]     primal_lower18  84
    u[44]     primal_lower19  562
    u[44]     primal_lower20  166
    u[44]     primal_lower21  974
    u[44]     primal_lower22  735
    u[44]     primal_lower23  378
    u[44]     primal_lower24  799
    u[44]     primal_lower25  164
    u[44]     primal_lower26  849
    u[44]     primal_lower27  737
    u[44]     primal_lower28  345
    u[44]     primal_lower29  652
    u[44]     primal_lower30  966
    u[44]     primal_lower31  945
    u[44]     primal_lower32  790
    u[44]     primal_lower33  684
    u[44]     primal_lower34  260
    u[44]     primal_lower35  167
    u[44]     primal_lower36  610
    u[44]     primal_lower37  528
    u[44]     primal_lower38  656
    u[44]     primal_lower39  446
    u[44]     primal_lower40  783
    u[44]     primal_lower41  903
    u[44]     primal_lower42  224
    u[44]     primal_lower43  368
    u[44]     primal_lower44  89
    u[44]     primal_lower45  697
    u[44]     primal_lower46  373
    u[44]     primal_lower47  569
    u[44]     primal_lower48  162
    u[44]     primal_lower49  409
    u[44]     primal_lower50  582
    u[44]     primal_lower51  609
    u[44]     primal_lower52  512
    u[44]     primal_lower53  16
    u[44]     primal_lower54  130
    u[44]     primal_lower55  275
    u[44]     primal_lower56  439
    u[44]     primal_lower57  359
    u[44]     primal_lower58  191
    u[44]     primal_lower59  199
    u[44]     primal_lower60  523
    u[44]     primal_lower61  137
    u[44]     primal_lower62  545
    u[44]     primal_lower63  675
    u[44]     primal_lower64  563
    u[44]     primal_lower65  595
    u[44]     primal_lower66  74
    u[44]     primal_lower67  517
    u[44]     primal_lower68  870
    u[44]     primal_lower69  194
    u[44]     primal_lower70  435
    u[44]     primal_lower71  828
    u[44]     primal_lower72  50
    u[44]     primal_lower73  555
    u[44]     primal_lower74  259
    u[44]     primal_lower75  875
    u[44]     primal_lower76  498
    u[44]     primal_lower77  794
    u[44]     primal_lower78  240
    u[44]     primal_lower79  272
    u[44]     primal_lower80  586
    u[44]     primal_lower81  980
    u[44]     primal_lower82  412
    u[44]     primal_lower83  307
    u[44]     primal_lower84  234
    u[44]     primal_lower85  720
    u[44]     primal_lower86  719
    u[44]     primal_lower87  841
    u[44]     primal_lower88  884
    u[44]     primal_lower89  844
    u[44]     primal_lower90  958
    u[44]     primal_lower91  119
    u[44]     primal_lower92  863
    u[44]     primal_lower93  994
    u[44]     primal_lower94  893
    u[44]     primal_lower95  973
    u[44]     primal_lower96  319
    u[44]     primal_lower97  12
    u[44]     primal_lower98  269
    u[44]     primal_lower99  14
    u[44]     interdiction[44]  1
    u[44]     mccormick1[44]  -1
    u[44]     mccormick3[44]  1
    u[45]     primal_lower0  7
    u[45]     primal_lower1  208
    u[45]     primal_lower2  800
    u[45]     primal_lower3  833
    u[45]     primal_lower4  766
    u[45]     primal_lower5  20
    u[45]     primal_lower6  277
    u[45]     primal_lower7  104
    u[45]     primal_lower8  390
    u[45]     primal_lower9  940
    u[45]     primal_lower10  183
    u[45]     primal_lower11  87
    u[45]     primal_lower12  396
    u[45]     primal_lower13  346
    u[45]     primal_lower14  354
    u[45]     primal_lower15  392
    u[45]     primal_lower16  100
    u[45]     primal_lower17  837
    u[45]     primal_lower18  467
    u[45]     primal_lower19  681
    u[45]     primal_lower20  386
    u[45]     primal_lower21  725
    u[45]     primal_lower22  470
    u[45]     primal_lower23  961
    u[45]     primal_lower24  6
    u[45]     primal_lower25  507
    u[45]     primal_lower26  120
    u[45]     primal_lower27  333
    u[45]     primal_lower28  416
    u[45]     primal_lower29  328
    u[45]     primal_lower30  162
    u[45]     primal_lower31  400
    u[45]     primal_lower32  5
    u[45]     primal_lower33  424
    u[45]     primal_lower34  811
    u[45]     primal_lower35  171
    u[45]     primal_lower36  345
    u[45]     primal_lower37  535
    u[45]     primal_lower38  271
    u[45]     primal_lower39  93
    u[45]     primal_lower40  462
    u[45]     primal_lower41  622
    u[45]     primal_lower42  348
    u[45]     primal_lower43  663
    u[45]     primal_lower44  445
    u[45]     primal_lower45  837
    u[45]     primal_lower46  860
    u[45]     primal_lower47  760
    u[45]     primal_lower48  113
    u[45]     primal_lower49  1000
    u[45]     primal_lower50  682
    u[45]     primal_lower51  424
    u[45]     primal_lower52  183
    u[45]     primal_lower53  439
    u[45]     primal_lower54  625
    u[45]     primal_lower55  546
    u[45]     primal_lower56  414
    u[45]     primal_lower57  627
    u[45]     primal_lower58  982
    u[45]     primal_lower59  67
    u[45]     primal_lower60  682
    u[45]     primal_lower61  344
    u[45]     primal_lower62  605
    u[45]     primal_lower63  114
    u[45]     primal_lower64  90
    u[45]     primal_lower65  530
    u[45]     primal_lower66  558
    u[45]     primal_lower67  212
    u[45]     primal_lower68  677
    u[45]     primal_lower69  337
    u[45]     primal_lower70  47
    u[45]     primal_lower71  603
    u[45]     primal_lower72  726
    u[45]     primal_lower73  458
    u[45]     primal_lower74  751
    u[45]     primal_lower75  823
    u[45]     primal_lower76  630
    u[45]     primal_lower77  33
    u[45]     primal_lower78  788
    u[45]     primal_lower79  735
    u[45]     primal_lower80  985
    u[45]     primal_lower81  499
    u[45]     primal_lower82  920
    u[45]     primal_lower83  674
    u[45]     primal_lower84  270
    u[45]     primal_lower85  644
    u[45]     primal_lower86  43
    u[45]     primal_lower87  648
    u[45]     primal_lower88  939
    u[45]     primal_lower89  371
    u[45]     primal_lower90  786
    u[45]     primal_lower91  11
    u[45]     primal_lower92  38
    u[45]     primal_lower93  574
    u[45]     primal_lower94  761
    u[45]     primal_lower95  124
    u[45]     primal_lower96  235
    u[45]     primal_lower97  171
    u[45]     primal_lower98  28
    u[45]     primal_lower99  861
    u[45]     interdiction[45]  1
    u[45]     mccormick1[45]  -1
    u[45]     mccormick3[45]  1
    u[46]     primal_lower0  590
    u[46]     primal_lower1  691
    u[46]     primal_lower2  251
    u[46]     primal_lower3  236
    u[46]     primal_lower4  173
    u[46]     primal_lower5  67
    u[46]     primal_lower6  928
    u[46]     primal_lower7  759
    u[46]     primal_lower8  153
    u[46]     primal_lower9  379
    u[46]     primal_lower10  322
    u[46]     primal_lower11  490
    u[46]     primal_lower12  691
    u[46]     primal_lower13  977
    u[46]     primal_lower14  333
    u[46]     primal_lower15  731
    u[46]     primal_lower16  255
    u[46]     primal_lower17  496
    u[46]     primal_lower18  726
    u[46]     primal_lower19  540
    u[46]     primal_lower20  841
    u[46]     primal_lower21  880
    u[46]     primal_lower22  105
    u[46]     primal_lower23  244
    u[46]     primal_lower24  193
    u[46]     primal_lower25  718
    u[46]     primal_lower26  107
    u[46]     primal_lower27  284
    u[46]     primal_lower28  387
    u[46]     primal_lower29  319
    u[46]     primal_lower30  641
    u[46]     primal_lower31  451
    u[46]     primal_lower32  584
    u[46]     primal_lower33  879
    u[46]     primal_lower34  510
    u[46]     primal_lower35  498
    u[46]     primal_lower36  924
    u[46]     primal_lower37  818
    u[46]     primal_lower38  634
    u[46]     primal_lower39  616
    u[46]     primal_lower40  113
    u[46]     primal_lower41  617
    u[46]     primal_lower42  355
    u[46]     primal_lower43  562
    u[46]     primal_lower44  708
    u[46]     primal_lower45  468
    u[46]     primal_lower46  903
    u[46]     primal_lower47  723
    u[46]     primal_lower48  204
    u[46]     primal_lower49  899
    u[46]     primal_lower50  49
    u[46]     primal_lower51  91
    u[46]     primal_lower52  330
    u[46]     primal_lower53  642
    u[46]     primal_lower54  804
    u[46]     primal_lower55  445
    u[46]     primal_lower56  161
    u[46]     primal_lower57  898
    u[46]     primal_lower58  81
    u[46]     primal_lower59  66
    u[46]     primal_lower60  341
    u[46]     primal_lower61  395
    u[46]     primal_lower62  276
    u[46]     primal_lower63  525
    u[46]     primal_lower64  149
    u[46]     primal_lower65  125
    u[46]     primal_lower66  101
    u[46]     primal_lower67  311
    u[46]     primal_lower68  288
    u[46]     primal_lower69  756
    u[46]     primal_lower70  478
    u[46]     primal_lower71  910
    u[46]     primal_lower72  557
    u[46]     primal_lower73  229
    u[46]     primal_lower74  822
    u[46]     primal_lower75  822
    u[46]     primal_lower76  101
    u[46]     primal_lower77  228
    u[46]     primal_lower78  699
    u[46]     primal_lower79  626
    u[46]     primal_lower80  916
    u[46]     primal_lower81  638
    u[46]     primal_lower82  983
    u[46]     primal_lower83  741
    u[46]     primal_lower84  541
    u[46]     primal_lower85  187
    u[46]     primal_lower86  578
    u[46]     primal_lower87  403
    u[46]     primal_lower88  798
    u[46]     primal_lower89  174
    u[46]     primal_lower90  129
    u[46]     primal_lower91  386
    u[46]     primal_lower92  753
    u[46]     primal_lower93  717
    u[46]     primal_lower94  120
    u[46]     primal_lower95  271
    u[46]     primal_lower96  330
    u[46]     primal_lower97  342
    u[46]     primal_lower98  543
    u[46]     primal_lower99  336
    u[46]     interdiction[46]  1
    u[46]     mccormick1[46]  -1
    u[46]     mccormick3[46]  1
    u[47]     primal_lower0  22
    u[47]     primal_lower1  551
    u[47]     primal_lower2  543
    u[47]     primal_lower3  160
    u[47]     primal_lower4  725
    u[47]     primal_lower5  523
    u[47]     primal_lower6  92
    u[47]     primal_lower7  663
    u[47]     primal_lower8  253
    u[47]     primal_lower9  371
    u[47]     primal_lower10  886
    u[47]     primal_lower11  254
    u[47]     primal_lower12  739
    u[47]     primal_lower13  33
    u[47]     primal_lower14  929
    u[47]     primal_lower15  327
    u[47]     primal_lower16  651
    u[47]     primal_lower17  268
    u[47]     primal_lower18  386
    u[47]     primal_lower19  944
    u[47]     primal_lower20  713
    u[47]     primal_lower21  196
    u[47]     primal_lower22  677
    u[47]     primal_lower23  232
    u[47]     primal_lower24  317
    u[47]     primal_lower25  170
    u[47]     primal_lower26  263
    u[47]     primal_lower27  780
    u[47]     primal_lower28  631
    u[47]     primal_lower29  767
    u[47]     primal_lower30  857
    u[47]     primal_lower31  47
    u[47]     primal_lower32  292
    u[47]     primal_lower33  815
    u[47]     primal_lower34  10
    u[47]     primal_lower35  730
    u[47]     primal_lower36  456
    u[47]     primal_lower37  774
    u[47]     primal_lower38  590
    u[47]     primal_lower39  540
    u[47]     primal_lower40  165
    u[47]     primal_lower41  221
    u[47]     primal_lower42  859
    u[47]     primal_lower43  366
    u[47]     primal_lower44  60
    u[47]     primal_lower45  316
    u[47]     primal_lower46  795
    u[47]     primal_lower47  631
    u[47]     primal_lower48  528
    u[47]     primal_lower49  719
    u[47]     primal_lower50  729
    u[47]     primal_lower51  39
    u[47]     primal_lower52  342
    u[47]     primal_lower53  806
    u[47]     primal_lower54  720
    u[47]     primal_lower55  201
    u[47]     primal_lower56  205
    u[47]     primal_lower57  762
    u[47]     primal_lower58  933
    u[47]     primal_lower59  314
    u[47]     primal_lower60  825
    u[47]     primal_lower61  575
    u[47]     primal_lower62  948
    u[47]     primal_lower63  657
    u[47]     primal_lower64  937
    u[47]     primal_lower65  697
    u[47]     primal_lower66  389
    u[47]     primal_lower67  827
    u[47]     primal_lower68  436
    u[47]     primal_lower69  320
    u[47]     primal_lower70  182
    u[47]     primal_lower71  114
    u[47]     primal_lower72  165
    u[47]     primal_lower73  473
    u[47]     primal_lower74  542
    u[47]     primal_lower75  54
    u[47]     primal_lower76  885
    u[47]     primal_lower77  624
    u[47]     primal_lower78  323
    u[47]     primal_lower79  758
    u[47]     primal_lower80  304
    u[47]     primal_lower81  346
    u[47]     primal_lower82  383
    u[47]     primal_lower83  833
    u[47]     primal_lower84  341
    u[47]     primal_lower85  459
    u[47]     primal_lower86  466
    u[47]     primal_lower87  975
    u[47]     primal_lower88  378
    u[47]     primal_lower89  2
    u[47]     primal_lower90  561
    u[47]     primal_lower91  258
    u[47]     primal_lower92  341
    u[47]     primal_lower93  309
    u[47]     primal_lower94  192
    u[47]     primal_lower95  203
    u[47]     primal_lower96  154
    u[47]     primal_lower97  346
    u[47]     primal_lower98  195
    u[47]     primal_lower99  716
    u[47]     interdiction[47]  1
    u[47]     mccormick1[47]  -1
    u[47]     mccormick3[47]  1
    u[48]     primal_lower0  843
    u[48]     primal_lower1  913
    u[48]     primal_lower2  401
    u[48]     primal_lower3  722
    u[48]     primal_lower4  122
    u[48]     primal_lower5  640
    u[48]     primal_lower6  342
    u[48]     primal_lower7  292
    u[48]     primal_lower8  943
    u[48]     primal_lower9  80
    u[48]     primal_lower10  304
    u[48]     primal_lower11  272
    u[48]     primal_lower12  776
    u[48]     primal_lower13  702
    u[48]     primal_lower14  547
    u[48]     primal_lower15  937
    u[48]     primal_lower16  109
    u[48]     primal_lower17  566
    u[48]     primal_lower18  372
    u[48]     primal_lower19  458
    u[48]     primal_lower20  38
    u[48]     primal_lower21  238
    u[48]     primal_lower22  207
    u[48]     primal_lower23  898
    u[48]     primal_lower24  711
    u[48]     primal_lower25  212
    u[48]     primal_lower26  873
    u[48]     primal_lower27  809
    u[48]     primal_lower28  497
    u[48]     primal_lower29  756
    u[48]     primal_lower30  950
    u[48]     primal_lower31  697
    u[48]     primal_lower32  678
    u[48]     primal_lower33  396
    u[48]     primal_lower34  188
    u[48]     primal_lower35  703
    u[48]     primal_lower36  490
    u[48]     primal_lower37  848
    u[48]     primal_lower38  952
    u[48]     primal_lower39  734
    u[48]     primal_lower40  663
    u[48]     primal_lower41  551
    u[48]     primal_lower42  248
    u[48]     primal_lower43  928
    u[48]     primal_lower44  721
    u[48]     primal_lower45  689
    u[48]     primal_lower46  469
    u[48]     primal_lower47  641
    u[48]     primal_lower48  866
    u[48]     primal_lower49  633
    u[48]     primal_lower50  326
    u[48]     primal_lower51  609
    u[48]     primal_lower52  336
    u[48]     primal_lower53  504
    u[48]     primal_lower54  162
    u[48]     primal_lower55  283
    u[48]     primal_lower56  503
    u[48]     primal_lower57  383
    u[48]     primal_lower58  447
    u[48]     primal_lower59  263
    u[48]     primal_lower60  147
    u[48]     primal_lower61  361
    u[48]     primal_lower62  865
    u[48]     primal_lower63  859
    u[48]     primal_lower64  651
    u[48]     primal_lower65  115
    u[48]     primal_lower66  594
    u[48]     primal_lower67  221
    u[48]     primal_lower68  798
    u[48]     primal_lower69  642
    u[48]     primal_lower70  979
    u[48]     primal_lower71  668
    u[48]     primal_lower72  770
    u[48]     primal_lower73  307
    u[48]     primal_lower74  19
    u[48]     primal_lower75  187
    u[48]     primal_lower76  370
    u[48]     primal_lower77  610
    u[48]     primal_lower78  120
    u[48]     primal_lower79  8
    u[48]     primal_lower80  178
    u[48]     primal_lower81  420
    u[48]     primal_lower82  948
    u[48]     primal_lower83  155
    u[48]     primal_lower84  146
    u[48]     primal_lower85  856
    u[48]     primal_lower86  663
    u[48]     primal_lower87  433
    u[48]     primal_lower88  220
    u[48]     primal_lower89  348
    u[48]     primal_lower90  814
    u[48]     primal_lower91  607
    u[48]     primal_lower92  71
    u[48]     primal_lower93  74
    u[48]     primal_lower94  429
    u[48]     primal_lower95  45
    u[48]     primal_lower96  679
    u[48]     primal_lower97  196
    u[48]     primal_lower98  909
    u[48]     primal_lower99  702
    u[48]     interdiction[48]  1
    u[48]     mccormick1[48]  -1
    u[48]     mccormick3[48]  1
    u[49]     primal_lower0  444
    u[49]     primal_lower1  398
    u[49]     primal_lower2  326
    u[49]     primal_lower3  559
    u[49]     primal_lower4  347
    u[49]     primal_lower5  417
    u[49]     primal_lower6  331
    u[49]     primal_lower7  757
    u[49]     primal_lower8  812
    u[49]     primal_lower9  41
    u[49]     primal_lower10  829
    u[49]     primal_lower11  13
    u[49]     primal_lower12  753
    u[49]     primal_lower13  39
    u[49]     primal_lower14  448
    u[49]     primal_lower15  774
    u[49]     primal_lower16  290
    u[49]     primal_lower17  595
    u[49]     primal_lower18  505
    u[49]     primal_lower19  175
    u[49]     primal_lower20  423
    u[49]     primal_lower21  123
    u[49]     primal_lower22  492
    u[49]     primal_lower23  967
    u[49]     primal_lower24  748
    u[49]     primal_lower25  513
    u[49]     primal_lower26  966
    u[49]     primal_lower27  242
    u[49]     primal_lower28  342
    u[49]     primal_lower29  749
    u[49]     primal_lower30  463
    u[49]     primal_lower31  550
    u[49]     primal_lower32  915
    u[49]     primal_lower33  173
    u[49]     primal_lower34  929
    u[49]     primal_lower35  752
    u[49]     primal_lower36  847
    u[49]     primal_lower37  101
    u[49]     primal_lower38  869
    u[49]     primal_lower39  755
    u[49]     primal_lower40  692
    u[49]     primal_lower41  404
    u[49]     primal_lower42  897
    u[49]     primal_lower43  573
    u[49]     primal_lower44  346
    u[49]     primal_lower45  210
    u[49]     primal_lower46  362
    u[49]     primal_lower47  814
    u[49]     primal_lower48  847
    u[49]     primal_lower49  990
    u[49]     primal_lower50  879
    u[49]     primal_lower51  206
    u[49]     primal_lower52  373
    u[49]     primal_lower53  533
    u[49]     primal_lower54  23
    u[49]     primal_lower55  648
    u[49]     primal_lower56  412
    u[49]     primal_lower57  104
    u[49]     primal_lower58  876
    u[49]     primal_lower59  728
    u[49]     primal_lower60  552
    u[49]     primal_lower61  126
    u[49]     primal_lower62  450
    u[49]     primal_lower63  568
    u[49]     primal_lower64  216
    u[49]     primal_lower65  280
    u[49]     primal_lower66  387
    u[49]     primal_lower67  994
    u[49]     primal_lower68  523
    u[49]     primal_lower69  943
    u[49]     primal_lower70  988
    u[49]     primal_lower71  345
    u[49]     primal_lower72  827
    u[49]     primal_lower73  336
    u[49]     primal_lower74  772
    u[49]     primal_lower75  724
    u[49]     primal_lower76  707
    u[49]     primal_lower77  7
    u[49]     primal_lower78  921
    u[49]     primal_lower79  77
    u[49]     primal_lower80  167
    u[49]     primal_lower81  353
    u[49]     primal_lower82  141
    u[49]     primal_lower83  520
    u[49]     primal_lower84  155
    u[49]     primal_lower85  865
    u[49]     primal_lower86  824
    u[49]     primal_lower87  174
    u[49]     primal_lower88  65
    u[49]     primal_lower89  449
    u[49]     primal_lower90  47
    u[49]     primal_lower91  600
    u[49]     primal_lower92  268
    u[49]     primal_lower93  395
    u[49]     primal_lower94  862
    u[49]     primal_lower95  82
    u[49]     primal_lower96  152
    u[49]     primal_lower97  313
    u[49]     primal_lower98  922
    u[49]     primal_lower99  795
    u[49]     interdiction[49]  1
    u[49]     mccormick1[49]  -1
    u[49]     mccormick3[49]  1
    u[50]     primal_lower0  235
    u[50]     primal_lower1  440
    u[50]     primal_lower2  328
    u[50]     primal_lower3  993
    u[50]     primal_lower4  778
    u[50]     primal_lower5  800
    u[50]     primal_lower6  733
    u[50]     primal_lower7  852
    u[50]     primal_lower8  758
    u[50]     primal_lower9  320
    u[50]     primal_lower10  231
    u[50]     primal_lower11  79
    u[50]     primal_lower12  480
    u[50]     primal_lower13  406
    u[50]     primal_lower14  154
    u[50]     primal_lower15  16
    u[50]     primal_lower16  372
    u[50]     primal_lower17  77
    u[50]     primal_lower18  243
    u[50]     primal_lower19  385
    u[50]     primal_lower20  726
    u[50]     primal_lower21  341
    u[50]     primal_lower22  814
    u[50]     primal_lower23  49
    u[50]     primal_lower24  510
    u[50]     primal_lower25  467
    u[50]     primal_lower26  824
    u[50]     primal_lower27  473
    u[50]     primal_lower28  376
    u[50]     primal_lower29  188
    u[50]     primal_lower30  862
    u[50]     primal_lower31  232
    u[50]     primal_lower32  5
    u[50]     primal_lower33  716
    u[50]     primal_lower34  915
    u[50]     primal_lower35  895
    u[50]     primal_lower36  49
    u[50]     primal_lower37  663
    u[50]     primal_lower38  223
    u[50]     primal_lower39  341
    u[50]     primal_lower40  782
    u[50]     primal_lower41  662
    u[50]     primal_lower42  400
    u[50]     primal_lower43  951
    u[50]     primal_lower44  593
    u[50]     primal_lower45  873
    u[50]     primal_lower46  404
    u[50]     primal_lower47  736
    u[50]     primal_lower48  425
    u[50]     primal_lower49  992
    u[50]     primal_lower50  726
    u[50]     primal_lower51  488
    u[50]     primal_lower52  687
    u[50]     primal_lower53  951
    u[50]     primal_lower54  617
    u[50]     primal_lower55  962
    u[50]     primal_lower56  726
    u[50]     primal_lower57  903
    u[50]     primal_lower58  574
    u[50]     primal_lower59  791
    u[50]     primal_lower60  482
    u[50]     primal_lower61  152
    u[50]     primal_lower62  977
    u[50]     primal_lower63  10
    u[50]     primal_lower64  714
    u[50]     primal_lower65  602
    u[50]     primal_lower66  274
    u[50]     primal_lower67  180
    u[50]     primal_lower68  165
    u[50]     primal_lower69  713
    u[50]     primal_lower70  299
    u[50]     primal_lower71  683
    u[50]     primal_lower72  530
    u[50]     primal_lower73  674
    u[50]     primal_lower74  987
    u[50]     primal_lower75  667
    u[50]     primal_lower76  762
    u[50]     primal_lower77  625
    u[50]     primal_lower78  408
    u[50]     primal_lower79  535
    u[50]     primal_lower80  913
    u[50]     primal_lower81  187
    u[50]     primal_lower82  236
    u[50]     primal_lower83  338
    u[50]     primal_lower84  746
    u[50]     primal_lower85  232
    u[50]     primal_lower86  95
    u[50]     primal_lower87  968
    u[50]     primal_lower88  835
    u[50]     primal_lower89  363
    u[50]     primal_lower90  198
    u[50]     primal_lower91  687
    u[50]     primal_lower92  30
    u[50]     primal_lower93  410
    u[50]     primal_lower94  53
    u[50]     primal_lower95  204
    u[50]     primal_lower96  831
    u[50]     primal_lower97  747
    u[50]     primal_lower98  212
    u[50]     primal_lower99  789
    u[50]     interdiction[50]  1
    u[50]     mccormick1[50]  -1
    u[50]     mccormick3[50]  1
    u[51]     primal_lower0  604
    u[51]     primal_lower1  166
    u[51]     primal_lower2  238
    u[51]     primal_lower3  999
    u[51]     primal_lower4  187
    u[51]     primal_lower5  473
    u[51]     primal_lower6  227
    u[51]     primal_lower7  197
    u[51]     primal_lower8  804
    u[51]     primal_lower9  169
    u[51]     primal_lower10  437
    u[51]     primal_lower11  965
    u[51]     primal_lower12  177
    u[51]     primal_lower13  135
    u[51]     primal_lower14  536
    u[51]     primal_lower15  22
    u[51]     primal_lower16  186
    u[51]     primal_lower17  155
    u[51]     primal_lower18  793
    u[51]     primal_lower19  655
    u[51]     primal_lower20  127
    u[51]     primal_lower21  403
    u[51]     primal_lower22  44
    u[51]     primal_lower23  191
    u[51]     primal_lower24  972
    u[51]     primal_lower25  89
    u[51]     primal_lower26  414
    u[51]     primal_lower27  642
    u[51]     primal_lower28  150
    u[51]     primal_lower29  29
    u[51]     primal_lower30  295
    u[51]     primal_lower31  966
    u[51]     primal_lower32  939
    u[51]     primal_lower33  933
    u[51]     primal_lower34  969
    u[51]     primal_lower35  912
    u[51]     primal_lower36  103
    u[51]     primal_lower37  413
    u[51]     primal_lower38  621
    u[51]     primal_lower39  803
    u[51]     primal_lower40  228
    u[51]     primal_lower41  324
    u[51]     primal_lower42  321
    u[51]     primal_lower43  365
    u[51]     primal_lower44  698
    u[51]     primal_lower45  346
    u[51]     primal_lower46  250
    u[51]     primal_lower47  534
    u[51]     primal_lower48  471
    u[51]     primal_lower49  342
    u[51]     primal_lower50  831
    u[51]     primal_lower51  502
    u[51]     primal_lower52  581
    u[51]     primal_lower53  229
    u[51]     primal_lower54  879
    u[51]     primal_lower55  80
    u[51]     primal_lower56  468
    u[51]     primal_lower57  352
    u[51]     primal_lower58  100
    u[51]     primal_lower59  488
    u[51]     primal_lower60  176
    u[51]     primal_lower61  374
    u[51]     primal_lower62  698
    u[51]     primal_lower63  344
    u[51]     primal_lower64  744
    u[51]     primal_lower65  184
    u[51]     primal_lower66  747
    u[51]     primal_lower67  602
    u[51]     primal_lower68  155
    u[51]     primal_lower69  479
    u[51]     primal_lower70  308
    u[51]     primal_lower71  353
    u[51]     primal_lower72  163
    u[51]     primal_lower73  344
    u[51]     primal_lower74  4
    u[51]     primal_lower75  732
    u[51]     primal_lower76  171
    u[51]     primal_lower77  327
    u[51]     primal_lower78  97
    u[51]     primal_lower79  677
    u[51]     primal_lower80  95
    u[51]     primal_lower81  465
    u[51]     primal_lower82  501
    u[51]     primal_lower83  112
    u[51]     primal_lower84  843
    u[51]     primal_lower85  753
    u[51]     primal_lower86  856
    u[51]     primal_lower87  878
    u[51]     primal_lower88  665
    u[51]     primal_lower89  337
    u[51]     primal_lower90  703
    u[51]     primal_lower91  168
    u[51]     primal_lower92  84
    u[51]     primal_lower93  931
    u[51]     primal_lower94  654
    u[51]     primal_lower95  314
    u[51]     primal_lower96  888
    u[51]     primal_lower97  169
    u[51]     primal_lower98  242
    u[51]     primal_lower99  835
    u[51]     interdiction[51]  1
    u[51]     mccormick1[51]  -1
    u[51]     mccormick3[51]  1
    u[52]     primal_lower0  641
    u[52]     primal_lower1  351
    u[52]     primal_lower2  735
    u[52]     primal_lower3  344
    u[52]     primal_lower4  328
    u[52]     primal_lower5  302
    u[52]     primal_lower6  868
    u[52]     primal_lower7  554
    u[52]     primal_lower8  205
    u[52]     primal_lower9  766
    u[52]     primal_lower10  798
    u[52]     primal_lower11  750
    u[52]     primal_lower12  422
    u[52]     primal_lower13  564
    u[52]     primal_lower14  513
    u[52]     primal_lower15  247
    u[52]     primal_lower16  435
    u[52]     primal_lower17  828
    u[52]     primal_lower18  898
    u[52]     primal_lower19  696
    u[52]     primal_lower20  212
    u[52]     primal_lower21  980
    u[52]     primal_lower22  517
    u[52]     primal_lower23  800
    u[52]     primal_lower24  277
    u[52]     primal_lower25  818
    u[52]     primal_lower26  631
    u[52]     primal_lower27  375
    u[52]     primal_lower28  463
    u[52]     primal_lower29  730
    u[52]     primal_lower30  348
    u[52]     primal_lower31  703
    u[52]     primal_lower32  892
    u[52]     primal_lower33  706
    u[52]     primal_lower34  874
    u[52]     primal_lower35  701
    u[52]     primal_lower36  368
    u[52]     primal_lower37  862
    u[52]     primal_lower38  446
    u[52]     primal_lower39  92
    u[52]     primal_lower40  389
    u[52]     primal_lower41  869
    u[52]     primal_lower42  30
    u[52]     primal_lower43  942
    u[52]     primal_lower44  15
    u[52]     primal_lower45  71
    u[52]     primal_lower46  971
    u[52]     primal_lower47  839
    u[52]     primal_lower48  32
    u[52]     primal_lower49  95
    u[52]     primal_lower50  948
    u[52]     primal_lower51  967
    u[52]     primal_lower52  974
    u[52]     primal_lower53  46
    u[52]     primal_lower54  88
    u[52]     primal_lower55  209
    u[52]     primal_lower56  677
    u[52]     primal_lower57  405
    u[52]     primal_lower58  285
    u[52]     primal_lower59  669
    u[52]     primal_lower60  393
    u[52]     primal_lower61  135
    u[52]     primal_lower62  887
    u[52]     primal_lower63  393
    u[52]     primal_lower64  905
    u[52]     primal_lower65  769
    u[52]     primal_lower66  312
    u[52]     primal_lower67  987
    u[52]     primal_lower68  268
    u[52]     primal_lower69  912
    u[52]     primal_lower70  849
    u[52]     primal_lower71  706
    u[52]     primal_lower72  792
    u[52]     primal_lower73  97
    u[52]     primal_lower74  513
    u[52]     primal_lower75  209
    u[52]     primal_lower76  216
    u[52]     primal_lower77  352
    u[52]     primal_lower78  190
    u[52]     primal_lower79  958
    u[52]     primal_lower80  488
    u[52]     primal_lower81  930
    u[52]     primal_lower82  634
    u[52]     primal_lower83  809
    u[52]     primal_lower84  336
    u[52]     primal_lower85  382
    u[52]     primal_lower86  365
    u[52]     primal_lower87  719
    u[52]     primal_lower88  298
    u[52]     primal_lower89  698
    u[52]     primal_lower90  444
    u[52]     primal_lower91  485
    u[52]     primal_lower92  293
    u[52]     primal_lower93  672
    u[52]     primal_lower94  323
    u[52]     primal_lower95  771
    u[52]     primal_lower96  61
    u[52]     primal_lower97  426
    u[52]     primal_lower98  243
    u[52]     primal_lower99  460
    u[52]     interdiction[52]  1
    u[52]     mccormick1[52]  -1
    u[52]     mccormick3[52]  1
    u[53]     primal_lower0  112
    u[53]     primal_lower1  690
    u[53]     primal_lower2  458
    u[53]     primal_lower3  955
    u[53]     primal_lower4  639
    u[53]     primal_lower5  613
    u[53]     primal_lower6  839
    u[53]     primal_lower7  73
    u[53]     primal_lower8  144
    u[53]     primal_lower9  549
    u[53]     primal_lower10  129
    u[53]     primal_lower11  49
    u[53]     primal_lower12  733
    u[53]     primal_lower13  307
    u[53]     primal_lower14  980
    u[53]     primal_lower15  938
    u[53]     primal_lower16  734
    u[53]     primal_lower17  111
    u[53]     primal_lower18  213
    u[53]     primal_lower19  59
    u[53]     primal_lower20  347
    u[53]     primal_lower21  911
    u[53]     primal_lower22  888
    u[53]     primal_lower23  923
    u[53]     primal_lower24  848
    u[53]     primal_lower25  893
    u[53]     primal_lower26  234
    u[53]     primal_lower27  334
    u[53]     primal_lower28  602
    u[53]     primal_lower29  169
    u[53]     primal_lower30  491
    u[53]     primal_lower31  634
    u[53]     primal_lower32  967
    u[53]     primal_lower33  185
    u[53]     primal_lower34  253
    u[53]     primal_lower35  220
    u[53]     primal_lower36  355
    u[53]     primal_lower37  169
    u[53]     primal_lower38  521
    u[53]     primal_lower39  527
    u[53]     primal_lower40  592
    u[53]     primal_lower41  704
    u[53]     primal_lower42  749
    u[53]     primal_lower43  113
    u[53]     primal_lower44  70
    u[53]     primal_lower45  662
    u[53]     primal_lower46  134
    u[53]     primal_lower47  466
    u[53]     primal_lower48  499
    u[53]     primal_lower49  906
    u[53]     primal_lower50  467
    u[53]     primal_lower51  370
    u[53]     primal_lower52  17
    u[53]     primal_lower53  241
    u[53]     primal_lower54  915
    u[53]     primal_lower55  124
    u[53]     primal_lower56  40
    u[53]     primal_lower57  580
    u[53]     primal_lower58  504
    u[53]     primal_lower59  628
    u[53]     primal_lower60  820
    u[53]     primal_lower61  730
    u[53]     primal_lower62  510
    u[53]     primal_lower63  388
    u[53]     primal_lower64  332
    u[53]     primal_lower65  916
    u[53]     primal_lower66  527
    u[53]     primal_lower67  998
    u[53]     primal_lower68  911
    u[53]     primal_lower69  211
    u[53]     primal_lower70  152
    u[53]     primal_lower71  437
    u[53]     primal_lower72  7
    u[53]     primal_lower73  484
    u[53]     primal_lower74  240
    u[53]     primal_lower75  808
    u[53]     primal_lower76  559
    u[53]     primal_lower77  563
    u[53]     primal_lower78  269
    u[53]     primal_lower79  697
    u[53]     primal_lower80  859
    u[53]     primal_lower81  77
    u[53]     primal_lower82  385
    u[53]     primal_lower83  772
    u[53]     primal_lower84  511
    u[53]     primal_lower85  821
    u[53]     primal_lower86  548
    u[53]     primal_lower87  370
    u[53]     primal_lower88  205
    u[53]     primal_lower89  429
    u[53]     primal_lower90  859
    u[53]     primal_lower91  580
    u[53]     primal_lower92  856
    u[53]     primal_lower93  647
    u[53]     primal_lower94  610
    u[53]     primal_lower95  638
    u[53]     primal_lower96  140
    u[53]     primal_lower97  901
    u[53]     primal_lower98  6
    u[53]     primal_lower99  735
    u[53]     interdiction[53]  1
    u[53]     mccormick1[53]  -1
    u[53]     mccormick3[53]  1
    u[54]     primal_lower0  965
    u[54]     primal_lower1  530
    u[54]     primal_lower2  170
    u[54]     primal_lower3  827
    u[54]     primal_lower4  84
    u[54]     primal_lower5  882
    u[54]     primal_lower6  279
    u[54]     primal_lower7  14
    u[54]     primal_lower8  88
    u[54]     primal_lower9  362
    u[54]     primal_lower10  553
    u[54]     primal_lower11  273
    u[54]     primal_lower12  722
    u[54]     primal_lower13  712
    u[54]     primal_lower14  620
    u[54]     primal_lower15  810
    u[54]     primal_lower16  38
    u[54]     primal_lower17  479
    u[54]     primal_lower18  269
    u[54]     primal_lower19  947
    u[54]     primal_lower20  624
    u[54]     primal_lower21  735
    u[54]     primal_lower22  896
    u[54]     primal_lower23  611
    u[54]     primal_lower24  112
    u[54]     primal_lower25  157
    u[54]     primal_lower26  506
    u[54]     primal_lower27  587
    u[54]     primal_lower28  554
    u[54]     primal_lower29  566
    u[54]     primal_lower30  808
    u[54]     primal_lower31  890
    u[54]     primal_lower32  399
    u[54]     primal_lower33  974
    u[54]     primal_lower34  853
    u[54]     primal_lower35  353
    u[54]     primal_lower36  811
    u[54]     primal_lower37  353
    u[54]     primal_lower38  705
    u[54]     primal_lower39  935
    u[54]     primal_lower40  312
    u[54]     primal_lower41  800
    u[54]     primal_lower42  10
    u[54]     primal_lower43  601
    u[54]     primal_lower44  771
    u[54]     primal_lower45  139
    u[54]     primal_lower46  246
    u[54]     primal_lower47  522
    u[54]     primal_lower48  587
    u[54]     primal_lower49  362
    u[54]     primal_lower50  976
    u[54]     primal_lower51  850
    u[54]     primal_lower52  417
    u[54]     primal_lower53  873
    u[54]     primal_lower54  675
    u[54]     primal_lower55  796
    u[54]     primal_lower56  808
    u[54]     primal_lower57  769
    u[54]     primal_lower58  80
    u[54]     primal_lower59  281
    u[54]     primal_lower60  764
    u[54]     primal_lower61  746
    u[54]     primal_lower62  931
    u[54]     primal_lower63  644
    u[54]     primal_lower64  972
    u[54]     primal_lower65  924
    u[54]     primal_lower66  580
    u[54]     primal_lower67  182
    u[54]     primal_lower68  55
    u[54]     primal_lower69  555
    u[54]     primal_lower70  349
    u[54]     primal_lower71  525
    u[54]     primal_lower72  12
    u[54]     primal_lower73  284
    u[54]     primal_lower74  573
    u[54]     primal_lower75  437
    u[54]     primal_lower76  4
    u[54]     primal_lower77  307
    u[54]     primal_lower78  370
    u[54]     primal_lower79  49
    u[54]     primal_lower80  803
    u[54]     primal_lower81  237
    u[54]     primal_lower82  710
    u[54]     primal_lower83  532
    u[54]     primal_lower84  172
    u[54]     primal_lower85  546
    u[54]     primal_lower86  521
    u[54]     primal_lower87  842
    u[54]     primal_lower88  533
    u[54]     primal_lower89  165
    u[54]     primal_lower90  424
    u[54]     primal_lower91  569
    u[54]     primal_lower92  928
    u[54]     primal_lower93  708
    u[54]     primal_lower94  287
    u[54]     primal_lower95  518
    u[54]     primal_lower96  873
    u[54]     primal_lower97  805
    u[54]     primal_lower98  550
    u[54]     primal_lower99  111
    u[54]     interdiction[54]  1
    u[54]     mccormick1[54]  -1
    u[54]     mccormick3[54]  1
    u[55]     primal_lower0  836
    u[55]     primal_lower1  701
    u[55]     primal_lower2  637
    u[55]     primal_lower3  822
    u[55]     primal_lower4  51
    u[55]     primal_lower5  945
    u[55]     primal_lower6  186
    u[55]     primal_lower7  405
    u[55]     primal_lower8  235
    u[55]     primal_lower9  913
    u[55]     primal_lower10  404
    u[55]     primal_lower11  300
    u[55]     primal_lower12  209
    u[55]     primal_lower13  343
    u[55]     primal_lower14  823
    u[55]     primal_lower15  69
    u[55]     primal_lower16  321
    u[55]     primal_lower17  402
    u[55]     primal_lower18  648
    u[55]     primal_lower19  550
    u[55]     primal_lower20  543
    u[55]     primal_lower21  66
    u[55]     primal_lower22  259
    u[55]     primal_lower23  686
    u[55]     primal_lower24  171
    u[55]     primal_lower25  816
    u[55]     primal_lower26  261
    u[55]     primal_lower27  442
    u[55]     primal_lower28  165
    u[55]     primal_lower29  733
    u[55]     primal_lower30  615
    u[55]     primal_lower31  61
    u[55]     primal_lower32  202
    u[55]     primal_lower33  205
    u[55]     primal_lower34  560
    u[55]     primal_lower35  248
    u[55]     primal_lower36  798
    u[55]     primal_lower37  44
    u[55]     primal_lower38  212
    u[55]     primal_lower39  186
    u[55]     primal_lower40  75
    u[55]     primal_lower41  923
    u[55]     primal_lower42  473
    u[55]     primal_lower43  548
    u[55]     primal_lower44  338
    u[55]     primal_lower45  778
    u[55]     primal_lower46  929
    u[55]     primal_lower47  349
    u[55]     primal_lower48  950
    u[55]     primal_lower49  141
    u[55]     primal_lower50  151
    u[55]     primal_lower51  69
    u[55]     primal_lower52  668
    u[55]     primal_lower53  260
    u[55]     primal_lower54  94
    u[55]     primal_lower55  759
    u[55]     primal_lower56  843
    u[55]     primal_lower57  120
    u[55]     primal_lower58  83
    u[55]     primal_lower59  720
    u[55]     primal_lower60  703
    u[55]     primal_lower61  397
    u[55]     primal_lower62  282
    u[55]     primal_lower63  7
    u[55]     primal_lower64  991
    u[55]     primal_lower65  343
    u[55]     primal_lower66  99
    u[55]     primal_lower67  993
    u[55]     primal_lower68  666
    u[55]     primal_lower69  638
    u[55]     primal_lower70  332
    u[55]     primal_lower71  64
    u[55]     primal_lower72  939
    u[55]     primal_lower73  167
    u[55]     primal_lower74  188
    u[55]     primal_lower75  220
    u[55]     primal_lower76  571
    u[55]     primal_lower77  630
    u[55]     primal_lower78  105
    u[55]     primal_lower79  244
    u[55]     primal_lower80  686
    u[55]     primal_lower81  48
    u[55]     primal_lower82  149
    u[55]     primal_lower83  719
    u[55]     primal_lower84  627
    u[55]     primal_lower85  25
    u[55]     primal_lower86  584
    u[55]     primal_lower87  933
    u[55]     primal_lower88  448
    u[55]     primal_lower89  192
    u[55]     primal_lower90  103
    u[55]     primal_lower91  728
    u[55]     primal_lower92  811
    u[55]     primal_lower93  627
    u[55]     primal_lower94  390
    u[55]     primal_lower95  625
    u[55]     primal_lower96  496
    u[55]     primal_lower97  888
    u[55]     primal_lower98  1
    u[55]     primal_lower99  674
    u[55]     interdiction[55]  1
    u[55]     mccormick1[55]  -1
    u[55]     mccormick3[55]  1
    u[56]     primal_lower0  741
    u[56]     primal_lower1  995
    u[56]     primal_lower2  483
    u[56]     primal_lower3  20
    u[56]     primal_lower4  148
    u[56]     primal_lower5  874
    u[56]     primal_lower6  736
    u[56]     primal_lower7  662
    u[56]     primal_lower8  593
    u[56]     primal_lower9  322
    u[56]     primal_lower10  482
    u[56]     primal_lower11  106
    u[56]     primal_lower12  82
    u[56]     primal_lower13  744
    u[56]     primal_lower14  69
    u[56]     primal_lower15  307
    u[56]     primal_lower16  495
    u[56]     primal_lower17  32
    u[56]     primal_lower18  902
    u[56]     primal_lower19  284
    u[56]     primal_lower20  360
    u[56]     primal_lower21  232
    u[56]     primal_lower22  713
    u[56]     primal_lower23  236
    u[56]     primal_lower24  473
    u[56]     primal_lower25  574
    u[56]     primal_lower26  699
    u[56]     primal_lower27  499
    u[56]     primal_lower28  963
    u[56]     primal_lower29  398
    u[56]     primal_lower30  592
    u[56]     primal_lower31  107
    u[56]     primal_lower32  184
    u[56]     primal_lower33  430
    u[56]     primal_lower34  686
    u[56]     primal_lower35  793
    u[56]     primal_lower36  532
    u[56]     primal_lower37  298
    u[56]     primal_lower38  626
    u[56]     primal_lower39  272
    u[56]     primal_lower40  193
    u[56]     primal_lower41  985
    u[56]     primal_lower42  66
    u[56]     primal_lower43  570
    u[56]     primal_lower44  867
    u[56]     primal_lower45  699
    u[56]     primal_lower46  559
    u[56]     primal_lower47  947
    u[56]     primal_lower48  540
    u[56]     primal_lower49  763
    u[56]     primal_lower50  104
    u[56]     primal_lower51  43
    u[56]     primal_lower52  58
    u[56]     primal_lower53  298
    u[56]     primal_lower54  364
    u[56]     primal_lower55  813
    u[56]     primal_lower56  841
    u[56]     primal_lower57  177
    u[56]     primal_lower58  249
    u[56]     primal_lower59  313
    u[56]     primal_lower60  773
    u[56]     primal_lower61  523
    u[56]     primal_lower62  27
    u[56]     primal_lower63  765
    u[56]     primal_lower64  205
    u[56]     primal_lower65  909
    u[56]     primal_lower66  468
    u[56]     primal_lower67  751
    u[56]     primal_lower68  648
    u[56]     primal_lower69  500
    u[56]     primal_lower70  245
    u[56]     primal_lower71  686
    u[56]     primal_lower72  364
    u[56]     primal_lower73  69
    u[56]     primal_lower74  701
    u[56]     primal_lower75  909
    u[56]     primal_lower76  108
    u[56]     primal_lower77  532
    u[56]     primal_lower78  506
    u[56]     primal_lower79  154
    u[56]     primal_lower80  628
    u[56]     primal_lower81  606
    u[56]     primal_lower82  54
    u[56]     primal_lower83  293
    u[56]     primal_lower84  436
    u[56]     primal_lower85  922
    u[56]     primal_lower86  1
    u[56]     primal_lower87  555
    u[56]     primal_lower88  590
    u[56]     primal_lower89  14
    u[56]     primal_lower90  760
    u[56]     primal_lower91  617
    u[56]     primal_lower92  177
    u[56]     primal_lower93  780
    u[56]     primal_lower94  223
    u[56]     primal_lower95  119
    u[56]     primal_lower96  977
    u[56]     primal_lower97  270
    u[56]     primal_lower98  911
    u[56]     primal_lower99  736
    u[56]     interdiction[56]  1
    u[56]     mccormick1[56]  -1
    u[56]     mccormick3[56]  1
    u[57]     primal_lower0  615
    u[57]     primal_lower1  88
    u[57]     primal_lower2  160
    u[57]     primal_lower3  417
    u[57]     primal_lower4  374
    u[57]     primal_lower5  844
    u[57]     primal_lower6  445
    u[57]     primal_lower7  368
    u[57]     primal_lower8  774
    u[57]     primal_lower9  380
    u[57]     primal_lower10  303
    u[57]     primal_lower11  935
    u[57]     primal_lower12  140
    u[57]     primal_lower13  2
    u[57]     primal_lower14  450
    u[57]     primal_lower15  248
    u[57]     primal_lower16  236
    u[57]     primal_lower17  133
    u[57]     primal_lower18  19
    u[57]     primal_lower19  65
    u[57]     primal_lower20  258
    u[57]     primal_lower21  645
    u[57]     primal_lower22  70
    u[57]     primal_lower23  289
    u[57]     primal_lower24  446
    u[57]     primal_lower25  723
    u[57]     primal_lower26  144
    u[57]     primal_lower27  605
    u[57]     primal_lower28  240
    u[57]     primal_lower29  88
    u[57]     primal_lower30  962
    u[57]     primal_lower31  872
    u[57]     primal_lower32  869
    u[57]     primal_lower33  8
    u[57]     primal_lower34  891
    u[57]     primal_lower35  339
    u[57]     primal_lower36  17
    u[57]     primal_lower37  807
    u[57]     primal_lower38  607
    u[57]     primal_lower39  645
    u[57]     primal_lower40  742
    u[57]     primal_lower41  486
    u[57]     primal_lower42  932
    u[57]     primal_lower43  399
    u[57]     primal_lower44  541
    u[57]     primal_lower45  389
    u[57]     primal_lower46  780
    u[57]     primal_lower47  272
    u[57]     primal_lower48  281
    u[57]     primal_lower49  240
    u[57]     primal_lower50  810
    u[57]     primal_lower51  48
    u[57]     primal_lower52  487
    u[57]     primal_lower53  999
    u[57]     primal_lower54  177
    u[57]     primal_lower55  26
    u[57]     primal_lower56  822
    u[57]     primal_lower57  75
    u[57]     primal_lower58  6
    u[57]     primal_lower59  555
    u[57]     primal_lower60  458
    u[57]     primal_lower61  968
    u[57]     primal_lower62  573
    u[57]     primal_lower63  978
    u[57]     primal_lower64  442
    u[57]     primal_lower65  370
    u[57]     primal_lower66  374
    u[57]     primal_lower67  308
    u[57]     primal_lower68  525
    u[57]     primal_lower69  193
    u[57]     primal_lower70  735
    u[57]     primal_lower71  779
    u[57]     primal_lower72  150
    u[57]     primal_lower73  506
    u[57]     primal_lower74  343
    u[57]     primal_lower75  607
    u[57]     primal_lower76  190
    u[57]     primal_lower77  929
    u[57]     primal_lower78  276
    u[57]     primal_lower79  575
    u[57]     primal_lower80  889
    u[57]     primal_lower81  243
    u[57]     primal_lower82  744
    u[57]     primal_lower83  786
    u[57]     primal_lower84  454
    u[57]     primal_lower85  812
    u[57]     primal_lower86  627
    u[57]     primal_lower87  112
    u[57]     primal_lower88  467
    u[57]     primal_lower89  539
    u[57]     primal_lower90  610
    u[57]     primal_lower91  323
    u[57]     primal_lower92  54
    u[57]     primal_lower93  358
    u[57]     primal_lower94  65
    u[57]     primal_lower95  460
    u[57]     primal_lower96  595
    u[57]     primal_lower97  523
    u[57]     primal_lower98  676
    u[57]     primal_lower99  493
    u[57]     interdiction[57]  1
    u[57]     mccormick1[57]  -1
    u[57]     mccormick3[57]  1
    u[58]     primal_lower0  160
    u[58]     primal_lower1  606
    u[58]     primal_lower2  30
    u[58]     primal_lower3  567
    u[58]     primal_lower4  319
    u[58]     primal_lower5  357
    u[58]     primal_lower6  547
    u[58]     primal_lower7  681
    u[58]     primal_lower8  436
    u[58]     primal_lower9  725
    u[58]     primal_lower10  381
    u[58]     primal_lower11  53
    u[58]     primal_lower12  541
    u[58]     primal_lower13  235
    u[58]     primal_lower14  848
    u[58]     primal_lower15  486
    u[58]     primal_lower16  218
    u[58]     primal_lower17  739
    u[58]     primal_lower18  993
    u[58]     primal_lower19  463
    u[58]     primal_lower20  83
    u[58]     primal_lower21  931
    u[58]     primal_lower22  892
    u[58]     primal_lower23  47
    u[58]     primal_lower24  172
    u[58]     primal_lower25  593
    u[58]     primal_lower26  102
    u[58]     primal_lower27  318
    u[58]     primal_lower28  198
    u[58]     primal_lower29  1
    u[58]     primal_lower30  155
    u[58]     primal_lower31  870
    u[58]     primal_lower32  323
    u[58]     primal_lower33  273
    u[58]     primal_lower34  393
    u[58]     primal_lower35  188
    u[58]     primal_lower36  919
    u[58]     primal_lower37  797
    u[58]     primal_lower38  637
    u[58]     primal_lower39  611
    u[58]     primal_lower40  84
    u[58]     primal_lower41  404
    u[58]     primal_lower42  477
    u[58]     primal_lower43  701
    u[58]     primal_lower44  302
    u[58]     primal_lower45  374
    u[58]     primal_lower46  186
    u[58]     primal_lower47  950
    u[58]     primal_lower48  975
    u[58]     primal_lower49  990
    u[58]     primal_lower50  755
    u[58]     primal_lower51  670
    u[58]     primal_lower52  557
    u[58]     primal_lower53  429
    u[58]     primal_lower54  671
    u[58]     primal_lower55  152
    u[58]     primal_lower56  420
    u[58]     primal_lower57  532
    u[58]     primal_lower58  444
    u[58]     primal_lower59  324
    u[58]     primal_lower60  176
    u[58]     primal_lower61  998
    u[58]     primal_lower62  830
    u[58]     primal_lower63  856
    u[58]     primal_lower64  880
    u[58]     primal_lower65  232
    u[58]     primal_lower66  679
    u[58]     primal_lower67  266
    u[58]     primal_lower68  795
    u[58]     primal_lower69  255
    u[58]     primal_lower70  824
    u[58]     primal_lower71  545
    u[58]     primal_lower72  79
    u[58]     primal_lower73  272
    u[58]     primal_lower74  504
    u[58]     primal_lower75  72
    u[58]     primal_lower76  879
    u[58]     primal_lower77  511
    u[58]     primal_lower78  589
    u[58]     primal_lower79  149
    u[58]     primal_lower80  167
    u[58]     primal_lower81  761
    u[58]     primal_lower82  553
    u[58]     primal_lower83  272
    u[58]     primal_lower84  599
    u[58]     primal_lower85  789
    u[58]     primal_lower86  372
    u[58]     primal_lower87  710
    u[58]     primal_lower88  337
    u[58]     primal_lower89  457
    u[58]     primal_lower90  579
    u[58]     primal_lower91  4
    u[58]     primal_lower92  588
    u[58]     primal_lower93  167
    u[58]     primal_lower94  802
    u[58]     primal_lower95  706
    u[58]     primal_lower96  956
    u[58]     primal_lower97  97
    u[58]     primal_lower98  314
    u[58]     primal_lower99  907
    u[58]     interdiction[58]  1
    u[58]     mccormick1[58]  -1
    u[58]     mccormick3[58]  1
    u[59]     primal_lower0  166
    u[59]     primal_lower1  696
    u[59]     primal_lower2  504
    u[59]     primal_lower3  377
    u[59]     primal_lower4  757
    u[59]     primal_lower5  707
    u[59]     primal_lower6  213
    u[59]     primal_lower7  967
    u[59]     primal_lower8  438
    u[59]     primal_lower9  59
    u[59]     primal_lower10  263
    u[59]     primal_lower11  679
    u[59]     primal_lower12  651
    u[59]     primal_lower13  1
    u[59]     primal_lower14  146
    u[59]     primal_lower15  392
    u[59]     primal_lower16  116
    u[59]     primal_lower17  341
    u[59]     primal_lower18  531
    u[59]     primal_lower19  225
    u[59]     primal_lower20  121
    u[59]     primal_lower21  93
    u[59]     primal_lower22  382
    u[59]     primal_lower23  993
    u[59]     primal_lower24  758
    u[59]     primal_lower25  763
    u[59]     primal_lower26  824
    u[59]     primal_lower27  132
    u[59]     primal_lower28  688
    u[59]     primal_lower29  487
    u[59]     primal_lower30  33
    u[59]     primal_lower31  888
    u[59]     primal_lower32  861
    u[59]     primal_lower33  15
    u[59]     primal_lower34  363
    u[59]     primal_lower35  746
    u[59]     primal_lower36  377
    u[59]     primal_lower37  559
    u[59]     primal_lower38  271
    u[59]     primal_lower39  653
    u[59]     primal_lower40  670
    u[59]     primal_lower41  646
    u[59]     primal_lower42  467
    u[59]     primal_lower43  527
    u[59]     primal_lower44  732
    u[59]     primal_lower45  124
    u[59]     primal_lower46  172
    u[59]     primal_lower47  680
    u[59]     primal_lower48  633
    u[59]     primal_lower49  272
    u[59]     primal_lower50  257
    u[59]     primal_lower51  344
    u[59]     primal_lower52  911
    u[59]     primal_lower53  223
    u[59]     primal_lower54  657
    u[59]     primal_lower55  770
    u[59]     primal_lower56  54
    u[59]     primal_lower57  906
    u[59]     primal_lower58  166
    u[59]     primal_lower59  482
    u[59]     primal_lower60  850
    u[59]     primal_lower61  128
    u[59]     primal_lower62  324
    u[59]     primal_lower63  634
    u[59]     primal_lower64  666
    u[59]     primal_lower65  402
    u[59]     primal_lower66  197
    u[59]     primal_lower67  92
    u[59]     primal_lower68  181
    u[59]     primal_lower69  585
    u[59]     primal_lower70  230
    u[59]     primal_lower71  859
    u[59]     primal_lower72  717
    u[59]     primal_lower73  898
    u[59]     primal_lower74  638
    u[59]     primal_lower75  846
    u[59]     primal_lower76  245
    u[59]     primal_lower77  361
    u[59]     primal_lower78  475
    u[59]     primal_lower79  271
    u[59]     primal_lower80  505
    u[59]     primal_lower81  915
    u[59]     primal_lower82  79
    u[59]     primal_lower83  818
    u[59]     primal_lower84  669
    u[59]     primal_lower85  603
    u[59]     primal_lower86  970
    u[59]     primal_lower87  56
    u[59]     primal_lower88  571
    u[59]     primal_lower89  3
    u[59]     primal_lower90  89
    u[59]     primal_lower91  722
    u[59]     primal_lower92  278
    u[59]     primal_lower93  189
    u[59]     primal_lower94  816
    u[59]     primal_lower95  652
    u[59]     primal_lower96  82
    u[59]     primal_lower97  155
    u[59]     primal_lower98  44
    u[59]     primal_lower99  445
    u[59]     interdiction[59]  1
    u[59]     mccormick1[59]  -1
    u[59]     mccormick3[59]  1
    u[60]     primal_lower0  393
    u[60]     primal_lower1  182
    u[60]     primal_lower2  134
    u[60]     primal_lower3  551
    u[60]     primal_lower4  160
    u[60]     primal_lower5  526
    u[60]     primal_lower6  387
    u[60]     primal_lower7  818
    u[60]     primal_lower8  708
    u[60]     primal_lower9  110
    u[60]     primal_lower10  877
    u[60]     primal_lower11  269
    u[60]     primal_lower12  78
    u[60]     primal_lower13  380
    u[60]     primal_lower14  664
    u[60]     primal_lower15  302
    u[60]     primal_lower16  690
    u[60]     primal_lower17  899
    u[60]     primal_lower18  529
    u[60]     primal_lower19  311
    u[60]     primal_lower20  204
    u[60]     primal_lower21  107
    u[60]     primal_lower22  308
    u[60]     primal_lower23  679
    u[60]     primal_lower24  468
    u[60]     primal_lower25  481
    u[60]     primal_lower26  950
    u[60]     primal_lower27  679
    u[60]     primal_lower28  62
    u[60]     primal_lower29  450
    u[60]     primal_lower30  588
    u[60]     primal_lower31  574
    u[60]     primal_lower32  283
    u[60]     primal_lower33  490
    u[60]     primal_lower34  681
    u[60]     primal_lower35  813
    u[60]     primal_lower36  943
    u[60]     primal_lower37  253
    u[60]     primal_lower38  541
    u[60]     primal_lower39  699
    u[60]     primal_lower40  460
    u[60]     primal_lower41  748
    u[60]     primal_lower42  126
    u[60]     primal_lower43  189
    u[60]     primal_lower44  479
    u[60]     primal_lower45  375
    u[60]     primal_lower46  682
    u[60]     primal_lower47  886
    u[60]     primal_lower48  911
    u[60]     primal_lower49  486
    u[60]     primal_lower50  780
    u[60]     primal_lower51  614
    u[60]     primal_lower52  733
    u[60]     primal_lower53  341
    u[60]     primal_lower54  535
    u[60]     primal_lower55  208
    u[60]     primal_lower56  156
    u[60]     primal_lower57  421
    u[60]     primal_lower58  524
    u[60]     primal_lower59  533
    u[60]     primal_lower60  24
    u[60]     primal_lower61  6
    u[60]     primal_lower62  103
    u[60]     primal_lower63  808
    u[60]     primal_lower64  952
    u[60]     primal_lower65  264
    u[60]     primal_lower66  688
    u[60]     primal_lower67  610
    u[60]     primal_lower68  291
    u[60]     primal_lower69  351
    u[60]     primal_lower70  657
    u[60]     primal_lower71  641
    u[60]     primal_lower72  472
    u[60]     primal_lower73  184
    u[60]     primal_lower74  753
    u[60]     primal_lower75  857
    u[60]     primal_lower76  784
    u[60]     primal_lower77  871
    u[60]     primal_lower78  310
    u[60]     primal_lower79  965
    u[60]     primal_lower80  487
    u[60]     primal_lower81  857
    u[60]     primal_lower82  898
    u[60]     primal_lower83  152
    u[60]     primal_lower84  648
    u[60]     primal_lower85  438
    u[60]     primal_lower86  797
    u[60]     primal_lower87  582
    u[60]     primal_lower88  577
    u[60]     primal_lower89  353
    u[60]     primal_lower90  908
    u[60]     primal_lower91  37
    u[60]     primal_lower92  972
    u[60]     primal_lower93  312
    u[60]     primal_lower94  147
    u[60]     primal_lower95  466
    u[60]     primal_lower96  661
    u[60]     primal_lower97  201
    u[60]     primal_lower98  546
    u[60]     primal_lower99  795
    u[60]     interdiction[60]  1
    u[60]     mccormick1[60]  -1
    u[60]     mccormick3[60]  1
    u[61]     primal_lower0  343
    u[61]     primal_lower1  744
    u[61]     primal_lower2  88
    u[61]     primal_lower3  289
    u[61]     primal_lower4  542
    u[61]     primal_lower5  468
    u[61]     primal_lower6  229
    u[61]     primal_lower7  16
    u[61]     primal_lower8  206
    u[61]     primal_lower9  172
    u[61]     primal_lower10  783
    u[61]     primal_lower11  271
    u[61]     primal_lower12  676
    u[61]     primal_lower13  962
    u[61]     primal_lower14  954
    u[61]     primal_lower15  776
    u[61]     primal_lower16  900
    u[61]     primal_lower17  357
    u[61]     primal_lower18  987
    u[61]     primal_lower19  593
    u[61]     primal_lower20  394
    u[61]     primal_lower21  749
    u[61]     primal_lower22  414
    u[61]     primal_lower23  857
    u[61]     primal_lower24  870
    u[61]     primal_lower25  131
    u[61]     primal_lower26  576
    u[61]     primal_lower27  949
    u[61]     primal_lower28  88
    u[61]     primal_lower29  400
    u[61]     primal_lower30  778
    u[61]     primal_lower31  752
    u[61]     primal_lower32  13
    u[61]     primal_lower33  968
    u[61]     primal_lower34  379
    u[61]     primal_lower35  715
    u[61]     primal_lower36  697
    u[61]     primal_lower37  599
    u[61]     primal_lower38  199
    u[61]     primal_lower39  445
    u[61]     primal_lower40  846
    u[61]     primal_lower41  982
    u[61]     primal_lower42  396
    u[61]     primal_lower43  223
    u[61]     primal_lower44  589
    u[61]     primal_lower45  301
    u[61]     primal_lower46  580
    u[61]     primal_lower47  736
    u[61]     primal_lower48  657
    u[61]     primal_lower49  608
    u[61]     primal_lower50  450
    u[61]     primal_lower51  312
    u[61]     primal_lower52  951
    u[61]     primal_lower53  39
    u[61]     primal_lower54  441
    u[61]     primal_lower55  338
    u[61]     primal_lower56  214
    u[61]     primal_lower57  235
    u[61]     primal_lower58  646
    u[61]     primal_lower59  195
    u[61]     primal_lower60  738
    u[61]     primal_lower61  176
    u[61]     primal_lower62  309
    u[61]     primal_lower63  10
    u[61]     primal_lower64  362
    u[61]     primal_lower65  354
    u[61]     primal_lower66  942
    u[61]     primal_lower67  380
    u[61]     primal_lower68  405
    u[61]     primal_lower69  201
    u[61]     primal_lower70  463
    u[61]     primal_lower71  731
    u[61]     primal_lower72  206
    u[61]     primal_lower73  778
    u[61]     primal_lower74  663
    u[61]     primal_lower75  935
    u[61]     primal_lower76  182
    u[61]     primal_lower77  377
    u[61]     primal_lower78  324
    u[61]     primal_lower79  559
    u[61]     primal_lower80  177
    u[61]     primal_lower81  99
    u[61]     primal_lower82  960
    u[61]     primal_lower83  698
    u[61]     primal_lower84  374
    u[61]     primal_lower85  644
    u[61]     primal_lower86  683
    u[61]     primal_lower87  312
    u[61]     primal_lower88  379
    u[61]     primal_lower89  619
    u[61]     primal_lower90  402
    u[61]     primal_lower91  427
    u[61]     primal_lower92  54
    u[61]     primal_lower93  110
    u[61]     primal_lower94  689
    u[61]     primal_lower95  788
    u[61]     primal_lower96  779
    u[61]     primal_lower97  971
    u[61]     primal_lower98  492
    u[61]     primal_lower99  277
    u[61]     interdiction[61]  1
    u[61]     mccormick1[61]  -1
    u[61]     mccormick3[61]  1
    u[62]     primal_lower0  932
    u[62]     primal_lower1  209
    u[62]     primal_lower2  737
    u[62]     primal_lower3  794
    u[62]     primal_lower4  115
    u[62]     primal_lower5  225
    u[62]     primal_lower6  790
    u[62]     primal_lower7  893
    u[62]     primal_lower8  183
    u[62]     primal_lower9  761
    u[62]     primal_lower10  432
    u[62]     primal_lower11  928
    u[62]     primal_lower12  969
    u[62]     primal_lower13  479
    u[62]     primal_lower14  755
    u[62]     primal_lower15  9
    u[62]     primal_lower16  21
    u[62]     primal_lower17  118
    u[62]     primal_lower18  172
    u[62]     primal_lower19  530
    u[62]     primal_lower20  7
    u[62]     primal_lower21  758
    u[62]     primal_lower22  383
    u[62]     primal_lower23  738
    u[62]     primal_lower24  351
    u[62]     primal_lower25  396
    u[62]     primal_lower26  849
    u[62]     primal_lower27  962
    u[62]     primal_lower28  193
    u[62]     primal_lower29  389
    u[62]     primal_lower30  767
    u[62]     primal_lower31  769
    u[62]     primal_lower32  966
    u[62]     primal_lower33  237
    u[62]     primal_lower34  388
    u[62]     primal_lower35  376
    u[62]     primal_lower36  202
    u[62]     primal_lower37  64
    u[62]     primal_lower38  136
    u[62]     primal_lower39  142
    u[62]     primal_lower40  703
    u[62]     primal_lower41  831
    u[62]     primal_lower42  225
    u[62]     primal_lower43  8
    u[62]     primal_lower44  394
    u[62]     primal_lower45  98
    u[62]     primal_lower46  557
    u[62]     primal_lower47  17
    u[62]     primal_lower48  738
    u[62]     primal_lower49  849
    u[62]     primal_lower50  703
    u[62]     primal_lower51  1
    u[62]     primal_lower52  968
    u[62]     primal_lower53  800
    u[62]     primal_lower54  306
    u[62]     primal_lower55  347
    u[62]     primal_lower56  47
    u[62]     primal_lower57  184
    u[62]     primal_lower58  431
    u[62]     primal_lower59  120
    u[62]     primal_lower60  299
    u[62]     primal_lower61  425
    u[62]     primal_lower62  178
    u[62]     primal_lower63  323
    u[62]     primal_lower64  827
    u[62]     primal_lower65  835
    u[62]     primal_lower66  651
    u[62]     primal_lower67  397
    u[62]     primal_lower68  974
    u[62]     primal_lower69  314
    u[62]     primal_lower70  100
    u[62]     primal_lower71  188
    u[62]     primal_lower72  59
    u[62]     primal_lower73  355
    u[62]     primal_lower74  12
    u[62]     primal_lower75  124
    u[62]     primal_lower76  691
    u[62]     primal_lower77  898
    u[62]     primal_lower78  25
    u[62]     primal_lower79  352
    u[62]     primal_lower80  378
    u[62]     primal_lower81  612
    u[62]     primal_lower82  973
    u[62]     primal_lower83  475
    u[62]     primal_lower84  995
    u[62]     primal_lower85  753
    u[62]     primal_lower86  456
    u[62]     primal_lower87  641
    u[62]     primal_lower88  172
    u[62]     primal_lower89  932
    u[62]     primal_lower90  119
    u[62]     primal_lower91  752
    u[62]     primal_lower92  263
    u[62]     primal_lower93  147
    u[62]     primal_lower94  366
    u[62]     primal_lower95  461
    u[62]     primal_lower96  176
    u[62]     primal_lower97  4
    u[62]     primal_lower98  13
    u[62]     primal_lower99  886
    u[62]     interdiction[62]  1
    u[62]     mccormick1[62]  -1
    u[62]     mccormick3[62]  1
    u[63]     primal_lower0  535
    u[63]     primal_lower1  800
    u[63]     primal_lower2  904
    u[63]     primal_lower3  881
    u[63]     primal_lower4  150
    u[63]     primal_lower5  588
    u[63]     primal_lower6  317
    u[63]     primal_lower7  584
    u[63]     primal_lower8  534
    u[63]     primal_lower9  916
    u[63]     primal_lower10  751
    u[63]     primal_lower11  311
    u[63]     primal_lower12  636
    u[63]     primal_lower13  674
    u[63]     primal_lower14  138
    u[63]     primal_lower15  584
    u[63]     primal_lower16  780
    u[63]     primal_lower17  85
    u[63]     primal_lower18  347
    u[63]     primal_lower19  185
    u[63]     primal_lower20  594
    u[63]     primal_lower21  605
    u[63]     primal_lower22  294
    u[63]     primal_lower23  385
    u[63]     primal_lower24  510
    u[63]     primal_lower25  931
    u[63]     primal_lower26  248
    u[63]     primal_lower27  941
    u[63]     primal_lower28  784
    u[63]     primal_lower29  128
    u[63]     primal_lower30  234
    u[63]     primal_lower31  232
    u[63]     primal_lower32  613
    u[63]     primal_lower33  240
    u[63]     primal_lower34  59
    u[63]     primal_lower35  219
    u[63]     primal_lower36  745
    u[63]     primal_lower37  679
    u[63]     primal_lower38  975
    u[63]     primal_lower39  205
    u[63]     primal_lower40  286
    u[63]     primal_lower41  262
    u[63]     primal_lower42  324
    u[63]     primal_lower43  63
    u[63]     primal_lower44  453
    u[63]     primal_lower45  485
    u[63]     primal_lower46  572
    u[63]     primal_lower47  32
    u[63]     primal_lower48  169
    u[63]     primal_lower49  784
    u[63]     primal_lower50  362
    u[63]     primal_lower51  536
    u[63]     primal_lower52  183
    u[63]     primal_lower53  111
    u[63]     primal_lower54  241
    u[63]     primal_lower55  290
    u[63]     primal_lower56  102
    u[63]     primal_lower57  795
    u[63]     primal_lower58  222
    u[63]     primal_lower59  747
    u[63]     primal_lower60  890
    u[63]     primal_lower61  432
    u[63]     primal_lower62  117
    u[63]     primal_lower63  650
    u[63]     primal_lower64  434
    u[63]     primal_lower65  610
    u[63]     primal_lower66  502
    u[63]     primal_lower67  836
    u[63]     primal_lower68  797
    u[63]     primal_lower69  473
    u[63]     primal_lower70  591
    u[63]     primal_lower71  203
    u[63]     primal_lower72  454
    u[63]     primal_lower73  970
    u[63]     primal_lower74  167
    u[63]     primal_lower75  143
    u[63]     primal_lower76  254
    u[63]     primal_lower77  273
    u[63]     primal_lower78  924
    u[63]     primal_lower79  151
    u[63]     primal_lower80  257
    u[63]     primal_lower81  291
    u[63]     primal_lower82  952
    u[63]     primal_lower83  826
    u[63]     primal_lower84  582
    u[63]     primal_lower85  12
    u[63]     primal_lower86  763
    u[63]     primal_lower87  48
    u[63]     primal_lower88  163
    u[63]     primal_lower89  891
    u[63]     primal_lower90  114
    u[63]     primal_lower91  835
    u[63]     primal_lower92  702
    u[63]     primal_lower93  870
    u[63]     primal_lower94  865
    u[63]     primal_lower95  164
    u[63]     primal_lower96  539
    u[63]     primal_lower97  283
    u[63]     primal_lower98  636
    u[63]     primal_lower99  821
    u[63]     interdiction[63]  1
    u[63]     mccormick1[63]  -1
    u[63]     mccormick3[63]  1
    u[64]     primal_lower0  264
    u[64]     primal_lower1  621
    u[64]     primal_lower2  293
    u[64]     primal_lower3  438
    u[64]     primal_lower4  215
    u[64]     primal_lower5  253
    u[64]     primal_lower6  290
    u[64]     primal_lower7  169
    u[64]     primal_lower8  835
    u[64]     primal_lower9  677
    u[64]     primal_lower10  932
    u[64]     primal_lower11  588
    u[64]     primal_lower12  637
    u[64]     primal_lower13  323
    u[64]     primal_lower14  999
    u[64]     primal_lower15  333
    u[64]     primal_lower16  209
    u[64]     primal_lower17  866
    u[64]     primal_lower18  656
    u[64]     primal_lower19  238
    u[64]     primal_lower20  979
    u[64]     primal_lower21  218
    u[64]     primal_lower22  403
    u[64]     primal_lower23  390
    u[64]     primal_lower24  619
    u[64]     primal_lower25  480
    u[64]     primal_lower26  781
    u[64]     primal_lower27  534
    u[64]     primal_lower28  197
    u[64]     primal_lower29  689
    u[64]     primal_lower30  523
    u[64]     primal_lower31  29
    u[64]     primal_lower32  370
    u[64]     primal_lower33  201
    u[64]     primal_lower34  440
    u[64]     primal_lower35  580
    u[64]     primal_lower36  134
    u[64]     primal_lower37  620
    u[64]     primal_lower38  940
    u[64]     primal_lower39  746
    u[64]     primal_lower40  467
    u[64]     primal_lower41  851
    u[64]     primal_lower42  13
    u[64]     primal_lower43  788
    u[64]     primal_lower44  782
    u[64]     primal_lower45  126
    u[64]     primal_lower46  737
    u[64]     primal_lower47  397
    u[64]     primal_lower48  582
    u[64]     primal_lower49  557
    u[64]     primal_lower50  963
    u[64]     primal_lower51  93
    u[64]     primal_lower52  340
    u[64]     primal_lower53  412
    u[64]     primal_lower54  198
    u[64]     primal_lower55  79
    u[64]     primal_lower56  403
    u[64]     primal_lower57  772
    u[64]     primal_lower58  571
    u[64]     primal_lower59  12
    u[64]     primal_lower60  535
    u[64]     primal_lower61  869
    u[64]     primal_lower62  542
    u[64]     primal_lower63  199
    u[64]     primal_lower64  319
    u[64]     primal_lower65  159
    u[64]     primal_lower66  279
    u[64]     primal_lower67  193
    u[64]     primal_lower68  362
    u[64]     primal_lower69  646
    u[64]     primal_lower70  224
    u[64]     primal_lower71  536
    u[64]     primal_lower72  495
    u[64]     primal_lower73  951
    u[64]     primal_lower74  848
    u[64]     primal_lower75  584
    u[64]     primal_lower76  607
    u[64]     primal_lower77  518
    u[64]     primal_lower78  517
    u[64]     primal_lower79  948
    u[64]     primal_lower80  502
    u[64]     primal_lower81  480
    u[64]     primal_lower82  33
    u[64]     primal_lower83  711
    u[64]     primal_lower84  767
    u[64]     primal_lower85  893
    u[64]     primal_lower86  812
    u[64]     primal_lower87  629
    u[64]     primal_lower88  472
    u[64]     primal_lower89  344
    u[64]     primal_lower90  667
    u[64]     primal_lower91  956
    u[64]     primal_lower92  27
    u[64]     primal_lower93  79
    u[64]     primal_lower94  898
    u[64]     primal_lower95  329
    u[64]     primal_lower96  876
    u[64]     primal_lower97  520
    u[64]     primal_lower98  465
    u[64]     primal_lower99  530
    u[64]     interdiction[64]  1
    u[64]     mccormick1[64]  -1
    u[64]     mccormick3[64]  1
    u[65]     primal_lower0  904
    u[65]     primal_lower1  130
    u[65]     primal_lower2  106
    u[65]     primal_lower3  51
    u[65]     primal_lower4  127
    u[65]     primal_lower5  861
    u[65]     primal_lower6  471
    u[65]     primal_lower7  841
    u[65]     primal_lower8  144
    u[65]     primal_lower9  405
    u[65]     primal_lower10  753
    u[65]     primal_lower11  233
    u[65]     primal_lower12  973
    u[65]     primal_lower13  27
    u[65]     primal_lower14  564
    u[65]     primal_lower15  642
    u[65]     primal_lower16  710
    u[65]     primal_lower17  167
    u[65]     primal_lower18  493
    u[65]     primal_lower19  723
    u[65]     primal_lower20  235
    u[65]     primal_lower21  327
    u[65]     primal_lower22  312
    u[65]     primal_lower23  75
    u[65]     primal_lower24  1000
    u[65]     primal_lower25  421
    u[65]     primal_lower26  466
    u[65]     primal_lower27  774
    u[65]     primal_lower28  698
    u[65]     primal_lower29  705
    u[65]     primal_lower30  347
    u[65]     primal_lower31  138
    u[65]     primal_lower32  679
    u[65]     primal_lower33  57
    u[65]     primal_lower34  309
    u[65]     primal_lower35  276
    u[65]     primal_lower36  131
    u[65]     primal_lower37  505
    u[65]     primal_lower38  249
    u[65]     primal_lower39  599
    u[65]     primal_lower40  224
    u[65]     primal_lower41  712
    u[65]     primal_lower42  581
    u[65]     primal_lower43  393
    u[65]     primal_lower44  846
    u[65]     primal_lower45  78
    u[65]     primal_lower46  878
    u[65]     primal_lower47  170
    u[65]     primal_lower48  307
    u[65]     primal_lower49  954
    u[65]     primal_lower50  819
    u[65]     primal_lower51  842
    u[65]     primal_lower52  121
    u[65]     primal_lower53  745
    u[65]     primal_lower54  147
    u[65]     primal_lower55  948
    u[65]     primal_lower56  896
    u[65]     primal_lower57  844
    u[65]     primal_lower58  424
    u[65]     primal_lower59  436
    u[65]     primal_lower60  132
    u[65]     primal_lower61  738
    u[65]     primal_lower62  102
    u[65]     primal_lower63  108
    u[65]     primal_lower64  116
    u[65]     primal_lower65  324
    u[65]     primal_lower66  287
    u[65]     primal_lower67  822
    u[65]     primal_lower68  79
    u[65]     primal_lower69  715
    u[65]     primal_lower70  8
    u[65]     primal_lower71  621
    u[65]     primal_lower72  615
    u[65]     primal_lower73  908
    u[65]     primal_lower74  80
    u[65]     primal_lower75  408
    u[65]     primal_lower76  191
    u[65]     primal_lower77  243
    u[65]     primal_lower78  325
    u[65]     primal_lower79  577
    u[65]     primal_lower80  955
    u[65]     primal_lower81  669
    u[65]     primal_lower82  697
    u[65]     primal_lower83  580
    u[65]     primal_lower84  935
    u[65]     primal_lower85  557
    u[65]     primal_lower86  164
    u[65]     primal_lower87  922
    u[65]     primal_lower88  573
    u[65]     primal_lower89  933
    u[65]     primal_lower90  283
    u[65]     primal_lower91  644
    u[65]     primal_lower92  656
    u[65]     primal_lower93  503
    u[65]     primal_lower94  162
    u[65]     primal_lower95  934
    u[65]     primal_lower96  468
    u[65]     primal_lower97  157
    u[65]     primal_lower98  238
    u[65]     primal_lower99  239
    u[65]     interdiction[65]  1
    u[65]     mccormick1[65]  -1
    u[65]     mccormick3[65]  1
    u[66]     primal_lower0  281
    u[66]     primal_lower1  62
    u[66]     primal_lower2  542
    u[66]     primal_lower3  175
    u[66]     primal_lower4  48
    u[66]     primal_lower5  254
    u[66]     primal_lower6  635
    u[66]     primal_lower7  130
    u[66]     primal_lower8  4
    u[66]     primal_lower9  726
    u[66]     primal_lower10  805
    u[66]     primal_lower11  805
    u[66]     primal_lower12  622
    u[66]     primal_lower13  356
    u[66]     primal_lower14  896
    u[66]     primal_lower15  726
    u[66]     primal_lower16  386
    u[66]     primal_lower17  339
    u[66]     primal_lower18  497
    u[66]     primal_lower19  431
    u[66]     primal_lower20  204
    u[66]     primal_lower21  467
    u[66]     primal_lower22  508
    u[66]     primal_lower23  359
    u[66]     primal_lower24  684
    u[66]     primal_lower25  913
    u[66]     primal_lower26  438
    u[66]     primal_lower27  959
    u[66]     primal_lower28  670
    u[66]     primal_lower29  162
    u[66]     primal_lower30  892
    u[66]     primal_lower31  822
    u[66]     primal_lower32  395
    u[66]     primal_lower33  610
    u[66]     primal_lower34  393
    u[66]     primal_lower35  845
    u[66]     primal_lower36  807
    u[66]     primal_lower37  925
    u[66]     primal_lower38  877
    u[66]     primal_lower39  611
    u[66]     primal_lower40  740
    u[66]     primal_lower41  948
    u[66]     primal_lower42  518
    u[66]     primal_lower43  821
    u[66]     primal_lower44  143
    u[66]     primal_lower45  231
    u[66]     primal_lower46  906
    u[66]     primal_lower47  270
    u[66]     primal_lower48  79
    u[66]     primal_lower49  334
    u[66]     primal_lower50  324
    u[66]     primal_lower51  902
    u[66]     primal_lower52  677
    u[66]     primal_lower53  757
    u[66]     primal_lower54  271
    u[66]     primal_lower55  192
    u[66]     primal_lower56  500
    u[66]     primal_lower57  717
    u[66]     primal_lower58  572
    u[66]     primal_lower59  37
    u[66]     primal_lower60  616
    u[66]     primal_lower61  798
    u[66]     primal_lower62  767
    u[66]     primal_lower63  952
    u[66]     primal_lower64  848
    u[66]     primal_lower65  288
    u[66]     primal_lower66  568
    u[66]     primal_lower67  858
    u[66]     primal_lower68  243
    u[66]     primal_lower69  727
    u[66]     primal_lower70  273
    u[66]     primal_lower71  649
    u[66]     primal_lower72  920
    u[66]     primal_lower73  672
    u[66]     primal_lower74  49
    u[66]     primal_lower75  793
    u[66]     primal_lower76  192
    u[66]     primal_lower77  239
    u[66]     primal_lower78  550
    u[66]     primal_lower79  877
    u[66]     primal_lower80  751
    u[66]     primal_lower81  393
    u[66]     primal_lower82  66
    u[66]     primal_lower83  496
    u[66]     primal_lower84  312
    u[66]     primal_lower85  350
    u[66]     primal_lower86  933
    u[66]     primal_lower87  510
    u[66]     primal_lower88  17
    u[66]     primal_lower89  233
    u[66]     primal_lower90  404
    u[66]     primal_lower91  301
    u[66]     primal_lower92  436
    u[66]     primal_lower93  776
    u[66]     primal_lower94  571
    u[66]     primal_lower95  50
    u[66]     primal_lower96  213
    u[66]     primal_lower97  137
    u[66]     primal_lower98  474
    u[66]     primal_lower99  483
    u[66]     interdiction[66]  1
    u[66]     mccormick1[66]  -1
    u[66]     mccormick3[66]  1
    u[67]     primal_lower0  827
    u[67]     primal_lower1  276
    u[67]     primal_lower2  884
    u[67]     primal_lower3  869
    u[67]     primal_lower4  194
    u[67]     primal_lower5  456
    u[67]     primal_lower6  545
    u[67]     primal_lower7  740
    u[67]     primal_lower8  138
    u[67]     primal_lower9  184
    u[67]     primal_lower10  835
    u[67]     primal_lower11  771
    u[67]     primal_lower12  888
    u[67]     primal_lower13  374
    u[67]     primal_lower14  446
    u[67]     primal_lower15  940
    u[67]     primal_lower16  592
    u[67]     primal_lower17  177
    u[67]     primal_lower18  679
    u[67]     primal_lower19  133
    u[67]     primal_lower20  606
    u[67]     primal_lower21  745
    u[67]     primal_lower22  618
    u[67]     primal_lower23  253
    u[67]     primal_lower24  810
    u[67]     primal_lower25  711
    u[67]     primal_lower26  484
    u[67]     primal_lower27  785
    u[67]     primal_lower28  372
    u[67]     primal_lower29  660
    u[67]     primal_lower30  78
    u[67]     primal_lower31  188
    u[67]     primal_lower32  865
    u[67]     primal_lower33  460
    u[67]     primal_lower34  135
    u[67]     primal_lower35  823
    u[67]     primal_lower36  397
    u[67]     primal_lower37  155
    u[67]     primal_lower38  979
    u[67]     primal_lower39  233
    u[67]     primal_lower40  754
    u[67]     primal_lower41  762
    u[67]     primal_lower42  144
    u[67]     primal_lower43  747
    u[67]     primal_lower44  377
    u[67]     primal_lower45  185
    u[67]     primal_lower46  56
    u[67]     primal_lower47  4
    u[67]     primal_lower48  5
    u[67]     primal_lower49  740
    u[67]     primal_lower50  910
    u[67]     primal_lower51  692
    u[67]     primal_lower52  219
    u[67]     primal_lower53  275
    u[67]     primal_lower54  669
    u[67]     primal_lower55  590
    u[67]     primal_lower56  634
    u[67]     primal_lower57  655
    u[67]     primal_lower58  554
    u[67]     primal_lower59  815
    u[67]     primal_lower60  134
    u[67]     primal_lower61  980
    u[67]     primal_lower62  985
    u[67]     primal_lower63  950
    u[67]     primal_lower64  270
    u[67]     primal_lower65  590
    u[67]     primal_lower66  826
    u[67]     primal_lower67  440
    u[67]     primal_lower68  961
    u[67]     primal_lower69  485
    u[67]     primal_lower70  99
    u[67]     primal_lower71  575
    u[67]     primal_lower72  538
    u[67]     primal_lower73  822
    u[67]     primal_lower74  971
    u[67]     primal_lower75  555
    u[67]     primal_lower76  442
    u[67]     primal_lower77  293
    u[67]     primal_lower78  240
    u[67]     primal_lower79  371
    u[67]     primal_lower80  317
    u[67]     primal_lower81  15
    u[67]     primal_lower82  220
    u[67]     primal_lower83  414
    u[67]     primal_lower84  26
    u[67]     primal_lower85  264
    u[67]     primal_lower86  127
    u[67]     primal_lower87  172
    u[67]     primal_lower88  767
    u[67]     primal_lower89  423
    u[67]     primal_lower90  686
    u[67]     primal_lower91  983
    u[67]     primal_lower92  194
    u[67]     primal_lower93  234
    u[67]     primal_lower94  77
    u[67]     primal_lower95  416
    u[67]     primal_lower96  743
    u[67]     primal_lower97  167
    u[67]     primal_lower98  112
    u[67]     primal_lower99  65
    u[67]     interdiction[67]  1
    u[67]     mccormick1[67]  -1
    u[67]     mccormick3[67]  1
    u[68]     primal_lower0  160
    u[68]     primal_lower1  110
    u[68]     primal_lower2  830
    u[68]     primal_lower3  975
    u[68]     primal_lower4  591
    u[68]     primal_lower5  413
    u[68]     primal_lower6  899
    u[68]     primal_lower7  385
    u[68]     primal_lower8  332
    u[68]     primal_lower9  261
    u[68]     primal_lower10  613
    u[68]     primal_lower11  245
    u[68]     primal_lower12  501
    u[68]     primal_lower13  795
    u[68]     primal_lower14  912
    u[68]     primal_lower15  6
    u[68]     primal_lower16  858
    u[68]     primal_lower17  51
    u[68]     primal_lower18  601
    u[68]     primal_lower19  119
    u[68]     primal_lower20  107
    u[68]     primal_lower21  811
    u[68]     primal_lower22  556
    u[68]     primal_lower23  583
    u[68]     primal_lower24  556
    u[68]     primal_lower25  241
    u[68]     primal_lower26  718
    u[68]     primal_lower27  358
    u[68]     primal_lower28  430
    u[68]     primal_lower29  65
    u[68]     primal_lower30  123
    u[68]     primal_lower31  382
    u[68]     primal_lower32  467
    u[68]     primal_lower33  945
    u[68]     primal_lower34  753
    u[68]     primal_lower35  340
    u[68]     primal_lower36  207
    u[68]     primal_lower37  285
    u[68]     primal_lower38  517
    u[68]     primal_lower39  515
    u[68]     primal_lower40  340
    u[68]     primal_lower41  372
    u[68]     primal_lower42  157
    u[68]     primal_lower43  469
    u[68]     primal_lower44  758
    u[68]     primal_lower45  558
    u[68]     primal_lower46  890
    u[68]     primal_lower47  174
    u[68]     primal_lower48  703
    u[68]     primal_lower49  678
    u[68]     primal_lower50  483
    u[68]     primal_lower51  126
    u[68]     primal_lower52  277
    u[68]     primal_lower53  741
    u[68]     primal_lower54  679
    u[68]     primal_lower55  864
    u[68]     primal_lower56  540
    u[68]     primal_lower57  980
    u[68]     primal_lower58  60
    u[68]     primal_lower59  756
    u[68]     primal_lower60  960
    u[68]     primal_lower61  558
    u[68]     primal_lower62  550
    u[68]     primal_lower63  624
    u[68]     primal_lower64  952
    u[68]     primal_lower65  272
    u[68]     primal_lower66  743
    u[68]     primal_lower67  546
    u[68]     primal_lower68  955
    u[68]     primal_lower69  967
    u[68]     primal_lower70  320
    u[68]     primal_lower71  409
    u[68]     primal_lower72  271
    u[68]     primal_lower73  584
    u[68]     primal_lower74  728
    u[68]     primal_lower75  264
    u[68]     primal_lower76  927
    u[68]     primal_lower77  439
    u[68]     primal_lower78  645
    u[68]     primal_lower79  517
    u[68]     primal_lower80  87
    u[68]     primal_lower81  417
    u[68]     primal_lower82  73
    u[68]     primal_lower83  392
    u[68]     primal_lower84  863
    u[68]     primal_lower85  213
    u[68]     primal_lower86  380
    u[68]     primal_lower87  62
    u[68]     primal_lower88  617
    u[68]     primal_lower89  929
    u[68]     primal_lower90  387
    u[68]     primal_lower91  60
    u[68]     primal_lower92  92
    u[68]     primal_lower93  271
    u[68]     primal_lower94  338
    u[68]     primal_lower95  978
    u[68]     primal_lower96  388
    u[68]     primal_lower97  849
    u[68]     primal_lower98  898
    u[68]     primal_lower99  459
    u[68]     interdiction[68]  1
    u[68]     mccormick1[68]  -1
    u[68]     mccormick3[68]  1
    u[69]     primal_lower0  918
    u[69]     primal_lower1  455
    u[69]     primal_lower2  975
    u[69]     primal_lower3  760
    u[69]     primal_lower4  405
    u[69]     primal_lower5  603
    u[69]     primal_lower6  724
    u[69]     primal_lower7  959
    u[69]     primal_lower8  269
    u[69]     primal_lower9  995
    u[69]     primal_lower10  278
    u[69]     primal_lower11  894
    u[69]     primal_lower12  275
    u[69]     primal_lower13  625
    u[69]     primal_lower14  457
    u[69]     primal_lower15  831
    u[69]     primal_lower16  379
    u[69]     primal_lower17  252
    u[69]     primal_lower18  130
    u[69]     primal_lower19  832
    u[69]     primal_lower20  33
    u[69]     primal_lower21  604
    u[69]     primal_lower22  357
    u[69]     primal_lower23  528
    u[69]     primal_lower24  157
    u[69]     primal_lower25  394
    u[69]     primal_lower26  367
    u[69]     primal_lower27  852
    u[69]     primal_lower28  511
    u[69]     primal_lower29  559
    u[69]     primal_lower30  73
    u[69]     primal_lower31  999
    u[69]     primal_lower32  492
    u[69]     primal_lower33  279
    u[69]     primal_lower34  802
    u[69]     primal_lower35  266
    u[69]     primal_lower36  176
    u[69]     primal_lower37  422
    u[69]     primal_lower38  894
    u[69]     primal_lower39  684
    u[69]     primal_lower40  781
    u[69]     primal_lower41  405
    u[69]     primal_lower42  427
    u[69]     primal_lower43  774
    u[69]     primal_lower44  436
    u[69]     primal_lower45  124
    u[69]     primal_lower46  715
    u[69]     primal_lower47  207
    u[69]     primal_lower48  744
    u[69]     primal_lower49  111
    u[69]     primal_lower50  145
    u[69]     primal_lower51  159
    u[69]     primal_lower52  974
    u[69]     primal_lower53  598
    u[69]     primal_lower54  568
    u[69]     primal_lower55  9
    u[69]     primal_lower56  381
    u[69]     primal_lower57  714
    u[69]     primal_lower58  189
    u[69]     primal_lower59  898
    u[69]     primal_lower60  985
    u[69]     primal_lower61  367
    u[69]     primal_lower62  780
    u[69]     primal_lower63  609
    u[69]     primal_lower64  929
    u[69]     primal_lower65  49
    u[69]     primal_lower66  533
    u[69]     primal_lower67  499
    u[69]     primal_lower68  548
    u[69]     primal_lower69  160
    u[69]     primal_lower70  326
    u[69]     primal_lower71  34
    u[69]     primal_lower72  597
    u[69]     primal_lower73  745
    u[69]     primal_lower74  430
    u[69]     primal_lower75  78
    u[69]     primal_lower76  245
    u[69]     primal_lower77  848
    u[69]     primal_lower78  883
    u[69]     primal_lower79  630
    u[69]     primal_lower80  896
    u[69]     primal_lower81  290
    u[69]     primal_lower82  935
    u[69]     primal_lower83  65
    u[69]     primal_lower84  621
    u[69]     primal_lower85  83
    u[69]     primal_lower86  986
    u[69]     primal_lower87  671
    u[69]     primal_lower88  162
    u[69]     primal_lower89  42
    u[69]     primal_lower90  505
    u[69]     primal_lower91  722
    u[69]     primal_lower92  669
    u[69]     primal_lower93  605
    u[69]     primal_lower94  456
    u[69]     primal_lower95  699
    u[69]     primal_lower96  386
    u[69]     primal_lower97  834
    u[69]     primal_lower98  171
    u[69]     primal_lower99  108
    u[69]     interdiction[69]  1
    u[69]     mccormick1[69]  -1
    u[69]     mccormick3[69]  1
    u[70]     primal_lower0  682
    u[70]     primal_lower1  671
    u[70]     primal_lower2  703
    u[70]     primal_lower3  800
    u[70]     primal_lower4  689
    u[70]     primal_lower5  303
    u[70]     primal_lower6  820
    u[70]     primal_lower7  531
    u[70]     primal_lower8  221
    u[70]     primal_lower9  767
    u[70]     primal_lower10  854
    u[70]     primal_lower11  790
    u[70]     primal_lower12  527
    u[70]     primal_lower13  269
    u[70]     primal_lower14  521
    u[70]     primal_lower15  463
    u[70]     primal_lower16  11
    u[70]     primal_lower17  60
    u[70]     primal_lower18  298
    u[70]     primal_lower19  952
    u[70]     primal_lower20  725
    u[70]     primal_lower21  972
    u[70]     primal_lower22  981
    u[70]     primal_lower23  248
    u[70]     primal_lower24  517
    u[70]     primal_lower25  322
    u[70]     primal_lower26  167
    u[70]     primal_lower27  952
    u[70]     primal_lower28  151
    u[70]     primal_lower29  795
    u[70]     primal_lower30  341
    u[70]     primal_lower31  519
    u[70]     primal_lower32  76
    u[70]     primal_lower33  291
    u[70]     primal_lower34  586
    u[70]     primal_lower35  574
    u[70]     primal_lower36  336
    u[70]     primal_lower37  966
    u[70]     primal_lower38  790
    u[70]     primal_lower39  268
    u[70]     primal_lower40  789
    u[70]     primal_lower41  741
    u[70]     primal_lower42  847
    u[70]     primal_lower43  814
    u[70]     primal_lower44  608
    u[70]     primal_lower45  504
    u[70]     primal_lower46  187
    u[70]     primal_lower47  447
    u[70]     primal_lower48  128
    u[70]     primal_lower49  287
    u[70]     primal_lower50  237
    u[70]     primal_lower51  367
    u[70]     primal_lower52  86
    u[70]     primal_lower53  294
    u[70]     primal_lower54  992
    u[70]     primal_lower55  833
    u[70]     primal_lower56  53
    u[70]     primal_lower57  646
    u[70]     primal_lower58  797
    u[70]     primal_lower59  182
    u[70]     primal_lower60  889
    u[70]     primal_lower61  103
    u[70]     primal_lower62  120
    u[70]     primal_lower63  161
    u[70]     primal_lower64  345
    u[70]     primal_lower65  641
    u[70]     primal_lower66  257
    u[70]     primal_lower67  987
    u[70]     primal_lower68  620
    u[70]     primal_lower69  856
    u[70]     primal_lower70  818
    u[70]     primal_lower71  330
    u[70]     primal_lower72  689
    u[70]     primal_lower73  745
    u[70]     primal_lower74  122
    u[70]     primal_lower75  402
    u[70]     primal_lower76  969
    u[70]     primal_lower77  688
    u[70]     primal_lower78  63
    u[70]     primal_lower79  766
    u[70]     primal_lower80  704
    u[70]     primal_lower81  82
    u[70]     primal_lower82  715
    u[70]     primal_lower83  185
    u[70]     primal_lower84  761
    u[70]     primal_lower85  335
    u[70]     primal_lower86  134
    u[70]     primal_lower87  871
    u[70]     primal_lower88  706
    u[70]     primal_lower89  410
    u[70]     primal_lower90  357
    u[70]     primal_lower91  982
    u[70]     primal_lower92  957
    u[70]     primal_lower93  961
    u[70]     primal_lower94  916
    u[70]     primal_lower95  579
    u[70]     primal_lower96  678
    u[70]     primal_lower97  930
    u[70]     primal_lower98  403
    u[70]     primal_lower99  948
    u[70]     interdiction[70]  1
    u[70]     mccormick1[70]  -1
    u[70]     mccormick3[70]  1
    u[71]     primal_lower0  554
    u[71]     primal_lower1  363
    u[71]     primal_lower2  251
    u[71]     primal_lower3  788
    u[71]     primal_lower4  961
    u[71]     primal_lower5  263
    u[71]     primal_lower6  584
    u[71]     primal_lower7  579
    u[71]     primal_lower8  665
    u[71]     primal_lower9  311
    u[71]     primal_lower10  794
    u[71]     primal_lower11  610
    u[71]     primal_lower12  207
    u[71]     primal_lower13  213
    u[71]     primal_lower14  613
    u[71]     primal_lower15  347
    u[71]     primal_lower16  991
    u[71]     primal_lower17  24
    u[71]     primal_lower18  406
    u[71]     primal_lower19  228
    u[71]     primal_lower20  421
    u[71]     primal_lower21  872
    u[71]     primal_lower22  953
    u[71]     primal_lower23  180
    u[71]     primal_lower24  497
    u[71]     primal_lower25  558
    u[71]     primal_lower26  451
    u[71]     primal_lower27  424
    u[71]     primal_lower28  267
    u[71]     primal_lower29  579
    u[71]     primal_lower30  573
    u[71]     primal_lower31  995
    u[71]     primal_lower32  632
    u[71]     primal_lower33  635
    u[71]     primal_lower34  542
    u[71]     primal_lower35  942
    u[71]     primal_lower36  956
    u[71]     primal_lower37  962
    u[71]     primal_lower38  386
    u[71]     primal_lower39  280
    u[71]     primal_lower40  481
    u[71]     primal_lower41  1
    u[71]     primal_lower42  359
    u[71]     primal_lower43  322
    u[71]     primal_lower44  272
    u[71]     primal_lower45  104
    u[71]     primal_lower46  231
    u[71]     primal_lower47  299
    u[71]     primal_lower48  76
    u[71]     primal_lower49  419
    u[71]     primal_lower50  757
    u[71]     primal_lower51  179
    u[71]     primal_lower52  218
    u[71]     primal_lower53  474
    u[71]     primal_lower54  244
    u[71]     primal_lower55  85
    u[71]     primal_lower56  681
    u[71]     primal_lower57  670
    u[71]     primal_lower58  241
    u[71]     primal_lower59  702
    u[71]     primal_lower60  461
    u[71]     primal_lower61  435
    u[71]     primal_lower62  592
    u[71]     primal_lower63  885
    u[71]     primal_lower64  37
    u[71]     primal_lower65  765
    u[71]     primal_lower66  321
    u[71]     primal_lower67  567
    u[71]     primal_lower68  856
    u[71]     primal_lower69  92
    u[71]     primal_lower70  466
    u[71]     primal_lower71  150
    u[71]     primal_lower72  65
    u[71]     primal_lower73  309
    u[71]     primal_lower74  26
    u[71]     primal_lower75  282
    u[71]     primal_lower76  689
    u[71]     primal_lower77  700
    u[71]     primal_lower78  855
    u[71]     primal_lower79  746
    u[71]     primal_lower80  124
    u[71]     primal_lower81  390
    u[71]     primal_lower82  515
    u[71]     primal_lower83  901
    u[71]     primal_lower84  265
    u[71]     primal_lower85  631
    u[71]     primal_lower86  822
    u[71]     primal_lower87  691
    u[71]     primal_lower88  742
    u[71]     primal_lower89  470
    u[71]     primal_lower90  965
    u[71]     primal_lower91  398
    u[71]     primal_lower92  121
    u[71]     primal_lower93  993
    u[71]     primal_lower94  916
    u[71]     primal_lower95  63
    u[71]     primal_lower96  702
    u[71]     primal_lower97  982
    u[71]     primal_lower98  927
    u[71]     primal_lower99  632
    u[71]     interdiction[71]  1
    u[71]     mccormick1[71]  -1
    u[71]     mccormick3[71]  1
    u[72]     primal_lower0  858
    u[72]     primal_lower1  744
    u[72]     primal_lower2  384
    u[72]     primal_lower3  25
    u[72]     primal_lower4  57
    u[72]     primal_lower5  727
    u[72]     primal_lower6  301
    u[72]     primal_lower7  827
    u[72]     primal_lower8  454
    u[72]     primal_lower9  887
    u[72]     primal_lower10  751
    u[72]     primal_lower11  767
    u[72]     primal_lower12  167
    u[72]     primal_lower13  917
    u[72]     primal_lower14  170
    u[72]     primal_lower15  216
    u[72]     primal_lower16  748
    u[72]     primal_lower17  397
    u[72]     primal_lower18  395
    u[72]     primal_lower19  217
    u[72]     primal_lower20  725
    u[72]     primal_lower21  645
    u[72]     primal_lower22  862
    u[72]     primal_lower23  105
    u[72]     primal_lower24  430
    u[72]     primal_lower25  995
    u[72]     primal_lower26  392
    u[72]     primal_lower27  8
    u[72]     primal_lower28  56
    u[72]     primal_lower29  227
    u[72]     primal_lower30  389
    u[72]     primal_lower31  712
    u[72]     primal_lower32  533
    u[72]     primal_lower33  699
    u[72]     primal_lower34  867
    u[72]     primal_lower35  630
    u[72]     primal_lower36  569
    u[72]     primal_lower37  975
    u[72]     primal_lower38  591
    u[72]     primal_lower39  509
    u[72]     primal_lower40  742
    u[72]     primal_lower41  918
    u[72]     primal_lower42  431
    u[72]     primal_lower43  183
    u[72]     primal_lower44  256
    u[72]     primal_lower45  592
    u[72]     primal_lower46  20
    u[72]     primal_lower47  704
    u[72]     primal_lower48  289
    u[72]     primal_lower49  120
    u[72]     primal_lower50  437
    u[72]     primal_lower51  568
    u[72]     primal_lower52  303
    u[72]     primal_lower53  607
    u[72]     primal_lower54  73
    u[72]     primal_lower55  770
    u[72]     primal_lower56  622
    u[72]     primal_lower57  654
    u[72]     primal_lower58  214
    u[72]     primal_lower59  182
    u[72]     primal_lower60  314
    u[72]     primal_lower61  784
    u[72]     primal_lower62  944
    u[72]     primal_lower63  74
    u[72]     primal_lower64  594
    u[72]     primal_lower65  810
    u[72]     primal_lower66  177
    u[72]     primal_lower67  884
    u[72]     primal_lower68  389
    u[72]     primal_lower69  745
    u[72]     primal_lower70  602
    u[72]     primal_lower71  547
    u[72]     primal_lower72  129
    u[72]     primal_lower73  234
    u[72]     primal_lower74  874
    u[72]     primal_lower75  698
    u[72]     primal_lower76  505
    u[72]     primal_lower77  137
    u[72]     primal_lower78  71
    u[72]     primal_lower79  527
    u[72]     primal_lower80  249
    u[72]     primal_lower81  619
    u[72]     primal_lower82  915
    u[72]     primal_lower83  162
    u[72]     primal_lower84  513
    u[72]     primal_lower85  279
    u[72]     primal_lower86  902
    u[72]     primal_lower87  504
    u[72]     primal_lower88  707
    u[72]     primal_lower89  971
    u[72]     primal_lower90  253
    u[72]     primal_lower91  310
    u[72]     primal_lower92  534
    u[72]     primal_lower93  689
    u[72]     primal_lower94  332
    u[72]     primal_lower95  268
    u[72]     primal_lower96  830
    u[72]     primal_lower97  675
    u[72]     primal_lower98  524
    u[72]     primal_lower99  805
    u[72]     interdiction[72]  1
    u[72]     mccormick1[72]  -1
    u[72]     mccormick3[72]  1
    u[73]     primal_lower0  371
    u[73]     primal_lower1  773
    u[73]     primal_lower2  229
    u[73]     primal_lower3  86
    u[73]     primal_lower4  202
    u[73]     primal_lower5  560
    u[73]     primal_lower6  522
    u[73]     primal_lower7  292
    u[73]     primal_lower8  675
    u[73]     primal_lower9  576
    u[73]     primal_lower10  420
    u[73]     primal_lower11  708
    u[73]     primal_lower12  216
    u[73]     primal_lower13  462
    u[73]     primal_lower14  919
    u[73]     primal_lower15  845
    u[73]     primal_lower16  529
    u[73]     primal_lower17  762
    u[73]     primal_lower18  336
    u[73]     primal_lower19  646
    u[73]     primal_lower20  14
    u[73]     primal_lower21  514
    u[73]     primal_lower22  531
    u[73]     primal_lower23  70
    u[73]     primal_lower24  771
    u[73]     primal_lower25  128
    u[73]     primal_lower26  621
    u[73]     primal_lower27  393
    u[73]     primal_lower28  717
    u[73]     primal_lower29  324
    u[73]     primal_lower30  78
    u[73]     primal_lower31  877
    u[73]     primal_lower32  938
    u[73]     primal_lower33  676
    u[73]     primal_lower34  632
    u[73]     primal_lower35  519
    u[73]     primal_lower36  262
    u[73]     primal_lower37  852
    u[73]     primal_lower38  20
    u[73]     primal_lower39  898
    u[73]     primal_lower40  851
    u[73]     primal_lower41  939
    u[73]     primal_lower42  640
    u[73]     primal_lower43  868
    u[73]     primal_lower44  737
    u[73]     primal_lower45  321
    u[73]     primal_lower46  897
    u[73]     primal_lower47  37
    u[73]     primal_lower48  190
    u[73]     primal_lower49  413
    u[73]     primal_lower50  454
    u[73]     primal_lower51  53
    u[73]     primal_lower52  316
    u[73]     primal_lower53  644
    u[73]     primal_lower54  38
    u[73]     primal_lower55  319
    u[73]     primal_lower56  915
    u[73]     primal_lower57  895
    u[73]     primal_lower58  27
    u[73]     primal_lower59  975
    u[73]     primal_lower60  455
    u[73]     primal_lower61  5
    u[73]     primal_lower62  705
    u[73]     primal_lower63  775
    u[73]     primal_lower64  279
    u[73]     primal_lower65  455
    u[73]     primal_lower66  226
    u[73]     primal_lower67  593
    u[73]     primal_lower68  890
    u[73]     primal_lower69  542
    u[73]     primal_lower70  659
    u[73]     primal_lower71  200
    u[73]     primal_lower72  562
    u[73]     primal_lower73  135
    u[73]     primal_lower74  435
    u[73]     primal_lower75  43
    u[73]     primal_lower76  738
    u[73]     primal_lower77  790
    u[73]     primal_lower78  808
    u[73]     primal_lower79  332
    u[73]     primal_lower80  902
    u[73]     primal_lower81  832
    u[73]     primal_lower82  284
    u[73]     primal_lower83  719
    u[73]     primal_lower84  66
    u[73]     primal_lower85  928
    u[73]     primal_lower86  295
    u[73]     primal_lower87  197
    u[73]     primal_lower88  944
    u[73]     primal_lower89  168
    u[73]     primal_lower90  702
    u[73]     primal_lower91  255
    u[73]     primal_lower92  851
    u[73]     primal_lower93  498
    u[73]     primal_lower94  613
    u[73]     primal_lower95  689
    u[73]     primal_lower96  383
    u[73]     primal_lower97  952
    u[73]     primal_lower98  289
    u[73]     primal_lower99  834
    u[73]     interdiction[73]  1
    u[73]     mccormick1[73]  -1
    u[73]     mccormick3[73]  1
    u[74]     primal_lower0  476
    u[74]     primal_lower1  809
    u[74]     primal_lower2  705
    u[74]     primal_lower3  306
    u[74]     primal_lower4  675
    u[74]     primal_lower5  209
    u[74]     primal_lower6  702
    u[74]     primal_lower7  845
    u[74]     primal_lower8  319
    u[74]     primal_lower9  57
    u[74]     primal_lower10  824
    u[74]     primal_lower11  16
    u[74]     primal_lower12  545
    u[74]     primal_lower13  423
    u[74]     primal_lower14  515
    u[74]     primal_lower15  161
    u[74]     primal_lower16  109
    u[74]     primal_lower17  606
    u[74]     primal_lower18  116
    u[74]     primal_lower19  738
    u[74]     primal_lower20  543
    u[74]     primal_lower21  70
    u[74]     primal_lower22  175
    u[74]     primal_lower23  610
    u[74]     primal_lower24  967
    u[74]     primal_lower25  436
    u[74]     primal_lower26  809
    u[74]     primal_lower27  90
    u[74]     primal_lower28  825
    u[74]     primal_lower29  925
    u[74]     primal_lower30  887
    u[74]     primal_lower31  201
    u[74]     primal_lower32  750
    u[74]     primal_lower33  205
    u[74]     primal_lower34  716
    u[74]     primal_lower35  728
    u[74]     primal_lower36  506
    u[74]     primal_lower37  200
    u[74]     primal_lower38  296
    u[74]     primal_lower39  822
    u[74]     primal_lower40  111
    u[74]     primal_lower41  871
    u[74]     primal_lower42  497
    u[74]     primal_lower43  304
    u[74]     primal_lower44  930
    u[74]     primal_lower45  154
    u[74]     primal_lower46  477
    u[74]     primal_lower47  793
    u[74]     primal_lower48  882
    u[74]     primal_lower49  873
    u[74]     primal_lower50  687
    u[74]     primal_lower51  33
    u[74]     primal_lower52  88
    u[74]     primal_lower53  496
    u[74]     primal_lower54  234
    u[74]     primal_lower55  763
    u[74]     primal_lower56  703
    u[74]     primal_lower57  112
    u[74]     primal_lower58  599
    u[74]     primal_lower59  504
    u[74]     primal_lower60  515
    u[74]     primal_lower61  57
    u[74]     primal_lower62  434
    u[74]     primal_lower63  739
    u[74]     primal_lower64  611
    u[74]     primal_lower65  499
    u[74]     primal_lower66  587
    u[74]     primal_lower67  957
    u[74]     primal_lower68  334
    u[74]     primal_lower69  330
    u[74]     primal_lower70  4
    u[74]     primal_lower71  724
    u[74]     primal_lower72  171
    u[74]     primal_lower73  11
    u[74]     primal_lower74  420
    u[74]     primal_lower75  452
    u[74]     primal_lower76  123
    u[74]     primal_lower77  810
    u[74]     primal_lower78  881
    u[74]     primal_lower79  832
    u[74]     primal_lower80  362
    u[74]     primal_lower81  412
    u[74]     primal_lower82  805
    u[74]     primal_lower83  987
    u[74]     primal_lower84  115
    u[74]     primal_lower85  633
    u[74]     primal_lower86  760
    u[74]     primal_lower87  937
    u[74]     primal_lower88  676
    u[74]     primal_lower89  404
    u[74]     primal_lower90  863
    u[74]     primal_lower91  176
    u[74]     primal_lower92  663
    u[74]     primal_lower93  339
    u[74]     primal_lower94  54
    u[74]     primal_lower95  197
    u[74]     primal_lower96  144
    u[74]     primal_lower97  556
    u[74]     primal_lower98  181
    u[74]     primal_lower99  510
    u[74]     interdiction[74]  1
    u[74]     mccormick1[74]  -1
    u[74]     mccormick3[74]  1
    u[75]     primal_lower0  693
    u[75]     primal_lower1  502
    u[75]     primal_lower2  870
    u[75]     primal_lower3  639
    u[75]     primal_lower4  324
    u[75]     primal_lower5  554
    u[75]     primal_lower6  667
    u[75]     primal_lower7  102
    u[75]     primal_lower8  660
    u[75]     primal_lower9  570
    u[75]     primal_lower10  293
    u[75]     primal_lower11  693
    u[75]     primal_lower12  930
    u[75]     primal_lower13  408
    u[75]     primal_lower14  744
    u[75]     primal_lower15  766
    u[75]     primal_lower16  138
    u[75]     primal_lower17  347
    u[75]     primal_lower18  369
    u[75]     primal_lower19  167
    u[75]     primal_lower20  816
    u[75]     primal_lower21  891
    u[75]     primal_lower22  524
    u[75]     primal_lower23  607
    u[75]     primal_lower24  188
    u[75]     primal_lower25  561
    u[75]     primal_lower26  998
    u[75]     primal_lower27  331
    u[75]     primal_lower28  342
    u[75]     primal_lower29  126
    u[75]     primal_lower30  728
    u[75]     primal_lower31  822
    u[75]     primal_lower32  331
    u[75]     primal_lower33  206
    u[75]     primal_lower34  577
    u[75]     primal_lower35  665
    u[75]     primal_lower36  967
    u[75]     primal_lower37  613
    u[75]     primal_lower38  277
    u[75]     primal_lower39  883
    u[75]     primal_lower40  964
    u[75]     primal_lower41  812
    u[75]     primal_lower42  362
    u[75]     primal_lower43  717
    u[75]     primal_lower44  579
    u[75]     primal_lower45  611
    u[75]     primal_lower46  618
    u[75]     primal_lower47  614
    u[75]     primal_lower48  767
    u[75]     primal_lower49  574
    u[75]     primal_lower50  808
    u[75]     primal_lower51  334
    u[75]     primal_lower52  429
    u[75]     primal_lower53  965
    u[75]     primal_lower54  759
    u[75]     primal_lower55  880
    u[75]     primal_lower56  732
    u[75]     primal_lower57  441
    u[75]     primal_lower58  924
    u[75]     primal_lower59  881
    u[75]     primal_lower60  912
    u[75]     primal_lower61  518
    u[75]     primal_lower62  963
    u[75]     primal_lower63  232
    u[75]     primal_lower64  600
    u[75]     primal_lower65  24
    u[75]     primal_lower66  76
    u[75]     primal_lower67  522
    u[75]     primal_lower68  707
    u[75]     primal_lower69  959
    u[75]     primal_lower70  693
    u[75]     primal_lower71  777
    u[75]     primal_lower72  636
    u[75]     primal_lower73  952
    u[75]     primal_lower74  957
    u[75]     primal_lower75  917
    u[75]     primal_lower76  52
    u[75]     primal_lower77  503
    u[75]     primal_lower78  666
    u[75]     primal_lower79  909
    u[75]     primal_lower80  959
    u[75]     primal_lower81  873
    u[75]     primal_lower82  494
    u[75]     primal_lower83  128
    u[75]     primal_lower84  804
    u[75]     primal_lower85  658
    u[75]     primal_lower86  225
    u[75]     primal_lower87  558
    u[75]     primal_lower88  689
    u[75]     primal_lower89  217
    u[75]     primal_lower90  392
    u[75]     primal_lower91  273
    u[75]     primal_lower92  588
    u[75]     primal_lower93  140
    u[75]     primal_lower94  815
    u[75]     primal_lower95  458
    u[75]     primal_lower96  313
    u[75]     primal_lower97  137
    u[75]     primal_lower98  858
    u[75]     primal_lower99  803
    u[75]     interdiction[75]  1
    u[75]     mccormick1[75]  -1
    u[75]     mccormick3[75]  1
    u[76]     primal_lower0  751
    u[76]     primal_lower1  412
    u[76]     primal_lower2  764
    u[76]     primal_lower3  837
    u[76]     primal_lower4  862
    u[76]     primal_lower5  524
    u[76]     primal_lower6  273
    u[76]     primal_lower7  824
    u[76]     primal_lower8  234
    u[76]     primal_lower9  708
    u[76]     primal_lower10  459
    u[76]     primal_lower11  251
    u[76]     primal_lower12  484
    u[76]     primal_lower13  482
    u[76]     primal_lower14  390
    u[76]     primal_lower15  132
    u[76]     primal_lower16  520
    u[76]     primal_lower17  977
    u[76]     primal_lower18  103
    u[76]     primal_lower19  781
    u[76]     primal_lower20  298
    u[76]     primal_lower21  585
    u[76]     primal_lower22  834
    u[76]     primal_lower23  157
    u[76]     primal_lower24  794
    u[76]     primal_lower25  655
    u[76]     primal_lower26  580
    u[76]     primal_lower27  541
    u[76]     primal_lower28  484
    u[76]     primal_lower29  856
    u[76]     primal_lower30  82
    u[76]     primal_lower31  404
    u[76]     primal_lower32  153
    u[76]     primal_lower33  288
    u[76]     primal_lower34  655
    u[76]     primal_lower35  171
    u[76]     primal_lower36  429
    u[76]     primal_lower37  227
    u[76]     primal_lower38  515
    u[76]     primal_lower39  777
    u[76]     primal_lower40  178
    u[76]     primal_lower41  682
    u[76]     primal_lower42  124
    u[76]     primal_lower43  963
    u[76]     primal_lower44  733
    u[76]     primal_lower45  829
    u[76]     primal_lower46  312
    u[76]     primal_lower47  308
    u[76]     primal_lower48  189
    u[76]     primal_lower49  716
    u[76]     primal_lower50  882
    u[76]     primal_lower51  844
    u[76]     primal_lower52  515
    u[76]     primal_lower53  123
    u[76]     primal_lower54  213
    u[76]     primal_lower55  534
    u[76]     primal_lower56  282
    u[76]     primal_lower57  371
    u[76]     primal_lower58  850
    u[76]     primal_lower59  691
    u[76]     primal_lower60  550
    u[76]     primal_lower61  36
    u[76]     primal_lower62  957
    u[76]     primal_lower63  334
    u[76]     primal_lower64  678
    u[76]     primal_lower65  990
    u[76]     primal_lower66  182
    u[76]     primal_lower67  40
    u[76]     primal_lower68  761
    u[76]     primal_lower69  229
    u[76]     primal_lower70  407
    u[76]     primal_lower71  415
    u[76]     primal_lower72  974
    u[76]     primal_lower73  510
    u[76]     primal_lower74  903
    u[76]     primal_lower75  407
    u[76]     primal_lower76  694
    u[76]     primal_lower77  749
    u[76]     primal_lower78  308
    u[76]     primal_lower79  739
    u[76]     primal_lower80  365
    u[76]     primal_lower81  631
    u[76]     primal_lower82  296
    u[76]     primal_lower83  478
    u[76]     primal_lower84  750
    u[76]     primal_lower85  44
    u[76]     primal_lower86  147
    u[76]     primal_lower87  204
    u[76]     primal_lower88  351
    u[76]     primal_lower89  527
    u[76]     primal_lower90  210
    u[76]     primal_lower91  987
    u[76]     primal_lower92  498
    u[76]     primal_lower93  14
    u[76]     primal_lower94  9
    u[76]     primal_lower95  688
    u[76]     primal_lower96  219
    u[76]     primal_lower97  175
    u[76]     primal_lower98  568
    u[76]     primal_lower99  473
    u[76]     interdiction[76]  1
    u[76]     mccormick1[76]  -1
    u[76]     mccormick3[76]  1
    u[77]     primal_lower0  215
    u[77]     primal_lower1  585
    u[77]     primal_lower2  777
    u[77]     primal_lower3  546
    u[77]     primal_lower4  78
    u[77]     primal_lower5  644
    u[77]     primal_lower6  118
    u[77]     primal_lower7  176
    u[77]     primal_lower8  79
    u[77]     primal_lower9  444
    u[77]     primal_lower10  544
    u[77]     primal_lower11  296
    u[77]     primal_lower12  660
    u[77]     primal_lower13  610
    u[77]     primal_lower14  755
    u[77]     primal_lower15  441
    u[77]     primal_lower16  461
    u[77]     primal_lower17  862
    u[77]     primal_lower18  708
    u[77]     primal_lower19  634
    u[77]     primal_lower20  378
    u[77]     primal_lower21  782
    u[77]     primal_lower22  367
    u[77]     primal_lower23  162
    u[77]     primal_lower24  607
    u[77]     primal_lower25  908
    u[77]     primal_lower26  1
    u[77]     primal_lower27  309
    u[77]     primal_lower28  401
    u[77]     primal_lower29  600
    u[77]     primal_lower30  138
    u[77]     primal_lower31  953
    u[77]     primal_lower32  502
    u[77]     primal_lower33  72
    u[77]     primal_lower34  444
    u[77]     primal_lower35  899
    u[77]     primal_lower36  226
    u[77]     primal_lower37  912
    u[77]     primal_lower38  160
    u[77]     primal_lower39  294
    u[77]     primal_lower40  687
    u[77]     primal_lower41  743
    u[77]     primal_lower42  868
    u[77]     primal_lower43  856
    u[77]     primal_lower44  781
    u[77]     primal_lower45  125
    u[77]     primal_lower46  709
    u[77]     primal_lower47  545
    u[77]     primal_lower48  354
    u[77]     primal_lower49  841
    u[77]     primal_lower50  330
    u[77]     primal_lower51  953
    u[77]     primal_lower52  232
    u[77]     primal_lower53  664
    u[77]     primal_lower54  986
    u[77]     primal_lower55  35
    u[77]     primal_lower56  535
    u[77]     primal_lower57  523
    u[77]     primal_lower58  559
    u[77]     primal_lower59  499
    u[77]     primal_lower60  931
    u[77]     primal_lower61  65
    u[77]     primal_lower62  13
    u[77]     primal_lower63  723
    u[77]     primal_lower64  3
    u[77]     primal_lower65  755
    u[77]     primal_lower66  702
    u[77]     primal_lower67  669
    u[77]     primal_lower68  814
    u[77]     primal_lower69  898
    u[77]     primal_lower70  631
    u[77]     primal_lower71  116
    u[77]     primal_lower72  22
    u[77]     primal_lower73  323
    u[77]     primal_lower74  279
    u[77]     primal_lower75  303
    u[77]     primal_lower76  142
    u[77]     primal_lower77  226
    u[77]     primal_lower78  492
    u[77]     primal_lower79  56
    u[77]     primal_lower80  498
    u[77]     primal_lower81  404
    u[77]     primal_lower82  384
    u[77]     primal_lower83  387
    u[77]     primal_lower84  38
    u[77]     primal_lower85  868
    u[77]     primal_lower86  499
    u[77]     primal_lower87  473
    u[77]     primal_lower88  108
    u[77]     primal_lower89  508
    u[77]     primal_lower90  818
    u[77]     primal_lower91  755
    u[77]     primal_lower92  807
    u[77]     primal_lower93  990
    u[77]     primal_lower94  961
    u[77]     primal_lower95  413
    u[77]     primal_lower96  595
    u[77]     primal_lower97  716
    u[77]     primal_lower98  757
    u[77]     primal_lower99  550
    u[77]     interdiction[77]  1
    u[77]     mccormick1[77]  -1
    u[77]     mccormick3[77]  1
    u[78]     primal_lower0  965
    u[78]     primal_lower1  274
    u[78]     primal_lower2  138
    u[78]     primal_lower3  27
    u[78]     primal_lower4  996
    u[78]     primal_lower5  370
    u[78]     primal_lower6  431
    u[78]     primal_lower7  438
    u[78]     primal_lower8  480
    u[78]     primal_lower9  626
    u[78]     primal_lower10  89
    u[78]     primal_lower11  785
    u[78]     primal_lower12  962
    u[78]     primal_lower13  344
    u[78]     primal_lower14  12
    u[78]     primal_lower15  34
    u[78]     primal_lower16  806
    u[78]     primal_lower17  711
    u[78]     primal_lower18  253
    u[78]     primal_lower19  667
    u[78]     primal_lower20  504
    u[78]     primal_lower21  87
    u[78]     primal_lower22  472
    u[78]     primal_lower23  859
    u[78]     primal_lower24  328
    u[78]     primal_lower25  517
    u[78]     primal_lower26  186
    u[78]     primal_lower27  139
    u[78]     primal_lower28  738
    u[78]     primal_lower29  766
    u[78]     primal_lower30  288
    u[78]     primal_lower31  698
    u[78]     primal_lower32  471
    u[78]     primal_lower33  334
    u[78]     primal_lower34  421
    u[78]     primal_lower35  649
    u[78]     primal_lower36  747
    u[78]     primal_lower37  321
    u[78]     primal_lower38  441
    u[78]     primal_lower39  127
    u[78]     primal_lower40  392
    u[78]     primal_lower41  192
    u[78]     primal_lower42  786
    u[78]     primal_lower43  417
    u[78]     primal_lower44  251
    u[78]     primal_lower45  675
    u[78]     primal_lower46  670
    u[78]     primal_lower47  450
    u[78]     primal_lower48  467
    u[78]     primal_lower49  114
    u[78]     primal_lower50  560
    u[78]     primal_lower51  522
    u[78]     primal_lower52  689
    u[78]     primal_lower53  105
    u[78]     primal_lower54  283
    u[78]     primal_lower55  268
    u[78]     primal_lower56  776
    u[78]     primal_lower57  553
    u[78]     primal_lower58  376
    u[78]     primal_lower59  217
    u[78]     primal_lower60  412
    u[78]     primal_lower61  98
    u[78]     primal_lower62  379
    u[78]     primal_lower63  708
    u[78]     primal_lower64  132
    u[78]     primal_lower65  476
    u[78]     primal_lower66  60
    u[78]     primal_lower67  526
    u[78]     primal_lower68  695
    u[78]     primal_lower69  307
    u[78]     primal_lower70  765
    u[78]     primal_lower71  693
    u[78]     primal_lower72  612
    u[78]     primal_lower73  972
    u[78]     primal_lower74  253
    u[78]     primal_lower75  301
    u[78]     primal_lower76  620
    u[78]     primal_lower77  219
    u[78]     primal_lower78  34
    u[78]     primal_lower79  873
    u[78]     primal_lower80  843
    u[78]     primal_lower81  853
    u[78]     primal_lower82  286
    u[78]     primal_lower83  604
    u[78]     primal_lower84  492
    u[78]     primal_lower85  770
    u[78]     primal_lower86  305
    u[78]     primal_lower87  802
    u[78]     primal_lower88  157
    u[78]     primal_lower89  773
    u[78]     primal_lower90  160
    u[78]     primal_lower91  689
    u[78]     primal_lower92  304
    u[78]     primal_lower93  636
    u[78]     primal_lower94  167
    u[78]     primal_lower95  622
    u[78]     primal_lower96  337
    u[78]     primal_lower97  965
    u[78]     primal_lower98  974
    u[78]     primal_lower99  135
    u[78]     interdiction[78]  1
    u[78]     mccormick1[78]  -1
    u[78]     mccormick3[78]  1
    u[79]     primal_lower0  679
    u[79]     primal_lower1  8
    u[79]     primal_lower2  736
    u[79]     primal_lower3  241
    u[79]     primal_lower4  342
    u[79]     primal_lower5  452
    u[79]     primal_lower6  997
    u[79]     primal_lower7  592
    u[79]     primal_lower8  486
    u[79]     primal_lower9  948
    u[79]     primal_lower10  783
    u[79]     primal_lower11  599
    u[79]     primal_lower12  308
    u[79]     primal_lower13  26
    u[79]     primal_lower14  266
    u[79]     primal_lower15  576
    u[79]     primal_lower16  644
    u[79]     primal_lower17  925
    u[79]     primal_lower18  811
    u[79]     primal_lower19  209
    u[79]     primal_lower20  698
    u[79]     primal_lower21  373
    u[79]     primal_lower22  902
    u[79]     primal_lower23  65
    u[79]     primal_lower24  230
    u[79]     primal_lower25  539
    u[79]     primal_lower26  824
    u[79]     primal_lower27  829
    u[79]     primal_lower28  816
    u[79]     primal_lower29  712
    u[79]     primal_lower30  154
    u[79]     primal_lower31  976
    u[79]     primal_lower32  229
    u[79]     primal_lower33  952
    u[79]     primal_lower34  731
    u[79]     primal_lower35  83
    u[79]     primal_lower36  209
    u[79]     primal_lower37  167
    u[79]     primal_lower38  831
    u[79]     primal_lower39  293
    u[79]     primal_lower40  718
    u[79]     primal_lower41  614
    u[79]     primal_lower42  212
    u[79]     primal_lower43  623
    u[79]     primal_lower44  29
    u[79]     primal_lower45  469
    u[79]     primal_lower46  932
    u[79]     primal_lower47  376
    u[79]     primal_lower48  201
    u[79]     primal_lower49  640
    u[79]     primal_lower50  2
    u[79]     primal_lower51  80
    u[79]     primal_lower52  527
    u[79]     primal_lower53  895
    u[79]     primal_lower54  353
    u[79]     primal_lower55  610
    u[79]     primal_lower56  846
    u[79]     primal_lower57  75
    u[79]     primal_lower58  78
    u[79]     primal_lower59  235
    u[79]     primal_lower60  306
    u[79]     primal_lower61  352
    u[79]     primal_lower62  741
    u[79]     primal_lower63  738
    u[79]     primal_lower64  738
    u[79]     primal_lower65  546
    u[79]     primal_lower66  510
    u[79]     primal_lower67  684
    u[79]     primal_lower68  981
    u[79]     primal_lower69  289
    u[79]     primal_lower70  807
    u[79]     primal_lower71  427
    u[79]     primal_lower72  806
    u[79]     primal_lower73  418
    u[79]     primal_lower74  143
    u[79]     primal_lower75  351
    u[79]     primal_lower76  70
    u[79]     primal_lower77  137
    u[79]     primal_lower78  532
    u[79]     primal_lower79  743
    u[79]     primal_lower80  81
    u[79]     primal_lower81  891
    u[79]     primal_lower82  232
    u[79]     primal_lower83  186
    u[79]     primal_lower84  462
    u[79]     primal_lower85  132
    u[79]     primal_lower86  603
    u[79]     primal_lower87  776
    u[79]     primal_lower88  371
    u[79]     primal_lower89  155
    u[79]     primal_lower90  282
    u[79]     primal_lower91  803
    u[79]     primal_lower92  766
    u[79]     primal_lower93  718
    u[79]     primal_lower94  113
    u[79]     primal_lower95  652
    u[79]     primal_lower96  467
    u[79]     primal_lower97  931
    u[79]     primal_lower98  260
    u[79]     primal_lower99  581
    u[79]     interdiction[79]  1
    u[79]     mccormick1[79]  -1
    u[79]     mccormick3[79]  1
    z[0]      primal_upper  85
    z[0]      mccormick1[0]  1
    z[0]      mccormick2[0]  1
    z[0]      mccormick3[0]  -1
    z[1]      primal_upper  12
    z[1]      mccormick1[1]  1
    z[1]      mccormick2[1]  1
    z[1]      mccormick3[1]  -1
    z[2]      primal_upper  44
    z[2]      mccormick1[2]  1
    z[2]      mccormick2[2]  1
    z[2]      mccormick3[2]  -1
    z[3]      primal_upper  65
    z[3]      mccormick1[3]  1
    z[3]      mccormick2[3]  1
    z[3]      mccormick3[3]  -1
    z[4]      primal_upper  12
    z[4]      mccormick1[4]  1
    z[4]      mccormick2[4]  1
    z[4]      mccormick3[4]  -1
    z[5]      primal_upper  69
    z[5]      mccormick1[5]  1
    z[5]      mccormick2[5]  1
    z[5]      mccormick3[5]  -1
    z[6]      primal_upper  82
    z[6]      mccormick1[6]  1
    z[6]      mccormick2[6]  1
    z[6]      mccormick3[6]  -1
    z[7]      primal_upper  50
    z[7]      mccormick1[7]  1
    z[7]      mccormick2[7]  1
    z[7]      mccormick3[7]  -1
    z[8]      primal_upper  9
    z[8]      mccormick1[8]  1
    z[8]      mccormick2[8]  1
    z[8]      mccormick3[8]  -1
    z[9]      primal_upper  85
    z[9]      mccormick1[9]  1
    z[9]      mccormick2[9]  1
    z[9]      mccormick3[9]  -1
    z[10]     primal_upper  93
    z[10]     mccormick1[10]  1
    z[10]     mccormick2[10]  1
    z[10]     mccormick3[10]  -1
    z[11]     primal_upper  68
    z[11]     mccormick1[11]  1
    z[11]     mccormick2[11]  1
    z[11]     mccormick3[11]  -1
    z[12]     primal_upper  20
    z[12]     mccormick1[12]  1
    z[12]     mccormick2[12]  1
    z[12]     mccormick3[12]  -1
    z[13]     primal_upper  84
    z[13]     mccormick1[13]  1
    z[13]     mccormick2[13]  1
    z[13]     mccormick3[13]  -1
    z[14]     primal_upper  75
    z[14]     mccormick1[14]  1
    z[14]     mccormick2[14]  1
    z[14]     mccormick3[14]  -1
    z[15]     primal_upper  40
    z[15]     mccormick1[15]  1
    z[15]     mccormick2[15]  1
    z[15]     mccormick3[15]  -1
    z[16]     primal_upper  64
    z[16]     mccormick1[16]  1
    z[16]     mccormick2[16]  1
    z[16]     mccormick3[16]  -1
    z[17]     primal_upper  68
    z[17]     mccormick1[17]  1
    z[17]     mccormick2[17]  1
    z[17]     mccormick3[17]  -1
    z[18]     primal_upper  42
    z[18]     mccormick1[18]  1
    z[18]     mccormick2[18]  1
    z[18]     mccormick3[18]  -1
    z[19]     primal_upper  37
    z[19]     mccormick1[19]  1
    z[19]     mccormick2[19]  1
    z[19]     mccormick3[19]  -1
    z[20]     primal_upper  79
    z[20]     mccormick1[20]  1
    z[20]     mccormick2[20]  1
    z[20]     mccormick3[20]  -1
    z[21]     primal_upper  6
    z[21]     mccormick1[21]  1
    z[21]     mccormick2[21]  1
    z[21]     mccormick3[21]  -1
    z[22]     primal_upper  31
    z[22]     mccormick1[22]  1
    z[22]     mccormick2[22]  1
    z[22]     mccormick3[22]  -1
    z[23]     primal_upper  81
    z[23]     mccormick1[23]  1
    z[23]     mccormick2[23]  1
    z[23]     mccormick3[23]  -1
    z[24]     primal_upper  65
    z[24]     mccormick1[24]  1
    z[24]     mccormick2[24]  1
    z[24]     mccormick3[24]  -1
    z[25]     primal_upper  22
    z[25]     mccormick1[25]  1
    z[25]     mccormick2[25]  1
    z[25]     mccormick3[25]  -1
    z[26]     primal_upper  38
    z[26]     mccormick1[26]  1
    z[26]     mccormick2[26]  1
    z[26]     mccormick3[26]  -1
    z[27]     primal_upper  83
    z[27]     mccormick1[27]  1
    z[27]     mccormick2[27]  1
    z[27]     mccormick3[27]  -1
    z[28]     primal_upper  2
    z[28]     mccormick1[28]  1
    z[28]     mccormick2[28]  1
    z[28]     mccormick3[28]  -1
    z[29]     primal_upper  81
    z[29]     mccormick1[29]  1
    z[29]     mccormick2[29]  1
    z[29]     mccormick3[29]  -1
    z[30]     primal_upper  18
    z[30]     mccormick1[30]  1
    z[30]     mccormick2[30]  1
    z[30]     mccormick3[30]  -1
    z[31]     primal_upper  48
    z[31]     mccormick1[31]  1
    z[31]     mccormick2[31]  1
    z[31]     mccormick3[31]  -1
    z[32]     primal_upper  72
    z[32]     mccormick1[32]  1
    z[32]     mccormick2[32]  1
    z[32]     mccormick3[32]  -1
    z[33]     primal_upper  43
    z[33]     mccormick1[33]  1
    z[33]     mccormick2[33]  1
    z[33]     mccormick3[33]  -1
    z[34]     primal_upper  27
    z[34]     mccormick1[34]  1
    z[34]     mccormick2[34]  1
    z[34]     mccormick3[34]  -1
    z[35]     primal_upper  96
    z[35]     mccormick1[35]  1
    z[35]     mccormick2[35]  1
    z[35]     mccormick3[35]  -1
    z[36]     primal_upper  79
    z[36]     mccormick1[36]  1
    z[36]     mccormick2[36]  1
    z[36]     mccormick3[36]  -1
    z[37]     primal_upper  2
    z[37]     mccormick1[37]  1
    z[37]     mccormick2[37]  1
    z[37]     mccormick3[37]  -1
    z[38]     primal_upper  47
    z[38]     mccormick1[38]  1
    z[38]     mccormick2[38]  1
    z[38]     mccormick3[38]  -1
    z[39]     primal_upper  45
    z[39]     mccormick1[39]  1
    z[39]     mccormick2[39]  1
    z[39]     mccormick3[39]  -1
    z[40]     primal_upper  33
    z[40]     mccormick1[40]  1
    z[40]     mccormick2[40]  1
    z[40]     mccormick3[40]  -1
    z[41]     primal_upper  63
    z[41]     mccormick1[41]  1
    z[41]     mccormick2[41]  1
    z[41]     mccormick3[41]  -1
    z[42]     primal_upper  65
    z[42]     mccormick1[42]  1
    z[42]     mccormick2[42]  1
    z[42]     mccormick3[42]  -1
    z[43]     primal_upper  43
    z[43]     mccormick1[43]  1
    z[43]     mccormick2[43]  1
    z[43]     mccormick3[43]  -1
    z[44]     primal_upper  36
    z[44]     mccormick1[44]  1
    z[44]     mccormick2[44]  1
    z[44]     mccormick3[44]  -1
    z[45]     primal_upper  47
    z[45]     mccormick1[45]  1
    z[45]     mccormick2[45]  1
    z[45]     mccormick3[45]  -1
    z[46]     primal_upper  44
    z[46]     mccormick1[46]  1
    z[46]     mccormick2[46]  1
    z[46]     mccormick3[46]  -1
    z[47]     primal_upper  17
    z[47]     mccormick1[47]  1
    z[47]     mccormick2[47]  1
    z[47]     mccormick3[47]  -1
    z[48]     primal_upper  38
    z[48]     mccormick1[48]  1
    z[48]     mccormick2[48]  1
    z[48]     mccormick3[48]  -1
    z[49]     primal_upper  12
    z[49]     mccormick1[49]  1
    z[49]     mccormick2[49]  1
    z[49]     mccormick3[49]  -1
    z[50]     primal_upper  4
    z[50]     mccormick1[50]  1
    z[50]     mccormick2[50]  1
    z[50]     mccormick3[50]  -1
    z[51]     primal_upper  96
    z[51]     mccormick1[51]  1
    z[51]     mccormick2[51]  1
    z[51]     mccormick3[51]  -1
    z[52]     mccormick1[52]  1
    z[52]     mccormick2[52]  1
    z[52]     mccormick3[52]  -1
    z[53]     primal_upper  42
    z[53]     mccormick1[53]  1
    z[53]     mccormick2[53]  1
    z[53]     mccormick3[53]  -1
    z[54]     primal_upper  54
    z[54]     mccormick1[54]  1
    z[54]     mccormick2[54]  1
    z[54]     mccormick3[54]  -1
    z[55]     primal_upper  64
    z[55]     mccormick1[55]  1
    z[55]     mccormick2[55]  1
    z[55]     mccormick3[55]  -1
    z[56]     primal_upper  77
    z[56]     mccormick1[56]  1
    z[56]     mccormick2[56]  1
    z[56]     mccormick3[56]  -1
    z[57]     primal_upper  26
    z[57]     mccormick1[57]  1
    z[57]     mccormick2[57]  1
    z[57]     mccormick3[57]  -1
    z[58]     primal_upper  17
    z[58]     mccormick1[58]  1
    z[58]     mccormick2[58]  1
    z[58]     mccormick3[58]  -1
    z[59]     primal_upper  56
    z[59]     mccormick1[59]  1
    z[59]     mccormick2[59]  1
    z[59]     mccormick3[59]  -1
    z[60]     primal_upper  88
    z[60]     mccormick1[60]  1
    z[60]     mccormick2[60]  1
    z[60]     mccormick3[60]  -1
    z[61]     primal_upper  60
    z[61]     mccormick1[61]  1
    z[61]     mccormick2[61]  1
    z[61]     mccormick3[61]  -1
    z[62]     primal_upper  90
    z[62]     mccormick1[62]  1
    z[62]     mccormick2[62]  1
    z[62]     mccormick3[62]  -1
    z[63]     primal_upper  4
    z[63]     mccormick1[63]  1
    z[63]     mccormick2[63]  1
    z[63]     mccormick3[63]  -1
    z[64]     primal_upper  86
    z[64]     mccormick1[64]  1
    z[64]     mccormick2[64]  1
    z[64]     mccormick3[64]  -1
    z[65]     primal_upper  34
    z[65]     mccormick1[65]  1
    z[65]     mccormick2[65]  1
    z[65]     mccormick3[65]  -1
    z[66]     primal_upper  59
    z[66]     mccormick1[66]  1
    z[66]     mccormick2[66]  1
    z[66]     mccormick3[66]  -1
    z[67]     primal_upper  100
    z[67]     mccormick1[67]  1
    z[67]     mccormick2[67]  1
    z[67]     mccormick3[67]  -1
    z[68]     primal_upper  93
    z[68]     mccormick1[68]  1
    z[68]     mccormick2[68]  1
    z[68]     mccormick3[68]  -1
    z[69]     primal_upper  74
    z[69]     mccormick1[69]  1
    z[69]     mccormick2[69]  1
    z[69]     mccormick3[69]  -1
    z[70]     primal_upper  37
    z[70]     mccormick1[70]  1
    z[70]     mccormick2[70]  1
    z[70]     mccormick3[70]  -1
    z[71]     primal_upper  44
    z[71]     mccormick1[71]  1
    z[71]     mccormick2[71]  1
    z[71]     mccormick3[71]  -1
    z[72]     primal_upper  88
    z[72]     mccormick1[72]  1
    z[72]     mccormick2[72]  1
    z[72]     mccormick3[72]  -1
    z[73]     primal_upper  3
    z[73]     mccormick1[73]  1
    z[73]     mccormick2[73]  1
    z[73]     mccormick3[73]  -1
    z[74]     primal_upper  13
    z[74]     mccormick1[74]  1
    z[74]     mccormick2[74]  1
    z[74]     mccormick3[74]  -1
    z[75]     primal_upper  8
    z[75]     mccormick1[75]  1
    z[75]     mccormick2[75]  1
    z[75]     mccormick3[75]  -1
    z[76]     primal_upper  79
    z[76]     mccormick1[76]  1
    z[76]     mccormick2[76]  1
    z[76]     mccormick3[76]  -1
    z[77]     primal_upper  73
    z[77]     mccormick1[77]  1
    z[77]     mccormick2[77]  1
    z[77]     mccormick3[77]  -1
    z[78]     primal_upper  55
    z[78]     mccormick1[78]  1
    z[78]     mccormick2[78]  1
    z[78]     mccormick3[78]  -1
    z[79]     primal_upper  31
    z[79]     mccormick1[79]  1
    z[79]     mccormick2[79]  1
    z[79]     mccormick3[79]  -1
    MARKER    'MARKER'                 'INTEND'
RHS
    RHS1      primal_upper  20095
    RHS1      primal_lower0  980
    RHS1      primal_lower1  995
    RHS1      primal_lower2  991
    RHS1      primal_lower3  999
    RHS1      primal_lower4  996
    RHS1      primal_lower5  993
    RHS1      primal_lower6  997
    RHS1      primal_lower7  991
    RHS1      primal_lower8  981
    RHS1      primal_lower9  995
    RHS1      primal_lower10  1000
    RHS1      primal_lower11  996
    RHS1      primal_lower12  973
    RHS1      primal_lower13  977
    RHS1      primal_lower14  999
    RHS1      primal_lower15  1000
    RHS1      primal_lower16  991
    RHS1      primal_lower17  977
    RHS1      primal_lower18  993
    RHS1      primal_lower19  952
    RHS1      primal_lower20  993
    RHS1      primal_lower21  980
    RHS1      primal_lower22  992
    RHS1      primal_lower23  993
    RHS1      primal_lower24  1000
    RHS1      primal_lower25  995
    RHS1      primal_lower26  998
    RHS1      primal_lower27  998
    RHS1      primal_lower28  969
    RHS1      primal_lower29  981
    RHS1      primal_lower30  999
    RHS1      primal_lower31  999
    RHS1      primal_lower32  980
    RHS1      primal_lower33  994
    RHS1      primal_lower34  994
    RHS1      primal_lower35  957
    RHS1      primal_lower36  999
    RHS1      primal_lower37  996
    RHS1      primal_lower38  979
    RHS1      primal_lower39  976
    RHS1      primal_lower40  995
    RHS1      primal_lower41  993
    RHS1      primal_lower42  994
    RHS1      primal_lower43  963
    RHS1      primal_lower44  990
    RHS1      primal_lower45  996
    RHS1      primal_lower46  971
    RHS1      primal_lower47  950
    RHS1      primal_lower48  976
    RHS1      primal_lower49  1000
    RHS1      primal_lower50  999
    RHS1      primal_lower51  987
    RHS1      primal_lower52  974
    RHS1      primal_lower53  999
    RHS1      primal_lower54  992
    RHS1      primal_lower55  999
    RHS1      primal_lower56  970
    RHS1      primal_lower57  996
    RHS1      primal_lower58  991
    RHS1      primal_lower59  998
    RHS1      primal_lower60  999
    RHS1      primal_lower61  998
    RHS1      primal_lower62  985
    RHS1      primal_lower63  990
    RHS1      primal_lower64  991
    RHS1      primal_lower65  999
    RHS1      primal_lower66  1000
    RHS1      primal_lower67  998
    RHS1      primal_lower68  988
    RHS1      primal_lower69  967
    RHS1      primal_lower70  988
    RHS1      primal_lower71  988
    RHS1      primal_lower72  999
    RHS1      primal_lower73  984
    RHS1      primal_lower74  998
    RHS1      primal_lower75  995
    RHS1      primal_lower76  984
    RHS1      primal_lower77  971
    RHS1      primal_lower78  990
    RHS1      primal_lower79  996
    RHS1      primal_lower80  985
    RHS1      primal_lower81  980
    RHS1      primal_lower82  983
    RHS1      primal_lower83  987
    RHS1      primal_lower84  995
    RHS1      primal_lower85  993
    RHS1      primal_lower86  994
    RHS1      primal_lower87  988
    RHS1      primal_lower88  964
    RHS1      primal_lower89  971
    RHS1      primal_lower90  991
    RHS1      primal_lower91  987
    RHS1      primal_lower92  972
    RHS1      primal_lower93  994
    RHS1      primal_lower94  961
    RHS1      primal_lower95  996
    RHS1      primal_lower96  989
    RHS1      primal_lower97  999
    RHS1      primal_lower98  987
    RHS1      primal_lower99  993
    RHS1      interdiction[0]  1
    RHS1      interdiction[1]  1
    RHS1      interdiction[2]  1
    RHS1      interdiction[3]  1
    RHS1      interdiction[4]  1
    RHS1      interdiction[5]  1
    RHS1      interdiction[6]  1
    RHS1      interdiction[7]  1
    RHS1      interdiction[8]  1
    RHS1      interdiction[9]  1
    RHS1      interdiction[10]  1
    RHS1      interdiction[11]  1
    RHS1      interdiction[12]  1
    RHS1      interdiction[13]  1
    RHS1      interdiction[14]  1
    RHS1      interdiction[15]  1
    RHS1      interdiction[16]  1
    RHS1      interdiction[17]  1
    RHS1      interdiction[18]  1
    RHS1      interdiction[19]  1
    RHS1      interdiction[20]  1
    RHS1      interdiction[21]  1
    RHS1      interdiction[22]  1
    RHS1      interdiction[23]  1
    RHS1      interdiction[24]  1
    RHS1      interdiction[25]  1
    RHS1      interdiction[26]  1
    RHS1      interdiction[27]  1
    RHS1      interdiction[28]  1
    RHS1      interdiction[29]  1
    RHS1      interdiction[30]  1
    RHS1      interdiction[31]  1
    RHS1      interdiction[32]  1
    RHS1      interdiction[33]  1
    RHS1      interdiction[34]  1
    RHS1      interdiction[35]  1
    RHS1      interdiction[36]  1
    RHS1      interdiction[37]  1
    RHS1      interdiction[38]  1
    RHS1      interdiction[39]  1
    RHS1      interdiction[40]  1
    RHS1      interdiction[41]  1
    RHS1      interdiction[42]  1
    RHS1      interdiction[43]  1
    RHS1      interdiction[44]  1
    RHS1      interdiction[45]  1
    RHS1      interdiction[46]  1
    RHS1      interdiction[47]  1
    RHS1      interdiction[48]  1
    RHS1      interdiction[49]  1
    RHS1      interdiction[50]  1
    RHS1      interdiction[51]  1
    RHS1      interdiction[52]  1
    RHS1      interdiction[53]  1
    RHS1      interdiction[54]  1
    RHS1      interdiction[55]  1
    RHS1      interdiction[56]  1
    RHS1      interdiction[57]  1
    RHS1      interdiction[58]  1
    RHS1      interdiction[59]  1
    RHS1      interdiction[60]  1
    RHS1      interdiction[61]  1
    RHS1      interdiction[62]  1
    RHS1      interdiction[63]  1
    RHS1      interdiction[64]  1
    RHS1      interdiction[65]  1
    RHS1      interdiction[66]  1
    RHS1      interdiction[67]  1
    RHS1      interdiction[68]  1
    RHS1      interdiction[69]  1
    RHS1      interdiction[70]  1
    RHS1      interdiction[71]  1
    RHS1      interdiction[72]  1
    RHS1      interdiction[73]  1
    RHS1      interdiction[74]  1
    RHS1      interdiction[75]  1
    RHS1      interdiction[76]  1
    RHS1      interdiction[77]  1
    RHS1      interdiction[78]  1
    RHS1      interdiction[79]  1
    RHS1      mccormick3[0]  1
    RHS1      mccormick3[1]  1
    RHS1      mccormick3[2]  1
    RHS1      mccormick3[3]  1
    RHS1      mccormick3[4]  1
    RHS1      mccormick3[5]  1
    RHS1      mccormick3[6]  1
    RHS1      mccormick3[7]  1
    RHS1      mccormick3[8]  1
    RHS1      mccormick3[9]  1
    RHS1      mccormick3[10]  1
    RHS1      mccormick3[11]  1
    RHS1      mccormick3[12]  1
    RHS1      mccormick3[13]  1
    RHS1      mccormick3[14]  1
    RHS1      mccormick3[15]  1
    RHS1      mccormick3[16]  1
    RHS1      mccormick3[17]  1
    RHS1      mccormick3[18]  1
    RHS1      mccormick3[19]  1
    RHS1      mccormick3[20]  1
    RHS1      mccormick3[21]  1
    RHS1      mccormick3[22]  1
    RHS1      mccormick3[23]  1
    RHS1      mccormick3[24]  1
    RHS1      mccormick3[25]  1
    RHS1      mccormick3[26]  1
    RHS1      mccormick3[27]  1
    RHS1      mccormick3[28]  1
    RHS1      mccormick3[29]  1
    RHS1      mccormick3[30]  1
    RHS1      mccormick3[31]  1
    RHS1      mccormick3[32]  1
    RHS1      mccormick3[33]  1
    RHS1      mccormick3[34]  1
    RHS1      mccormick3[35]  1
    RHS1      mccormick3[36]  1
    RHS1      mccormick3[37]  1
    RHS1      mccormick3[38]  1
    RHS1      mccormick3[39]  1
    RHS1      mccormick3[40]  1
    RHS1      mccormick3[41]  1
    RHS1      mccormick3[42]  1
    RHS1      mccormick3[43]  1
    RHS1      mccormick3[44]  1
    RHS1      mccormick3[45]  1
    RHS1      mccormick3[46]  1
    RHS1      mccormick3[47]  1
    RHS1      mccormick3[48]  1
    RHS1      mccormick3[49]  1
    RHS1      mccormick3[50]  1
    RHS1      mccormick3[51]  1
    RHS1      mccormick3[52]  1
    RHS1      mccormick3[53]  1
    RHS1      mccormick3[54]  1
    RHS1      mccormick3[55]  1
    RHS1      mccormick3[56]  1
    RHS1      mccormick3[57]  1
    RHS1      mccormick3[58]  1
    RHS1      mccormick3[59]  1
    RHS1      mccormick3[60]  1
    RHS1      mccormick3[61]  1
    RHS1      mccormick3[62]  1
    RHS1      mccormick3[63]  1
    RHS1      mccormick3[64]  1
    RHS1      mccormick3[65]  1
    RHS1      mccormick3[66]  1
    RHS1      mccormick3[67]  1
    RHS1      mccormick3[68]  1
    RHS1      mccormick3[69]  1
    RHS1      mccormick3[70]  1
    RHS1      mccormick3[71]  1
    RHS1      mccormick3[72]  1
    RHS1      mccormick3[73]  1
    RHS1      mccormick3[74]  1
    RHS1      mccormick3[75]  1
    RHS1      mccormick3[76]  1
    RHS1      mccormick3[77]  1
    RHS1      mccormick3[78]  1
    RHS1      mccormick3[79]  1
BOUNDS
 BV BND1      x[0]    
 BV BND1      x[1]    
 BV BND1      x[2]    
 BV BND1      x[3]    
 BV BND1      x[4]    
 BV BND1      x[5]    
 BV BND1      x[6]    
 BV BND1      x[7]    
 BV BND1      x[8]    
 BV BND1      x[9]    
 BV BND1      x[10]   
 BV BND1      x[11]   
 BV BND1      x[12]   
 BV BND1      x[13]   
 BV BND1      x[14]   
 BV BND1      x[15]   
 BV BND1      x[16]   
 BV BND1      x[17]   
 BV BND1      x[18]   
 BV BND1      x[19]   
 BV BND1      x[20]   
 BV BND1      x[21]   
 BV BND1      x[22]   
 BV BND1      x[23]   
 BV BND1      x[24]   
 BV BND1      x[25]   
 BV BND1      x[26]   
 BV BND1      x[27]   
 BV BND1      x[28]   
 BV BND1      x[29]   
 BV BND1      x[30]   
 BV BND1      x[31]   
 BV BND1      x[32]   
 BV BND1      x[33]   
 BV BND1      x[34]   
 BV BND1      x[35]   
 BV BND1      x[36]   
 BV BND1      x[37]   
 BV BND1      x[38]   
 BV BND1      x[39]   
 BV BND1      x[40]   
 BV BND1      x[41]   
 BV BND1      x[42]   
 BV BND1      x[43]   
 BV BND1      x[44]   
 BV BND1      x[45]   
 BV BND1      x[46]   
 BV BND1      x[47]   
 BV BND1      x[48]   
 BV BND1      x[49]   
 BV BND1      x[50]   
 BV BND1      x[51]   
 BV BND1      x[52]   
 BV BND1      x[53]   
 BV BND1      x[54]   
 BV BND1      x[55]   
 BV BND1      x[56]   
 BV BND1      x[57]   
 BV BND1      x[58]   
 BV BND1      x[59]   
 BV BND1      x[60]   
 BV BND1      x[61]   
 BV BND1      x[62]   
 BV BND1      x[63]   
 BV BND1      x[64]   
 BV BND1      x[65]   
 BV BND1      x[66]   
 BV BND1      x[67]   
 BV BND1      x[68]   
 BV BND1      x[69]   
 BV BND1      x[70]   
 BV BND1      x[71]   
 BV BND1      x[72]   
 BV BND1      x[73]   
 BV BND1      x[74]   
 BV BND1      x[75]   
 BV BND1      x[76]   
 BV BND1      x[77]   
 BV BND1      x[78]   
 BV BND1      x[79]   
 BV BND1      y[0]    
 BV BND1      y[1]    
 BV BND1      y[2]    
 BV BND1      y[3]    
 BV BND1      y[4]    
 BV BND1      y[5]    
 BV BND1      y[6]    
 BV BND1      y[7]    
 BV BND1      y[8]    
 BV BND1      y[9]    
 BV BND1      y[10]   
 BV BND1      y[11]   
 BV BND1      y[12]   
 BV BND1      y[13]   
 BV BND1      y[14]   
 BV BND1      y[15]   
 BV BND1      y[16]   
 BV BND1      y[17]   
 BV BND1      y[18]   
 BV BND1      y[19]   
 BV BND1      y[20]   
 BV BND1      y[21]   
 BV BND1      y[22]   
 BV BND1      y[23]   
 BV BND1      y[24]   
 BV BND1      y[25]   
 BV BND1      y[26]   
 BV BND1      y[27]   
 BV BND1      y[28]   
 BV BND1      y[29]   
 BV BND1      y[30]   
 BV BND1      y[31]   
 BV BND1      y[32]   
 BV BND1      y[33]   
 BV BND1      y[34]   
 BV BND1      y[35]   
 BV BND1      y[36]   
 BV BND1      y[37]   
 BV BND1      y[38]   
 BV BND1      y[39]   
 BV BND1      y[40]   
 BV BND1      y[41]   
 BV BND1      y[42]   
 BV BND1      y[43]   
 BV BND1      y[44]   
 BV BND1      y[45]   
 BV BND1      y[46]   
 BV BND1      y[47]   
 BV BND1      y[48]   
 BV BND1      y[49]   
 BV BND1      y[50]   
 BV BND1      y[51]   
 BV BND1      y[52]   
 BV BND1      y[53]   
 BV BND1      y[54]   
 BV BND1      y[55]   
 BV BND1      y[56]   
 BV BND1      y[57]   
 BV BND1      y[58]   
 BV BND1      y[59]   
 BV BND1      y[60]   
 BV BND1      y[61]   
 BV BND1      y[62]   
 BV BND1      y[63]   
 BV BND1      y[64]   
 BV BND1      y[65]   
 BV BND1      y[66]   
 BV BND1      y[67]   
 BV BND1      y[68]   
 BV BND1      y[69]   
 BV BND1      y[70]   
 BV BND1      y[71]   
 BV BND1      y[72]   
 BV BND1      y[73]   
 BV BND1      y[74]   
 BV BND1      y[75]   
 BV BND1      y[76]   
 BV BND1      y[77]   
 BV BND1      y[78]   
 BV BND1      y[79]   
 BV BND1      u[0]    
 BV BND1      u[1]    
 BV BND1      u[2]    
 BV BND1      u[3]    
 BV BND1      u[4]    
 BV BND1      u[5]    
 BV BND1      u[6]    
 BV BND1      u[7]    
 BV BND1      u[8]    
 BV BND1      u[9]    
 BV BND1      u[10]   
 BV BND1      u[11]   
 BV BND1      u[12]   
 BV BND1      u[13]   
 BV BND1      u[14]   
 BV BND1      u[15]   
 BV BND1      u[16]   
 BV BND1      u[17]   
 BV BND1      u[18]   
 BV BND1      u[19]   
 BV BND1      u[20]   
 BV BND1      u[21]   
 BV BND1      u[22]   
 BV BND1      u[23]   
 BV BND1      u[24]   
 BV BND1      u[25]   
 BV BND1      u[26]   
 BV BND1      u[27]   
 BV BND1      u[28]   
 BV BND1      u[29]   
 BV BND1      u[30]   
 BV BND1      u[31]   
 BV BND1      u[32]   
 BV BND1      u[33]   
 BV BND1      u[34]   
 BV BND1      u[35]   
 BV BND1      u[36]   
 BV BND1      u[37]   
 BV BND1      u[38]   
 BV BND1      u[39]   
 BV BND1      u[40]   
 BV BND1      u[41]   
 BV BND1      u[42]   
 BV BND1      u[43]   
 BV BND1      u[44]   
 BV BND1      u[45]   
 BV BND1      u[46]   
 BV BND1      u[47]   
 BV BND1      u[48]   
 BV BND1      u[49]   
 BV BND1      u[50]   
 BV BND1      u[51]   
 BV BND1      u[52]   
 BV BND1      u[53]   
 BV BND1      u[54]   
 BV BND1      u[55]   
 BV BND1      u[56]   
 BV BND1      u[57]   
 BV BND1      u[58]   
 BV BND1      u[59]   
 BV BND1      u[60]   
 BV BND1      u[61]   
 BV BND1      u[62]   
 BV BND1      u[63]   
 BV BND1      u[64]   
 BV BND1      u[65]   
 BV BND1      u[66]   
 BV BND1      u[67]   
 BV BND1      u[68]   
 BV BND1      u[69]   
 BV BND1      u[70]   
 BV BND1      u[71]   
 BV BND1      u[72]   
 BV BND1      u[73]   
 BV BND1      u[74]   
 BV BND1      u[75]   
 BV BND1      u[76]   
 BV BND1      u[77]   
 BV BND1      u[78]   
 BV BND1      u[79]   
 BV BND1      z[0]    
 BV BND1      z[1]    
 BV BND1      z[2]    
 BV BND1      z[3]    
 BV BND1      z[4]    
 BV BND1      z[5]    
 BV BND1      z[6]    
 BV BND1      z[7]    
 BV BND1      z[8]    
 BV BND1      z[9]    
 BV BND1      z[10]   
 BV BND1      z[11]   
 BV BND1      z[12]   
 BV BND1      z[13]   
 BV BND1      z[14]   
 BV BND1      z[15]   
 BV BND1      z[16]   
 BV BND1      z[17]   
 BV BND1      z[18]   
 BV BND1      z[19]   
 BV BND1      z[20]   
 BV BND1      z[21]   
 BV BND1      z[22]   
 BV BND1      z[23]   
 BV BND1      z[24]   
 BV BND1      z[25]   
 BV BND1      z[26]   
 BV BND1      z[27]   
 BV BND1      z[28]   
 BV BND1      z[29]   
 BV BND1      z[30]   
 BV BND1      z[31]   
 BV BND1      z[32]   
 BV BND1      z[33]   
 BV BND1      z[34]   
 BV BND1      z[35]   
 BV BND1      z[36]   
 BV BND1      z[37]   
 BV BND1      z[38]   
 BV BND1      z[39]   
 BV BND1      z[40]   
 BV BND1      z[41]   
 BV BND1      z[42]   
 BV BND1      z[43]   
 BV BND1      z[44]   
 BV BND1      z[45]   
 BV BND1      z[46]   
 BV BND1      z[47]   
 BV BND1      z[48]   
 BV BND1      z[49]   
 BV BND1      z[50]   
 BV BND1      z[51]   
 BV BND1      z[52]   
 BV BND1      z[53]   
 BV BND1      z[54]   
 BV BND1      z[55]   
 BV BND1      z[56]   
 BV BND1      z[57]   
 BV BND1      z[58]   
 BV BND1      z[59]   
 BV BND1      z[60]   
 BV BND1      z[61]   
 BV BND1      z[62]   
 BV BND1      z[63]   
 BV BND1      z[64]   
 BV BND1      z[65]   
 BV BND1      z[66]   
 BV BND1      z[67]   
 BV BND1      z[68]   
 BV BND1      z[69]   
 BV BND1      z[70]   
 BV BND1      z[71]   
 BV BND1      z[72]   
 BV BND1      z[73]   
 BV BND1      z[74]   
 BV BND1      z[75]   
 BV BND1      z[76]   
 BV BND1      z[77]   
 BV BND1      z[78]   
 BV BND1      z[79]   
ENDATA
