\ Model knapsack_80_100_1
\ LP format - for model browsing. Use MPS format to capture full model detail.
\ Signature: 0x9ca384b067bc5ee5
Minimize
  10 x[0] + 10 x[1] + 10 x[2] + 10 x[3] + 10 x[4] + 10 x[5] + 10 x[6]
   + 10 x[7] + 10 x[8] + 10 x[9] + 10 x[10] + 10 x[11] + 10 x[12]
   + 10 x[13] + 10 x[14] + 10 x[15] + 10 x[16] + 10 x[17] + 10 x[18]
   + 10 x[19] + 10 x[20] + 10 x[21] + 10 x[22] + 10 x[23] + 10 x[24]
   + 10 x[25] + 10 x[26] + 10 x[27] + 10 x[28] + 10 x[29] + 10 x[30]
   + 10 x[31] + 10 x[32] + 10 x[33] + 10 x[34] + 10 x[35] + 10 x[36]
   + 10 x[37] + 10 x[38] + 10 x[39] + 10 x[40] + 10 x[41] + 10 x[42]
   + 10 x[43] + 10 x[44] + 10 x[45] + 10 x[46] + 10 x[47] + 10 x[48]
   + 10 x[49] + 10 x[50] + 10 x[51] + 10 x[52] + 10 x[53] + 10 x[54]
   + 10 x[55] + 10 x[56] + 10 x[57] + 10 x[58] + 10 x[59] + 10 x[60]
   + 10 x[61] + 10 x[62] + 10 x[63] + 10 x[64] + 10 x[65] + 10 x[66]
   + 10 x[67] + 10 x[68] + 10 x[69] + 10 x[70] + 10 x[71] + 10 x[72]
   + 10 x[73] + 10 x[74] + 10 x[75] + 10 x[76] + 10 x[77] + 10 x[78]
   + 10 x[79] - 33 y[0] - 778 y[1] - 947 y[2] - 183 y[3] - 293 y[4]
   - 932 y[5] - 341 y[6] - 999 y[7] - 882 y[8] - 110 y[9] - 266 y[10]
   - 246 y[11] - 566 y[12] - 629 y[13] - 954 y[14] - 367 y[15] - 721 y[16]
   - 597 y[17] - 550 y[18] - 189 y[19] - 701 y[20] - 90 y[21] - 183 y[22]
   - 619 y[23] - 524 y[24] - 770 y[25] - 291 y[26] - 899 y[27] - 325 y[28]
   - 108 y[29] - 264 y[30] - 819 y[31] - 495 y[32] - 50 y[33] - 71 y[34]
   - 856 y[35] - 500 y[36] - 106 y[37] - 610 y[38] - 71 y[39] - 711 y[40]
   - 961 y[41] - 197 y[42] - 854 y[43] - 758 y[44] - 478 y[45] - 664 y[46]
   - 384 y[47] - 936 y[48] - 685 y[49] - 466 y[50] - 182 y[51] - 606 y[52]
   - 760 y[53] - 327 y[54] - 413 y[55] - 830 y[56] - 71 y[57] - 467 y[58]
   - 558 y[59] - 467 y[60] - 593 y[61] - 741 y[62] - 881 y[63] - 854 y[64]
   - 720 y[65] - 724 y[66] - 321 y[67] - 928 y[68] - 961 y[69] - 588 y[70]
   - 970 y[71] - 756 y[72] - 169 y[73] - 850 y[74] - 365 y[75] - 577 y[76]
   - 344 y[77] - 747 y[78] - 619 y[79]
Subject To
 primal_upper: 847 y[0] + 123 y[1] + 441 y[2] + 650 y[3] + 123 y[4]
   + 689 y[5] + 820 y[6] + 499 y[7] + 92 y[8] + 849 y[9] + 931 y[10]
   + 682 y[11] + 203 y[12] + 835 y[13] + 748 y[14] + 396 y[15] + 644 y[16]
   + 679 y[17] + 424 y[18] + 373 y[19] + 788 y[20] + 63 y[21] + 307 y[22]
   + 806 y[23] + 652 y[24] + 215 y[25] + 377 y[26] + 831 y[27] + 21 y[28]
   + 814 y[29] + 177 y[30] + 483 y[31] + 715 y[32] + 428 y[33] + 267 y[34]
   + 960 y[35] + 787 y[36] + 20 y[37] + 467 y[38] + 446 y[39] + 334 y[40]
   + 633 y[41] + 653 y[42] + 429 y[43] + 358 y[44] + 474 y[45] + 441 y[46]
   + 169 y[47] + 382 y[48] + 119 y[49] + 38 y[50] + 959 y[51] + 4 y[52]
   + 419 y[53] + 536 y[54] + 639 y[55] + 768 y[56] + 258 y[57] + 171 y[58]
   + 561 y[59] + 876 y[60] + 602 y[61] + 895 y[62] + 42 y[63] + 859 y[64]
   + 339 y[65] + 588 y[66] + 998 y[67] + 931 y[68] + 745 y[69] + 373 y[70]
   + 437 y[71] + 877 y[72] + 30 y[73] + 127 y[74] + 80 y[75] + 786 y[76]
   + 730 y[77] + 552 y[78] + 306 y[79] + 85 z[0] + 12 z[1] + 44 z[2]
   + 65 z[3] + 12 z[4] + 69 z[5] + 82 z[6] + 50 z[7] + 9 z[8] + 85 z[9]
   + 93 z[10] + 68 z[11] + 20 z[12] + 84 z[13] + 75 z[14] + 40 z[15]
   + 64 z[16] + 68 z[17] + 42 z[18] + 37 z[19] + 79 z[20] + 6 z[21]
   + 31 z[22] + 81 z[23] + 65 z[24] + 22 z[25] + 38 z[26] + 83 z[27]
   + 2 z[28] + 81 z[29] + 18 z[30] + 48 z[31] + 72 z[32] + 43 z[33]
   + 27 z[34] + 96 z[35] + 79 z[36] + 2 z[37] + 47 z[38] + 45 z[39]
   + 33 z[40] + 63 z[41] + 65 z[42] + 43 z[43] + 36 z[44] + 47 z[45]
   + 44 z[46] + 17 z[47] + 38 z[48] + 12 z[49] + 4 z[50] + 96 z[51]
   + 42 z[53] + 54 z[54] + 64 z[55] + 77 z[56] + 26 z[57] + 17 z[58]
   + 56 z[59] + 88 z[60] + 60 z[61] + 90 z[62] + 4 z[63] + 86 z[64]
   + 34 z[65] + 59 z[66] + 100 z[67] + 93 z[68] + 74 z[69] + 37 z[70]
   + 44 z[71] + 88 z[72] + 3 z[73] + 13 z[74] + 8 z[75] + 79 z[76]
   + 73 z[77] + 55 z[78] + 31 z[79] <= 20095
 primal_lower0: 156 u[0] + 520 u[1] + 574 u[2] + 31 u[3] + 776 u[4]
   + 502 u[5] + 769 u[6] + 168 u[7] + 25 u[8] + 334 u[9] + 208 u[10]
   + 391 u[11] + 416 u[12] + 160 u[13] + 953 u[14] + 769 u[15] + 825 u[16]
   + 324 u[17] + 429 u[18] + 362 u[19] + 729 u[20] + 980 u[21] + 528 u[22]
   + 771 u[23] + 289 u[24] + 68 u[25] + 798 u[26] + 860 u[27] + 50 u[28]
   + 499 u[29] + 454 u[30] + 344 u[31] + 8 u[32] + 425 u[33] + 456 u[34]
   + 877 u[35] + 424 u[36] + 361 u[37] + 736 u[38] + 811 u[39] + 243 u[40]
   + 702 u[41] + 562 u[42] + 154 u[43] + 979 u[44] + 7 u[45] + 590 u[46]
   + 22 u[47] + 843 u[48] + 444 u[49] + 235 u[50] + 604 u[51] + 641 u[52]
   + 112 u[53] + 965 u[54] + 836 u[55] + 741 u[56] + 615 u[57] + 160 u[58]
   + 166 u[59] + 393 u[60] + 343 u[61] + 932 u[62] + 535 u[63] + 264 u[64]
   + 904 u[65] + 281 u[66] + 827 u[67] + 160 u[68] + 918 u[69] + 682 u[70]
   + 554 u[71] + 858 u[72] + 371 u[73] + 476 u[74] + 693 u[75] + 751 u[76]
   + 215 u[77] + 965 u[78] + 679 u[79] <= 980
 primal_lower1: 281 u[0] + 274 u[1] + 980 u[2] + 177 u[3] + 758 u[4]
   + 23 u[5] + 559 u[6] + 649 u[7] + 239 u[8] + 560 u[9] + 381 u[10]
   + 417 u[11] + 374 u[12] + 426 u[13] + 950 u[14] + 482 u[15] + 967 u[16]
   + 854 u[17] + 539 u[18] + 428 u[19] + 783 u[20] + 117 u[21] + 662 u[22]
   + 564 u[23] + 286 u[24] + 958 u[25] + 412 u[26] + 29 u[27] + 719 u[28]
   + 141 u[29] + 331 u[30] + 81 u[31] + 165 u[32] + 75 u[33] + 342 u[34]
   + 911 u[35] + 894 u[36] + 226 u[37] + 774 u[38] + 156 u[39] + 553 u[40]
   + 895 u[41] + 136 u[42] + 939 u[43] + 505 u[44] + 208 u[45] + 691 u[46]
   + 551 u[47] + 913 u[48] + 398 u[49] + 440 u[50] + 166 u[51] + 351 u[52]
   + 690 u[53] + 530 u[54] + 701 u[55] + 995 u[56] + 88 u[57] + 606 u[58]
   + 696 u[59] + 182 u[60] + 744 u[61] + 209 u[62] + 800 u[63] + 621 u[64]
   + 130 u[65] + 62 u[66] + 276 u[67] + 110 u[68] + 455 u[69] + 671 u[70]
   + 363 u[71] + 744 u[72] + 773 u[73] + 809 u[74] + 502 u[75] + 412 u[76]
   + 585 u[77] + 274 u[78] + 8 u[79] <= 995
 primal_lower2: 105 u[0] + 506 u[1] + 532 u[2] + 697 u[3] + 790 u[4]
   + 599 u[5] + 967 u[6] + 361 u[7] + 247 u[8] + 480 u[9] + 157 u[10]
   + 49 u[11] + 462 u[12] + 922 u[13] + 654 u[14] + 266 u[15] + 407 u[16]
   + 766 u[17] + 379 u[18] + 4 u[19] + 991 u[20] + 957 u[21] + 742 u[22]
   + 284 u[23] + 822 u[24] + 366 u[25] + 412 u[26] + 901 u[27] + 647 u[28]
   + 461 u[29] + 923 u[30] + 745 u[31] + 173 u[32] + 483 u[33] + 614 u[34]
   + 647 u[35] + 286 u[36] + 66 u[37] + 694 u[38] + 484 u[39] + 193 u[40]
   + 31 u[41] + 536 u[42] + 643 u[43] + 833 u[44] + 800 u[45] + 251 u[46]
   + 543 u[47] + 401 u[48] + 326 u[49] + 328 u[50] + 238 u[51] + 735 u[52]
   + 458 u[53] + 170 u[54] + 637 u[55] + 483 u[56] + 160 u[57] + 30 u[58]
   + 504 u[59] + 134 u[60] + 88 u[61] + 737 u[62] + 904 u[63] + 293 u[64]
   + 106 u[65] + 542 u[66] + 884 u[67] + 830 u[68] + 975 u[69] + 703 u[70]
   + 251 u[71] + 384 u[72] + 229 u[73] + 705 u[74] + 870 u[75] + 764 u[76]
   + 777 u[77] + 138 u[78] + 736 u[79] <= 991
 primal_lower3: 18 u[0] + 403 u[1] + 269 u[2] + 698 u[3] + 487 u[4]
   + 96 u[5] + 80 u[6] + 202 u[7] + 608 u[8] + 441 u[9] + 934 u[10]
   + 58 u[11] + 679 u[12] + 307 u[13] + 975 u[14] + 851 u[15] + 464 u[16]
   + 111 u[17] + 444 u[18] + 725 u[19] + 824 u[20] + 766 u[21] + 279 u[22]
   + 581 u[23] + 991 u[24] + 975 u[25] + 741 u[26] + 126 u[27] + 240 u[28]
   + 894 u[29] + 580 u[30] + 658 u[31] + 846 u[32] + 316 u[33] + 935 u[34]
   + 256 u[35] + 239 u[36] + 747 u[37] + 783 u[38] + 149 u[39] + 402 u[40]
   + 264 u[41] + 241 u[42] + 876 u[43] + 794 u[44] + 833 u[45] + 236 u[46]
   + 160 u[47] + 722 u[48] + 559 u[49] + 993 u[50] + 999 u[51] + 344 u[52]
   + 955 u[53] + 827 u[54] + 822 u[55] + 20 u[56] + 417 u[57] + 567 u[58]
   + 377 u[59] + 551 u[60] + 289 u[61] + 794 u[62] + 881 u[63] + 438 u[64]
   + 51 u[65] + 175 u[66] + 869 u[67] + 975 u[68] + 760 u[69] + 800 u[70]
   + 788 u[71] + 25 u[72] + 86 u[73] + 306 u[74] + 639 u[75] + 837 u[76]
   + 546 u[77] + 27 u[78] + 241 u[79] <= 999
 primal_lower4: 763 u[0] + 311 u[1] + 901 u[2] + 38 u[3] + 55 u[4]
   + 21 u[5] + 840 u[6] + 15 u[7] + 648 u[8] + 365 u[9] + 111 u[10]
   + 46 u[11] + 303 u[12] + 519 u[13] + 256 u[14] + 280 u[15] + 56 u[16]
   + 827 u[17] + 452 u[18] + 777 u[19] + 920 u[20] + 419 u[21] + 887 u[22]
   + 402 u[23] + 944 u[24] + 787 u[25] + 341 u[26] + 299 u[27] + 825 u[28]
   + 762 u[29] + 29 u[30] + 975 u[31] + 455 u[32] + 584 u[33] + 279 u[34]
   + 900 u[35] + 327 u[36] + 320 u[37] + 119 u[38] + 218 u[39] + 858 u[40]
   + 333 u[41] + 217 u[42] + 113 u[43] + 402 u[44] + 766 u[45] + 173 u[46]
   + 725 u[47] + 122 u[48] + 347 u[49] + 778 u[50] + 187 u[51] + 328 u[52]
   + 639 u[53] + 84 u[54] + 51 u[55] + 148 u[56] + 374 u[57] + 319 u[58]
   + 757 u[59] + 160 u[60] + 542 u[61] + 115 u[62] + 150 u[63] + 215 u[64]
   + 127 u[65] + 48 u[66] + 194 u[67] + 591 u[68] + 405 u[69] + 689 u[70]
   + 961 u[71] + 57 u[72] + 202 u[73] + 675 u[74] + 324 u[75] + 862 u[76]
   + 78 u[77] + 996 u[78] + 342 u[79] <= 996
 primal_lower5: 945 u[0] + 949 u[1] + 891 u[2] + 140 u[3] + 653 u[4]
   + 155 u[5] + 126 u[6] + 877 u[7] + 382 u[8] + 595 u[9] + 165 u[10]
   + 20 u[11] + 277 u[12] + 469 u[13] + 14 u[14] + 926 u[15] + 582 u[16]
   + 777 u[17] + 226 u[18] + 983 u[19] + 294 u[20] + 993 u[21] + 877 u[22]
   + 392 u[23] + 126 u[24] + 257 u[25] + 419 u[26] + 505 u[27] + 887 u[28]
   + 384 u[29] + 339 u[30] + 309 u[31] + 341 u[32] + 606 u[33] + 869 u[34]
   + 226 u[35] + 901 u[36] + 598 u[37] + 949 u[38] + 160 u[39] + 904 u[40]
   + 211 u[41] + 503 u[42] + 799 u[43] + 48 u[44] + 20 u[45] + 67 u[46]
   + 523 u[47] + 640 u[48] + 417 u[49] + 800 u[50] + 473 u[51] + 302 u[52]
   + 613 u[53] + 882 u[54] + 945 u[55] + 874 u[56] + 844 u[57] + 357 u[58]
   + 707 u[59] + 526 u[60] + 468 u[61] + 225 u[62] + 588 u[63] + 253 u[64]
   + 861 u[65] + 254 u[66] + 456 u[67] + 413 u[68] + 603 u[69] + 303 u[70]
   + 263 u[71] + 727 u[72] + 560 u[73] + 209 u[74] + 554 u[75] + 524 u[76]
   + 644 u[77] + 370 u[78] + 452 u[79] <= 993
 primal_lower6: 414 u[0] + 431 u[1] + 497 u[2] + 30 u[3] + 811 u[4]
   + 404 u[5] + 724 u[6] + 894 u[7] + 796 u[8] + 133 u[9] + 514 u[10]
   + 670 u[11] + 491 u[12] + 287 u[13] + 787 u[14] + 495 u[15] + 4 u[16]
   + 475 u[17] + 904 u[18] + 793 u[19] + 940 u[20] + 898 u[21] + 827 u[22]
   + 825 u[23] + 235 u[24] + 739 u[25] + 985 u[26] + 154 u[27] + 444 u[28]
   + 690 u[29] + 736 u[30] + 790 u[31] + 266 u[32] + 336 u[33] + 867 u[34]
   + 908 u[35] + 11 u[36] + 991 u[37] + 123 u[38] + 385 u[39] + 606 u[40]
   + 12 u[41] + 621 u[42] + 880 u[43] + 142 u[44] + 277 u[45] + 928 u[46]
   + 92 u[47] + 342 u[48] + 331 u[49] + 733 u[50] + 227 u[51] + 868 u[52]
   + 839 u[53] + 279 u[54] + 186 u[55] + 736 u[56] + 445 u[57] + 547 u[58]
   + 213 u[59] + 387 u[60] + 229 u[61] + 790 u[62] + 317 u[63] + 290 u[64]
   + 471 u[65] + 635 u[66] + 545 u[67] + 899 u[68] + 724 u[69] + 820 u[70]
   + 584 u[71] + 301 u[72] + 522 u[73] + 702 u[74] + 667 u[75] + 273 u[76]
   + 118 u[77] + 431 u[78] + 997 u[79] <= 997
 primal_lower7: 317 u[0] + 409 u[1] + 103 u[2] + 296 u[3] + 281 u[4]
   + 295 u[5] + 114 u[6] + 889 u[7] + 210 u[8] + 15 u[9] + 297 u[10]
   + 376 u[11] + 793 u[12] + 793 u[13] + 146 u[14] + 474 u[15] + 58 u[16]
   + 605 u[17] + 318 u[18] + 123 u[19] + 674 u[20] + 725 u[21] + 713 u[22]
   + 340 u[23] + 218 u[24] + 141 u[25] + 991 u[26] + 837 u[27] + 835 u[28]
   + 332 u[29] + 399 u[30] + 169 u[31] + 41 u[32] + 58 u[33] + 521 u[34]
   + 910 u[35] + 393 u[36] + 818 u[37] + 785 u[38] + 324 u[39] + 780 u[40]
   + 447 u[41] + 115 u[42] + 91 u[43] + 68 u[44] + 104 u[45] + 759 u[46]
   + 663 u[47] + 292 u[48] + 757 u[49] + 852 u[50] + 197 u[51] + 554 u[52]
   + 73 u[53] + 14 u[54] + 405 u[55] + 662 u[56] + 368 u[57] + 681 u[58]
   + 967 u[59] + 818 u[60] + 16 u[61] + 893 u[62] + 584 u[63] + 169 u[64]
   + 841 u[65] + 130 u[66] + 740 u[67] + 385 u[68] + 959 u[69] + 531 u[70]
   + 579 u[71] + 827 u[72] + 292 u[73] + 845 u[74] + 102 u[75] + 824 u[76]
   + 176 u[77] + 438 u[78] + 592 u[79] <= 991
 primal_lower8: 783 u[0] + 384 u[1] + 650 u[2] + 47 u[3] + 900 u[4]
   + 421 u[5] + 885 u[6] + 135 u[7] + 693 u[8] + 742 u[9] + 139 u[10]
   + 23 u[11] + 708 u[12] + 592 u[13] + 380 u[14] + 592 u[15] + 981 u[16]
   + 196 u[17] + 177 u[18] + 2 u[19] + 181 u[20] + 123 u[21] + 276 u[22]
   + 930 u[23] + 220 u[24] + 596 u[25] + 74 u[26] + 587 u[27] + 45 u[28]
   + 931 u[29] + 465 u[30] + 895 u[31] + 27 u[32] + 257 u[33] + 380 u[34]
   + 229 u[35] + 100 u[36] + 528 u[37] + 636 u[38] + 706 u[39] + 711 u[40]
   + 789 u[41] + 550 u[42] + 353 u[43] + 455 u[44] + 390 u[45] + 153 u[46]
   + 253 u[47] + 943 u[48] + 812 u[49] + 758 u[50] + 804 u[51] + 205 u[52]
   + 144 u[53] + 88 u[54] + 235 u[55] + 593 u[56] + 774 u[57] + 436 u[58]
   + 438 u[59] + 708 u[60] + 206 u[61] + 183 u[62] + 534 u[63] + 835 u[64]
   + 144 u[65] + 4 u[66] + 138 u[67] + 332 u[68] + 269 u[69] + 221 u[70]
   + 665 u[71] + 454 u[72] + 675 u[73] + 319 u[74] + 660 u[75] + 234 u[76]
   + 79 u[77] + 480 u[78] + 486 u[79] <= 981
 primal_lower9: 601 u[0] + 853 u[1] + 691 u[2] + 12 u[3] + 589 u[4]
   + 763 u[5] + 558 u[6] + 237 u[7] + 366 u[8] + 939 u[9] + 237 u[10]
   + 852 u[11] + 645 u[12] + 373 u[13] + 46 u[14] + 486 u[15] + 262 u[16]
   + 601 u[17] + 202 u[18] + 951 u[19] + 270 u[20] + 625 u[21] + 237 u[22]
   + 400 u[23] + 638 u[24] + 161 u[25] + 939 u[26] + 753 u[27] + 367 u[28]
   + 136 u[29] + 259 u[30] + 597 u[31] + 165 u[32] + 838 u[33] + 53 u[34]
   + 234 u[35] + 365 u[36] + 574 u[37] + 85 u[38] + 384 u[39] + 72 u[40]
   + 627 u[41] + 591 u[42] + 671 u[43] + 128 u[44] + 940 u[45] + 379 u[46]
   + 371 u[47] + 80 u[48] + 41 u[49] + 320 u[50] + 169 u[51] + 766 u[52]
   + 549 u[53] + 362 u[54] + 913 u[55] + 322 u[56] + 380 u[57] + 725 u[58]
   + 59 u[59] + 110 u[60] + 172 u[61] + 761 u[62] + 916 u[63] + 677 u[64]
   + 405 u[65] + 726 u[66] + 184 u[67] + 261 u[68] + 995 u[69] + 767 u[70]
   + 311 u[71] + 887 u[72] + 576 u[73] + 57 u[74] + 570 u[75] + 708 u[76]
   + 444 u[77] + 626 u[78] + 948 u[79] <= 995
 primal_lower10: 1000 u[0] + 321 u[1] + 571 u[2] + 168 u[3] + 589 u[4]
   + 582 u[5] + 526 u[6] + 40 u[7] + 390 u[8] + 335 u[9] + 36 u[10]
   + 928 u[11] + 317 u[12] + 217 u[13] + 205 u[14] + 161 u[15] + 110 u[16]
   + 37 u[17] + 946 u[18] + 419 u[19] + 646 u[20] + 460 u[21] + 285 u[22]
   + 795 u[23] + 925 u[24] + 829 u[25] + 35 u[26] + 260 u[27] + 374 u[28]
   + 828 u[29] + 274 u[30] + 112 u[31] + 852 u[32] + 50 u[33] + 213 u[34]
   + 630 u[35] + 317 u[36] + 889 u[37] + 773 u[38] + 19 u[39] + 880 u[40]
   + 374 u[41] + 135 u[42] + 338 u[43] + 912 u[44] + 183 u[45] + 322 u[46]
   + 886 u[47] + 304 u[48] + 829 u[49] + 231 u[50] + 437 u[51] + 798 u[52]
   + 129 u[53] + 553 u[54] + 404 u[55] + 482 u[56] + 303 u[57] + 381 u[58]
   + 263 u[59] + 877 u[60] + 783 u[61] + 432 u[62] + 751 u[63] + 932 u[64]
   + 753 u[65] + 805 u[66] + 835 u[67] + 613 u[68] + 278 u[69] + 854 u[70]
   + 794 u[71] + 751 u[72] + 420 u[73] + 824 u[74] + 293 u[75] + 459 u[76]
   + 544 u[77] + 89 u[78] + 783 u[79] <= 1000
 primal_lower11: 304 u[0] + 673 u[1] + 531 u[2] + 352 u[3] + 461 u[4]
   + 790 u[5] + 510 u[6] + 896 u[7] + 270 u[8] + 135 u[9] + 852 u[10]
   + 880 u[11] + 693 u[12] + 593 u[13] + 333 u[14] + 145 u[15] + 134 u[16]
   + 429 u[17] + 194 u[18] + 131 u[19] + 662 u[20] + 892 u[21] + 405 u[22]
   + 91 u[23] + 373 u[24] + 261 u[25] + 187 u[26] + 996 u[27] + 486 u[28]
   + 932 u[29] + 74 u[30] + 568 u[31] + 748 u[32] + 482 u[33] + 365 u[34]
   + 342 u[35] + 117 u[36] + 561 u[37] + 461 u[38] + 51 u[39] + 336 u[40]
   + 446 u[41] + 511 u[42] + 322 u[43] + 968 u[44] + 87 u[45] + 490 u[46]
   + 254 u[47] + 272 u[48] + 13 u[49] + 79 u[50] + 965 u[51] + 750 u[52]
   + 49 u[53] + 273 u[54] + 300 u[55] + 106 u[56] + 935 u[57] + 53 u[58]
   + 679 u[59] + 269 u[60] + 271 u[61] + 928 u[62] + 311 u[63] + 588 u[64]
   + 233 u[65] + 805 u[66] + 771 u[67] + 245 u[68] + 894 u[69] + 790 u[70]
   + 610 u[71] + 767 u[72] + 708 u[73] + 16 u[74] + 693 u[75] + 251 u[76]
   + 296 u[77] + 785 u[78] + 599 u[79] <= 996
 primal_lower12: 801 u[0] + 581 u[1] + 219 u[2] + 348 u[3] + 797 u[4]
   + 603 u[5] + 710 u[6] + 517 u[7] + 622 u[8] + 227 u[9] + 381 u[10]
   + 204 u[11] + 509 u[12] + 293 u[13] + 350 u[14] + 214 u[15] + 942 u[16]
   + 193 u[17] + 610 u[18] + 599 u[19] + 790 u[20] + 585 u[21] + 325 u[22]
   + 168 u[23] + 438 u[24] + 513 u[25] + 43 u[26] + 729 u[27] + 79 u[28]
   + 608 u[29] + 99 u[30] + 357 u[31] + 789 u[32] + 174 u[33] + 77 u[34]
   + 898 u[35] + 477 u[36] + 510 u[37] + 853 u[38] + 272 u[39] + 944 u[40]
   + 587 u[41] + 599 u[42] + 807 u[43] + 848 u[44] + 396 u[45] + 691 u[46]
   + 739 u[47] + 776 u[48] + 753 u[49] + 480 u[50] + 177 u[51] + 422 u[52]
   + 733 u[53] + 722 u[54] + 209 u[55] + 82 u[56] + 140 u[57] + 541 u[58]
   + 651 u[59] + 78 u[60] + 676 u[61] + 969 u[62] + 636 u[63] + 637 u[64]
   + 973 u[65] + 622 u[66] + 888 u[67] + 501 u[68] + 275 u[69] + 527 u[70]
   + 207 u[71] + 167 u[72] + 216 u[73] + 545 u[74] + 930 u[75] + 484 u[76]
   + 660 u[77] + 962 u[78] + 308 u[79] <= 973
 primal_lower13: 367 u[0] + 771 u[1] + 721 u[2] + 802 u[3] + 955 u[4]
   + 625 u[5] + 804 u[6] + 107 u[7] + 468 u[8] + 617 u[9] + 555 u[10]
   + 922 u[11] + 179 u[12] + 955 u[13] + 900 u[14] + 540 u[15] + 444 u[16]
   + 135 u[17] + 192 u[18] + 21 u[19] + 284 u[20] + 335 u[21] + 523 u[22]
   + 750 u[23] + 972 u[24] + 831 u[25] + 473 u[26] + 799 u[27] + 13 u[28]
   + 22 u[29] + 57 u[30] + 955 u[31] + 555 u[32] + 868 u[33] + 211 u[34]
   + 32 u[35] + 475 u[36] + 948 u[37] + 643 u[38] + 558 u[39] + 494 u[40]
   + 665 u[41] + 869 u[42] + 437 u[43] + 606 u[44] + 346 u[45] + 977 u[46]
   + 33 u[47] + 702 u[48] + 39 u[49] + 406 u[50] + 135 u[51] + 564 u[52]
   + 307 u[53] + 712 u[54] + 343 u[55] + 744 u[56] + 2 u[57] + 235 u[58]
   + u[59] + 380 u[60] + 962 u[61] + 479 u[62] + 674 u[63] + 323 u[64]
   + 27 u[65] + 356 u[66] + 374 u[67] + 795 u[68] + 625 u[69] + 269 u[70]
   + 213 u[71] + 917 u[72] + 462 u[73] + 423 u[74] + 408 u[75] + 482 u[76]
   + 610 u[77] + 344 u[78] + 26 u[79] <= 977
 primal_lower14: 795 u[0] + 156 u[1] + 222 u[2] + 315 u[3] + 888 u[4]
   + 753 u[5] + 713 u[6] + 883 u[7] + 777 u[8] + 218 u[9] + 431 u[10]
   + 379 u[11] + 704 u[12] + 276 u[13] + 48 u[14] + 460 u[15] + 665 u[16]
   + 432 u[17] + 645 u[18] + 358 u[19] + 849 u[20] + 127 u[21] + 992 u[22]
   + 366 u[23] + 384 u[24] + 320 u[25] + 342 u[26] + 87 u[27] + 961 u[28]
   + 799 u[29] + 349 u[30] + 875 u[31] + 895 u[32] + 909 u[33] + 440 u[34]
   + 241 u[35] + 560 u[36] + 292 u[37] + 880 u[38] + 982 u[39] + 251 u[40]
   + 225 u[41] + 978 u[42] + 933 u[43] + 243 u[44] + 354 u[45] + 333 u[46]
   + 929 u[47] + 547 u[48] + 448 u[49] + 154 u[50] + 536 u[51] + 513 u[52]
   + 980 u[53] + 620 u[54] + 823 u[55] + 69 u[56] + 450 u[57] + 848 u[58]
   + 146 u[59] + 664 u[60] + 954 u[61] + 755 u[62] + 138 u[63] + 999 u[64]
   + 564 u[65] + 896 u[66] + 446 u[67] + 912 u[68] + 457 u[69] + 521 u[70]
   + 613 u[71] + 170 u[72] + 919 u[73] + 515 u[74] + 744 u[75] + 390 u[76]
   + 755 u[77] + 12 u[78] + 266 u[79] <= 999
 primal_lower15: 337 u[0] + 578 u[1] + 252 u[2] + 889 u[3] + 638 u[4]
   + 31 u[5] + 647 u[6] + 537 u[7] + 151 u[8] + 1000 u[9] + 773 u[10]
   + 593 u[11] + 358 u[12] + 210 u[13] + 950 u[14] + 298 u[15] + 303 u[16]
   + 270 u[17] + 915 u[18] + 524 u[19] + 63 u[20] + 589 u[21] + 990 u[22]
   + 468 u[23] + 22 u[24] + 22 u[25] + 588 u[26] + 557 u[27] + 663 u[28]
   + 581 u[29] + 795 u[30] + 321 u[31] + 389 u[32] + 987 u[33] + 774 u[34]
   + 695 u[35] + 470 u[36] + 98 u[37] + 430 u[38] + 572 u[39] + 169 u[40]
   + 599 u[41] + 56 u[42] + 131 u[43] + 289 u[44] + 392 u[45] + 731 u[46]
   + 327 u[47] + 937 u[48] + 774 u[49] + 16 u[50] + 22 u[51] + 247 u[52]
   + 938 u[53] + 810 u[54] + 69 u[55] + 307 u[56] + 248 u[57] + 486 u[58]
   + 392 u[59] + 302 u[60] + 776 u[61] + 9 u[62] + 584 u[63] + 333 u[64]
   + 642 u[65] + 726 u[66] + 940 u[67] + 6 u[68] + 831 u[69] + 463 u[70]
   + 347 u[71] + 216 u[72] + 845 u[73] + 161 u[74] + 766 u[75] + 132 u[76]
   + 441 u[77] + 34 u[78] + 576 u[79] <= 1000
 primal_lower16: 77 u[0] + 278 u[1] + 984 u[2] + 973 u[3] + 506 u[4]
   + 107 u[5] + 227 u[6] + 429 u[7] + 603 u[8] + 380 u[9] + 945 u[10]
   + 933 u[11] + 66 u[12] + 94 u[13] + 306 u[14] + 726 u[15] + 547 u[16]
   + 554 u[17] + 575 u[18] + 408 u[19] + 699 u[20] + 953 u[21] + 434 u[22]
   + 224 u[23] + 178 u[24] + 522 u[25] + 560 u[26] + 361 u[27] + 755 u[28]
   + 617 u[29] + 311 u[30] + 429 u[31] + 521 u[32] + 239 u[33] + 346 u[34]
   + 771 u[35] + 874 u[36] + 318 u[37] + 578 u[38] + 400 u[39] + 181 u[40]
   + 707 u[41] + 540 u[42] + 743 u[43] + 533 u[44] + 100 u[45] + 255 u[46]
   + 651 u[47] + 109 u[48] + 290 u[49] + 372 u[50] + 186 u[51] + 435 u[52]
   + 734 u[53] + 38 u[54] + 321 u[55] + 495 u[56] + 236 u[57] + 218 u[58]
   + 116 u[59] + 690 u[60] + 900 u[61] + 21 u[62] + 780 u[63] + 209 u[64]
   + 710 u[65] + 386 u[66] + 592 u[67] + 858 u[68] + 379 u[69] + 11 u[70]
   + 991 u[71] + 748 u[72] + 529 u[73] + 109 u[74] + 138 u[75] + 520 u[76]
   + 461 u[77] + 806 u[78] + 644 u[79] <= 991
 primal_lower17: 214 u[0] + 455 u[1] + 465 u[2] + 894 u[3] + 971 u[4]
   + 604 u[5] + 508 u[6] + 470 u[7] + 604 u[8] + 221 u[9] + 786 u[10]
   + 230 u[11] + 267 u[12] + 527 u[13] + 59 u[14] + 695 u[15] + 556 u[16]
   + 635 u[17] + 512 u[18] + 217 u[19] + 156 u[20] + 402 u[21] + 627 u[22]
   + 929 u[23] + 235 u[24] + 531 u[25] + 657 u[26] + 474 u[27] + 732 u[28]
   + 602 u[29] + 544 u[30] + 70 u[31] + 778 u[32] + 960 u[33] + 563 u[34]
   + 20 u[35] + 891 u[36] + 695 u[37] + 219 u[38] + 209 u[39] + 150 u[40]
   + 804 u[41] + 173 u[42] + 56 u[43] + 750 u[44] + 837 u[45] + 496 u[46]
   + 268 u[47] + 566 u[48] + 595 u[49] + 77 u[50] + 155 u[51] + 828 u[52]
   + 111 u[53] + 479 u[54] + 402 u[55] + 32 u[56] + 133 u[57] + 739 u[58]
   + 341 u[59] + 899 u[60] + 357 u[61] + 118 u[62] + 85 u[63] + 866 u[64]
   + 167 u[65] + 339 u[66] + 177 u[67] + 51 u[68] + 252 u[69] + 60 u[70]
   + 24 u[71] + 397 u[72] + 762 u[73] + 606 u[74] + 347 u[75] + 977 u[76]
   + 862 u[77] + 711 u[78] + 925 u[79] <= 977
 primal_lower18: 268 u[0] + 549 u[1] + 647 u[2] + 692 u[3] + 353 u[4]
   + 522 u[5] + 18 u[6] + 148 u[7] + 602 u[8] + 99 u[9] + 920 u[10]
   + 580 u[11] + 961 u[12] + 109 u[13] + 241 u[14] + 205 u[15] + 978 u[16]
   + 329 u[17] + 86 u[18] + 575 u[19] + 554 u[20] + 520 u[21] + 385 u[22]
   + 183 u[23] + 569 u[24] + 185 u[25] + 607 u[26] + 184 u[27] + 554 u[28]
   + 648 u[29] + 262 u[30] + 556 u[31] + 672 u[32] + 166 u[33] + 601 u[34]
   + 130 u[35] + 953 u[36] + 365 u[37] + 49 u[38] + 263 u[39] + 860 u[40]
   + 114 u[41] + 83 u[42] + 974 u[43] + 84 u[44] + 467 u[45] + 726 u[46]
   + 386 u[47] + 372 u[48] + 505 u[49] + 243 u[50] + 793 u[51] + 898 u[52]
   + 213 u[53] + 269 u[54] + 648 u[55] + 902 u[56] + 19 u[57] + 993 u[58]
   + 531 u[59] + 529 u[60] + 987 u[61] + 172 u[62] + 347 u[63] + 656 u[64]
   + 493 u[65] + 497 u[66] + 679 u[67] + 601 u[68] + 130 u[69] + 298 u[70]
   + 406 u[71] + 395 u[72] + 336 u[73] + 116 u[74] + 369 u[75] + 103 u[76]
   + 708 u[77] + 253 u[78] + 811 u[79] <= 993
 primal_lower19: 266 u[0] + 99 u[1] + 205 u[2] + 58 u[3] + 263 u[4]
   + 480 u[5] + 512 u[6] + 298 u[7] + 232 u[8] + 217 u[9] + 414 u[10]
   + 546 u[11] + 151 u[12] + 139 u[13] + 391 u[14] + 67 u[15] + 904 u[16]
   + 183 u[17] + 260 u[18] + 453 u[19] + 264 u[20] + 462 u[21] + 551 u[22]
   + 69 u[23] + 479 u[24] + 823 u[25] + 37 u[26] + 350 u[27] + 40 u[28]
   + 238 u[29] + 492 u[30] + 266 u[31] + 878 u[32] + 4 u[33] + 815 u[34]
   + 704 u[35] + 335 u[36] + 651 u[37] + 71 u[38] + 421 u[39] + 890 u[40]
   + 888 u[41] + 865 u[42] + 60 u[43] + 562 u[44] + 681 u[45] + 540 u[46]
   + 944 u[47] + 458 u[48] + 175 u[49] + 385 u[50] + 655 u[51] + 696 u[52]
   + 59 u[53] + 947 u[54] + 550 u[55] + 284 u[56] + 65 u[57] + 463 u[58]
   + 225 u[59] + 311 u[60] + 593 u[61] + 530 u[62] + 185 u[63] + 238 u[64]
   + 723 u[65] + 431 u[66] + 133 u[67] + 119 u[68] + 832 u[69] + 952 u[70]
   + 228 u[71] + 217 u[72] + 646 u[73] + 738 u[74] + 167 u[75] + 781 u[76]
   + 634 u[77] + 667 u[78] + 209 u[79] <= 952
 primal_lower20: 55 u[0] + 739 u[1] + 993 u[2] + 354 u[3] + 627 u[4]
   + 465 u[5] + 36 u[6] + 699 u[7] + 404 u[8] + 57 u[9] + 883 u[10]
   + 794 u[11] + 483 u[12] + 715 u[13] + 972 u[14] + 644 u[15] + 948 u[16]
   + 647 u[17] + 312 u[18] + 381 u[19] + 324 u[20] + 471 u[21] + 67 u[22]
   + 734 u[23] + 748 u[24] + 711 u[25] + 57 u[26] + 455 u[27] + 437 u[28]
   + 654 u[29] + 745 u[30] + 915 u[31] + 203 u[32] + 772 u[33] + 51 u[34]
   + 832 u[35] + 155 u[36] + 940 u[37] + 363 u[38] + 446 u[39] + 726 u[40]
   + 417 u[41] + 141 u[42] + 821 u[43] + 166 u[44] + 386 u[45] + 841 u[46]
   + 713 u[47] + 38 u[48] + 423 u[49] + 726 u[50] + 127 u[51] + 212 u[52]
   + 347 u[53] + 624 u[54] + 543 u[55] + 360 u[56] + 258 u[57] + 83 u[58]
   + 121 u[59] + 204 u[60] + 394 u[61] + 7 u[62] + 594 u[63] + 979 u[64]
   + 235 u[65] + 204 u[66] + 606 u[67] + 107 u[68] + 33 u[69] + 725 u[70]
   + 421 u[71] + 725 u[72] + 14 u[73] + 543 u[74] + 816 u[75] + 298 u[76]
   + 378 u[77] + 504 u[78] + 698 u[79] <= 993
 primal_lower21: 638 u[0] + 103 u[1] + 697 u[2] + 462 u[3] + 483 u[4]
   + 596 u[5] + 588 u[6] + 158 u[7] + 548 u[8] + 965 u[9] + 770 u[10]
   + 398 u[11] + 195 u[12] + 599 u[13] + 379 u[14] + 271 u[15] + 140 u[16]
   + 779 u[17] + 720 u[18] + 17 u[19] + 724 u[20] + 426 u[21] + 779 u[22]
   + 225 u[23] + 59 u[24] + 875 u[25] + 881 u[26] + 946 u[27] + 804 u[28]
   + 26 u[29] + 728 u[30] + 398 u[31] + 402 u[32] + 656 u[33] + 283 u[34]
   + 260 u[35] + 883 u[36] + 103 u[37] + 603 u[38] + 153 u[39] + 478 u[40]
   + 876 u[41] + 165 u[42] + 488 u[43] + 974 u[44] + 725 u[45] + 880 u[46]
   + 196 u[47] + 238 u[48] + 123 u[49] + 341 u[50] + 403 u[51] + 980 u[52]
   + 911 u[53] + 735 u[54] + 66 u[55] + 232 u[56] + 645 u[57] + 931 u[58]
   + 93 u[59] + 107 u[60] + 749 u[61] + 758 u[62] + 605 u[63] + 218 u[64]
   + 327 u[65] + 467 u[66] + 745 u[67] + 811 u[68] + 604 u[69] + 972 u[70]
   + 872 u[71] + 645 u[72] + 514 u[73] + 70 u[74] + 891 u[75] + 585 u[76]
   + 782 u[77] + 87 u[78] + 373 u[79] <= 980
 primal_lower22: 983 u[0] + 752 u[1] + 666 u[2] + 215 u[3] + 20 u[4]
   + 765 u[5] + 229 u[6] + 983 u[7] + 141 u[8] + 350 u[9] + 147 u[10]
   + 919 u[11] + 452 u[12] + 992 u[13] + 220 u[14] + 488 u[15] + 549 u[16]
   + 852 u[17] + 825 u[18] + 250 u[19] + 293 u[20] + 475 u[21] + 836 u[22]
   + 506 u[23] + 36 u[24] + 188 u[25] + 506 u[26] + 451 u[27] + 373 u[28]
   + 131 u[29] + 633 u[30] + 159 u[31] + 443 u[32] + 857 u[33] + 372 u[34]
   + 221 u[35] + 764 u[36] + 768 u[37] + 228 u[38] + 730 u[39] + 831 u[40]
   + 197 u[41] + 470 u[42] + 233 u[43] + 735 u[44] + 470 u[45] + 105 u[46]
   + 677 u[47] + 207 u[48] + 492 u[49] + 814 u[50] + 44 u[51] + 517 u[52]
   + 888 u[53] + 896 u[54] + 259 u[55] + 713 u[56] + 70 u[57] + 892 u[58]
   + 382 u[59] + 308 u[60] + 414 u[61] + 383 u[62] + 294 u[63] + 403 u[64]
   + 312 u[65] + 508 u[66] + 618 u[67] + 556 u[68] + 357 u[69] + 981 u[70]
   + 953 u[71] + 862 u[72] + 531 u[73] + 175 u[74] + 524 u[75] + 834 u[76]
   + 367 u[77] + 472 u[78] + 902 u[79] <= 992
 primal_lower23: 778 u[0] + 547 u[1] + 613 u[2] + 962 u[3] + 439 u[4]
   + 368 u[5] + 184 u[6] + 442 u[7] + 760 u[8] + 57 u[9] + 678 u[10]
   + 410 u[11] + 847 u[12] + 547 u[13] + 615 u[14] + 347 u[15] + 552 u[16]
   + 199 u[17] + 636 u[18] + 941 u[19] + 440 u[20] + 518 u[21] + 575 u[22]
   + 605 u[23] + 167 u[24] + 655 u[25] + 981 u[26] + 358 u[27] + 160 u[28]
   + 446 u[29] + 100 u[30] + 650 u[31] + 574 u[32] + 500 u[33] + 727 u[34]
   + 792 u[35] + 519 u[36] + 459 u[37] + 535 u[38] + 221 u[39] + 250 u[40]
   + 408 u[41] + 529 u[42] + 908 u[43] + 378 u[44] + 961 u[45] + 244 u[46]
   + 232 u[47] + 898 u[48] + 967 u[49] + 49 u[50] + 191 u[51] + 800 u[52]
   + 923 u[53] + 611 u[54] + 686 u[55] + 236 u[56] + 289 u[57] + 47 u[58]
   + 993 u[59] + 679 u[60] + 857 u[61] + 738 u[62] + 385 u[63] + 390 u[64]
   + 75 u[65] + 359 u[66] + 253 u[67] + 583 u[68] + 528 u[69] + 248 u[70]
   + 180 u[71] + 105 u[72] + 70 u[73] + 610 u[74] + 607 u[75] + 157 u[76]
   + 162 u[77] + 859 u[78] + 65 u[79] <= 993
 primal_lower24: 311 u[0] + 368 u[1] + 714 u[2] + 239 u[3] + 396 u[4]
   + 117 u[5] + 709 u[6] + 119 u[7] + 157 u[8] + 606 u[9] + 627 u[10]
   + 31 u[11] + 924 u[12] + 464 u[13] + 204 u[14] + 744 u[15] + 37 u[16]
   + 244 u[17] + 97 u[18] + 850 u[19] + 373 u[20] + 587 u[21] + 348 u[22]
   + 354 u[23] + 412 u[24] + 284 u[25] + 210 u[26] + 251 u[27] + 125 u[28]
   + 875 u[29] + 569 u[30] + 959 u[31] + 699 u[32] + 113 u[33] + 380 u[34]
   + 973 u[35] + 892 u[36] + 744 u[37] + 260 u[38] + 554 u[39] + 159 u[40]
   + 669 u[41] + 710 u[42] + 625 u[43] + 799 u[44] + 6 u[45] + 193 u[46]
   + 317 u[47] + 711 u[48] + 748 u[49] + 510 u[50] + 972 u[51] + 277 u[52]
   + 848 u[53] + 112 u[54] + 171 u[55] + 473 u[56] + 446 u[57] + 172 u[58]
   + 758 u[59] + 468 u[60] + 870 u[61] + 351 u[62] + 510 u[63] + 619 u[64]
   + 1000 u[65] + 684 u[66] + 810 u[67] + 556 u[68] + 157 u[69] + 517 u[70]
   + 497 u[71] + 430 u[72] + 771 u[73] + 967 u[74] + 188 u[75] + 794 u[76]
   + 607 u[77] + 328 u[78] + 230 u[79] <= 1000
 primal_lower25: 164 u[0] + 565 u[1] + 287 u[2] + 892 u[3] + 577 u[4]
   + 794 u[5] + 978 u[6] + 84 u[7] + 378 u[8] + 307 u[9] + 640 u[10]
   + 236 u[11] + 393 u[12] + 445 u[13] + 593 u[14] + 93 u[15] + 74 u[16]
   + 385 u[17] + 742 u[18] + 951 u[19] + 10 u[20] + 120 u[21] + 857 u[22]
   + 455 u[23] + 689 u[24] + 9 u[25] + 967 u[26] + 64 u[27] + 362 u[28]
   + 392 u[29] + 710 u[30] + 708 u[31] + 832 u[32] + 822 u[33] + 137 u[34]
   + 690 u[35] + 401 u[36] + 789 u[37] + 697 u[38] + 735 u[39] + 644 u[40]
   + 58 u[41] + 603 u[42] + 270 u[43] + 164 u[44] + 507 u[45] + 718 u[46]
   + 170 u[47] + 212 u[48] + 513 u[49] + 467 u[50] + 89 u[51] + 818 u[52]
   + 893 u[53] + 157 u[54] + 816 u[55] + 574 u[56] + 723 u[57] + 593 u[58]
   + 763 u[59] + 481 u[60] + 131 u[61] + 396 u[62] + 931 u[63] + 480 u[64]
   + 421 u[65] + 913 u[66] + 711 u[67] + 241 u[68] + 394 u[69] + 322 u[70]
   + 558 u[71] + 995 u[72] + 128 u[73] + 436 u[74] + 561 u[75] + 655 u[76]
   + 908 u[77] + 517 u[78] + 539 u[79] <= 995
 primal_lower26: 785 u[0] + 434 u[1] + 68 u[2] + 305 u[3] + 22 u[4]
   + 399 u[5] + 159 u[6] + 361 u[7] + 295 u[8] + 576 u[9] + 453 u[10]
   + 833 u[11] + 406 u[12] + 538 u[13] + 702 u[14] + 266 u[15] + 583 u[16]
   + 358 u[17] + 163 u[18] + 284 u[19] + 623 u[20] + 757 u[21] + 422 u[22]
   + 380 u[23] + 190 u[24] + 982 u[25] + 140 u[26] + 389 u[27] + 567 u[28]
   + 221 u[29] + 763 u[30] + 33 u[31] + 701 u[32] + 275 u[33] + 262 u[34]
   + 751 u[35] + 782 u[36] + 642 u[37] + 830 u[38] + 212 u[39] + 977 u[40]
   + 15 u[41] + 88 u[42] + 91 u[43] + 849 u[44] + 120 u[45] + 107 u[46]
   + 263 u[47] + 873 u[48] + 966 u[49] + 824 u[50] + 414 u[51] + 631 u[52]
   + 234 u[53] + 506 u[54] + 261 u[55] + 699 u[56] + 144 u[57] + 102 u[58]
   + 824 u[59] + 950 u[60] + 576 u[61] + 849 u[62] + 248 u[63] + 781 u[64]
   + 466 u[65] + 438 u[66] + 484 u[67] + 718 u[68] + 367 u[69] + 167 u[70]
   + 451 u[71] + 392 u[72] + 621 u[73] + 809 u[74] + 998 u[75] + 580 u[76]
   + u[77] + 186 u[78] + 824 u[79] <= 998
 primal_lower27: 82 u[0] + 30 u[1] + 52 u[2] + 317 u[3] + 254 u[4]
   + 636 u[5] + 79 u[6] + 278 u[7] + 135 u[8] + 492 u[9] + 558 u[10]
   + 349 u[11] + 838 u[12] + 678 u[13] + 303 u[14] + 703 u[15] + 591 u[16]
   + 906 u[17] + 915 u[18] + 432 u[19] + 95 u[20] + 826 u[21] + 86 u[22]
   + 9 u[23] + 639 u[24] + 690 u[25] + 788 u[26] + 962 u[27] + 24 u[28]
   + 929 u[29] + 780 u[30] + 518 u[31] + 998 u[32] + 407 u[33] + 262 u[34]
   + 539 u[35] + 294 u[36] + 711 u[37] + 958 u[38] + 505 u[39] + 49 u[40]
   + 804 u[41] + 888 u[42] + 384 u[43] + 737 u[44] + 333 u[45] + 284 u[46]
   + 780 u[47] + 809 u[48] + 242 u[49] + 473 u[50] + 642 u[51] + 375 u[52]
   + 334 u[53] + 587 u[54] + 442 u[55] + 499 u[56] + 605 u[57] + 318 u[58]
   + 132 u[59] + 679 u[60] + 949 u[61] + 962 u[62] + 941 u[63] + 534 u[64]
   + 774 u[65] + 959 u[66] + 785 u[67] + 358 u[68] + 852 u[69] + 952 u[70]
   + 424 u[71] + 8 u[72] + 393 u[73] + 90 u[74] + 331 u[75] + 541 u[76]
   + 309 u[77] + 139 u[78] + 829 u[79] <= 998
 primal_lower28: 881 u[0] + 850 u[1] + 860 u[2] + 209 u[3] + 798 u[4]
   + 903 u[5] + 159 u[6] + 969 u[7] + 823 u[8] + 856 u[9] + 429 u[10]
   + 177 u[11] + 606 u[12] + 826 u[13] + 206 u[14] + 610 u[15] + 743 u[16]
   + 702 u[17] + 843 u[18] + 644 u[19] + 751 u[20] + 797 u[21] + 222 u[22]
   + 836 u[23] + 886 u[24] + 566 u[25] + 772 u[26] + 117 u[27] + 295 u[28]
   + 869 u[29] + 123 u[30] + 833 u[31] + 621 u[32] + 843 u[33] + 278 u[34]
   + 151 u[35] + 254 u[36] + 410 u[37] + 438 u[38] + 852 u[39] + 241 u[40]
   + 199 u[41] + 672 u[42] + 731 u[43] + 345 u[44] + 416 u[45] + 387 u[46]
   + 631 u[47] + 497 u[48] + 342 u[49] + 376 u[50] + 150 u[51] + 463 u[52]
   + 602 u[53] + 554 u[54] + 165 u[55] + 963 u[56] + 240 u[57] + 198 u[58]
   + 688 u[59] + 62 u[60] + 88 u[61] + 193 u[62] + 784 u[63] + 197 u[64]
   + 698 u[65] + 670 u[66] + 372 u[67] + 430 u[68] + 511 u[69] + 151 u[70]
   + 267 u[71] + 56 u[72] + 717 u[73] + 825 u[74] + 342 u[75] + 484 u[76]
   + 401 u[77] + 738 u[78] + 816 u[79] <= 969
 primal_lower29: 981 u[0] + 465 u[1] + 839 u[2] + 288 u[3] + 305 u[4]
   + 671 u[5] + 522 u[6] + 937 u[7] + 954 u[8] + 567 u[9] + 761 u[10]
   + 856 u[11] + 665 u[12] + 521 u[13] + 242 u[14] + 90 u[15] + 794 u[16]
   + 845 u[17] + 406 u[18] + 835 u[19] + 202 u[20] + 573 u[21] + 161 u[22]
   + 492 u[23] + 730 u[24] + 213 u[25] + 431 u[26] + 469 u[27] + 11 u[28]
   + 804 u[29] + 487 u[30] + 665 u[31] + 521 u[32] + 482 u[33] + 649 u[34]
   + 870 u[35] + 481 u[36] + 546 u[37] + 353 u[38] + 284 u[39] + 564 u[40]
   + 127 u[41] + 379 u[42] + 275 u[43] + 652 u[44] + 328 u[45] + 319 u[46]
   + 767 u[47] + 756 u[48] + 749 u[49] + 188 u[50] + 29 u[51] + 730 u[52]
   + 169 u[53] + 566 u[54] + 733 u[55] + 398 u[56] + 88 u[57] + u[58]
   + 487 u[59] + 450 u[60] + 400 u[61] + 389 u[62] + 128 u[63] + 689 u[64]
   + 705 u[65] + 162 u[66] + 660 u[67] + 65 u[68] + 559 u[69] + 795 u[70]
   + 579 u[71] + 227 u[72] + 324 u[73] + 925 u[74] + 126 u[75] + 856 u[76]
   + 600 u[77] + 766 u[78] + 712 u[79] <= 981
 primal_lower30: 999 u[0] + 787 u[1] + u[2] + 82 u[3] + 147 u[4] + 433 u[5]
   + 844 u[6] + 851 u[7] + 788 u[8] + 137 u[9] + 715 u[10] + 114 u[11]
   + 411 u[12] + 67 u[13] + 828 u[14] + 484 u[15] + 372 u[16] + 999 u[17]
   + 304 u[18] + 901 u[19] + 932 u[20] + 39 u[21] + 131 u[22] + 38 u[23]
   + 692 u[24] + 815 u[25] + 153 u[26] + 383 u[27] + 501 u[28] + 670 u[29]
   + 649 u[30] + 755 u[31] + 995 u[32] + 868 u[33] + 435 u[34] + 920 u[35]
   + 827 u[36] + 300 u[37] + 403 u[38] + 406 u[39] + 630 u[40] + 465 u[41]
   + 525 u[42] + 573 u[43] + 966 u[44] + 162 u[45] + 641 u[46] + 857 u[47]
   + 950 u[48] + 463 u[49] + 862 u[50] + 295 u[51] + 348 u[52] + 491 u[53]
   + 808 u[54] + 615 u[55] + 592 u[56] + 962 u[57] + 155 u[58] + 33 u[59]
   + 588 u[60] + 778 u[61] + 767 u[62] + 234 u[63] + 523 u[64] + 347 u[65]
   + 892 u[66] + 78 u[67] + 123 u[68] + 73 u[69] + 341 u[70] + 573 u[71]
   + 389 u[72] + 78 u[73] + 887 u[74] + 728 u[75] + 82 u[76] + 138 u[77]
   + 288 u[78] + 154 u[79] <= 999
 primal_lower31: 57 u[0] + 186 u[1] + 764 u[2] + 585 u[3] + 366 u[4]
   + 375 u[5] + 15 u[6] + 617 u[7] + 743 u[8] + 616 u[9] + 405 u[10]
   + 145 u[11] + 190 u[12] + 754 u[13] + 470 u[14] + 802 u[15] + 951 u[16]
   + 174 u[17] + 979 u[18] + 876 u[19] + 327 u[20] + 445 u[21] + 70 u[22]
   + 652 u[23] + 470 u[24] + 206 u[25] + 620 u[26] + 613 u[27] + 975 u[28]
   + 109 u[29] + 507 u[30] + 17 u[31] + 765 u[32] + 979 u[33] + 614 u[34]
   + 663 u[35] + 758 u[36] + 58 u[37] + 982 u[38] + 236 u[39] + 345 u[40]
   + 231 u[41] + 872 u[42] + 387 u[43] + 945 u[44] + 400 u[45] + 451 u[46]
   + 47 u[47] + 697 u[48] + 550 u[49] + 232 u[50] + 966 u[51] + 703 u[52]
   + 634 u[53] + 890 u[54] + 61 u[55] + 107 u[56] + 872 u[57] + 870 u[58]
   + 888 u[59] + 574 u[60] + 752 u[61] + 769 u[62] + 232 u[63] + 29 u[64]
   + 138 u[65] + 822 u[66] + 188 u[67] + 382 u[68] + 999 u[69] + 519 u[70]
   + 995 u[71] + 712 u[72] + 877 u[73] + 201 u[74] + 822 u[75] + 404 u[76]
   + 953 u[77] + 698 u[78] + 976 u[79] <= 999
 primal_lower32: 150 u[0] + 551 u[1] + 297 u[2] + 366 u[3] + 659 u[4]
   + 484 u[5] + 68 u[6] + 302 u[7] + 884 u[8] + 805 u[9] + 842 u[10]
   + 262 u[11] + 891 u[12] + 7 u[13] + 795 u[14] + 359 u[15] + 980 u[16]
   + 795 u[17] + 96 u[18] + 505 u[19] + 708 u[20] + 290 u[21] + 803 u[22]
   + 569 u[23] + 747 u[24] + 707 u[25] + 825 u[26] + 954 u[27] + 924 u[28]
   + 42 u[29] + 336 u[30] + 782 u[31] + 290 u[32] + 152 u[33] + 195 u[34]
   + 156 u[35] + 259 u[36] + 911 u[37] + 67 u[38] + 953 u[39] + 838 u[40]
   + 396 u[41] + 829 u[42] + 144 u[43] + 790 u[44] + 5 u[45] + 584 u[46]
   + 292 u[47] + 678 u[48] + 915 u[49] + 5 u[50] + 939 u[51] + 892 u[52]
   + 967 u[53] + 399 u[54] + 202 u[55] + 184 u[56] + 869 u[57] + 323 u[58]
   + 861 u[59] + 283 u[60] + 13 u[61] + 966 u[62] + 613 u[63] + 370 u[64]
   + 679 u[65] + 395 u[66] + 865 u[67] + 467 u[68] + 492 u[69] + 76 u[70]
   + 632 u[71] + 533 u[72] + 938 u[73] + 750 u[74] + 331 u[75] + 153 u[76]
   + 502 u[77] + 471 u[78] + 229 u[79] <= 980
 primal_lower33: 493 u[0] + 529 u[1] + 751 u[2] + 568 u[3] + 193 u[4]
   + 991 u[5] + 826 u[6] + 329 u[7] + 850 u[8] + 567 u[9] + 361 u[10]
   + 968 u[11] + 289 u[12] + 121 u[13] + 82 u[14] + 26 u[15] + 250 u[16]
   + 117 u[17] + 222 u[18] + 539 u[19] + 74 u[20] + 573 u[21] + 929 u[22]
   + 124 u[23] + 994 u[24] + 405 u[25] + 127 u[26] + 453 u[27] + 147 u[28]
   + 20 u[29] + 815 u[30] + 785 u[31] + 681 u[32] + 322 u[33] + 737 u[34]
   + 718 u[35] + 761 u[36] + 402 u[37] + 65 u[38] + 76 u[39] + 948 u[40]
   + 679 u[41] + 851 u[42] + 451 u[43] + 684 u[44] + 424 u[45] + 879 u[46]
   + 815 u[47] + 396 u[48] + 173 u[49] + 716 u[50] + 933 u[51] + 706 u[52]
   + 185 u[53] + 974 u[54] + 205 u[55] + 430 u[56] + 8 u[57] + 273 u[58]
   + 15 u[59] + 490 u[60] + 968 u[61] + 237 u[62] + 240 u[63] + 201 u[64]
   + 57 u[65] + 610 u[66] + 460 u[67] + 945 u[68] + 279 u[69] + 291 u[70]
   + 635 u[71] + 699 u[72] + 676 u[73] + 205 u[74] + 206 u[75] + 288 u[76]
   + 72 u[77] + 334 u[78] + 952 u[79] <= 994
 primal_lower34: 812 u[0] + 781 u[1] + 551 u[2] + 612 u[3] + 825 u[4]
   + 826 u[5] + 298 u[6] + 196 u[7] + 314 u[8] + 587 u[9] + 520 u[10]
   + 204 u[11] + 601 u[12] + 221 u[13] + 433 u[14] + 885 u[15] + 866 u[16]
   + 905 u[17] + 126 u[18] + 639 u[19] + 994 u[20] + 104 u[21] + 649 u[22]
   + 271 u[23] + 297 u[24] + 513 u[25] + 959 u[26] + 824 u[27] + 386 u[28]
   + 88 u[29] + 790 u[30] + 796 u[31] + 992 u[32] + 806 u[33] + 233 u[34]
   + 354 u[35] + 249 u[36] + 773 u[37] + 449 u[38] + 71 u[39] + 980 u[40]
   + 74 u[41] + 107 u[42] + 462 u[43] + 260 u[44] + 811 u[45] + 510 u[46]
   + 10 u[47] + 188 u[48] + 929 u[49] + 915 u[50] + 969 u[51] + 874 u[52]
   + 253 u[53] + 853 u[54] + 560 u[55] + 686 u[56] + 891 u[57] + 393 u[58]
   + 363 u[59] + 681 u[60] + 379 u[61] + 388 u[62] + 59 u[63] + 440 u[64]
   + 309 u[65] + 393 u[66] + 135 u[67] + 753 u[68] + 802 u[69] + 586 u[70]
   + 542 u[71] + 867 u[72] + 632 u[73] + 716 u[74] + 577 u[75] + 655 u[76]
   + 444 u[77] + 421 u[78] + 731 u[79] <= 994
 primal_lower35: 216 u[0] + 404 u[1] + 778 u[2] + 299 u[3] + 868 u[4]
   + 506 u[5] + 285 u[6] + 540 u[7] + 493 u[8] + 674 u[9] + 444 u[10]
   + 315 u[11] + 708 u[12] + 108 u[13] + 301 u[14] + 957 u[15] + 237 u[16]
   + 704 u[17] + 273 u[18] + 438 u[19] + 69 u[20] + 424 u[21] + 516 u[22]
   + 495 u[23] + 669 u[24] + 664 u[25] + 490 u[26] + 584 u[27] + 414 u[28]
   + 623 u[29] + 834 u[30] + 84 u[31] + 340 u[32] + 773 u[33] + 324 u[34]
   + 297 u[35] + 156 u[36] + 341 u[37] + 404 u[38] + 295 u[39] + 831 u[40]
   + 130 u[41] + 142 u[42] + 694 u[43] + 167 u[44] + 171 u[45] + 498 u[46]
   + 730 u[47] + 703 u[48] + 752 u[49] + 895 u[50] + 912 u[51] + 701 u[52]
   + 220 u[53] + 353 u[54] + 248 u[55] + 793 u[56] + 339 u[57] + 188 u[58]
   + 746 u[59] + 813 u[60] + 715 u[61] + 376 u[62] + 219 u[63] + 580 u[64]
   + 276 u[65] + 845 u[66] + 823 u[67] + 340 u[68] + 266 u[69] + 574 u[70]
   + 942 u[71] + 630 u[72] + 519 u[73] + 728 u[74] + 665 u[75] + 171 u[76]
   + 899 u[77] + 649 u[78] + 83 u[79] <= 957
 primal_lower36: 330 u[0] + 707 u[1] + 597 u[2] + 946 u[3] + 999 u[4]
   + 392 u[5] + 312 u[6] + 378 u[7] + 784 u[8] + 737 u[9] + 526 u[10]
   + 298 u[11] + 975 u[12] + 555 u[13] + 223 u[14] + 819 u[15] + 680 u[16]
   + 503 u[17] + 292 u[18] + 669 u[19] + 896 u[20] + 70 u[21] + 287 u[22]
   + 349 u[23] + 871 u[24] + 335 u[25] + 821 u[26] + 310 u[27] + 840 u[28]
   + 574 u[29] + 492 u[30] + 434 u[31] + 22 u[32] + 844 u[33] + 839 u[34]
   + 920 u[35] + 535 u[36] + 563 u[37] + 663 u[38] + 397 u[39] + 266 u[40]
   + 600 u[41] + 537 u[42] + 716 u[43] + 610 u[44] + 345 u[45] + 924 u[46]
   + 456 u[47] + 490 u[48] + 847 u[49] + 49 u[50] + 103 u[51] + 368 u[52]
   + 355 u[53] + 811 u[54] + 798 u[55] + 532 u[56] + 17 u[57] + 919 u[58]
   + 377 u[59] + 943 u[60] + 697 u[61] + 202 u[62] + 745 u[63] + 134 u[64]
   + 131 u[65] + 807 u[66] + 397 u[67] + 207 u[68] + 176 u[69] + 336 u[70]
   + 956 u[71] + 569 u[72] + 262 u[73] + 506 u[74] + 967 u[75] + 429 u[76]
   + 226 u[77] + 747 u[78] + 209 u[79] <= 999
 primal_lower37: 432 u[0] + 993 u[1] + 11 u[2] + 928 u[3] + 53 u[4]
   + 118 u[5] + 782 u[6] + 256 u[7] + 702 u[8] + 23 u[9] + 716 u[10]
   + 328 u[11] + 565 u[12] + 409 u[13] + 405 u[14] + 721 u[15] + 742 u[16]
   + 53 u[17] + 18 u[18] + 435 u[19] + 78 u[20] + 68 u[21] + 61 u[22]
   + 835 u[23] + 269 u[24] + 101 u[25] + 859 u[26] + 892 u[27] + 326 u[28]
   + 996 u[29] + 114 u[30] + 224 u[31] + 396 u[32] + 178 u[33] + 237 u[34]
   + 710 u[35] + 653 u[36] + 65 u[37] + 709 u[38] + 795 u[39] + 928 u[40]
   + 182 u[41] + 167 u[42] + 818 u[43] + 528 u[44] + 535 u[45] + 818 u[46]
   + 774 u[47] + 848 u[48] + 101 u[49] + 663 u[50] + 413 u[51] + 862 u[52]
   + 169 u[53] + 353 u[54] + 44 u[55] + 298 u[56] + 807 u[57] + 797 u[58]
   + 559 u[59] + 253 u[60] + 599 u[61] + 64 u[62] + 679 u[63] + 620 u[64]
   + 505 u[65] + 925 u[66] + 155 u[67] + 285 u[68] + 422 u[69] + 966 u[70]
   + 962 u[71] + 975 u[72] + 852 u[73] + 200 u[74] + 613 u[75] + 227 u[76]
   + 912 u[77] + 321 u[78] + 167 u[79] <= 996
 primal_lower38: 312 u[0] + 385 u[1] + 355 u[2] + 312 u[3] + 893 u[4]
   + 926 u[5] + 22 u[6] + 576 u[7] + 302 u[8] + 119 u[9] + 380 u[10]
   + 768 u[11] + 93 u[12] + 889 u[13] + 613 u[14] + 105 u[15] + 166 u[16]
   + 5 u[17] + 578 u[18] + 979 u[19] + 502 u[20] + 60 u[21] + 221 u[22]
   + 99 u[23] + 733 u[24] + 237 u[25] + 155 u[26] + 620 u[27] + 774 u[28]
   + 68 u[29] + 162 u[30] + 544 u[31] + 372 u[32] + 314 u[33] + 533 u[34]
   + 350 u[35] + 509 u[36] + u[37] + 117 u[38] + 787 u[39] + 296 u[40]
   + 878 u[41] + 31 u[42] + 346 u[43] + 656 u[44] + 271 u[45] + 634 u[46]
   + 590 u[47] + 952 u[48] + 869 u[49] + 223 u[50] + 621 u[51] + 446 u[52]
   + 521 u[53] + 705 u[54] + 212 u[55] + 626 u[56] + 607 u[57] + 637 u[58]
   + 271 u[59] + 541 u[60] + 199 u[61] + 136 u[62] + 975 u[63] + 940 u[64]
   + 249 u[65] + 877 u[66] + 979 u[67] + 517 u[68] + 894 u[69] + 790 u[70]
   + 386 u[71] + 591 u[72] + 20 u[73] + 296 u[74] + 277 u[75] + 515 u[76]
   + 160 u[77] + 441 u[78] + 831 u[79] <= 979
 primal_lower39: 174 u[0] + 159 u[1] + 97 u[2] + 782 u[3] + 499 u[4]
   + 924 u[5] + 732 u[6] + 254 u[7] + 660 u[8] + 493 u[9] + 730 u[10]
   + 750 u[11] + 315 u[12] + 287 u[13] + 755 u[14] + 407 u[15] + 340 u[16]
   + 531 u[17] + 976 u[18] + 305 u[19] + 356 u[20] + 858 u[21] + 387 u[22]
   + 849 u[23] + 403 u[24] + 299 u[25] + 465 u[26] + 346 u[27] + 748 u[28]
   + 378 u[29] + 592 u[30] + 126 u[31] + 98 u[32] + 80 u[33] + 675 u[34]
   + 876 u[35] + 515 u[36] + 455 u[37] + 867 u[38] + 793 u[39] + 830 u[40]
   + 740 u[41] + 741 u[42] + 848 u[43] + 446 u[44] + 93 u[45] + 616 u[46]
   + 540 u[47] + 734 u[48] + 755 u[49] + 341 u[50] + 803 u[51] + 92 u[52]
   + 527 u[53] + 935 u[54] + 186 u[55] + 272 u[56] + 645 u[57] + 611 u[58]
   + 653 u[59] + 699 u[60] + 445 u[61] + 142 u[62] + 205 u[63] + 746 u[64]
   + 599 u[65] + 611 u[66] + 233 u[67] + 515 u[68] + 684 u[69] + 268 u[70]
   + 280 u[71] + 509 u[72] + 898 u[73] + 822 u[74] + 883 u[75] + 777 u[76]
   + 294 u[77] + 127 u[78] + 293 u[79] <= 976
 primal_lower40: 943 u[0] + 304 u[1] + 586 u[2] + 719 u[3] + 212 u[4]
   + 789 u[5] + 285 u[6] + 95 u[7] + 557 u[8] + 390 u[9] + 867 u[10]
   + 111 u[11] + 172 u[12] + 568 u[13] + 812 u[14] + 616 u[15] + 245 u[16]
   + 396 u[17] + 433 u[18] + 426 u[19] + 909 u[20] + 43 u[21] + 404 u[22]
   + 890 u[23] + 284 u[24] + 836 u[25] + 226 u[26] + 995 u[27] + 397 u[28]
   + 211 u[29] + 561 u[30] + 215 u[31] + 315 u[32] + 681 u[33] + 860 u[34]
   + 589 u[35] + 460 u[36] + 480 u[37] + 420 u[38] + 266 u[39] + 391 u[40]
   + 189 u[41] + 798 u[42] + 729 u[43] + 783 u[44] + 462 u[45] + 113 u[46]
   + 165 u[47] + 663 u[48] + 692 u[49] + 782 u[50] + 228 u[51] + 389 u[52]
   + 592 u[53] + 312 u[54] + 75 u[55] + 193 u[56] + 742 u[57] + 84 u[58]
   + 670 u[59] + 460 u[60] + 846 u[61] + 703 u[62] + 286 u[63] + 467 u[64]
   + 224 u[65] + 740 u[66] + 754 u[67] + 340 u[68] + 781 u[69] + 789 u[70]
   + 481 u[71] + 742 u[72] + 851 u[73] + 111 u[74] + 964 u[75] + 178 u[76]
   + 687 u[77] + 392 u[78] + 718 u[79] <= 995
 primal_lower41: 199 u[0] + 816 u[1] + 674 u[2] + 807 u[3] + 268 u[4]
   + 869 u[5] + 597 u[6] + 487 u[7] + 77 u[8] + 158 u[9] + 427 u[10]
   + 767 u[11] + 316 u[12] + 736 u[13] + 820 u[14] + 992 u[15] + 325 u[16]
   + 852 u[17] + 713 u[18] + 778 u[19] + 885 u[20] + 179 u[21] + 804 u[22]
   + 674 u[23] + 332 u[24] + 820 u[25] + 890 u[26] + 899 u[27] + 429 u[28]
   + 227 u[29] + 993 u[30] + 439 u[31] + 115 u[32] + 329 u[33] + 988 u[34]
   + 629 u[35] + 748 u[36] + 168 u[37] + 468 u[38] + 818 u[39] + 511 u[40]
   + 125 u[41] + 502 u[42] + 737 u[43] + 903 u[44] + 622 u[45] + 617 u[46]
   + 221 u[47] + 551 u[48] + 404 u[49] + 662 u[50] + 324 u[51] + 869 u[52]
   + 704 u[53] + 800 u[54] + 923 u[55] + 985 u[56] + 486 u[57] + 404 u[58]
   + 646 u[59] + 748 u[60] + 982 u[61] + 831 u[62] + 262 u[63] + 851 u[64]
   + 712 u[65] + 948 u[66] + 762 u[67] + 372 u[68] + 405 u[69] + 741 u[70]
   + u[71] + 918 u[72] + 939 u[73] + 871 u[74] + 812 u[75] + 682 u[76]
   + 743 u[77] + 192 u[78] + 614 u[79] <= 993
 primal_lower42: 225 u[0] + 245 u[1] + 979 u[2] + 52 u[3] + 605 u[4]
   + 283 u[5] + 462 u[6] + 269 u[7] + 894 u[8] + 179 u[9] + 701 u[10]
   + 228 u[11] + 477 u[12] + 581 u[13] + 814 u[14] + 910 u[15] + 614 u[16]
   + 577 u[17] + 290 u[18] + 455 u[19] + 902 u[20] + 785 u[21] + 717 u[22]
   + 608 u[23] + 958 u[24] + u[25] + 523 u[26] + 17 u[27] + 967 u[28]
   + 776 u[29] + 667 u[30] + 381 u[31] + 189 u[32] + 358 u[33] + 877 u[34]
   + 994 u[35] + 309 u[36] + 566 u[37] + 269 u[38] + 736 u[39] + 192 u[40]
   + 691 u[41] + 79 u[42] + 935 u[43] + 224 u[44] + 348 u[45] + 355 u[46]
   + 859 u[47] + 248 u[48] + 897 u[49] + 400 u[50] + 321 u[51] + 30 u[52]
   + 749 u[53] + 10 u[54] + 473 u[55] + 66 u[56] + 932 u[57] + 477 u[58]
   + 467 u[59] + 126 u[60] + 396 u[61] + 225 u[62] + 324 u[63] + 13 u[64]
   + 581 u[65] + 518 u[66] + 144 u[67] + 157 u[68] + 427 u[69] + 847 u[70]
   + 359 u[71] + 431 u[72] + 640 u[73] + 497 u[74] + 362 u[75] + 124 u[76]
   + 868 u[77] + 786 u[78] + 212 u[79] <= 994
 primal_lower43: 200 u[0] + 609 u[1] + 907 u[2] + 888 u[3] + 685 u[4]
   + 86 u[5] + 630 u[6] + 424 u[7] + 270 u[8] + 351 u[9] + 740 u[10]
   + 440 u[11] + 941 u[12] + 489 u[13] + 509 u[14] + 473 u[15] + 638 u[16]
   + 829 u[17] + 2 u[18] + 547 u[19] + 790 u[20] + 828 u[21] + 197 u[22]
   + 915 u[23] + 909 u[24] + 493 u[25] + 859 u[26] + 508 u[27] + 910 u[28]
   + 884 u[29] + 674 u[30] + 840 u[31] + 268 u[32] + 882 u[33] + 133 u[34]
   + 22 u[35] + 709 u[36] + 513 u[37] + 77 u[38] + 803 u[39] + 192 u[40]
   + 310 u[41] + 127 u[42] + 114 u[43] + 368 u[44] + 663 u[45] + 562 u[46]
   + 366 u[47] + 928 u[48] + 573 u[49] + 951 u[50] + 365 u[51] + 942 u[52]
   + 113 u[53] + 601 u[54] + 548 u[55] + 570 u[56] + 399 u[57] + 701 u[58]
   + 527 u[59] + 189 u[60] + 223 u[61] + 8 u[62] + 63 u[63] + 788 u[64]
   + 393 u[65] + 821 u[66] + 747 u[67] + 469 u[68] + 774 u[69] + 814 u[70]
   + 322 u[71] + 183 u[72] + 868 u[73] + 304 u[74] + 717 u[75] + 963 u[76]
   + 856 u[77] + 417 u[78] + 623 u[79] <= 963
 primal_lower44: 794 u[0] + 638 u[1] + 452 u[2] + 821 u[3] + 390 u[4]
   + 804 u[5] + 671 u[6] + 454 u[7] + 151 u[8] + 84 u[9] + 830 u[10]
   + 501 u[11] + 974 u[12] + 462 u[13] + 839 u[14] + 223 u[15] + 143 u[16]
   + 786 u[17] + 99 u[18] + 328 u[19] + 343 u[20] + 618 u[21] + 174 u[22]
   + 265 u[23] + 23 u[24] + 138 u[25] + 660 u[26] + 802 u[27] + 480 u[28]
   + 409 u[29] + 276 u[30] + 206 u[31] + 990 u[32] + 551 u[33] + 262 u[34]
   + 715 u[35] + 398 u[36] + 159 u[37] + 230 u[38] + 185 u[39] + 633 u[40]
   + 732 u[41] + 408 u[42] + 744 u[43] + 89 u[44] + 445 u[45] + 708 u[46]
   + 60 u[47] + 721 u[48] + 346 u[49] + 593 u[50] + 698 u[51] + 15 u[52]
   + 70 u[53] + 771 u[54] + 338 u[55] + 867 u[56] + 541 u[57] + 302 u[58]
   + 732 u[59] + 479 u[60] + 589 u[61] + 394 u[62] + 453 u[63] + 782 u[64]
   + 846 u[65] + 143 u[66] + 377 u[67] + 758 u[68] + 436 u[69] + 608 u[70]
   + 272 u[71] + 256 u[72] + 737 u[73] + 930 u[74] + 579 u[75] + 733 u[76]
   + 781 u[77] + 251 u[78] + 29 u[79] <= 990
 primal_lower45: 306 u[0] + 102 u[1] + 660 u[2] + 317 u[3] + 510 u[4]
   + 84 u[5] + 983 u[6] + 358 u[7] + 463 u[8] + 180 u[9] + 622 u[10]
   + 493 u[11] + 846 u[12] + 14 u[13] + 423 u[14] + 943 u[15] + 391 u[16]
   + 194 u[17] + 571 u[18] + 496 u[19] + 535 u[20] + 394 u[21] + 342 u[22]
   + 265 u[23] + 583 u[24] + 610 u[25] + 996 u[26] + 594 u[27] + 184 u[28]
   + 193 u[29] + 244 u[30] + 86 u[31] + 638 u[32] + 679 u[33] + 582 u[34]
   + 795 u[35] + 102 u[36] + 423 u[37] + 222 u[38] + 609 u[39] + 625 u[40]
   + 860 u[41] + 112 u[42] + 168 u[43] + 697 u[44] + 837 u[45] + 468 u[46]
   + 316 u[47] + 689 u[48] + 210 u[49] + 873 u[50] + 346 u[51] + 71 u[52]
   + 662 u[53] + 139 u[54] + 778 u[55] + 699 u[56] + 389 u[57] + 374 u[58]
   + 124 u[59] + 375 u[60] + 301 u[61] + 98 u[62] + 485 u[63] + 126 u[64]
   + 78 u[65] + 231 u[66] + 185 u[67] + 558 u[68] + 124 u[69] + 504 u[70]
   + 104 u[71] + 592 u[72] + 321 u[73] + 154 u[74] + 611 u[75] + 829 u[76]
   + 125 u[77] + 675 u[78] + 469 u[79] <= 996
 primal_lower46: 205 u[0] + 14 u[1] + 400 u[2] + 61 u[3] + 746 u[4]
   + 187 u[5] + 787 u[6] + 669 u[7] + 323 u[8] + 524 u[9] + 145 u[10]
   + 845 u[11] + 474 u[12] + 150 u[13] + 242 u[14] + 886 u[15] + 907 u[16]
   + 210 u[17] + 519 u[18] + 416 u[19] + 315 u[20] + 921 u[21] + 826 u[22]
   + 776 u[23] + 82 u[24] + 482 u[25] + 800 u[26] + 105 u[27] + 403 u[28]
   + 737 u[29] + 15 u[30] + 741 u[31] + 873 u[32] + 375 u[33] + 202 u[34]
   + 707 u[35] + 186 u[36] + 70 u[37] + 642 u[38] + 808 u[39] + 397 u[40]
   + 859 u[41] + 748 u[42] + 111 u[43] + 373 u[44] + 860 u[45] + 903 u[46]
   + 795 u[47] + 469 u[48] + 362 u[49] + 404 u[50] + 250 u[51] + 971 u[52]
   + 134 u[53] + 246 u[54] + 929 u[55] + 559 u[56] + 780 u[57] + 186 u[58]
   + 172 u[59] + 682 u[60] + 580 u[61] + 557 u[62] + 572 u[63] + 737 u[64]
   + 878 u[65] + 906 u[66] + 56 u[67] + 890 u[68] + 715 u[69] + 187 u[70]
   + 231 u[71] + 20 u[72] + 897 u[73] + 477 u[74] + 618 u[75] + 312 u[76]
   + 709 u[77] + 670 u[78] + 932 u[79] <= 971
 primal_lower47: 401 u[0] + 594 u[1] + 348 u[2] + 753 u[3] + 142 u[4]
   + 175 u[5] + 247 u[6] + 105 u[7] + 287 u[8] + 616 u[9] + 693 u[10]
   + 657 u[11] + 742 u[12] + 290 u[13] + 38 u[14] + 266 u[15] + 479 u[16]
   + 262 u[17] + 483 u[18] + 276 u[19] + 375 u[20] + 421 u[21] + 326 u[22]
   + 188 u[23] + 926 u[24] + 254 u[25] + 924 u[26] + 901 u[27] + 895 u[28]
   + 349 u[29] + 155 u[30] + 537 u[31] + 237 u[32] + 539 u[33] + 374 u[34]
   + 679 u[35] + 246 u[36] + 602 u[37] + 742 u[38] + 916 u[39] + 937 u[40]
   + 927 u[41] + 496 u[42] + 539 u[43] + 569 u[44] + 760 u[45] + 723 u[46]
   + 631 u[47] + 641 u[48] + 814 u[49] + 736 u[50] + 534 u[51] + 839 u[52]
   + 466 u[53] + 522 u[54] + 349 u[55] + 947 u[56] + 272 u[57] + 950 u[58]
   + 680 u[59] + 886 u[60] + 736 u[61] + 17 u[62] + 32 u[63] + 397 u[64]
   + 170 u[65] + 270 u[66] + 4 u[67] + 174 u[68] + 207 u[69] + 447 u[70]
   + 299 u[71] + 704 u[72] + 37 u[73] + 793 u[74] + 614 u[75] + 308 u[76]
   + 545 u[77] + 450 u[78] + 376 u[79] <= 950
 primal_lower48: 386 u[0] + 315 u[1] + 877 u[2] + 642 u[3] + 527 u[4]
   + 128 u[5] + 144 u[6] + 554 u[7] + 568 u[8] + 233 u[9] + 470 u[10]
   + 650 u[11] + 103 u[12] + 19 u[13] + 263 u[14] + 587 u[15] + 360 u[16]
   + 415 u[17] + 444 u[18] + 237 u[19] + 704 u[20] + 614 u[21] + 31 u[22]
   + 509 u[23] + 7 u[24] + 303 u[25] + 637 u[26] + 246 u[27] + 976 u[28]
   + 54 u[29] + 276 u[30] + 594 u[31] + 782 u[32] + 644 u[33] + 23 u[34]
   + 152 u[35] + 551 u[36] + 963 u[37] + 167 u[38] + 389 u[39] + 50 u[40]
   + 800 u[41] + 913 u[42] + 476 u[43] + 162 u[44] + 113 u[45] + 204 u[46]
   + 528 u[47] + 866 u[48] + 847 u[49] + 425 u[50] + 471 u[51] + 32 u[52]
   + 499 u[53] + 587 u[54] + 950 u[55] + 540 u[56] + 281 u[57] + 975 u[58]
   + 633 u[59] + 911 u[60] + 657 u[61] + 738 u[62] + 169 u[63] + 582 u[64]
   + 307 u[65] + 79 u[66] + 5 u[67] + 703 u[68] + 744 u[69] + 128 u[70]
   + 76 u[71] + 289 u[72] + 190 u[73] + 882 u[74] + 767 u[75] + 189 u[76]
   + 354 u[77] + 467 u[78] + 201 u[79] <= 976
 primal_lower49: 201 u[0] + 994 u[1] + 436 u[2] + 993 u[3] + 334 u[4]
   + 71 u[5] + 671 u[6] + 873 u[7] + 879 u[8] + 448 u[9] + 629 u[10]
   + 609 u[11] + 198 u[12] + 578 u[13] + 134 u[14] + 930 u[15] + 743 u[16]
   + 750 u[17] + 947 u[18] + 780 u[19] + 207 u[20] + 445 u[21] + 798 u[22]
   + 332 u[23] + 782 u[24] + 446 u[25] + 468 u[26] + 117 u[27] + 151 u[28]
   + 301 u[29] + 995 u[30] + u[31] + 717 u[32] + 723 u[33] + 702 u[34]
   + 455 u[35] + 94 u[36] + 458 u[37] + 350 u[38] + 228 u[39] + 673 u[40]
   + 879 u[41] + 792 u[42] + 547 u[43] + 409 u[44] + 1000 u[45] + 899 u[46]
   + 719 u[47] + 633 u[48] + 990 u[49] + 992 u[50] + 342 u[51] + 95 u[52]
   + 906 u[53] + 362 u[54] + 141 u[55] + 763 u[56] + 240 u[57] + 990 u[58]
   + 272 u[59] + 486 u[60] + 608 u[61] + 849 u[62] + 784 u[63] + 557 u[64]
   + 954 u[65] + 334 u[66] + 740 u[67] + 678 u[68] + 111 u[69] + 287 u[70]
   + 419 u[71] + 120 u[72] + 413 u[73] + 873 u[74] + 574 u[75] + 716 u[76]
   + 841 u[77] + 114 u[78] + 640 u[79] <= 1000
 primal_lower50: 527 u[0] + 35 u[1] + 177 u[2] + 858 u[3] + 411 u[4]
   + 289 u[5] + 372 u[6] + 739 u[7] + 972 u[8] + 881 u[9] + 507 u[10]
   + 146 u[11] + 779 u[12] + 923 u[13] + 436 u[14] + 956 u[15] + 412 u[16]
   + 879 u[17] + 304 u[18] + 165 u[19] + 404 u[20] + 143 u[21] + 843 u[22]
   + 246 u[23] + 956 u[24] + 999 u[25] + 713 u[26] + 535 u[27] + 357 u[28]
   + 806 u[29] + 465 u[30] + 275 u[31] + 291 u[32] + 396 u[33] + 315 u[34]
   + 72 u[35] + 955 u[36] + 140 u[37] + 883 u[38] + 358 u[39] + 486 u[40]
   + 9 u[41] + 165 u[42] + 109 u[43] + 582 u[44] + 682 u[45] + 49 u[46]
   + 729 u[47] + 326 u[48] + 879 u[49] + 726 u[50] + 831 u[51] + 948 u[52]
   + 467 u[53] + 976 u[54] + 151 u[55] + 104 u[56] + 810 u[57] + 755 u[58]
   + 257 u[59] + 780 u[60] + 450 u[61] + 703 u[62] + 362 u[63] + 963 u[64]
   + 819 u[65] + 324 u[66] + 910 u[67] + 483 u[68] + 145 u[69] + 237 u[70]
   + 757 u[71] + 437 u[72] + 454 u[73] + 687 u[74] + 808 u[75] + 882 u[76]
   + 330 u[77] + 560 u[78] + 2 u[79] <= 999
 primal_lower51: 801 u[0] + 58 u[1] + 172 u[2] + 121 u[3] + 598 u[4]
   + 863 u[5] + 879 u[6] + 977 u[7] + 471 u[8] + 688 u[9] + 509 u[10]
   + 49 u[11] + 310 u[12] + 394 u[13] + 38 u[14] + 770 u[15] + 255 u[16]
   + 462 u[17] + 67 u[18] + 308 u[19] + 655 u[20] + 173 u[21] + 542 u[22]
   + 388 u[23] + 654 u[24] + 862 u[25] + 204 u[26] + 541 u[27] + 119 u[28]
   + 85 u[29] + 163 u[30] + 57 u[31] + 693 u[32] + 987 u[33] + 310 u[34]
   + 671 u[35] + 374 u[36] + 322 u[37] + 878 u[38] + 692 u[39] + 201 u[40]
   + 263 u[41] + 552 u[42] + 859 u[43] + 609 u[44] + 424 u[45] + 91 u[46]
   + 39 u[47] + 609 u[48] + 206 u[49] + 488 u[50] + 502 u[51] + 967 u[52]
   + 370 u[53] + 850 u[54] + 69 u[55] + 43 u[56] + 48 u[57] + 670 u[58]
   + 344 u[59] + 614 u[60] + 312 u[61] + u[62] + 536 u[63] + 93 u[64]
   + 842 u[65] + 902 u[66] + 692 u[67] + 126 u[68] + 159 u[69] + 367 u[70]
   + 179 u[71] + 568 u[72] + 53 u[73] + 33 u[74] + 334 u[75] + 844 u[76]
   + 953 u[77] + 522 u[78] + 80 u[79] <= 987
 primal_lower52: 832 u[0] + 489 u[1] + 355 u[2] + 24 u[3] + 133 u[4]
   + 694 u[5] + 110 u[6] + 144 u[7] + 382 u[8] + 559 u[9] + 588 u[10]
   + 512 u[11] + 541 u[12] + 873 u[13] + 717 u[14] + 785 u[15] + 206 u[16]
   + 693 u[17] + 170 u[18] + 11 u[19] + 918 u[20] + 292 u[21] + 45 u[22]
   + 835 u[23] + 757 u[24] + 685 u[25] + 787 u[26] + 516 u[27] + 758 u[28]
   + 436 u[29] + 674 u[30] + 936 u[31] + 196 u[32] + 746 u[33] + 853 u[34]
   + 550 u[35] + 949 u[36] + 889 u[37] + 597 u[38] + 523 u[39] + 744 u[40]
   + 158 u[41] + 943 u[42] + 410 u[43] + 512 u[44] + 183 u[45] + 330 u[46]
   + 342 u[47] + 336 u[48] + 373 u[49] + 687 u[50] + 581 u[51] + 974 u[52]
   + 17 u[53] + 417 u[54] + 668 u[55] + 58 u[56] + 487 u[57] + 557 u[58]
   + 911 u[59] + 733 u[60] + 951 u[61] + 968 u[62] + 183 u[63] + 340 u[64]
   + 121 u[65] + 677 u[66] + 219 u[67] + 277 u[68] + 974 u[69] + 86 u[70]
   + 218 u[71] + 303 u[72] + 316 u[73] + 88 u[74] + 429 u[75] + 515 u[76]
   + 232 u[77] + 689 u[78] + 527 u[79] <= 974
 primal_lower53: 792 u[0] + 193 u[1] + 795 u[2] + 912 u[3] + 661 u[4]
   + 14 u[5] + 334 u[6] + 928 u[7] + 438 u[8] + 831 u[9] + 532 u[10]
   + 32 u[11] + 589 u[12] + 633 u[13] + 605 u[14] + 305 u[15] + 798 u[16]
   + 781 u[17] + 634 u[18] + 99 u[19] + 118 u[20] + 556 u[21] + 805 u[22]
   + 947 u[23] + 925 u[24] + 453 u[25] + 595 u[26] + 196 u[27] + 774 u[28]
   + 212 u[29] + 722 u[30] + 992 u[31] + 516 u[32] + 674 u[33] + 965 u[34]
   + 406 u[35] + 573 u[36] + 649 u[37] + 437 u[38] + 107 u[39] + 616 u[40]
   + 94 u[41] + 319 u[42] + 202 u[43] + 16 u[44] + 439 u[45] + 642 u[46]
   + 806 u[47] + 504 u[48] + 533 u[49] + 951 u[50] + 229 u[51] + 46 u[52]
   + 241 u[53] + 873 u[54] + 260 u[55] + 298 u[56] + 999 u[57] + 429 u[58]
   + 223 u[59] + 341 u[60] + 39 u[61] + 800 u[62] + 111 u[63] + 412 u[64]
   + 745 u[65] + 757 u[66] + 275 u[67] + 741 u[68] + 598 u[69] + 294 u[70]
   + 474 u[71] + 607 u[72] + 644 u[73] + 496 u[74] + 965 u[75] + 123 u[76]
   + 664 u[77] + 105 u[78] + 895 u[79] <= 999
 primal_lower54: 50 u[0] + 83 u[1] + 133 u[2] + 594 u[3] + 583 u[4]
   + 464 u[5] + 480 u[6] + 378 u[7] + 768 u[8] + 937 u[9] + 910 u[10]
   + 618 u[11] + 679 u[12] + 475 u[13] + 463 u[14] + 371 u[15] + 840 u[16]
   + 207 u[17] + 844 u[18] + 341 u[19] + 440 u[20] + 950 u[21] + 495 u[22]
   + 357 u[23] + 815 u[24] + 807 u[25] + 885 u[26] + 478 u[27] + 968 u[28]
   + 614 u[29] + 236 u[30] + 866 u[31] + 502 u[32] + 476 u[33] + 287 u[34]
   + 328 u[35] + 847 u[36] + 811 u[37] + 919 u[38] + 101 u[39] + 394 u[40]
   + 208 u[41] + 401 u[42] + 788 u[43] + 130 u[44] + 625 u[45] + 804 u[46]
   + 720 u[47] + 162 u[48] + 23 u[49] + 617 u[50] + 879 u[51] + 88 u[52]
   + 915 u[53] + 675 u[54] + 94 u[55] + 364 u[56] + 177 u[57] + 671 u[58]
   + 657 u[59] + 535 u[60] + 441 u[61] + 306 u[62] + 241 u[63] + 198 u[64]
   + 147 u[65] + 271 u[66] + 669 u[67] + 679 u[68] + 568 u[69] + 992 u[70]
   + 244 u[71] + 73 u[72] + 38 u[73] + 234 u[74] + 759 u[75] + 213 u[76]
   + 986 u[77] + 283 u[78] + 353 u[79] <= 992
 primal_lower55: 211 u[0] + 132 u[1] + 526 u[2] + 323 u[3] + 656 u[4]
   + 369 u[5] + 321 u[6] + 83 u[7] + 457 u[8] + 154 u[9] + 943 u[10]
   + 619 u[11] + 840 u[12] + 556 u[13] + 152 u[14] + 516 u[15] + 577 u[16]
   + 856 u[17] + 549 u[18] + 558 u[19] + 633 u[20] + 415 u[21] + 912 u[22]
   + 126 u[23] + 984 u[24] + 904 u[25] + 430 u[26] + 663 u[27] + 161 u[28]
   + 743 u[29] + 245 u[30] + 499 u[31] + 999 u[32] + 989 u[33] + 864 u[34]
   + 513 u[35] + 456 u[36] + 164 u[37] + 408 u[38] + 662 u[39] + 571 u[40]
   + 313 u[41] + 426 u[42] + 261 u[43] + 275 u[44] + 546 u[45] + 445 u[46]
   + 201 u[47] + 283 u[48] + 648 u[49] + 962 u[50] + 80 u[51] + 209 u[52]
   + 124 u[53] + 796 u[54] + 759 u[55] + 813 u[56] + 26 u[57] + 152 u[58]
   + 770 u[59] + 208 u[60] + 338 u[61] + 347 u[62] + 290 u[63] + 79 u[64]
   + 948 u[65] + 192 u[66] + 590 u[67] + 864 u[68] + 9 u[69] + 833 u[70]
   + 85 u[71] + 770 u[72] + 319 u[73] + 763 u[74] + 880 u[75] + 534 u[76]
   + 35 u[77] + 268 u[78] + 610 u[79] <= 999
 primal_lower56: 599 u[0] + 120 u[1] + 746 u[2] + 63 u[3] + 892 u[4]
   + 933 u[5] + 149 u[6] + 487 u[7] + 109 u[8] + 646 u[9] + 107 u[10]
   + 871 u[11] + 964 u[12] + 272 u[13] + 916 u[14] + 736 u[15] + 661 u[16]
   + 148 u[17] + 49 u[18] + 730 u[19] + 61 u[20] + 859 u[21] + 884 u[22]
   + 970 u[23] + 836 u[24] + 908 u[25] + 682 u[26] + 747 u[27] + 285 u[28]
   + 835 u[29] + 577 u[30] + 159 u[31] + 739 u[32] + 753 u[33] + 84 u[34]
   + 333 u[35] + 556 u[36] + 184 u[37] + 668 u[38] + 250 u[39] + 423 u[40]
   + 717 u[41] + 726 u[42] + 449 u[43] + 439 u[44] + 414 u[45] + 161 u[46]
   + 205 u[47] + 503 u[48] + 412 u[49] + 726 u[50] + 468 u[51] + 677 u[52]
   + 40 u[53] + 808 u[54] + 843 u[55] + 841 u[56] + 822 u[57] + 420 u[58]
   + 54 u[59] + 156 u[60] + 214 u[61] + 47 u[62] + 102 u[63] + 403 u[64]
   + 896 u[65] + 500 u[66] + 634 u[67] + 540 u[68] + 381 u[69] + 53 u[70]
   + 681 u[71] + 622 u[72] + 915 u[73] + 703 u[74] + 732 u[75] + 282 u[76]
   + 535 u[77] + 776 u[78] + 846 u[79] <= 970
 primal_lower57: 840 u[0] + 652 u[1] + 922 u[2] + 627 u[3] + 996 u[4]
   + 410 u[5] + 941 u[6] + 460 u[7] + 653 u[8] + 394 u[9] + 492 u[10]
   + 531 u[11] + 988 u[12] + 84 u[13] + 525 u[14] + 869 u[15] + 557 u[16]
   + 552 u[17] + 17 u[18] + 734 u[19] + 805 u[20] + 424 u[21] + 196 u[22]
   + 839 u[23] + 445 u[24] + 816 u[25] + 978 u[26] + 648 u[27] + 422 u[28]
   + 903 u[29] + 178 u[30] + 948 u[31] + 484 u[32] + 93 u[33] + 908 u[34]
   + 761 u[35] + 300 u[36] + 893 u[37] + 180 u[38] + 119 u[39] + 423 u[40]
   + 250 u[41] + 646 u[42] + 118 u[43] + 359 u[44] + 627 u[45] + 898 u[46]
   + 762 u[47] + 383 u[48] + 104 u[49] + 903 u[50] + 352 u[51] + 405 u[52]
   + 580 u[53] + 769 u[54] + 120 u[55] + 177 u[56] + 75 u[57] + 532 u[58]
   + 906 u[59] + 421 u[60] + 235 u[61] + 184 u[62] + 795 u[63] + 772 u[64]
   + 844 u[65] + 717 u[66] + 655 u[67] + 980 u[68] + 714 u[69] + 646 u[70]
   + 670 u[71] + 654 u[72] + 895 u[73] + 112 u[74] + 441 u[75] + 371 u[76]
   + 523 u[77] + 553 u[78] + 75 u[79] <= 996
 primal_lower58: 911 u[0] + 824 u[1] + 98 u[2] + 879 u[3] + 372 u[4]
   + 293 u[5] + 421 u[6] + 479 u[7] + 861 u[8] + 990 u[9] + 699 u[10]
   + 527 u[11] + 564 u[12] + 352 u[13] + 884 u[14] + 168 u[15] + 541 u[16]
   + 332 u[17] + 545 u[18] + 514 u[19] + 981 u[20] + 395 u[21] + 388 u[22]
   + 594 u[23] + 836 u[24] + 244 u[25] + 266 u[26] + 771 u[27] + 877 u[28]
   + 635 u[29] + 961 u[30] + 895 u[31] + 227 u[32] + 425 u[33] + 700 u[34]
   + 709 u[35] + 788 u[36] + 408 u[37] + 524 u[38] + 834 u[39] + 991 u[40]
   + 53 u[41] + 894 u[42] + 273 u[43] + 191 u[44] + 982 u[45] + 81 u[46]
   + 933 u[47] + 447 u[48] + 876 u[49] + 574 u[50] + 100 u[51] + 285 u[52]
   + 504 u[53] + 80 u[54] + 83 u[55] + 249 u[56] + 6 u[57] + 444 u[58]
   + 166 u[59] + 524 u[60] + 646 u[61] + 431 u[62] + 222 u[63] + 571 u[64]
   + 424 u[65] + 572 u[66] + 554 u[67] + 60 u[68] + 189 u[69] + 797 u[70]
   + 241 u[71] + 214 u[72] + 27 u[73] + 599 u[74] + 924 u[75] + 850 u[76]
   + 559 u[77] + 376 u[78] + 78 u[79] <= 991
 primal_lower59: 184 u[0] + 164 u[1] + 946 u[2] + 915 u[3] + 972 u[4]
   + 258 u[5] + 381 u[6] + 484 u[7] + 413 u[8] + 354 u[9] + 140 u[10]
   + 51 u[11] + 292 u[12] + 348 u[13] + 381 u[14] + 21 u[15] + 757 u[16]
   + 912 u[17] + 785 u[18] + 286 u[19] + 693 u[20] + 936 u[21] + 476 u[22]
   + 151 u[23] + 117 u[24] + 528 u[25] + 354 u[26] + 216 u[27] + 518 u[28]
   + 847 u[29] + 90 u[30] + 116 u[31] + 732 u[32] + 637 u[33] + 228 u[34]
   + 841 u[35] + 292 u[36] + 973 u[37] + 548 u[38] + 855 u[39] + 591 u[40]
   + 442 u[41] + 278 u[42] + 998 u[43] + 199 u[44] + 67 u[45] + 66 u[46]
   + 314 u[47] + 263 u[48] + 728 u[49] + 791 u[50] + 488 u[51] + 669 u[52]
   + 628 u[53] + 281 u[54] + 720 u[55] + 313 u[56] + 555 u[57] + 324 u[58]
   + 482 u[59] + 533 u[60] + 195 u[61] + 120 u[62] + 747 u[63] + 12 u[64]
   + 436 u[65] + 37 u[66] + 815 u[67] + 756 u[68] + 898 u[69] + 182 u[70]
   + 702 u[71] + 182 u[72] + 975 u[73] + 504 u[74] + 881 u[75] + 691 u[76]
   + 499 u[77] + 217 u[78] + 235 u[79] <= 998
 primal_lower60: 923 u[0] + 444 u[1] + 150 u[2] + 571 u[3] + 216 u[4]
   + 329 u[5] + 81 u[6] + 363 u[7] + 113 u[8] + 42 u[9] + 575 u[10]
   + 555 u[11] + 424 u[12] + 852 u[13] + 256 u[14] + 644 u[15] + 329 u[16]
   + 216 u[17] + 349 u[18] + 766 u[19] + 65 u[20] + 703 u[21] + 912 u[22]
   + 302 u[23] + 80 u[24] + 40 u[25] + 254 u[26] + 943 u[27] + 993 u[28]
   + 999 u[29] + 725 u[30] + 875 u[31] + 647 u[32] + 973 u[33] + 328 u[34]
   + 41 u[35] + 128 u[36] + 932 u[37] + 312 u[38] + 62 u[39] + 219 u[40]
   + 737 u[41] + 274 u[42] + 365 u[43] + 523 u[44] + 682 u[45] + 341 u[46]
   + 825 u[47] + 147 u[48] + 552 u[49] + 482 u[50] + 176 u[51] + 393 u[52]
   + 820 u[53] + 764 u[54] + 703 u[55] + 773 u[56] + 458 u[57] + 176 u[58]
   + 850 u[59] + 24 u[60] + 738 u[61] + 299 u[62] + 890 u[63] + 535 u[64]
   + 132 u[65] + 616 u[66] + 134 u[67] + 960 u[68] + 985 u[69] + 889 u[70]
   + 461 u[71] + 314 u[72] + 455 u[73] + 515 u[74] + 912 u[75] + 550 u[76]
   + 931 u[77] + 412 u[78] + 306 u[79] <= 999
 primal_lower61: 129 u[0] + 458 u[1] + 44 u[2] + 497 u[3] + 966 u[4]
   + 143 u[5] + 991 u[6] + 793 u[7] + 855 u[8] + 784 u[9] + 269 u[10]
   + 865 u[11] + 22 u[12] + 578 u[13] + 910 u[14] + 706 u[15] + 855 u[16]
   + 46 u[17] + 923 u[18] + 524 u[19] + 31 u[20] + 221 u[21] + 710 u[22]
   + 100 u[23] + 590 u[24] + 886 u[25] + 332 u[26] + 621 u[27] + 271 u[28]
   + 109 u[29] + 491 u[30] + 281 u[31] + 621 u[32] + 515 u[33] + 718 u[34]
   + 855 u[35] + 854 u[36] + 850 u[37] + 142 u[38] + 180 u[39] + 305 u[40]
   + 127 u[41] + 496 u[42] + 835 u[43] + 137 u[44] + 344 u[45] + 395 u[46]
   + 575 u[47] + 361 u[48] + 126 u[49] + 152 u[50] + 374 u[51] + 135 u[52]
   + 730 u[53] + 746 u[54] + 397 u[55] + 523 u[56] + 968 u[57] + 998 u[58]
   + 128 u[59] + 6 u[60] + 176 u[61] + 425 u[62] + 432 u[63] + 869 u[64]
   + 738 u[65] + 798 u[66] + 980 u[67] + 558 u[68] + 367 u[69] + 103 u[70]
   + 435 u[71] + 784 u[72] + 5 u[73] + 57 u[74] + 518 u[75] + 36 u[76]
   + 65 u[77] + 98 u[78] + 352 u[79] <= 998
 primal_lower62: 210 u[0] + 702 u[1] + 396 u[2] + 357 u[3] + 414 u[4]
   + 76 u[5] + 847 u[6] + 814 u[7] + 263 u[8] + 108 u[9] + 174 u[10]
   + 813 u[11] + 494 u[12] + 942 u[13] + 63 u[14] + 719 u[15] + 511 u[16]
   + 90 u[17] + 171 u[18] + 192 u[19] + 951 u[20] + 722 u[21] + 974 u[22]
   + 953 u[23] + 775 u[24] + 554 u[25] + 620 u[26] + 874 u[27] + 464 u[28]
   + 481 u[29] + 76 u[30] + 982 u[31] + 110 u[32] + 791 u[33] + 646 u[34]
   + 59 u[35] + 470 u[36] + 303 u[37] + 646 u[38] + 105 u[39] + 281 u[40]
   + 900 u[41] + 824 u[42] + 416 u[43] + 545 u[44] + 605 u[45] + 276 u[46]
   + 948 u[47] + 865 u[48] + 450 u[49] + 977 u[50] + 698 u[51] + 887 u[52]
   + 510 u[53] + 931 u[54] + 282 u[55] + 27 u[56] + 573 u[57] + 830 u[58]
   + 324 u[59] + 103 u[60] + 309 u[61] + 178 u[62] + 117 u[63] + 542 u[64]
   + 102 u[65] + 767 u[66] + 985 u[67] + 550 u[68] + 780 u[69] + 120 u[70]
   + 592 u[71] + 944 u[72] + 705 u[73] + 434 u[74] + 963 u[75] + 957 u[76]
   + 13 u[77] + 379 u[78] + 741 u[79] <= 985
 primal_lower63: 563 u[0] + 956 u[1] + 158 u[2] + 195 u[3] + 96 u[4]
   + 905 u[5] + 233 u[6] + 355 u[7] + 481 u[8] + 242 u[9] + 927 u[10]
   + 803 u[11] + 432 u[12] + 284 u[13] + 568 u[14] + 356 u[15] + 145 u[16]
   + 192 u[17] + 861 u[18] + 118 u[19] + 897 u[20] + 863 u[21] + 896 u[22]
   + 782 u[23] + 704 u[24] + 616 u[25] + 270 u[26] + 823 u[27] + 745 u[28]
   + 895 u[29] + 965 u[30] + 875 u[31] + 751 u[32] + 221 u[33] + 448 u[34]
   + 889 u[35] + 904 u[36] + 84 u[37] + 456 u[38] + 990 u[39] + 187 u[40]
   + 937 u[41] + 514 u[42] + 181 u[43] + 675 u[44] + 114 u[45] + 525 u[46]
   + 657 u[47] + 859 u[48] + 568 u[49] + 10 u[50] + 344 u[51] + 393 u[52]
   + 388 u[53] + 644 u[54] + 7 u[55] + 765 u[56] + 978 u[57] + 856 u[58]
   + 634 u[59] + 808 u[60] + 10 u[61] + 323 u[62] + 650 u[63] + 199 u[64]
   + 108 u[65] + 952 u[66] + 950 u[67] + 624 u[68] + 609 u[69] + 161 u[70]
   + 885 u[71] + 74 u[72] + 775 u[73] + 739 u[74] + 232 u[75] + 334 u[76]
   + 723 u[77] + 708 u[78] + 738 u[79] <= 990
 primal_lower64: 675 u[0] + 356 u[1] + 566 u[2] + 699 u[3] + 728 u[4]
   + 561 u[5] + 953 u[6] + 11 u[7] + 377 u[8] + 314 u[9] + 95 u[10]
   + 819 u[11] + 232 u[12] + 948 u[13] + 64 u[14] + 36 u[15] + 89 u[16]
   + 384 u[17] + 397 u[18] + 902 u[19] + 465 u[20] + 119 u[21] + 344 u[22]
   + 438 u[23] + 848 u[24] + 456 u[25] + 638 u[26] + 815 u[27] + 409 u[28]
   + 679 u[29] + 397 u[30] + 195 u[31] + 63 u[32] + 45 u[33] + 928 u[34]
   + 881 u[35] + 416 u[36] + 228 u[37] + 288 u[38] + 974 u[39] + 427 u[40]
   + 921 u[41] + 842 u[42] + 461 u[43] + 563 u[44] + 90 u[45] + 149 u[46]
   + 937 u[47] + 651 u[48] + 216 u[49] + 714 u[50] + 744 u[51] + 905 u[52]
   + 332 u[53] + 972 u[54] + 991 u[55] + 205 u[56] + 442 u[57] + 880 u[58]
   + 666 u[59] + 952 u[60] + 362 u[61] + 827 u[62] + 434 u[63] + 319 u[64]
   + 116 u[65] + 848 u[66] + 270 u[67] + 952 u[68] + 929 u[69] + 345 u[70]
   + 37 u[71] + 594 u[72] + 279 u[73] + 611 u[74] + 600 u[75] + 678 u[76]
   + 3 u[77] + 132 u[78] + 738 u[79] <= 991
 primal_lower65: 155 u[0] + 124 u[1] + 30 u[2] + 59 u[3] + 352 u[4]
   + 377 u[5] + 257 u[6] + 283 u[7] + 905 u[8] + 610 u[9] + 999 u[10]
   + 851 u[11] + 408 u[12] + 68 u[13] + 584 u[14] + 284 u[15] + 233 u[16]
   + 960 u[17] + 557 u[18] + 150 u[19] + 169 u[20] + 447 u[21] + 864 u[22]
   + 302 u[23] + 536 u[24] + 152 u[25] + 302 u[26] + 695 u[27] + 225 u[28]
   + 527 u[29] + 989 u[30] + 379 u[31] + 119 u[32] + 237 u[33] + 968 u[34]
   + 377 u[35] + 504 u[36] + 356 u[37] + 120 u[38] + 334 u[39] + 891 u[40]
   + 113 u[41] + 178 u[42] + 325 u[43] + 595 u[44] + 530 u[45] + 125 u[46]
   + 697 u[47] + 115 u[48] + 280 u[49] + 602 u[50] + 184 u[51] + 769 u[52]
   + 916 u[53] + 924 u[54] + 343 u[55] + 909 u[56] + 370 u[57] + 232 u[58]
   + 402 u[59] + 264 u[60] + 354 u[61] + 835 u[62] + 610 u[63] + 159 u[64]
   + 324 u[65] + 288 u[66] + 590 u[67] + 272 u[68] + 49 u[69] + 641 u[70]
   + 765 u[71] + 810 u[72] + 455 u[73] + 499 u[74] + 24 u[75] + 990 u[76]
   + 755 u[77] + 476 u[78] + 546 u[79] <= 999
 primal_lower66: 899 u[0] + 623 u[1] + 845 u[2] + 294 u[3] + 527 u[4]
   + 949 u[5] + 384 u[6] + 215 u[7] + 544 u[8] + 325 u[9] + 143 u[10]
   + 646 u[11] + 343 u[12] + 215 u[13] + 536 u[14] + 256 u[15] + 768 u[16]
   + 99 u[17] + 20 u[18] + 401 u[19] + 1000 u[20] + 771 u[21] + 239 u[22]
   + 82 u[23] + 352 u[24] + 627 u[25] + 661 u[26] + 315 u[27] + 545 u[28]
   + 898 u[29] + 869 u[30] + 759 u[31] + 743 u[32] + 80 u[33] + 471 u[34]
   + 540 u[35] + 239 u[36] + 536 u[37] + 103 u[38] + 130 u[39] + 546 u[40]
   + 389 u[41] + 553 u[42] + 593 u[43] + 74 u[44] + 558 u[45] + 101 u[46]
   + 389 u[47] + 594 u[48] + 387 u[49] + 274 u[50] + 747 u[51] + 312 u[52]
   + 527 u[53] + 580 u[54] + 99 u[55] + 468 u[56] + 374 u[57] + 679 u[58]
   + 197 u[59] + 688 u[60] + 942 u[61] + 651 u[62] + 502 u[63] + 279 u[64]
   + 287 u[65] + 568 u[66] + 826 u[67] + 743 u[68] + 533 u[69] + 257 u[70]
   + 321 u[71] + 177 u[72] + 226 u[73] + 587 u[74] + 76 u[75] + 182 u[76]
   + 702 u[77] + 60 u[78] + 510 u[79] <= 1000
 primal_lower67: 213 u[0] + 358 u[1] + 224 u[2] + 637 u[3] + 98 u[4]
   + 659 u[5] + 539 u[6] + 245 u[7] + 539 u[8] + 972 u[9] + 921 u[10]
   + 381 u[11] + 306 u[12] + 94 u[13] + 330 u[14] + 262 u[15] + 899 u[16]
   + 970 u[17] + 255 u[18] + 784 u[19] + 723 u[20] + 681 u[21] + 10 u[22]
   + 432 u[23] + 66 u[24] + 146 u[25] + 240 u[26] + 457 u[27] + 867 u[28]
   + 97 u[29] + 351 u[30] + 941 u[31] + 89 u[32] + 519 u[33] + 666 u[34]
   + 179 u[35] + 298 u[36] + 822 u[37] + 570 u[38] + 840 u[39] + 917 u[40]
   + 315 u[41] + 92 u[42] + 303 u[43] + 517 u[44] + 212 u[45] + 311 u[46]
   + 827 u[47] + 221 u[48] + 994 u[49] + 180 u[50] + 602 u[51] + 987 u[52]
   + 998 u[53] + 182 u[54] + 993 u[55] + 751 u[56] + 308 u[57] + 266 u[58]
   + 92 u[59] + 610 u[60] + 380 u[61] + 397 u[62] + 836 u[63] + 193 u[64]
   + 822 u[65] + 858 u[66] + 440 u[67] + 546 u[68] + 499 u[69] + 987 u[70]
   + 567 u[71] + 884 u[72] + 593 u[73] + 957 u[74] + 522 u[75] + 40 u[76]
   + 669 u[77] + 526 u[78] + 684 u[79] <= 998
 primal_lower68: 406 u[0] + 687 u[1] + 265 u[2] + 886 u[3] + 491 u[4]
   + 676 u[5] + 740 u[6] + 502 u[7] + 812 u[8] + 829 u[9] + 738 u[10]
   + 526 u[11] + 355 u[12] + 319 u[13] + 979 u[14] + 463 u[15] + 348 u[16]
   + 923 u[17] + 328 u[18] + 777 u[19] + 876 u[20] + 906 u[21] + 339 u[22]
   + 505 u[23] + 939 u[24] + 291 u[25] + 233 u[26] + 962 u[27] + 988 u[28]
   + 210 u[29] + 736 u[30] + 630 u[31] + 930 u[32] + 48 u[33] + 691 u[34]
   + 532 u[35] + 771 u[36] + 639 u[37] + 411 u[38] + 17 u[39] + 382 u[40]
   + 364 u[41] + 405 u[42] + 320 u[43] + 870 u[44] + 677 u[45] + 288 u[46]
   + 436 u[47] + 798 u[48] + 523 u[49] + 165 u[50] + 155 u[51] + 268 u[52]
   + 911 u[53] + 55 u[54] + 666 u[55] + 648 u[56] + 525 u[57] + 795 u[58]
   + 181 u[59] + 291 u[60] + 405 u[61] + 974 u[62] + 797 u[63] + 362 u[64]
   + 79 u[65] + 243 u[66] + 961 u[67] + 955 u[68] + 548 u[69] + 620 u[70]
   + 856 u[71] + 389 u[72] + 890 u[73] + 334 u[74] + 707 u[75] + 761 u[76]
   + 814 u[77] + 695 u[78] + 981 u[79] <= 988
 primal_lower69: 722 u[0] + 867 u[1] + 493 u[2] + 138 u[3] + 791 u[4]
   + 176 u[5] + 232 u[6] + 58 u[7] + 520 u[8] + 729 u[9] + 622 u[10]
   + 922 u[11] + 511 u[12] + 27 u[13] + 199 u[14] + 387 u[15] + 824 u[16]
   + 607 u[17] + 220 u[18] + 389 u[19] + 824 u[20] + 878 u[21] + 287 u[22]
   + 173 u[23] + 751 u[24] + 495 u[25] + 877 u[26] + 710 u[27] + 16 u[28]
   + 606 u[29] + 772 u[30] + 26 u[31] + 558 u[32] + 364 u[33] + 183 u[34]
   + 480 u[35] + 847 u[36] + 435 u[37] + 863 u[38] + 613 u[39] + 962 u[40]
   + 928 u[41] + 33 u[42] + 764 u[43] + 194 u[44] + 337 u[45] + 756 u[46]
   + 320 u[47] + 642 u[48] + 943 u[49] + 713 u[50] + 479 u[51] + 912 u[52]
   + 211 u[53] + 555 u[54] + 638 u[55] + 500 u[56] + 193 u[57] + 255 u[58]
   + 585 u[59] + 351 u[60] + 201 u[61] + 314 u[62] + 473 u[63] + 646 u[64]
   + 715 u[65] + 727 u[66] + 485 u[67] + 967 u[68] + 160 u[69] + 856 u[70]
   + 92 u[71] + 745 u[72] + 542 u[73] + 330 u[74] + 959 u[75] + 229 u[76]
   + 898 u[77] + 307 u[78] + 289 u[79] <= 967
 primal_lower70: 468 u[0] + 536 u[1] + 502 u[2] + 695 u[3] + 968 u[4]
   + 270 u[5] + 897 u[6] + 816 u[7] + 113 u[8] + 638 u[9] + 160 u[10]
   + 583 u[11] + 936 u[12] + 64 u[13] + 713 u[14] + 33 u[15] + 913 u[16]
   + 612 u[17] + 213 u[18] + 130 u[19] + 481 u[20] + 932 u[21] + 456 u[22]
   + 939 u[23] + 449 u[24] + 356 u[25] + 822 u[26] + 420 u[27] + 42 u[28]
   + 99 u[29] + 598 u[30] + 888 u[31] + 600 u[32] + 889 u[33] + 208 u[34]
   + 85 u[35] + 608 u[36] + 913 u[37] + 488 u[38] + 299 u[39] + 379 u[40]
   + 150 u[41] + 442 u[42] + 194 u[43] + 435 u[44] + 47 u[45] + 478 u[46]
   + 182 u[47] + 979 u[48] + 988 u[49] + 299 u[50] + 308 u[51] + 849 u[52]
   + 152 u[53] + 349 u[54] + 332 u[55] + 245 u[56] + 735 u[57] + 824 u[58]
   + 230 u[59] + 657 u[60] + 463 u[61] + 100 u[62] + 591 u[63] + 224 u[64]
   + 8 u[65] + 273 u[66] + 99 u[67] + 320 u[68] + 326 u[69] + 818 u[70]
   + 466 u[71] + 602 u[72] + 659 u[73] + 4 u[74] + 693 u[75] + 407 u[76]
   + 631 u[77] + 765 u[78] + 807 u[79] <= 988
 primal_lower71: 100 u[0] + 101 u[1] + 39 u[2] + 524 u[3] + 921 u[4]
   + 498 u[5] + 810 u[6] + 116 u[7] + 194 u[8] + 115 u[9] + 944 u[10]
   + 644 u[11] + 121 u[12] + 453 u[13] + 113 u[14] + 853 u[15] + 330 u[16]
   + 385 u[17] + 862 u[18] + 135 u[19] + 466 u[20] + 864 u[21] + 113 u[22]
   + 231 u[23] + 841 u[24] + 377 u[25] + 279 u[26] + 304 u[27] + 346 u[28]
   + 608 u[29] + 774 u[30] + 652 u[31] + 568 u[32] + 182 u[33] + 545 u[34]
   + 962 u[35] + u[36] + 509 u[37] + 321 u[38] + 479 u[39] + 988 u[40]
   + 482 u[41] + 915 u[42] + 646 u[43] + 828 u[44] + 603 u[45] + 910 u[46]
   + 114 u[47] + 668 u[48] + 345 u[49] + 683 u[50] + 353 u[51] + 706 u[52]
   + 437 u[53] + 525 u[54] + 64 u[55] + 686 u[56] + 779 u[57] + 545 u[58]
   + 859 u[59] + 641 u[60] + 731 u[61] + 188 u[62] + 203 u[63] + 536 u[64]
   + 621 u[65] + 649 u[66] + 575 u[67] + 409 u[68] + 34 u[69] + 330 u[70]
   + 150 u[71] + 547 u[72] + 200 u[73] + 724 u[74] + 777 u[75] + 415 u[76]
   + 116 u[77] + 693 u[78] + 427 u[79] <= 988
 primal_lower72: 771 u[0] + 327 u[1] + 541 u[2] + 174 u[3] + 943 u[4]
   + 693 u[5] + 288 u[6] + 983 u[7] + 552 u[8] + 597 u[9] + 999 u[10]
   + 302 u[11] + 231 u[12] + 687 u[13] + 384 u[14] + 192 u[15] + 432 u[16]
   + 91 u[17] + 804 u[18] + 289 u[19] + 288 u[20] + 659 u[21] + 119 u[22]
   + 474 u[23] + 88 u[24] + 667 u[25] + 757 u[26] + 523 u[27] + 497 u[28]
   + 554 u[29] + 437 u[30] + 871 u[31] + 615 u[32] + 304 u[33] + 199 u[34]
   + 356 u[35] + 351 u[36] + 288 u[37] + 431 u[38] + 530 u[39] + 986 u[40]
   + 69 u[41] + 193 u[42] + 513 u[43] + 50 u[44] + 726 u[45] + 557 u[46]
   + 165 u[47] + 770 u[48] + 827 u[49] + 530 u[50] + 163 u[51] + 792 u[52]
   + 7 u[53] + 12 u[54] + 939 u[55] + 364 u[56] + 150 u[57] + 79 u[58]
   + 717 u[59] + 472 u[60] + 206 u[61] + 59 u[62] + 454 u[63] + 495 u[64]
   + 615 u[65] + 920 u[66] + 538 u[67] + 271 u[68] + 597 u[69] + 689 u[70]
   + 65 u[71] + 129 u[72] + 562 u[73] + 171 u[74] + 636 u[75] + 974 u[76]
   + 22 u[77] + 612 u[78] + 806 u[79] <= 999
 primal_lower73: 651 u[0] + 92 u[1] + 478 u[2] + 859 u[3] + 840 u[4]
   + 417 u[5] + 457 u[6] + 923 u[7] + 241 u[8] + 858 u[9] + 623 u[10]
   + 659 u[11] + 944 u[12] + 660 u[13] + 208 u[14] + 572 u[15] + 433 u[16]
   + 192 u[17] + 373 u[18] + 14 u[19] + 209 u[20] + 247 u[21] + 760 u[22]
   + 694 u[23] + 112 u[24] + 984 u[25] + 86 u[26] + 751 u[27] + 577 u[28]
   + 39 u[29] + 453 u[30] + 851 u[31] + 703 u[32] + 221 u[33] + 880 u[34]
   + 841 u[35] + 280 u[36] + 924 u[37] + 944 u[38] + 182 u[39] + 747 u[40]
   + 521 u[41] + 170 u[42] + 245 u[43] + 555 u[44] + 458 u[45] + 229 u[46]
   + 473 u[47] + 307 u[48] + 336 u[49] + 674 u[50] + 344 u[51] + 97 u[52]
   + 484 u[53] + 284 u[54] + 167 u[55] + 69 u[56] + 506 u[57] + 272 u[58]
   + 898 u[59] + 184 u[60] + 778 u[61] + 355 u[62] + 970 u[63] + 951 u[64]
   + 908 u[65] + 672 u[66] + 822 u[67] + 584 u[68] + 745 u[69] + 745 u[70]
   + 309 u[71] + 234 u[72] + 135 u[73] + 11 u[74] + 952 u[75] + 510 u[76]
   + 323 u[77] + 972 u[78] + 418 u[79] <= 984
 primal_lower74: 972 u[0] + 752 u[1] + 94 u[2] + 7 u[3] + 56 u[4]
   + 414 u[5] + 369 u[6] + 672 u[7] + 105 u[8] + 86 u[9] + 8 u[10]
   + 895 u[11] + 944 u[12] + 16 u[13] + 889 u[14] + 889 u[15] + 105 u[16]
   + 556 u[17] + 821 u[18] + 914 u[19] + 585 u[20] + 108 u[21] + 520 u[22]
   + 75 u[23] + 745 u[24] + 428 u[25] + 966 u[26] + 484 u[27] + 890 u[28]
   + 603 u[29] + 998 u[30] + 800 u[31] + 808 u[32] + 129 u[33] + 216 u[34]
   + 957 u[35] + 120 u[36] + 497 u[37] + 680 u[38] + 451 u[39] + 387 u[40]
   + 518 u[41] + 26 u[42] + 226 u[43] + 259 u[44] + 751 u[45] + 822 u[46]
   + 542 u[47] + 19 u[48] + 772 u[49] + 987 u[50] + 4 u[51] + 513 u[52]
   + 240 u[53] + 573 u[54] + 188 u[55] + 701 u[56] + 343 u[57] + 504 u[58]
   + 638 u[59] + 753 u[60] + 663 u[61] + 12 u[62] + 167 u[63] + 848 u[64]
   + 80 u[65] + 49 u[66] + 971 u[67] + 728 u[68] + 430 u[69] + 122 u[70]
   + 26 u[71] + 874 u[72] + 435 u[73] + 420 u[74] + 957 u[75] + 903 u[76]
   + 279 u[77] + 253 u[78] + 143 u[79] <= 998
 primal_lower75: 556 u[0] + 120 u[1] + 502 u[2] + 383 u[3] + 432 u[4]
   + 286 u[5] + 121 u[6] + 952 u[7] + 65 u[8] + 574 u[9] + 720 u[10]
   + 983 u[11] + 752 u[12] + 920 u[13] + 697 u[14] + 417 u[15] + 89 u[16]
   + 484 u[17] + 773 u[18] + 626 u[19] + 385 u[20] + 708 u[21] + 792 u[22]
   + 659 u[23] + 873 u[24] + 964 u[25] + 966 u[26] + 236 u[27] + 490 u[28]
   + 163 u[29] + 414 u[30] + 368 u[31] + 152 u[32] + 153 u[33] + 416 u[34]
   + 365 u[35] + 344 u[36] + 57 u[37] + 800 u[38] + 819 u[39] + 995 u[40]
   + 182 u[41] + 10 u[42] + 194 u[43] + 875 u[44] + 823 u[45] + 822 u[46]
   + 54 u[47] + 187 u[48] + 724 u[49] + 667 u[50] + 732 u[51] + 209 u[52]
   + 808 u[53] + 437 u[54] + 220 u[55] + 909 u[56] + 607 u[57] + 72 u[58]
   + 846 u[59] + 857 u[60] + 935 u[61] + 124 u[62] + 143 u[63] + 584 u[64]
   + 408 u[65] + 793 u[66] + 555 u[67] + 264 u[68] + 78 u[69] + 402 u[70]
   + 282 u[71] + 698 u[72] + 43 u[73] + 452 u[74] + 917 u[75] + 407 u[76]
   + 303 u[77] + 301 u[78] + 351 u[79] <= 995
 primal_lower76: 347 u[0] + 927 u[1] + 813 u[2] + 406 u[3] + 255 u[4]
   + 661 u[5] + 464 u[6] + 439 u[7] + 544 u[8] + 477 u[9] + 599 u[10]
   + 222 u[11] + 471 u[12] + 455 u[13] + 680 u[14] + 688 u[15] + 616 u[16]
   + 195 u[17] + 580 u[18] + 225 u[19] + 984 u[20] + 363 u[21] + 271 u[22]
   + 306 u[23] + 656 u[24] + 179 u[25] + 757 u[26] + 755 u[27] + 425 u[28]
   + 746 u[29] + 413 u[30] + 311 u[31] + 663 u[32] + 648 u[33] + 759 u[34]
   + 340 u[35] + 175 u[36] + 48 u[37] + 567 u[38] + 682 u[39] + 242 u[40]
   + 245 u[41] + 833 u[42] + 769 u[43] + 498 u[44] + 630 u[45] + 101 u[46]
   + 885 u[47] + 370 u[48] + 707 u[49] + 762 u[50] + 171 u[51] + 216 u[52]
   + 559 u[53] + 4 u[54] + 571 u[55] + 108 u[56] + 190 u[57] + 879 u[58]
   + 245 u[59] + 784 u[60] + 182 u[61] + 691 u[62] + 254 u[63] + 607 u[64]
   + 191 u[65] + 192 u[66] + 442 u[67] + 927 u[68] + 245 u[69] + 969 u[70]
   + 689 u[71] + 505 u[72] + 738 u[73] + 123 u[74] + 52 u[75] + 694 u[76]
   + 142 u[77] + 620 u[78] + 70 u[79] <= 984
 primal_lower77: 562 u[0] + 707 u[1] + 205 u[2] + 554 u[3] + 79 u[4]
   + 664 u[5] + 96 u[6] + 458 u[7] + 776 u[8] + 569 u[9] + 838 u[10]
   + 626 u[11] + 335 u[12] + 475 u[13] + 735 u[14] + 531 u[15] + 400 u[16]
   + 175 u[17] + 748 u[18] + 773 u[19] + 880 u[20] + 446 u[21] + 87 u[22]
   + 749 u[23] + 615 u[24] + 303 u[25] + 573 u[26] + 478 u[27] + 272 u[28]
   + 694 u[29] + 652 u[30] + 554 u[31] + 614 u[32] + 484 u[33] + 119 u[34]
   + 560 u[35] + 383 u[36] + 971 u[37] + 351 u[38] + 573 u[39] + 834 u[40]
   + 504 u[41] + 385 u[42] + 748 u[43] + 794 u[44] + 33 u[45] + 228 u[46]
   + 624 u[47] + 610 u[48] + 7 u[49] + 625 u[50] + 327 u[51] + 352 u[52]
   + 563 u[53] + 307 u[54] + 630 u[55] + 532 u[56] + 929 u[57] + 511 u[58]
   + 361 u[59] + 871 u[60] + 377 u[61] + 898 u[62] + 273 u[63] + 518 u[64]
   + 243 u[65] + 239 u[66] + 293 u[67] + 439 u[68] + 848 u[69] + 688 u[70]
   + 700 u[71] + 137 u[72] + 790 u[73] + 810 u[74] + 503 u[75] + 749 u[76]
   + 226 u[77] + 219 u[78] + 137 u[79] <= 971
 primal_lower78: 145 u[0] + 93 u[1] + 163 u[2] + 796 u[3] + 317 u[4]
   + 747 u[5] + 374 u[6] + 845 u[7] + 734 u[8] + 331 u[9] + 837 u[10]
   + 452 u[11] + 677 u[12] + 437 u[13] + 990 u[14] + 238 u[15] + 14 u[16]
   + 401 u[17] + 754 u[18] + 527 u[19] + 206 u[20] + 553 u[21] + 701 u[22]
   + 968 u[23] + 742 u[24] + 729 u[25] + 283 u[26] + 521 u[27] + 407 u[28]
   + 720 u[29] + 843 u[30] + 917 u[31] + 861 u[32] + 574 u[33] + 877 u[34]
   + 650 u[35] + 981 u[36] + 782 u[37] + 533 u[38] + 520 u[39] + 400 u[40]
   + 395 u[41] + 871 u[42] + 807 u[43] + 240 u[44] + 788 u[45] + 699 u[46]
   + 323 u[47] + 120 u[48] + 921 u[49] + 408 u[50] + 97 u[51] + 190 u[52]
   + 269 u[53] + 370 u[54] + 105 u[55] + 506 u[56] + 276 u[57] + 589 u[58]
   + 475 u[59] + 310 u[60] + 324 u[61] + 25 u[62] + 924 u[63] + 517 u[64]
   + 325 u[65] + 550 u[66] + 240 u[67] + 645 u[68] + 883 u[69] + 63 u[70]
   + 855 u[71] + 71 u[72] + 808 u[73] + 881 u[74] + 666 u[75] + 308 u[76]
   + 492 u[77] + 34 u[78] + 532 u[79] <= 990
 primal_lower79: 440 u[0] + 865 u[1] + 699 u[2] + 544 u[3] + 53 u[4]
   + 366 u[5] + 982 u[6] + 112 u[7] + 430 u[8] + 735 u[9] + 996 u[10]
   + 424 u[11] + 941 u[12] + 153 u[13] + 181 u[14] + 121 u[15] + 86 u[16]
   + 189 u[17] + 26 u[18] + 547 u[19] + 358 u[20] + 148 u[21] + 301 u[22]
   + 43 u[23] + 869 u[24] + 101 u[25] + 987 u[26] + 724 u[27] + 214 u[28]
   + 428 u[29] + 458 u[30] + 816 u[31] + 484 u[32] + 506 u[33] + 917 u[34]
   + 62 u[35] + 685 u[36] + 593 u[37] + 805 u[38] + 579 u[39] + 528 u[40]
   + 974 u[41] + 159 u[42] + 378 u[43] + 272 u[44] + 735 u[45] + 626 u[46]
   + 758 u[47] + 8 u[48] + 77 u[49] + 535 u[50] + 677 u[51] + 958 u[52]
   + 697 u[53] + 49 u[54] + 244 u[55] + 154 u[56] + 575 u[57] + 149 u[58]
   + 271 u[59] + 965 u[60] + 559 u[61] + 352 u[62] + 151 u[63] + 948 u[64]
   + 577 u[65] + 877 u[66] + 371 u[67] + 517 u[68] + 630 u[69] + 766 u[70]
   + 746 u[71] + 527 u[72] + 332 u[73] + 832 u[74] + 909 u[75] + 739 u[76]
   + 56 u[77] + 873 u[78] + 743 u[79] <= 996
 primal_lower80: 482 u[0] + 299 u[1] + 125 u[2] + 442 u[3] + 903 u[4]
   + 680 u[5] + 408 u[6] + 522 u[7] + 24 u[8] + 193 u[9] + 198 u[10]
   + 594 u[11] + 975 u[12] + 731 u[13] + 735 u[14] + 715 u[15] + 168 u[16]
   + 335 u[17] + 908 u[18] + 213 u[19] + 424 u[20] + 142 u[21] + 567 u[22]
   + 309 u[23] + 823 u[24] + 743 u[25] + 117 u[26] + 150 u[27] + 312 u[28]
   + 262 u[29] + 612 u[30] + 50 u[31] + 46 u[32] + 948 u[33] + 455 u[34]
   + 800 u[35] + 919 u[36] + 27 u[37] + 239 u[38] + 741 u[39] + 58 u[40]
   + 152 u[41] + 289 u[42] + 284 u[43] + 586 u[44] + 985 u[45] + 916 u[46]
   + 304 u[47] + 178 u[48] + 167 u[49] + 913 u[50] + 95 u[51] + 488 u[52]
   + 859 u[53] + 803 u[54] + 686 u[55] + 628 u[56] + 889 u[57] + 167 u[58]
   + 505 u[59] + 487 u[60] + 177 u[61] + 378 u[62] + 257 u[63] + 502 u[64]
   + 955 u[65] + 751 u[66] + 317 u[67] + 87 u[68] + 896 u[69] + 704 u[70]
   + 124 u[71] + 249 u[72] + 902 u[73] + 362 u[74] + 959 u[75] + 365 u[76]
   + 498 u[77] + 843 u[78] + 81 u[79] <= 985
 primal_lower81: 340 u[0] + 325 u[1] + 503 u[2] + 644 u[3] + 665 u[4]
   + 698 u[5] + 658 u[6] + 980 u[7] + 50 u[8] + 227 u[9] + 952 u[10]
   + 644 u[11] + 521 u[12] + 565 u[13] + 281 u[14] + 133 u[15] + 90 u[16]
   + 113 u[17] + 510 u[18] + 399 u[19] + 282 u[20] + 712 u[21] + 641 u[22]
   + 559 u[23] + 849 u[24] + 9 u[25] + 759 u[26] + 536 u[27] + 58 u[28]
   + 448 u[29] + 814 u[30] + 628 u[31] + 440 u[32] + 494 u[33] + 649 u[34]
   + 154 u[35] + 809 u[36] + 485 u[37] + 297 u[38] + 111 u[39] + 772 u[40]
   + 314 u[41] + 419 u[42] + 446 u[43] + 980 u[44] + 499 u[45] + 638 u[46]
   + 346 u[47] + 420 u[48] + 353 u[49] + 187 u[50] + 465 u[51] + 930 u[52]
   + 77 u[53] + 237 u[54] + 48 u[55] + 606 u[56] + 243 u[57] + 761 u[58]
   + 915 u[59] + 857 u[60] + 99 u[61] + 612 u[62] + 291 u[63] + 480 u[64]
   + 669 u[65] + 393 u[66] + 15 u[67] + 417 u[68] + 290 u[69] + 82 u[70]
   + 390 u[71] + 619 u[72] + 832 u[73] + 412 u[74] + 873 u[75] + 631 u[76]
   + 404 u[77] + 853 u[78] + 891 u[79] <= 980
 primal_lower82: 389 u[0] + 697 u[1] + 911 u[2] + 152 u[3] + 561 u[4]
   + 559 u[5] + 146 u[6] + 937 u[7] + 650 u[8] + 199 u[9] + 497 u[10]
   + 952 u[11] + 665 u[12] + 833 u[13] + 730 u[14] + 306 u[15] + 242 u[16]
   + 717 u[17] + 734 u[18] + 827 u[19] + 922 u[20] + 869 u[21] + 593 u[22]
   + 932 u[23] + 34 u[24] + 157 u[25] + 767 u[26] + 853 u[27] + 947 u[28]
   + 460 u[29] + 575 u[30] + 129 u[31] + 289 u[32] + 274 u[33] + 705 u[34]
   + 958 u[35] + 329 u[36] + 258 u[37] + 977 u[38] + 788 u[39] + 852 u[40]
   + 567 u[41] + 419 u[42] + 235 u[43] + 412 u[44] + 920 u[45] + 983 u[46]
   + 383 u[47] + 948 u[48] + 141 u[49] + 236 u[50] + 501 u[51] + 634 u[52]
   + 385 u[53] + 710 u[54] + 149 u[55] + 54 u[56] + 744 u[57] + 553 u[58]
   + 79 u[59] + 898 u[60] + 960 u[61] + 973 u[62] + 952 u[63] + 33 u[64]
   + 697 u[65] + 66 u[66] + 220 u[67] + 73 u[68] + 935 u[69] + 715 u[70]
   + 515 u[71] + 915 u[72] + 284 u[73] + 805 u[74] + 494 u[75] + 296 u[76]
   + 384 u[77] + 286 u[78] + 232 u[79] <= 983
 primal_lower83: 451 u[0] + 788 u[1] + 534 u[2] + 739 u[3] + 800 u[4]
   + 521 u[5] + 713 u[6] + 779 u[7] + 385 u[8] + 586 u[9] + 199 u[10]
   + 827 u[11] + 952 u[12] + 244 u[13] + 544 u[14] + 820 u[15] + 497 u[16]
   + 200 u[17] + 221 u[18] + 206 u[19] + 857 u[20] + 967 u[21] + 512 u[22]
   + 918 u[23] + 64 u[24] + 488 u[25] + 870 u[26] + 719 u[27] + 457 u[28]
   + 407 u[29] + 501 u[30] + 627 u[31] + 527 u[32] + 565 u[33] + 552 u[34]
   + 457 u[35] + 368 u[36] + 844 u[37] + 920 u[38] + 774 u[39] + 611 u[40]
   + 977 u[41] + 330 u[42] + 701 u[43] + 307 u[44] + 674 u[45] + 741 u[46]
   + 833 u[47] + 155 u[48] + 520 u[49] + 338 u[50] + 112 u[51] + 809 u[52]
   + 772 u[53] + 532 u[54] + 719 u[55] + 293 u[56] + 786 u[57] + 272 u[58]
   + 818 u[59] + 152 u[60] + 698 u[61] + 475 u[62] + 826 u[63] + 711 u[64]
   + 580 u[65] + 496 u[66] + 414 u[67] + 392 u[68] + 65 u[69] + 185 u[70]
   + 901 u[71] + 162 u[72] + 719 u[73] + 987 u[74] + 128 u[75] + 478 u[76]
   + 387 u[77] + 604 u[78] + 186 u[79] <= 987
 primal_lower84: 387 u[0] + 751 u[1] + 125 u[2] + 14 u[3] + 639 u[4]
   + 629 u[5] + 80 u[6] + 631 u[7] + 456 u[8] + 325 u[9] + 543 u[10]
   + 342 u[11] + 911 u[12] + 615 u[13] + 696 u[14] + 512 u[15] + 312 u[16]
   + 827 u[17] + 12 u[18] + 697 u[19] + 320 u[20] + 771 u[21] + 471 u[22]
   + 258 u[23] + 88 u[24] + 435 u[25] + 965 u[26] + 331 u[27] + 601 u[28]
   + 874 u[29] + 541 u[30] + 831 u[31] + 775 u[32] + 48 u[33] + 383 u[34]
   + 692 u[35] + 959 u[36] + 680 u[37] + 391 u[38] + 146 u[39] + 354 u[40]
   + 837 u[41] + 81 u[42] + 417 u[43] + 234 u[44] + 270 u[45] + 541 u[46]
   + 341 u[47] + 146 u[48] + 155 u[49] + 746 u[50] + 843 u[51] + 336 u[52]
   + 511 u[53] + 172 u[54] + 627 u[55] + 436 u[56] + 454 u[57] + 599 u[58]
   + 669 u[59] + 648 u[60] + 374 u[61] + 995 u[62] + 582 u[63] + 767 u[64]
   + 935 u[65] + 312 u[66] + 26 u[67] + 863 u[68] + 621 u[69] + 761 u[70]
   + 265 u[71] + 513 u[72] + 66 u[73] + 115 u[74] + 804 u[75] + 750 u[76]
   + 38 u[77] + 492 u[78] + 462 u[79] <= 995
 primal_lower85: 793 u[0] + 701 u[1] + 75 u[2] + 220 u[3] + 85 u[4]
   + 163 u[5] + 198 u[6] + 405 u[7] + 782 u[8] + 563 u[9] + 909 u[10]
   + 860 u[11] + 605 u[12] + 285 u[13] + 606 u[14] + 422 u[15] + 798 u[16]
   + 489 u[17] + 466 u[18] + 351 u[19] + 350 u[20] + 617 u[21] + 789 u[22]
   + 968 u[23] + 94 u[24] + 777 u[25] + 595 u[26] + 993 u[27] + 215 u[28]
   + 392 u[29] + 531 u[30] + 693 u[31] + 765 u[32] + 606 u[33] + 685 u[34]
   + 26 u[35] + 637 u[36] + 374 u[37] + 21 u[38] + 672 u[39] + 232 u[40]
   + 603 u[41] + 991 u[42] + 527 u[43] + 720 u[44] + 644 u[45] + 187 u[46]
   + 459 u[47] + 856 u[48] + 865 u[49] + 232 u[50] + 753 u[51] + 382 u[52]
   + 821 u[53] + 546 u[54] + 25 u[55] + 922 u[56] + 812 u[57] + 789 u[58]
   + 603 u[59] + 438 u[60] + 644 u[61] + 753 u[62] + 12 u[63] + 893 u[64]
   + 557 u[65] + 350 u[66] + 264 u[67] + 213 u[68] + 83 u[69] + 335 u[70]
   + 631 u[71] + 279 u[72] + 928 u[73] + 633 u[74] + 658 u[75] + 44 u[76]
   + 868 u[77] + 770 u[78] + 132 u[79] <= 993
 primal_lower86: 384 u[0] + 252 u[1] + 714 u[2] + 579 u[3] + 812 u[4]
   + 890 u[5] + 757 u[6] + 500 u[7] + 637 u[8] + 466 u[9] + 228 u[10]
   + 587 u[11] + 524 u[12] + 668 u[13] + 933 u[14] + 453 u[15] + 613 u[16]
   + 288 u[17] + 329 u[18] + 902 u[19] + 341 u[20] + 960 u[21] + 188 u[22]
   + 599 u[23] + 533 u[24] + 952 u[25] + 994 u[26] + 336 u[27] + 846 u[28]
   + 759 u[29] + 434 u[30] + 956 u[31] + 580 u[32] + 565 u[33] + 764 u[34]
   + 41 u[35] + 364 u[36] + 989 u[37] + 612 u[38] + 119 u[39] + 695 u[40]
   + 570 u[41] + 14 u[42] + 318 u[43] + 719 u[44] + 43 u[45] + 578 u[46]
   + 466 u[47] + 663 u[48] + 824 u[49] + 95 u[50] + 856 u[51] + 365 u[52]
   + 548 u[53] + 521 u[54] + 584 u[55] + u[56] + 627 u[57] + 372 u[58]
   + 970 u[59] + 797 u[60] + 683 u[61] + 456 u[62] + 763 u[63] + 812 u[64]
   + 164 u[65] + 933 u[66] + 127 u[67] + 380 u[68] + 986 u[69] + 134 u[70]
   + 822 u[71] + 902 u[72] + 295 u[73] + 760 u[74] + 225 u[75] + 147 u[76]
   + 499 u[77] + 305 u[78] + 603 u[79] <= 994
 primal_lower87: 273 u[0] + 986 u[1] + 468 u[2] + 401 u[3] + 846 u[4]
   + 511 u[5] + 679 u[6] + 217 u[7] + 767 u[8] + 736 u[9] + 189 u[10]
   + 969 u[11] + 710 u[12] + 130 u[13] + 286 u[14] + 178 u[15] + 743 u[16]
   + 342 u[17] + 787 u[18] + 988 u[19] + 639 u[20] + 893 u[21] + 590 u[22]
   + 36 u[23] + 502 u[24] + 150 u[25] + 196 u[26] + 381 u[27] + 447 u[28]
   + 13 u[29] + 155 u[30] + 649 u[31] + 813 u[32] + 779 u[33] + 350 u[34]
   + 855 u[35] + 598 u[36] + 834 u[37] + 366 u[38] + 412 u[39] + 617 u[40]
   + 495 u[41] + 232 u[42] + 435 u[43] + 841 u[44] + 648 u[45] + 403 u[46]
   + 975 u[47] + 433 u[48] + 174 u[49] + 968 u[50] + 878 u[51] + 719 u[52]
   + 370 u[53] + 842 u[54] + 933 u[55] + 555 u[56] + 112 u[57] + 710 u[58]
   + 56 u[59] + 582 u[60] + 312 u[61] + 641 u[62] + 48 u[63] + 629 u[64]
   + 922 u[65] + 510 u[66] + 172 u[67] + 62 u[68] + 671 u[69] + 871 u[70]
   + 691 u[71] + 504 u[72] + 197 u[73] + 937 u[74] + 558 u[75] + 204 u[76]
   + 473 u[77] + 802 u[78] + 776 u[79] <= 988
 primal_lower88: 220 u[0] + 461 u[1] + 775 u[2] + 172 u[3] + 425 u[4]
   + 58 u[5] + 298 u[6] + 788 u[7] + 58 u[8] + 795 u[9] + 32 u[10]
   + 828 u[11] + 489 u[12] + 253 u[13] + 121 u[14] + 373 u[15] + 882 u[16]
   + 593 u[17] + 574 u[18] + 695 u[19] + 138 u[20] + 824 u[21] + 489 u[22]
   + 23 u[23] + 545 u[24] + 49 u[25] + 647 u[26] + 624 u[27] + 298 u[28]
   + 952 u[29] + 454 u[30] + 100 u[31] + 176 u[32] + 686 u[33] + 473 u[34]
   + 186 u[35] + 721 u[36] + 261 u[37] + 137 u[38] + 487 u[39] + 964 u[40]
   + 954 u[41] + 395 u[42] + 830 u[43] + 884 u[44] + 939 u[45] + 798 u[46]
   + 378 u[47] + 220 u[48] + 65 u[49] + 835 u[50] + 665 u[51] + 298 u[52]
   + 205 u[53] + 533 u[54] + 448 u[55] + 590 u[56] + 467 u[57] + 337 u[58]
   + 571 u[59] + 577 u[60] + 379 u[61] + 172 u[62] + 163 u[63] + 472 u[64]
   + 573 u[65] + 17 u[66] + 767 u[67] + 617 u[68] + 162 u[69] + 706 u[70]
   + 742 u[71] + 707 u[72] + 944 u[73] + 676 u[74] + 689 u[75] + 351 u[76]
   + 108 u[77] + 157 u[78] + 371 u[79] <= 964
 primal_lower89: 724 u[0] + 909 u[1] + 151 u[2] + 532 u[3] + 849 u[4]
   + 474 u[5] + 778 u[6] + 724 u[7] + 466 u[8] + 659 u[9] + 128 u[10]
   + 564 u[11] + 625 u[12] + 21 u[13] + 769 u[14] + 181 u[15] + 562 u[16]
   + 545 u[17] + 694 u[18] + 159 u[19] + 770 u[20] + 168 u[21] + 425 u[22]
   + 951 u[23] + 153 u[24] + 833 u[25] + 759 u[26] + 384 u[27] + 522 u[28]
   + 944 u[29] + 14 u[30] + 84 u[31] + 664 u[32] + 478 u[33] + 873 u[34]
   + 618 u[35] + 401 u[36] + 557 u[37] + 817 u[38] + 599 u[39] + 636 u[40]
   + 346 u[41] + 123 u[42] + 854 u[43] + 844 u[44] + 371 u[45] + 174 u[46]
   + 2 u[47] + 348 u[48] + 449 u[49] + 363 u[50] + 337 u[51] + 698 u[52]
   + 429 u[53] + 165 u[54] + 192 u[55] + 14 u[56] + 539 u[57] + 457 u[58]
   + 3 u[59] + 353 u[60] + 619 u[61] + 932 u[62] + 891 u[63] + 344 u[64]
   + 933 u[65] + 233 u[66] + 423 u[67] + 929 u[68] + 42 u[69] + 410 u[70]
   + 470 u[71] + 971 u[72] + 168 u[73] + 404 u[74] + 217 u[75] + 527 u[76]
   + 508 u[77] + 773 u[78] + 155 u[79] <= 971
 primal_lower90: 919 u[0] + 211 u[1] + 681 u[2] + 642 u[3] + 147 u[4]
   + 465 u[5] + 124 u[6] + 179 u[7] + 876 u[8] + 937 u[9] + 323 u[10]
   + 90 u[11] + 683 u[12] + 923 u[13] + 580 u[14] + 156 u[15] + 964 u[16]
   + 375 u[17] + 328 u[18] + 565 u[19] + 540 u[20] + 671 u[21] + 179 u[22]
   + 918 u[23] + 900 u[24] + 991 u[25] + 161 u[26] + 719 u[27] + 925 u[28]
   + 606 u[29] + 105 u[30] + 555 u[31] + 395 u[32] + 548 u[33] + 259 u[34]
   + 816 u[35] + 595 u[36] + 468 u[37] + 611 u[38] + 198 u[39] + 814 u[40]
   + 945 u[41] + 509 u[42] + 925 u[43] + 958 u[44] + 786 u[45] + 129 u[46]
   + 561 u[47] + 814 u[48] + 47 u[49] + 198 u[50] + 703 u[51] + 444 u[52]
   + 859 u[53] + 424 u[54] + 103 u[55] + 760 u[56] + 610 u[57] + 579 u[58]
   + 89 u[59] + 908 u[60] + 402 u[61] + 119 u[62] + 114 u[63] + 667 u[64]
   + 283 u[65] + 404 u[66] + 686 u[67] + 387 u[68] + 505 u[69] + 357 u[70]
   + 965 u[71] + 253 u[72] + 702 u[73] + 863 u[74] + 392 u[75] + 210 u[76]
   + 818 u[77] + 160 u[78] + 282 u[79] <= 991
 primal_lower91: 160 u[0] + 468 u[1] + 314 u[2] + 971 u[3] + 876 u[4]
   + 970 u[5] + 149 u[6] + 756 u[7] + 205 u[8] + 770 u[9] + 612 u[10]
   + 491 u[11] + 484 u[12] + 676 u[13] + 301 u[14] + 725 u[15] + 941 u[16]
   + 296 u[17] + 545 u[18] + 14 u[19] + 221 u[20] + 552 u[21] + 12 u[22]
   + 943 u[23] + 309 u[24] + 912 u[25] + 650 u[26] + 328 u[27] + 294 u[28]
   + 575 u[29] + 930 u[30] + 620 u[31] + 908 u[32] + 549 u[33] + 788 u[34]
   + 49 u[35] + 860 u[36] + 157 u[37] + 668 u[38] + 775 u[39] + 655 u[40]
   + 210 u[41] + 206 u[42] + 142 u[43] + 119 u[44] + 11 u[45] + 386 u[46]
   + 258 u[47] + 607 u[48] + 600 u[49] + 687 u[50] + 168 u[51] + 485 u[52]
   + 580 u[53] + 569 u[54] + 728 u[55] + 617 u[56] + 323 u[57] + 4 u[58]
   + 722 u[59] + 37 u[60] + 427 u[61] + 752 u[62] + 835 u[63] + 956 u[64]
   + 644 u[65] + 301 u[66] + 983 u[67] + 60 u[68] + 722 u[69] + 982 u[70]
   + 398 u[71] + 310 u[72] + 255 u[73] + 176 u[74] + 273 u[75] + 987 u[76]
   + 755 u[77] + 689 u[78] + 803 u[79] <= 987
 primal_lower92: 103 u[0] + 352 u[1] + 946 u[2] + 967 u[3] + 924 u[4]
   + 277 u[5] + 261 u[6] + 295 u[7] + 77 u[8] + 350 u[9] + 483 u[10]
   + 503 u[11] + 340 u[12] + 560 u[13] + 260 u[14] + 32 u[15] + 261 u[16]
   + 484 u[17] + 561 u[18] + 194 u[19] + 181 u[20] + 947 u[21] + 284 u[22]
   + 762 u[23] + 4 u[24] + 812 u[25] + 218 u[26] + 595 u[27] + 717 u[28]
   + 107 u[29] + 529 u[30] + 759 u[31] + 899 u[32] + 817 u[33] + 692 u[34]
   + 389 u[35] + 780 u[36] + 224 u[37] + 580 u[38] + 218 u[39] + 63 u[40]
   + 693 u[41] + 350 u[42] + 57 u[43] + 863 u[44] + 38 u[45] + 753 u[46]
   + 341 u[47] + 71 u[48] + 268 u[49] + 30 u[50] + 84 u[51] + 293 u[52]
   + 856 u[53] + 928 u[54] + 811 u[55] + 177 u[56] + 54 u[57] + 588 u[58]
   + 278 u[59] + 972 u[60] + 54 u[61] + 263 u[62] + 702 u[63] + 27 u[64]
   + 656 u[65] + 436 u[66] + 194 u[67] + 92 u[68] + 669 u[69] + 957 u[70]
   + 121 u[71] + 534 u[72] + 851 u[73] + 663 u[74] + 588 u[75] + 498 u[76]
   + 807 u[77] + 304 u[78] + 766 u[79] <= 972
 primal_lower93: 403 u[0] + 375 u[1] + 229 u[2] + 638 u[3] + 215 u[4]
   + 93 u[5] + 992 u[6] + 439 u[7] + 824 u[8] + 437 u[9] + 599 u[10]
   + 558 u[11] + 815 u[12] + 471 u[13] + 32 u[14] + 16 u[15] + 984 u[16]
   + 739 u[17] + 916 u[18] + 529 u[19] + 160 u[20] + 187 u[21] + 591 u[22]
   + 266 u[23] + 552 u[24] + 123 u[25] + 29 u[26] + 483 u[27] + 961 u[28]
   + 738 u[29] + 941 u[30] + 663 u[31] + 767 u[32] + 760 u[33] + 623 u[34]
   + 420 u[35] + 551 u[36] + 360 u[37] + 439 u[38] + 818 u[39] + 578 u[40]
   + 85 u[41] + 737 u[42] + 993 u[43] + 994 u[44] + 574 u[45] + 717 u[46]
   + 309 u[47] + 74 u[48] + 395 u[49] + 410 u[50] + 931 u[51] + 672 u[52]
   + 647 u[53] + 708 u[54] + 627 u[55] + 780 u[56] + 358 u[57] + 167 u[58]
   + 189 u[59] + 312 u[60] + 110 u[61] + 147 u[62] + 870 u[63] + 79 u[64]
   + 503 u[65] + 776 u[66] + 234 u[67] + 271 u[68] + 605 u[69] + 961 u[70]
   + 993 u[71] + 689 u[72] + 498 u[73] + 339 u[74] + 140 u[75] + 14 u[76]
   + 990 u[77] + 636 u[78] + 718 u[79] <= 994
 primal_lower94: 742 u[0] + 82 u[1] + 544 u[2] + 185 u[3] + 354 u[4]
   + 776 u[5] + 235 u[6] + 594 u[7] + 763 u[8] + 176 u[9] + 842 u[10]
   + 449 u[11] + 666 u[12] + 242 u[13] + 627 u[14] + 291 u[15] + 443 u[16]
   + 926 u[17] + 711 u[18] + 564 u[19] + 867 u[20] + 374 u[21] + 938 u[22]
   + 861 u[23] + 931 u[24] + 870 u[25] + 152 u[26] + 614 u[27] + 764 u[28]
   + 901 u[29] + 232 u[30] + 162 u[31] + 98 u[32] + 667 u[33] + 778 u[34]
   + 911 u[35] + 130 u[36] + 283 u[37] + 266 u[38] + 21 u[39] + 837 u[40]
   + 728 u[41] + 876 u[42] + 892 u[43] + 893 u[44] + 761 u[45] + 120 u[46]
   + 192 u[47] + 429 u[48] + 862 u[49] + 53 u[50] + 654 u[51] + 323 u[52]
   + 610 u[53] + 287 u[54] + 390 u[55] + 223 u[56] + 65 u[57] + 802 u[58]
   + 816 u[59] + 147 u[60] + 689 u[61] + 366 u[62] + 865 u[63] + 898 u[64]
   + 162 u[65] + 571 u[66] + 77 u[67] + 338 u[68] + 456 u[69] + 916 u[70]
   + 916 u[71] + 332 u[72] + 613 u[73] + 54 u[74] + 815 u[75] + 9 u[76]
   + 961 u[77] + 167 u[78] + 113 u[79] <= 961
 primal_lower95: 229 u[0] + 654 u[1] + 336 u[2] + 821 u[3] + 18 u[4]
   + 515 u[5] + 147 u[6] + 445 u[7] + 403 u[8] + 868 u[9] + 89 u[10]
   + 125 u[11] + 114 u[12] + 982 u[13] + 706 u[14] + 302 u[15] + 955 u[16]
   + 578 u[17] + 775 u[18] + 760 u[19] + 715 u[20] + 769 u[21] + 178 u[22]
   + 856 u[23] + 498 u[24] + 50 u[25] + 280 u[26] + 289 u[27] + 435 u[28]
   + 585 u[29] + 823 u[30] + 469 u[31] + 217 u[32] + 423 u[33] + 362 u[34]
   + 275 u[35] + 610 u[36] + 718 u[37] + 194 u[38] + 600 u[39] + 941 u[40]
   + 843 u[41] + 996 u[42] + 87 u[43] + 973 u[44] + 124 u[45] + 271 u[46]
   + 203 u[47] + 45 u[48] + 82 u[49] + 204 u[50] + 314 u[51] + 771 u[52]
   + 638 u[53] + 518 u[54] + 625 u[55] + 119 u[56] + 460 u[57] + 706 u[58]
   + 652 u[59] + 466 u[60] + 788 u[61] + 461 u[62] + 164 u[63] + 329 u[64]
   + 934 u[65] + 50 u[66] + 416 u[67] + 978 u[68] + 699 u[69] + 579 u[70]
   + 63 u[71] + 268 u[72] + 689 u[73] + 197 u[74] + 458 u[75] + 688 u[76]
   + 413 u[77] + 622 u[78] + 652 u[79] <= 996
 primal_lower96: 688 u[0] + 460 u[1] + 610 u[2] + 699 u[3] + 60 u[4]
   + 378 u[5] + 885 u[6] + 940 u[7] + 989 u[8] + 986 u[9] + 12 u[10]
   + 459 u[11] + 484 u[12] + 740 u[13] + 733 u[14] + 245 u[15] + 733 u[16]
   + 512 u[17] + 49 u[18] + 838 u[19] + 933 u[20] + 584 u[21] + 220 u[22]
   + 543 u[23] + 805 u[24] + 192 u[25] + 186 u[26] + 648 u[27] + 942 u[28]
   + 335 u[29] + 530 u[30] + 292 u[31] + 772 u[32] + 133 u[33] + 4 u[34]
   + 593 u[35] + 852 u[36] + 29 u[37] + 580 u[38] + 919 u[39] + 143 u[40]
   + 698 u[41] + 958 u[42] + 534 u[43] + 319 u[44] + 235 u[45] + 330 u[46]
   + 154 u[47] + 679 u[48] + 152 u[49] + 831 u[50] + 888 u[51] + 61 u[52]
   + 140 u[53] + 873 u[54] + 496 u[55] + 977 u[56] + 595 u[57] + 956 u[58]
   + 82 u[59] + 661 u[60] + 779 u[61] + 176 u[62] + 539 u[63] + 876 u[64]
   + 468 u[65] + 213 u[66] + 743 u[67] + 388 u[68] + 386 u[69] + 678 u[70]
   + 702 u[71] + 830 u[72] + 383 u[73] + 144 u[74] + 313 u[75] + 219 u[76]
   + 595 u[77] + 337 u[78] + 467 u[79] <= 989
 primal_lower97: 92 u[0] + 989 u[1] + 999 u[2] + 804 u[3] + 521 u[4]
   + 298 u[5] + 66 u[6] + 620 u[7] + 394 u[8] + 83 u[9] + 416 u[10]
   + 340 u[11] + 225 u[12] + 941 u[13] + 305 u[14] + 429 u[15] + 826 u[16]
   + 825 u[17] + 830 u[18] + 639 u[19] + 778 u[20] + 272 u[21] + 801 u[22]
   + 559 u[23] + 169 u[24] + 425 u[25] + 999 u[26] + 648 u[27] + 66 u[28]
   + 544 u[29] + 214 u[30] + 716 u[31] + 632 u[32] + 398 u[33] + 281 u[34]
   + 858 u[35] + 673 u[36] + 469 u[37] + 689 u[38] + 215 u[39] + 324 u[40]
   + 858 u[41] + 523 u[42] + 446 u[43] + 12 u[44] + 171 u[45] + 342 u[46]
   + 346 u[47] + 196 u[48] + 313 u[49] + 747 u[50] + 169 u[51] + 426 u[52]
   + 901 u[53] + 805 u[54] + 888 u[55] + 270 u[56] + 523 u[57] + 97 u[58]
   + 155 u[59] + 201 u[60] + 971 u[61] + 4 u[62] + 283 u[63] + 520 u[64]
   + 157 u[65] + 137 u[66] + 167 u[67] + 849 u[68] + 834 u[69] + 930 u[70]
   + 982 u[71] + 675 u[72] + 952 u[73] + 556 u[74] + 137 u[75] + 175 u[76]
   + 716 u[77] + 965 u[78] + 931 u[79] <= 999
 primal_lower98: 117 u[0] + 814 u[1] + 816 u[2] + 349 u[3] + 922 u[4]
   + 227 u[5] + 963 u[6] + 589 u[7] + 971 u[8] + 380 u[9] + 865 u[10]
   + 733 u[11] + 402 u[12] + 790 u[13] + 426 u[14] + 718 u[15] + 987 u[16]
   + 546 u[17] + 703 u[18] + 80 u[19] + 243 u[20] + 657 u[21] + 650 u[22]
   + 64 u[23] + 906 u[24] + 210 u[25] + 768 u[26] + 537 u[27] + 363 u[28]
   + 833 u[29] + 119 u[30] + 725 u[31] + 681 u[32] + 239 u[33] + 298 u[34]
   + 147 u[35] + 866 u[36] + 70 u[37] + 586 u[38] + 808 u[39] + 853 u[40]
   + 219 u[41] + 12 u[42] + 519 u[43] + 269 u[44] + 28 u[45] + 543 u[46]
   + 195 u[47] + 909 u[48] + 922 u[49] + 212 u[50] + 242 u[51] + 243 u[52]
   + 6 u[53] + 550 u[54] + u[55] + 911 u[56] + 676 u[57] + 314 u[58]
   + 44 u[59] + 546 u[60] + 492 u[61] + 13 u[62] + 636 u[63] + 465 u[64]
   + 238 u[65] + 474 u[66] + 112 u[67] + 898 u[68] + 171 u[69] + 403 u[70]
   + 927 u[71] + 524 u[72] + 289 u[73] + 181 u[74] + 858 u[75] + 568 u[76]
   + 757 u[77] + 974 u[78] + 260 u[79] <= 987
 primal_lower99: 790 u[0] + 495 u[1] + 849 u[2] + 94 u[3] + 939 u[4]
   + 204 u[5] + 956 u[6] + 934 u[7] + 324 u[8] + 325 u[9] + 442 u[10]
   + 718 u[11] + 611 u[12] + 15 u[13] + 139 u[14] + 95 u[15] + 956 u[16]
   + 387 u[17] + 824 u[18] + 241 u[19] + 564 u[20] + 154 u[21] + 859 u[22]
   + 705 u[23] + 443 u[24] + 235 u[25] + 993 u[26] + 658 u[27] + 260 u[28]
   + 378 u[29] + 792 u[30] + 934 u[31] + 858 u[32] + 664 u[33] + 707 u[34]
   + 948 u[35] + 139 u[36] + 767 u[37] + 747 u[38] + 169 u[39] + 870 u[40]
   + 620 u[41] + 469 u[42] + 600 u[43] + 14 u[44] + 861 u[45] + 336 u[46]
   + 716 u[47] + 702 u[48] + 795 u[49] + 789 u[50] + 835 u[51] + 460 u[52]
   + 735 u[53] + 111 u[54] + 674 u[55] + 736 u[56] + 493 u[57] + 907 u[58]
   + 445 u[59] + 795 u[60] + 277 u[61] + 886 u[62] + 821 u[63] + 530 u[64]
   + 239 u[65] + 483 u[66] + 65 u[67] + 459 u[68] + 108 u[69] + 948 u[70]
   + 632 u[71] + 805 u[72] + 834 u[73] + 510 u[74] + 803 u[75] + 473 u[76]
   + 550 u[77] + 135 u[78] + 581 u[79] <= 993
 interdiction[0]: x[0] + u[0] <= 1
 interdiction[1]: x[1] + u[1] <= 1
 interdiction[2]: x[2] + u[2] <= 1
 interdiction[3]: x[3] + u[3] <= 1
 interdiction[4]: x[4] + u[4] <= 1
 interdiction[5]: x[5] + u[5] <= 1
 interdiction[6]: x[6] + u[6] <= 1
 interdiction[7]: x[7] + u[7] <= 1
 interdiction[8]: x[8] + u[8] <= 1
 interdiction[9]: x[9] + u[9] <= 1
 interdiction[10]: x[10] + u[10] <= 1
 interdiction[11]: x[11] + u[11] <= 1
 interdiction[12]: x[12] + u[12] <= 1
 interdiction[13]: x[13] + u[13] <= 1
 interdiction[14]: x[14] + u[14] <= 1
 interdiction[15]: x[15] + u[15] <= 1
 interdiction[16]: x[16] + u[16] <= 1
 interdiction[17]: x[17] + u[17] <= 1
 interdiction[18]: x[18] + u[18] <= 1
 interdiction[19]: x[19] + u[19] <= 1
 interdiction[20]: x[20] + u[20] <= 1
 interdiction[21]: x[21] + u[21] <= 1
 interdiction[22]: x[22] + u[22] <= 1
 interdiction[23]: x[23] + u[23] <= 1
 interdiction[24]: x[24] + u[24] <= 1
 interdiction[25]: x[25] + u[25] <= 1
 interdiction[26]: x[26] + u[26] <= 1
 interdiction[27]: x[27] + u[27] <= 1
 interdiction[28]: x[28] + u[28] <= 1
 interdiction[29]: x[29] + u[29] <= 1
 interdiction[30]: x[30] + u[30] <= 1
 interdiction[31]: x[31] + u[31] <= 1
 interdiction[32]: x[32] + u[32] <= 1
 interdiction[33]: x[33] + u[33] <= 1
 interdiction[34]: x[34] + u[34] <= 1
 interdiction[35]: x[35] + u[35] <= 1
 interdiction[36]: x[36] + u[36] <= 1
 interdiction[37]: x[37] + u[37] <= 1
 interdiction[38]: x[38] + u[38] <= 1
 interdiction[39]: x[39] + u[39] <= 1
 interdiction[40]: x[40] + u[40] <= 1
 interdiction[41]: x[41] + u[41] <= 1
 interdiction[42]: x[42] + u[42] <= 1
 interdiction[43]: x[43] + u[43] <= 1
 interdiction[44]: x[44] + u[44] <= 1
 interdiction[45]: x[45] + u[45] <= 1
 interdiction[46]: x[46] + u[46] <= 1
 interdiction[47]: x[47] + u[47] <= 1
 interdiction[48]: x[48] + u[48] <= 1
 interdiction[49]: x[49] + u[49] <= 1
 interdiction[50]: x[50] + u[50] <= 1
 interdiction[51]: x[51] + u[51] <= 1
 interdiction[52]: x[52] + u[52] <= 1
 interdiction[53]: x[53] + u[53] <= 1
 interdiction[54]: x[54] + u[54] <= 1
 interdiction[55]: x[55] + u[55] <= 1
 interdiction[56]: x[56] + u[56] <= 1
 interdiction[57]: x[57] + u[57] <= 1
 interdiction[58]: x[58] + u[58] <= 1
 interdiction[59]: x[59] + u[59] <= 1
 interdiction[60]: x[60] + u[60] <= 1
 interdiction[61]: x[61] + u[61] <= 1
 interdiction[62]: x[62] + u[62] <= 1
 interdiction[63]: x[63] + u[63] <= 1
 interdiction[64]: x[64] + u[64] <= 1
 interdiction[65]: x[65] + u[65] <= 1
 interdiction[66]: x[66] + u[66] <= 1
 interdiction[67]: x[67] + u[67] <= 1
 interdiction[68]: x[68] + u[68] <= 1
 interdiction[69]: x[69] + u[69] <= 1
 interdiction[70]: x[70] + u[70] <= 1
 interdiction[71]: x[71] + u[71] <= 1
 interdiction[72]: x[72] + u[72] <= 1
 interdiction[73]: x[73] + u[73] <= 1
 interdiction[74]: x[74] + u[74] <= 1
 interdiction[75]: x[75] + u[75] <= 1
 interdiction[76]: x[76] + u[76] <= 1
 interdiction[77]: x[77] + u[77] <= 1
 interdiction[78]: x[78] + u[78] <= 1
 interdiction[79]: x[79] + u[79] <= 1
 mccormick1[0]: - u[0] + z[0] <= 0
 mccormick1[1]: - u[1] + z[1] <= 0
 mccormick1[2]: - u[2] + z[2] <= 0
 mccormick1[3]: - u[3] + z[3] <= 0
 mccormick1[4]: - u[4] + z[4] <= 0
 mccormick1[5]: - u[5] + z[5] <= 0
 mccormick1[6]: - u[6] + z[6] <= 0
 mccormick1[7]: - u[7] + z[7] <= 0
 mccormick1[8]: - u[8] + z[8] <= 0
 mccormick1[9]: - u[9] + z[9] <= 0
 mccormick1[10]: - u[10] + z[10] <= 0
 mccormick1[11]: - u[11] + z[11] <= 0
 mccormick1[12]: - u[12] + z[12] <= 0
 mccormick1[13]: - u[13] + z[13] <= 0
 mccormick1[14]: - u[14] + z[14] <= 0
 mccormick1[15]: - u[15] + z[15] <= 0
 mccormick1[16]: - u[16] + z[16] <= 0
 mccormick1[17]: - u[17] + z[17] <= 0
 mccormick1[18]: - u[18] + z[18] <= 0
 mccormick1[19]: - u[19] + z[19] <= 0
 mccormick1[20]: - u[20] + z[20] <= 0
 mccormick1[21]: - u[21] + z[21] <= 0
 mccormick1[22]: - u[22] + z[22] <= 0
 mccormick1[23]: - u[23] + z[23] <= 0
 mccormick1[24]: - u[24] + z[24] <= 0
 mccormick1[25]: - u[25] + z[25] <= 0
 mccormick1[26]: - u[26] + z[26] <= 0
 mccormick1[27]: - u[27] + z[27] <= 0
 mccormick1[28]: - u[28] + z[28] <= 0
 mccormick1[29]: - u[29] + z[29] <= 0
 mccormick1[30]: - u[30] + z[30] <= 0
 mccormick1[31]: - u[31] + z[31] <= 0
 mccormick1[32]: - u[32] + z[32] <= 0
 mccormick1[33]: - u[33] + z[33] <= 0
 mccormick1[34]: - u[34] + z[34] <= 0
 mccormick1[35]: - u[35] + z[35] <= 0
 mccormick1[36]: - u[36] + z[36] <= 0
 mccormick1[37]: - u[37] + z[37] <= 0
 mccormick1[38]: - u[38] + z[38] <= 0
 mccormick1[39]: - u[39] + z[39] <= 0
 mccormick1[40]: - u[40] + z[40] <= 0
 mccormick1[41]: - u[41] + z[41] <= 0
 mccormick1[42]: - u[42] + z[42] <= 0
 mccormick1[43]: - u[43] + z[43] <= 0
 mccormick1[44]: - u[44] + z[44] <= 0
 mccormick1[45]: - u[45] + z[45] <= 0
 mccormick1[46]: - u[46] + z[46] <= 0
 mccormick1[47]: - u[47] + z[47] <= 0
 mccormick1[48]: - u[48] + z[48] <= 0
 mccormick1[49]: - u[49] + z[49] <= 0
 mccormick1[50]: - u[50] + z[50] <= 0
 mccormick1[51]: - u[51] + z[51] <= 0
 mccormick1[52]: - u[52] + z[52] <= 0
 mccormick1[53]: - u[53] + z[53] <= 0
 mccormick1[54]: - u[54] + z[54] <= 0
 mccormick1[55]: - u[55] + z[55] <= 0
 mccormick1[56]: - u[56] + z[56] <= 0
 mccormick1[57]: - u[57] + z[57] <= 0
 mccormick1[58]: - u[58] + z[58] <= 0
 mccormick1[59]: - u[59] + z[59] <= 0
 mccormick1[60]: - u[60] + z[60] <= 0
 mccormick1[61]: - u[61] + z[61] <= 0
 mccormick1[62]: - u[62] + z[62] <= 0
 mccormick1[63]: - u[63] + z[63] <= 0
 mccormick1[64]: - u[64] + z[64] <= 0
 mccormick1[65]: - u[65] + z[65] <= 0
 mccormick1[66]: - u[66] + z[66] <= 0
 mccormick1[67]: - u[67] + z[67] <= 0
 mccormick1[68]: - u[68] + z[68] <= 0
 mccormick1[69]: - u[69] + z[69] <= 0
 mccormick1[70]: - u[70] + z[70] <= 0
 mccormick1[71]: - u[71] + z[71] <= 0
 mccormick1[72]: - u[72] + z[72] <= 0
 mccormick1[73]: - u[73] + z[73] <= 0
 mccormick1[74]: - u[74] + z[74] <= 0
 mccormick1[75]: - u[75] + z[75] <= 0
 mccormick1[76]: - u[76] + z[76] <= 0
 mccormick1[77]: - u[77] + z[77] <= 0
 mccormick1[78]: - u[78] + z[78] <= 0
 mccormick1[79]: - u[79] + z[79] <= 0
 mccormick2[0]: - y[0] + z[0] <= 0
 mccormick2[1]: - y[1] + z[1] <= 0
 mccormick2[2]: - y[2] + z[2] <= 0
 mccormick2[3]: - y[3] + z[3] <= 0
 mccormick2[4]: - y[4] + z[4] <= 0
 mccormick2[5]: - y[5] + z[5] <= 0
 mccormick2[6]: - y[6] + z[6] <= 0
 mccormick2[7]: - y[7] + z[7] <= 0
 mccormick2[8]: - y[8] + z[8] <= 0
 mccormick2[9]: - y[9] + z[9] <= 0
 mccormick2[10]: - y[10] + z[10] <= 0
 mccormick2[11]: - y[11] + z[11] <= 0
 mccormick2[12]: - y[12] + z[12] <= 0
 mccormick2[13]: - y[13] + z[13] <= 0
 mccormick2[14]: - y[14] + z[14] <= 0
 mccormick2[15]: - y[15] + z[15] <= 0
 mccormick2[16]: - y[16] + z[16] <= 0
 mccormick2[17]: - y[17] + z[17] <= 0
 mccormick2[18]: - y[18] + z[18] <= 0
 mccormick2[19]: - y[19] + z[19] <= 0
 mccormick2[20]: - y[20] + z[20] <= 0
 mccormick2[21]: - y[21] + z[21] <= 0
 mccormick2[22]: - y[22] + z[22] <= 0
 mccormick2[23]: - y[23] + z[23] <= 0
 mccormick2[24]: - y[24] + z[24] <= 0
 mccormick2[25]: - y[25] + z[25] <= 0
 mccormick2[26]: - y[26] + z[26] <= 0
 mccormick2[27]: - y[27] + z[27] <= 0
 mccormick2[28]: - y[28] + z[28] <= 0
 mccormick2[29]: - y[29] + z[29] <= 0
 mccormick2[30]: - y[30] + z[30] <= 0
 mccormick2[31]: - y[31] + z[31] <= 0
 mccormick2[32]: - y[32] + z[32] <= 0
 mccormick2[33]: - y[33] + z[33] <= 0
 mccormick2[34]: - y[34] + z[34] <= 0
 mccormick2[35]: - y[35] + z[35] <= 0
 mccormick2[36]: - y[36] + z[36] <= 0
 mccormick2[37]: - y[37] + z[37] <= 0
 mccormick2[38]: - y[38] + z[38] <= 0
 mccormick2[39]: - y[39] + z[39] <= 0
 mccormick2[40]: - y[40] + z[40] <= 0
 mccormick2[41]: - y[41] + z[41] <= 0
 mccormick2[42]: - y[42] + z[42] <= 0
 mccormick2[43]: - y[43] + z[43] <= 0
 mccormick2[44]: - y[44] + z[44] <= 0
 mccormick2[45]: - y[45] + z[45] <= 0
 mccormick2[46]: - y[46] + z[46] <= 0
 mccormick2[47]: - y[47] + z[47] <= 0
 mccormick2[48]: - y[48] + z[48] <= 0
 mccormick2[49]: - y[49] + z[49] <= 0
 mccormick2[50]: - y[50] + z[50] <= 0
 mccormick2[51]: - y[51] + z[51] <= 0
 mccormick2[52]: - y[52] + z[52] <= 0
 mccormick2[53]: - y[53] + z[53] <= 0
 mccormick2[54]: - y[54] + z[54] <= 0
 mccormick2[55]: - y[55] + z[55] <= 0
 mccormick2[56]: - y[56] + z[56] <= 0
 mccormick2[57]: - y[57] + z[57] <= 0
 mccormick2[58]: - y[58] + z[58] <= 0
 mccormick2[59]: - y[59] + z[59] <= 0
 mccormick2[60]: - y[60] + z[60] <= 0
 mccormick2[61]: - y[61] + z[61] <= 0
 mccormick2[62]: - y[62] + z[62] <= 0
 mccormick2[63]: - y[63] + z[63] <= 0
 mccormick2[64]: - y[64] + z[64] <= 0
 mccormick2[65]: - y[65] + z[65] <= 0
 mccormick2[66]: - y[66] + z[66] <= 0
 mccormick2[67]: - y[67] + z[67] <= 0
 mccormick2[68]: - y[68] + z[68] <= 0
 mccormick2[69]: - y[69] + z[69] <= 0
 mccormick2[70]: - y[70] + z[70] <= 0
 mccormick2[71]: - y[71] + z[71] <= 0
 mccormick2[72]: - y[72] + z[72] <= 0
 mccormick2[73]: - y[73] + z[73] <= 0
 mccormick2[74]: - y[74] + z[74] <= 0
 mccormick2[75]: - y[75] + z[75] <= 0
 mccormick2[76]: - y[76] + z[76] <= 0
 mccormick2[77]: - y[77] + z[77] <= 0
 mccormick2[78]: - y[78] + z[78] <= 0
 mccormick2[79]: - y[79] + z[79] <= 0
 mccormick3[0]: y[0] + u[0] - z[0] <= 1
 mccormick3[1]: y[1] + u[1] - z[1] <= 1
 mccormick3[2]: y[2] + u[2] - z[2] <= 1
 mccormick3[3]: y[3] + u[3] - z[3] <= 1
 mccormick3[4]: y[4] + u[4] - z[4] <= 1
 mccormick3[5]: y[5] + u[5] - z[5] <= 1
 mccormick3[6]: y[6] + u[6] - z[6] <= 1
 mccormick3[7]: y[7] + u[7] - z[7] <= 1
 mccormick3[8]: y[8] + u[8] - z[8] <= 1
 mccormick3[9]: y[9] + u[9] - z[9] <= 1
 mccormick3[10]: y[10] + u[10] - z[10] <= 1
 mccormick3[11]: y[11] + u[11] - z[11] <= 1
 mccormick3[12]: y[12] + u[12] - z[12] <= 1
 mccormick3[13]: y[13] + u[13] - z[13] <= 1
 mccormick3[14]: y[14] + u[14] - z[14] <= 1
 mccormick3[15]: y[15] + u[15] - z[15] <= 1
 mccormick3[16]: y[16] + u[16] - z[16] <= 1
 mccormick3[17]: y[17] + u[17] - z[17] <= 1
 mccormick3[18]: y[18] + u[18] - z[18] <= 1
 mccormick3[19]: y[19] + u[19] - z[19] <= 1
 mccormick3[20]: y[20] + u[20] - z[20] <= 1
 mccormick3[21]: y[21] + u[21] - z[21] <= 1
 mccormick3[22]: y[22] + u[22] - z[22] <= 1
 mccormick3[23]: y[23] + u[23] - z[23] <= 1
 mccormick3[24]: y[24] + u[24] - z[24] <= 1
 mccormick3[25]: y[25] + u[25] - z[25] <= 1
 mccormick3[26]: y[26] + u[26] - z[26] <= 1
 mccormick3[27]: y[27] + u[27] - z[27] <= 1
 mccormick3[28]: y[28] + u[28] - z[28] <= 1
 mccormick3[29]: y[29] + u[29] - z[29] <= 1
 mccormick3[30]: y[30] + u[30] - z[30] <= 1
 mccormick3[31]: y[31] + u[31] - z[31] <= 1
 mccormick3[32]: y[32] + u[32] - z[32] <= 1
 mccormick3[33]: y[33] + u[33] - z[33] <= 1
 mccormick3[34]: y[34] + u[34] - z[34] <= 1
 mccormick3[35]: y[35] + u[35] - z[35] <= 1
 mccormick3[36]: y[36] + u[36] - z[36] <= 1
 mccormick3[37]: y[37] + u[37] - z[37] <= 1
 mccormick3[38]: y[38] + u[38] - z[38] <= 1
 mccormick3[39]: y[39] + u[39] - z[39] <= 1
 mccormick3[40]: y[40] + u[40] - z[40] <= 1
 mccormick3[41]: y[41] + u[41] - z[41] <= 1
 mccormick3[42]: y[42] + u[42] - z[42] <= 1
 mccormick3[43]: y[43] + u[43] - z[43] <= 1
 mccormick3[44]: y[44] + u[44] - z[44] <= 1
 mccormick3[45]: y[45] + u[45] - z[45] <= 1
 mccormick3[46]: y[46] + u[46] - z[46] <= 1
 mccormick3[47]: y[47] + u[47] - z[47] <= 1
 mccormick3[48]: y[48] + u[48] - z[48] <= 1
 mccormick3[49]: y[49] + u[49] - z[49] <= 1
 mccormick3[50]: y[50] + u[50] - z[50] <= 1
 mccormick3[51]: y[51] + u[51] - z[51] <= 1
 mccormick3[52]: y[52] + u[52] - z[52] <= 1
 mccormick3[53]: y[53] + u[53] - z[53] <= 1
 mccormick3[54]: y[54] + u[54] - z[54] <= 1
 mccormick3[55]: y[55] + u[55] - z[55] <= 1
 mccormick3[56]: y[56] + u[56] - z[56] <= 1
 mccormick3[57]: y[57] + u[57] - z[57] <= 1
 mccormick3[58]: y[58] + u[58] - z[58] <= 1
 mccormick3[59]: y[59] + u[59] - z[59] <= 1
 mccormick3[60]: y[60] + u[60] - z[60] <= 1
 mccormick3[61]: y[61] + u[61] - z[61] <= 1
 mccormick3[62]: y[62] + u[62] - z[62] <= 1
 mccormick3[63]: y[63] + u[63] - z[63] <= 1
 mccormick3[64]: y[64] + u[64] - z[64] <= 1
 mccormick3[65]: y[65] + u[65] - z[65] <= 1
 mccormick3[66]: y[66] + u[66] - z[66] <= 1
 mccormick3[67]: y[67] + u[67] - z[67] <= 1
 mccormick3[68]: y[68] + u[68] - z[68] <= 1
 mccormick3[69]: y[69] + u[69] - z[69] <= 1
 mccormick3[70]: y[70] + u[70] - z[70] <= 1
 mccormick3[71]: y[71] + u[71] - z[71] <= 1
 mccormick3[72]: y[72] + u[72] - z[72] <= 1
 mccormick3[73]: y[73] + u[73] - z[73] <= 1
 mccormick3[74]: y[74] + u[74] - z[74] <= 1
 mccormick3[75]: y[75] + u[75] - z[75] <= 1
 mccormick3[76]: y[76] + u[76] - z[76] <= 1
 mccormick3[77]: y[77] + u[77] - z[77] <= 1
 mccormick3[78]: y[78] + u[78] - z[78] <= 1
 mccormick3[79]: y[79] + u[79] - z[79] <= 1
Bounds
Binaries
 x[0] x[1] x[2] x[3] x[4] x[5] x[6] x[7] x[8] x[9] x[10] x[11] x[12] x[13]
 x[14] x[15] x[16] x[17] x[18] x[19] x[20] x[21] x[22] x[23] x[24] x[25]
 x[26] x[27] x[28] x[29] x[30] x[31] x[32] x[33] x[34] x[35] x[36] x[37]
 x[38] x[39] x[40] x[41] x[42] x[43] x[44] x[45] x[46] x[47] x[48] x[49]
 x[50] x[51] x[52] x[53] x[54] x[55] x[56] x[57] x[58] x[59] x[60] x[61]
 x[62] x[63] x[64] x[65] x[66] x[67] x[68] x[69] x[70] x[71] x[72] x[73]
 x[74] x[75] x[76] x[77] x[78] x[79] y[0] y[1] y[2] y[3] y[4] y[5] y[6]
 y[7] y[8] y[9] y[10] y[11] y[12] y[13] y[14] y[15] y[16] y[17] y[18] y[19]
 y[20] y[21] y[22] y[23] y[24] y[25] y[26] y[27] y[28] y[29] y[30] y[31]
 y[32] y[33] y[34] y[35] y[36] y[37] y[38] y[39] y[40] y[41] y[42] y[43]
 y[44] y[45] y[46] y[47] y[48] y[49] y[50] y[51] y[52] y[53] y[54] y[55]
 y[56] y[57] y[58] y[59] y[60] y[61] y[62] y[63] y[64] y[65] y[66] y[67]
 y[68] y[69] y[70] y[71] y[72] y[73] y[74] y[75] y[76] y[77] y[78] y[79]
 u[0] u[1] u[2] u[3] u[4] u[5] u[6] u[7] u[8] u[9] u[10] u[11] u[12] u[13]
 u[14] u[15] u[16] u[17] u[18] u[19] u[20] u[21] u[22] u[23] u[24] u[25]
 u[26] u[27] u[28] u[29] u[30] u[31] u[32] u[33] u[34] u[35] u[36] u[37]
 u[38] u[39] u[40] u[41] u[42] u[43] u[44] u[45] u[46] u[47] u[48] u[49]
 u[50] u[51] u[52] u[53] u[54] u[55] u[56] u[57] u[58] u[59] u[60] u[61]
 u[62] u[63] u[64] u[65] u[66] u[67] u[68] u[69] u[70] u[71] u[72] u[73]
 u[74] u[75] u[76] u[77] u[78] u[79] z[0] z[1] z[2] z[3] z[4] z[5] z[6]
 z[7] z[8] z[9] z[10] z[11] z[12] z[13] z[14] z[15] z[16] z[17] z[18] z[19]
 z[20] z[21] z[22] z[23] z[24] z[25] z[26] z[27] z[28] z[29] z[30] z[31]
 z[32] z[33] z[34] z[35] z[36] z[37] z[38] z[39] z[40] z[41] z[42] z[43]
 z[44] z[45] z[46] z[47] z[48] z[49] z[50] z[51] z[52] z[53] z[54] z[55]
 z[56] z[57] z[58] z[59] z[60] z[61] z[62] z[63] z[64] z[65] z[66] z[67]
 z[68] z[69] z[70] z[71] z[72] z[73] z[74] z[75] z[76] z[77] z[78] z[79]
End
